 Entering Gaussian System
 *********************************************
 Gaussian 98:
 frequency output generated by the xtb code
 *********************************************
                         Standard orientation:
 --------------------------------------------------------------------
  Center     Atomic     Atomic              Coordinates (Angstroms)
  Number     Number      Type              X           Y           Z
 --------------------------------------------------------------------
    1          6             0       -1.166096   -0.537356   -1.558690
    2          6             0       -0.269396   -0.568686   -0.349892
    3          7             0        0.936815   -0.931560   -0.331875
    4          6             0        1.678760   -1.409007   -1.392858
    5          6             0        2.715363   -0.631855   -1.914206
    6          6             0        3.539411   -1.141320   -2.897967
    7          6             0        3.359397   -2.433158   -3.367156
    8          6             0        2.341397   -3.213698   -2.844460
    9          6             0        1.502509   -2.709909   -1.869175
   10          6             0       -0.908227   -0.154635    0.924601
   11          6             0       -1.380078   -1.110068    1.788830
   12          6             0       -2.037638   -0.745893    2.972900
   13          6             0       -2.218069    0.572255    3.284078
   14          6             0       -1.732585    1.585378    2.430405
   15          6             0       -1.890261    2.954297    2.735792
   16          6             0       -1.397868    3.919820    1.903368
   17          6             0       -0.717353    3.559932    0.729527
   18          6             0       -0.551718    2.242952    0.402071
   19          6             0       -1.060600    1.221555    1.233281
   20          1             0       -1.749386    0.381093   -1.575042
   21          1             0       -0.586047   -0.628479   -2.475614
   22          1             0       -1.864319   -1.372835   -1.498987
   23          1             0        2.854796    0.373505   -1.543094
   24          1             0        4.331684   -0.525821   -3.300517
   25          1             0        4.010047   -2.829320   -4.132984
   26          1             0        2.194688   -4.222872   -3.203436
   27          1             0        0.710251   -3.319408   -1.457135
   28          1             0       -1.248210   -2.156545    1.553255
   29          1             0       -2.401616   -1.520106    3.632670
   30          1             0       -2.730064    0.859043    4.191735
   31          1             0       -2.406406    3.224829    3.646333
   32          1             0       -1.522779    4.965585    2.144947
   33          1             0       -0.322118    4.333770    0.087071
   34          1             0       -0.014293    1.968514   -0.494381
 --------------------------------------------------------------------
     1 basis functions        1 primitive gaussians
     1 alpha electrons        1 beta electrons

 Harmonic frequencies (cm**-1), IR intensities (km*mol⁻¹),
 Raman scattering activities (A**4/amu), Raman depolarization ratios,
 reduced masses (AMU), force constants (mDyne/A) and normal coordinates:
                      1                      2                      3
                        a                      a                      a 
 Frequencies --    11.0338                27.3816                46.9717
 Red. masses --    10.1646                 9.9993                10.6659
 Frc consts  --     0.0000                 0.0000                 0.0000
 IR Inten    --     0.1456                 0.8525                 0.1608
 Raman Activ --     0.0000                 0.0000                 0.0000
 Depolar     --     0.0000                 0.0000                 0.0000
 Atom AN      X      Y      Z        X      Y      Z        X      Y      Z
   1   6     0.12   0.25  -0.02    -0.19  -0.35   0.08     0.20   0.04   0.15
   2   6     0.09   0.10  -0.01    -0.10  -0.13   0.02     0.16  -0.08   0.19
   3   7     0.07  -0.01  -0.01    -0.04   0.09  -0.01     0.14  -0.19   0.21
   4   6     0.03  -0.04  -0.01    -0.01   0.09  -0.00     0.07  -0.09   0.10
   5   6     0.22  -0.19   0.14     0.17   0.01   0.24     0.00  -0.02   0.08
   6   6     0.18  -0.24   0.14     0.20   0.04   0.25    -0.12   0.11  -0.09
   7   6    -0.04  -0.15  -0.02     0.05   0.14   0.03    -0.18   0.18  -0.25
   8   6    -0.23  -0.01  -0.18    -0.13   0.21  -0.20    -0.11   0.10  -0.22
   9   6    -0.20   0.05  -0.18    -0.16   0.19  -0.22     0.02  -0.03  -0.04
  10   6     0.11   0.06   0.01    -0.08  -0.08   0.02     0.11  -0.06   0.15
  11   6     0.23   0.02   0.04    -0.09  -0.03   0.07     0.02  -0.01   0.15
  12   6     0.22  -0.03   0.04    -0.02   0.05   0.09    -0.14   0.06   0.04
  13   6     0.07  -0.05   0.03     0.06   0.07   0.06    -0.22   0.08  -0.08
  14   6    -0.04  -0.01   0.01     0.07   0.01  -0.01    -0.11   0.03  -0.07
  15   6    -0.18  -0.02   0.00     0.14   0.03  -0.05    -0.18   0.05  -0.19
  16   6    -0.27   0.02  -0.00     0.13  -0.02  -0.12    -0.06  -0.00  -0.18
  17   6    -0.24   0.08   0.00     0.05  -0.10  -0.15     0.14  -0.07  -0.04
  18   6    -0.11   0.10   0.01    -0.02  -0.12  -0.10     0.20  -0.09   0.07
  19   6    -0.02   0.05   0.00    -0.01  -0.06  -0.02     0.07  -0.04   0.05
  20   1     0.03   0.07   0.02    -0.05  -0.10  -0.01     0.06   0.01   0.07
  21   1     0.04   0.10  -0.01    -0.08  -0.15   0.02     0.07   0.04   0.05
  22   1     0.04   0.07  -0.04    -0.06  -0.10   0.08     0.06   0.01   0.01
  23   1     0.12  -0.08   0.08     0.08  -0.02   0.12     0.01  -0.02   0.06
  24   1     0.10  -0.10   0.08     0.10  -0.01   0.13    -0.05   0.05  -0.03
  25   1    -0.02  -0.06  -0.00     0.02   0.04   0.01    -0.08   0.08  -0.12
  26   1    -0.12   0.02  -0.09    -0.07   0.08  -0.11    -0.04   0.04  -0.10
  27   1    -0.10   0.05  -0.09    -0.08   0.07  -0.11     0.02  -0.03  -0.01
  28   1     0.10   0.01   0.01    -0.04  -0.01   0.03     0.01  -0.01   0.07
  29   1     0.09  -0.02   0.02    -0.01   0.03   0.04    -0.06   0.03   0.01
  30   1     0.02  -0.03   0.01     0.04   0.04   0.02    -0.10   0.04  -0.05
  31   1    -0.06  -0.02   0.00     0.06   0.03  -0.01    -0.10   0.03  -0.08
  32   1    -0.11   0.00  -0.00     0.06  -0.00  -0.05    -0.03   0.00  -0.08
  33   1    -0.09   0.03  -0.00     0.01  -0.04  -0.06     0.07  -0.03  -0.01
  34   1    -0.02   0.04   0.00    -0.03  -0.05  -0.04     0.10  -0.04   0.05
                      4                      5                      6
                        a                      a                      a 
 Frequencies --    54.9760                98.9236               129.9673
 Red. masses --    10.5114                 9.7150                 5.3317
 Frc consts  --     0.0000                 0.0000                 0.0000
 IR Inten    --     1.3463                 1.9662                 0.3127
 Raman Activ --     0.0000                 0.0000                 0.0000
 Depolar     --     0.0000                 0.0000                 0.0000
 Atom AN      X      Y      Z        X      Y      Z        X      Y      Z
   1   6     0.02   0.35  -0.13     0.32  -0.09  -0.17     0.01  -0.21  -0.02
   2   6    -0.12  -0.03  -0.03     0.09  -0.00  -0.00     0.02  -0.05  -0.03
   3   7    -0.23  -0.38   0.04     0.11   0.03   0.23    -0.01  -0.17   0.05
   4   6    -0.13  -0.20   0.03     0.12   0.00   0.22     0.02  -0.19   0.08
   5   6    -0.19  -0.03   0.17     0.09  -0.01   0.15    -0.01  -0.10   0.13
   6   6    -0.05   0.17   0.18    -0.10   0.02  -0.03    -0.04   0.05   0.03
   7   6     0.13   0.19   0.05    -0.25   0.08  -0.11    -0.02   0.10  -0.12
   8   6     0.18   0.03  -0.10    -0.17   0.06   0.03     0.06  -0.01  -0.12
   9   6     0.05  -0.17  -0.10     0.02   0.03   0.21     0.09  -0.16  -0.01
  10   6    -0.08  -0.04  -0.01    -0.09   0.00  -0.10     0.02   0.10  -0.07
  11   6     0.01  -0.01   0.07    -0.12  -0.01  -0.13     0.01   0.08  -0.09
  12   6     0.12   0.03   0.12    -0.06  -0.03  -0.10     0.03   0.02  -0.07
  13   6     0.15   0.05   0.09     0.10  -0.03   0.01     0.04   0.01  -0.02
  14   6     0.07   0.02   0.01     0.08  -0.02   0.01     0.02   0.04  -0.00
  15   6     0.12   0.03  -0.02     0.23  -0.03   0.12    -0.00   0.02   0.08
  16   6     0.05   0.00  -0.08     0.11  -0.01   0.06    -0.07   0.08   0.12
  17   6    -0.04  -0.04  -0.13    -0.17   0.01  -0.11    -0.10   0.15   0.08
  18   6    -0.08  -0.05  -0.10    -0.24   0.01  -0.16    -0.05   0.17   0.01
  19   6    -0.04  -0.02  -0.04    -0.08  -0.00  -0.09     0.01   0.10  -0.04
  20   1    -0.01   0.09   0.03    -0.01  -0.09  -0.03     0.30   0.12  -0.24
  21   1     0.04   0.20  -0.02     0.15   0.09  -0.02    -0.04  -0.49   0.01
  22   1     0.02   0.08  -0.14     0.18  -0.11  -0.14    -0.27   0.18   0.24
  23   1    -0.09  -0.01   0.08     0.05  -0.01   0.06    -0.01  -0.04   0.07
  24   1    -0.03   0.09   0.09    -0.04   0.01  -0.03    -0.03   0.04   0.02
  25   1     0.07   0.10   0.02    -0.12   0.03  -0.08    -0.02   0.06  -0.06
  26   1     0.09   0.01  -0.06    -0.08   0.03  -0.00     0.03   0.01  -0.06
  27   1     0.02  -0.09  -0.07     0.02   0.01   0.09     0.04  -0.07  -0.01
  28   1    -0.00  -0.00   0.03    -0.04  -0.00  -0.05     0.00   0.03  -0.04
  29   1     0.05   0.02   0.05    -0.03  -0.01  -0.04     0.01  -0.00  -0.03
  30   1     0.07   0.02   0.04     0.06  -0.01   0.02     0.02  -0.00  -0.00
  31   1     0.06   0.02   0.01     0.12  -0.01   0.07     0.01  -0.02   0.03
  32   1     0.03   0.00  -0.03     0.06  -0.01   0.04    -0.03   0.02   0.05
  33   1    -0.02  -0.02  -0.05    -0.09   0.01  -0.05    -0.04   0.06   0.03
  34   1    -0.04  -0.02  -0.04    -0.12   0.01  -0.08    -0.01   0.07  -0.00
                      7                      8                      9
                        a                      a                      a 
 Frequencies --   144.6389               150.4455               167.0413
 Red. masses --     7.7327                10.0241                 9.1580
 Frc consts  --     0.0000                 0.0000                 0.0000
 IR Inten    --     0.3246                 0.9872                 0.9361
 Raman Activ --     0.0000                 0.0000                 0.0000
 Depolar     --     0.0000                 0.0000                 0.0000
 Atom AN      X      Y      Z        X      Y      Z        X      Y      Z
   1   6     0.08   0.28  -0.13     0.01  -0.14  -0.15    -0.03  -0.22  -0.15
   2   6    -0.05   0.04  -0.04    -0.08  -0.01  -0.09    -0.08  -0.01  -0.10
   3   7    -0.03   0.16   0.05    -0.07   0.03   0.03    -0.09  -0.00   0.01
   4   6     0.01   0.17   0.08    -0.03   0.00   0.08    -0.04  -0.05   0.07
   5   6     0.01   0.11   0.02    -0.03   0.02   0.10    -0.04  -0.02   0.12
   6   6    -0.05   0.02   0.01    -0.06   0.04   0.06    -0.06   0.04   0.08
   7   6    -0.13  -0.00   0.09    -0.09   0.06   0.03    -0.08   0.07   0.01
   8   6    -0.14   0.06   0.17    -0.06   0.03   0.05    -0.03   0.02   0.02
   9   6    -0.07   0.15   0.17    -0.03   0.01   0.09    -0.02  -0.05   0.06
  10   6    -0.09  -0.11  -0.03    -0.09   0.02  -0.12    -0.04   0.06  -0.11
  11   6    -0.07  -0.11  -0.02     0.33   0.00   0.09    -0.16   0.03  -0.21
  12   6     0.11  -0.08   0.07     0.34  -0.03   0.10     0.14  -0.02  -0.04
  13   6     0.15  -0.07   0.07    -0.08  -0.03  -0.11     0.29  -0.03   0.09
  14   6     0.05  -0.08  -0.01    -0.26  -0.01  -0.19     0.14   0.00   0.04
  15   6    -0.02  -0.06  -0.13    -0.17  -0.02  -0.10    -0.19  -0.01  -0.09
  16   6    -0.04  -0.11  -0.20     0.22  -0.01   0.14    -0.30   0.03  -0.10
  17   6     0.10  -0.16  -0.11     0.30   0.02   0.18     0.10   0.08   0.11
  18   6     0.13  -0.18  -0.01    -0.04   0.03  -0.05     0.33   0.09   0.18
  19   6     0.02  -0.11  -0.00    -0.23   0.02  -0.18     0.20   0.05   0.05
  20   1     0.28   0.24  -0.17    -0.04  -0.07  -0.06    -0.15  -0.15   0.00
  21   1     0.02  -0.19  -0.01     0.03  -0.02  -0.03     0.02   0.08  -0.04
  22   1    -0.21   0.28   0.06     0.04  -0.07  -0.06     0.13  -0.18  -0.11
  23   1     0.02   0.04  -0.01    -0.01   0.00   0.04    -0.02  -0.01   0.05
  24   1    -0.01  -0.01  -0.02    -0.02   0.01   0.01    -0.02   0.02   0.03
  25   1    -0.05  -0.02   0.02    -0.04   0.02  -0.00    -0.03   0.03  -0.01
  26   1    -0.06   0.01   0.06    -0.02   0.01   0.01    -0.00   0.01  -0.01
  27   1    -0.03   0.07   0.07    -0.01   0.00   0.03     0.00  -0.02   0.02
  28   1    -0.04  -0.03  -0.02     0.18   0.00   0.06    -0.11   0.01  -0.11
  29   1     0.05  -0.02   0.04     0.19  -0.01   0.07     0.06  -0.01  -0.01
  30   1     0.07  -0.02   0.03    -0.04  -0.02  -0.04     0.13  -0.02   0.05
  31   1    -0.02   0.00  -0.05    -0.07  -0.01  -0.04    -0.12  -0.01  -0.06
  32   1    -0.04  -0.03  -0.09     0.13  -0.00   0.08    -0.18   0.01  -0.07
  33   1     0.05  -0.06  -0.03     0.18   0.01   0.11     0.05   0.03   0.05
  34   1     0.07  -0.07   0.02    -0.01   0.01  -0.01     0.15   0.03   0.08
                     10                     11                     12
                        a                      a                      a 
 Frequencies --   229.8889               238.4919               298.1260
 Red. masses --     9.5982                10.4752                 9.8092
 Frc consts  --     0.0000                 0.0000                 0.0000
 IR Inten    --     0.5057                 0.4220                 0.1370
 Raman Activ --     0.0000                 0.0000                 0.0000
 Depolar     --     0.0000                 0.0000                 0.0000
 Atom AN      X      Y      Z        X      Y      Z        X      Y      Z
   1   6    -0.44   0.18   0.19    -0.09   0.09  -0.05     0.09  -0.10  -0.40
   2   6    -0.08   0.09  -0.07    -0.07  -0.03  -0.04    -0.19  -0.03  -0.16
   3   7    -0.10   0.08  -0.10    -0.03   0.06  -0.14    -0.16   0.08  -0.17
   4   6     0.07  -0.04   0.12     0.16   0.00  -0.01    -0.02   0.04  -0.04
   5   6     0.17  -0.08   0.25     0.30  -0.13   0.01     0.08  -0.03   0.04
   6   6    -0.00   0.02   0.06     0.16  -0.12  -0.14     0.04  -0.03  -0.00
   7   6    -0.20   0.12  -0.14    -0.01  -0.03  -0.32    -0.05   0.02  -0.10
   8   6     0.01   0.00   0.08     0.14  -0.05  -0.07     0.03  -0.01   0.02
   9   6     0.15  -0.09   0.25     0.28  -0.06   0.07     0.07  -0.01   0.05
  10   6     0.11   0.04  -0.00    -0.19  -0.05  -0.02    -0.03  -0.04   0.00
  11   6     0.17  -0.04  -0.07    -0.28   0.04   0.05     0.21   0.04   0.24
  12   6     0.01  -0.10  -0.15    -0.00   0.11   0.20    -0.04   0.09   0.11
  13   6    -0.06  -0.10  -0.17     0.10   0.12   0.24    -0.31   0.08  -0.03
  14   6     0.07  -0.04  -0.03    -0.13   0.05   0.04     0.06   0.03   0.12
  15   6     0.09  -0.05  -0.01    -0.15   0.07  -0.02     0.18   0.04   0.15
  16   6     0.02  -0.04  -0.05     0.01   0.03   0.04    -0.10   0.02  -0.04
  17   6    -0.04   0.00  -0.10     0.09  -0.04   0.11    -0.15  -0.04  -0.04
  18   6     0.06   0.01  -0.06    -0.12  -0.05   0.05     0.16  -0.06   0.18
  19   6     0.11   0.02  -0.01    -0.21  -0.04   0.01     0.12  -0.05   0.16
  20   1    -0.15   0.04   0.16    -0.02   0.03   0.01     0.03  -0.03  -0.19
  21   1    -0.22   0.11  -0.01    -0.03   0.05  -0.02     0.12  -0.05  -0.05
  22   1    -0.10   0.03   0.09    -0.03   0.03  -0.04     0.02  -0.03  -0.17
  23   1     0.07  -0.04   0.10     0.13  -0.05   0.01     0.04  -0.01   0.02
  24   1    -0.01   0.01   0.01     0.04  -0.03  -0.05     0.02  -0.01   0.01
  25   1    -0.12   0.07  -0.11    -0.06   0.01  -0.15    -0.04   0.02  -0.06
  26   1     0.00   0.00   0.02     0.02  -0.02  -0.01     0.01  -0.01   0.02
  27   1     0.07  -0.04   0.10     0.10  -0.03   0.04     0.03  -0.01   0.03
  28   1     0.07  -0.01  -0.03    -0.12   0.00   0.03     0.09   0.00   0.12
  29   1    -0.02  -0.03  -0.06     0.04   0.04   0.09    -0.04   0.03   0.02
  30   1    -0.07  -0.04  -0.07     0.11   0.04   0.11    -0.20   0.03  -0.07
  31   1     0.04  -0.01   0.00    -0.06   0.03  -0.02     0.09   0.02   0.06
  32   1    -0.00  -0.01  -0.01     0.03   0.01   0.01    -0.06   0.01  -0.04
  33   1    -0.04   0.01  -0.04     0.08  -0.03   0.05    -0.09  -0.02  -0.05
  34   1     0.02   0.00  -0.02    -0.04  -0.02   0.01     0.08  -0.03   0.08
                     13                     14                     15
                        a                      a                      a 
 Frequencies --   357.2103               368.7914               400.9744
 Red. masses --    10.3234                 9.0651                 9.4881
 Frc consts  --     0.0000                 0.0000                 0.0000
 IR Inten    --     0.3081                 0.5751                 1.7286
 Raman Activ --     0.0000                 0.0000                 0.0000
 Depolar     --     0.0000                 0.0000                 0.0000
 Atom AN      X      Y      Z        X      Y      Z        X      Y      Z
   1   6    -0.07   0.06   0.01    -0.01   0.00   0.00    -0.06   0.01   0.13
   2   6    -0.09  -0.37   0.02    -0.01  -0.01   0.00     0.04   0.01   0.04
   3   7    -0.03  -0.15   0.04    -0.02  -0.03   0.02     0.04  -0.06   0.17
   4   6     0.09   0.10   0.02     0.01   0.01   0.01     0.08  -0.01   0.11
   5   6     0.09   0.09  -0.02    -0.25   0.16  -0.30     0.01  -0.02  -0.05
   6   6     0.00  -0.00  -0.06     0.27  -0.15   0.29    -0.02  -0.02  -0.09
   7   6    -0.02  -0.04   0.03     0.00  -0.01  -0.01     0.10  -0.07   0.00
   8   6    -0.04   0.01   0.07    -0.27   0.15  -0.30     0.01   0.02  -0.06
   9   6    -0.00   0.13   0.02     0.27  -0.13   0.31     0.02   0.05  -0.05
  10   6    -0.04  -0.19  -0.02    -0.01  -0.01  -0.00    -0.23   0.04  -0.12
  11   6    -0.08  -0.02   0.17    -0.00  -0.00   0.01    -0.09  -0.00  -0.12
  12   6    -0.05   0.09   0.15     0.00   0.00   0.01     0.20  -0.03   0.04
  13   6     0.04   0.15  -0.16    -0.00   0.00  -0.01    -0.10  -0.04  -0.07
  14   6     0.17  -0.07  -0.30     0.01  -0.00  -0.02    -0.29   0.02  -0.11
  15   6     0.04  -0.18  -0.01     0.01  -0.01   0.00     0.31   0.04   0.18
  16   6    -0.12   0.02   0.18    -0.01   0.00   0.01    -0.11   0.02  -0.10
  17   6    -0.11   0.14   0.15    -0.01   0.01   0.00    -0.14   0.01  -0.11
  18   6     0.10   0.19  -0.09     0.01   0.01  -0.00     0.31  -0.01   0.20
  19   6     0.17  -0.06  -0.29     0.01  -0.00  -0.02    -0.27   0.03  -0.11
  20   1     0.03   0.05   0.10    -0.01   0.00   0.00    -0.03  -0.00   0.08
  21   1    -0.02   0.08  -0.00    -0.01   0.00  -0.00    -0.07   0.02   0.00
  22   1    -0.07   0.05  -0.08    -0.00  -0.00   0.00    -0.00  -0.01   0.06
  23   1     0.04   0.03  -0.02    -0.15   0.09  -0.18     0.00   0.01  -0.04
  24   1    -0.00  -0.01  -0.05     0.17  -0.09   0.18    -0.03   0.01  -0.04
  25   1    -0.01  -0.03   0.01    -0.00  -0.00  -0.00     0.04  -0.03   0.02
  26   1    -0.03   0.00   0.03    -0.17   0.09  -0.18    -0.02   0.01  -0.02
  27   1    -0.02   0.06   0.01     0.16  -0.08   0.18    -0.01   0.02  -0.04
  28   1    -0.04  -0.02   0.08     0.00  -0.00   0.00     0.02   0.00  -0.02
  29   1    -0.03   0.06   0.08     0.00   0.00   0.01     0.18  -0.01   0.08
  30   1     0.01   0.12  -0.07    -0.00   0.01  -0.01     0.02  -0.03   0.01
  31   1     0.01  -0.14   0.02     0.00  -0.01   0.00     0.25   0.02   0.14
  32   1    -0.06  -0.01   0.09    -0.00  -0.00   0.00    -0.02   0.01  -0.02
  33   1    -0.05   0.08   0.07    -0.00   0.00   0.00    -0.03  -0.00  -0.03
  34   1     0.05   0.14  -0.04     0.01   0.01  -0.00     0.24  -0.02   0.15
                     16                     17                     18
                        a                      a                      a 
 Frequencies --   430.2525               447.5594               474.4651
 Red. masses --     9.6061                10.5815                10.8350
 Frc consts  --     0.0000                 0.0000                 0.0000
 IR Inten    --     0.1662                 5.7212                 2.3377
 Raman Activ --     0.0000                 0.0000                 0.0000
 Depolar     --     0.0000                 0.0000                 0.0000
 Atom AN      X      Y      Z        X      Y      Z        X      Y      Z
   1   6     0.05  -0.00  -0.01     0.17   0.00   0.11    -0.08   0.04  -0.06
   2   6     0.02   0.03   0.01     0.10   0.12   0.10     0.03   0.22  -0.11
   3   7     0.03   0.07  -0.08     0.15   0.32  -0.20     0.05   0.26   0.07
   4   6    -0.07  -0.01  -0.08    -0.28  -0.04  -0.29     0.13  -0.18   0.28
   5   6    -0.02  -0.01   0.02    -0.10  -0.09   0.05    -0.06  -0.13   0.01
   6   6     0.01   0.02   0.06     0.07   0.03   0.18    -0.10   0.03  -0.11
   7   6    -0.05   0.05  -0.01    -0.16   0.16  -0.09     0.21  -0.07   0.08
   8   6     0.01  -0.02   0.03     0.09  -0.06   0.09    -0.03   0.07  -0.16
   9   6    -0.02  -0.05   0.01    -0.09  -0.20   0.02     0.00  -0.07  -0.01
  10   6     0.11  -0.00   0.07     0.00  -0.00   0.05    -0.02   0.13  -0.08
  11   6    -0.29   0.01  -0.13    -0.05   0.04   0.10    -0.03   0.28   0.09
  12   6     0.28   0.01   0.19    -0.12   0.02   0.07    -0.06   0.12   0.15
  13   6    -0.14   0.01  -0.07     0.08   0.04   0.03    -0.11   0.09   0.12
  14   6    -0.23  -0.02  -0.16    -0.04  -0.08  -0.16     0.08  -0.16  -0.01
  15   6    -0.14  -0.03  -0.08     0.12  -0.16   0.06    -0.04  -0.27   0.03
  16   6     0.29  -0.03   0.18    -0.13  -0.12  -0.02    -0.02  -0.32   0.03
  17   6    -0.27   0.00  -0.16     0.01  -0.01   0.03     0.03  -0.10  -0.01
  18   6     0.10   0.00   0.03     0.13   0.03  -0.06     0.07  -0.03  -0.18
  19   6     0.35  -0.01   0.17    -0.16   0.01  -0.23     0.10   0.06  -0.07
  20   1     0.01  -0.00  -0.02     0.04  -0.00  -0.01    -0.05  -0.01  -0.03
  21   1     0.03  -0.01   0.01     0.07  -0.01   0.05    -0.06  -0.00  -0.04
  22   1     0.01  -0.00  -0.01     0.06  -0.01   0.03     0.00  -0.01   0.04
  23   1    -0.01  -0.01   0.03    -0.02  -0.06   0.11    -0.07  -0.01  -0.06
  24   1     0.02  -0.00   0.03     0.08  -0.01   0.14    -0.10   0.07  -0.08
  25   1    -0.02   0.02  -0.01    -0.06   0.07  -0.05     0.07  -0.02   0.04
  26   1     0.03  -0.01   0.01     0.12  -0.04   0.06    -0.06   0.05  -0.12
  27   1     0.01  -0.02   0.02     0.04  -0.10   0.06    -0.04  -0.02  -0.09
  28   1    -0.21   0.00  -0.10     0.02   0.01   0.05    -0.02   0.08   0.04
  29   1     0.19   0.01   0.12    -0.03   0.01   0.03    -0.01   0.01   0.02
  30   1    -0.04   0.01  -0.02     0.08   0.06   0.03    -0.04   0.08   0.01
  31   1    -0.04  -0.01  -0.02     0.10  -0.07   0.06    -0.04  -0.08  -0.00
  32   1     0.19  -0.01   0.12    -0.05  -0.04   0.01    -0.03  -0.10   0.02
  33   1    -0.21   0.01  -0.11     0.04   0.02   0.06    -0.03   0.02   0.03
  34   1    -0.01   0.01  -0.02     0.11   0.03   0.02    -0.01  -0.01  -0.06
                     19                     20                     21
                        a                      a                      a 
 Frequencies --   480.3132               502.1695               525.6505
 Red. masses --    11.2403                11.6072                10.9906
 Frc consts  --     0.0000                 0.0000                 0.0000
 IR Inten    --     1.2359                 1.8758                 1.2065
 Raman Activ --     0.0000                 0.0000                 0.0000
 Depolar     --     0.0000                 0.0000                 0.0000
 Atom AN      X      Y      Z        X      Y      Z        X      Y      Z
   1   6    -0.07   0.02  -0.04     0.01   0.04   0.01    -0.03  -0.00  -0.08
   2   6     0.18  -0.03  -0.20    -0.09  -0.05   0.07     0.01  -0.23  -0.07
   3   7     0.19  -0.00  -0.18     0.09   0.52   0.04     0.11   0.09  -0.26
   4   6     0.17  -0.14  -0.03    -0.06  -0.16   0.19     0.20  -0.15   0.00
   5   6     0.01   0.09   0.04    -0.11  -0.24   0.00     0.06   0.05   0.04
   6   6    -0.03   0.15   0.03    -0.05   0.01  -0.06    -0.03   0.15  -0.04
   7   6    -0.09   0.07   0.23     0.19  -0.02  -0.03    -0.02   0.04   0.23
   8   6    -0.13  -0.03   0.01     0.05   0.09  -0.11    -0.14  -0.02  -0.04
   9   6    -0.10  -0.13   0.05    -0.03  -0.12   0.00    -0.05  -0.15   0.07
  10   6     0.17  -0.16  -0.13    -0.14  -0.19   0.07     0.15  -0.02   0.03
  11   6     0.04  -0.02  -0.08    -0.01  -0.33   0.03    -0.00   0.05   0.08
  12   6     0.04   0.29  -0.16     0.06  -0.09  -0.02    -0.16  -0.15   0.09
  13   6     0.08   0.25  -0.01     0.06  -0.02  -0.23    -0.02  -0.17   0.27
  14   6    -0.05   0.15  -0.07     0.12   0.11  -0.05    -0.18  -0.16   0.04
  15   6    -0.05   0.11   0.13     0.02   0.16  -0.05     0.11  -0.05  -0.21
  16   6    -0.06   0.05   0.11    -0.01   0.26   0.03     0.09   0.12  -0.10
  17   6    -0.12  -0.26   0.17    -0.02   0.06   0.08     0.03   0.30  -0.16
  18   6    -0.04  -0.23   0.12    -0.08   0.02   0.08    -0.02   0.19   0.16
  19   6    -0.08  -0.20   0.00     0.05  -0.11   0.02    -0.09   0.02   0.01
  20   1    -0.02   0.01   0.06     0.04   0.04   0.03     0.04   0.03   0.04
  21   1    -0.10   0.02  -0.07     0.04   0.04   0.02     0.00   0.05  -0.02
  22   1    -0.02   0.01   0.04    -0.03   0.04  -0.07    -0.05   0.03  -0.10
  23   1    -0.07   0.03   0.03    -0.07  -0.05  -0.02    -0.06   0.03   0.00
  24   1    -0.02   0.03  -0.04    -0.06   0.07  -0.01    -0.04   0.04  -0.08
  25   1    -0.02   0.02   0.07     0.06  -0.01  -0.00    -0.01   0.01   0.06
  26   1    -0.02   0.01  -0.06    -0.01   0.04  -0.08    -0.05   0.03  -0.09
  27   1    -0.06   0.00   0.02    -0.01  -0.08  -0.07    -0.06   0.01  -0.00
  28   1    -0.03  -0.03   0.05    -0.01  -0.09   0.01     0.01   0.01   0.02
  29   1     0.00   0.10  -0.03    -0.01   0.03   0.05    -0.04  -0.08  -0.01
  30   1     0.05   0.05   0.02    -0.01  -0.02  -0.08     0.04  -0.04   0.10
  31   1     0.01  -0.01   0.06    -0.02   0.02  -0.02     0.08   0.03  -0.04
  32   1     0.03   0.03  -0.01    -0.02   0.08  -0.01     0.03   0.02   0.06
  33   1    -0.01  -0.10   0.03     0.00  -0.01  -0.01     0.03   0.06  -0.06
  34   1     0.02  -0.04   0.04    -0.04   0.05  -0.00     0.04   0.02   0.08
                     22                     23                     24
                        a                      a                      a 
 Frequencies --   546.2282               570.2721               589.8800
 Red. masses --    10.0311                 9.9549                11.0031
 Frc consts  --     0.0000                 0.0000                 0.0000
 IR Inten    --     2.0179                 3.3122                 2.0798
 Raman Activ --     0.0000                 0.0000                 0.0000
 Depolar     --     0.0000                 0.0000                 0.0000
 Atom AN      X      Y      Z        X      Y      Z        X      Y      Z
   1   6     0.02   0.02   0.08     0.02   0.01  -0.02     0.05  -0.01   0.05
   2   6     0.13  -0.14  -0.04     0.15   0.58  -0.10    -0.09  -0.15   0.12
   3   7     0.19  -0.00  -0.02    -0.09  -0.17  -0.09     0.00   0.19  -0.17
   4   6     0.02  -0.05  -0.12     0.09   0.02  -0.01     0.09   0.08  -0.01
   5   6     0.00   0.03  -0.03     0.05   0.12   0.09     0.00   0.28   0.24
   6   6     0.07   0.06   0.03    -0.11   0.00   0.02    -0.35  -0.09   0.17
   7   6    -0.10   0.08   0.05    -0.02  -0.05   0.09    -0.04  -0.14   0.09
   8   6    -0.01  -0.04   0.05    -0.05  -0.11  -0.08    -0.02  -0.34  -0.26
   9   6    -0.08  -0.08   0.00     0.10   0.00  -0.03     0.31   0.03  -0.15
  10   6    -0.17   0.00  -0.20    -0.02  -0.18   0.10     0.08   0.08   0.12
  11   6    -0.17   0.08  -0.12    -0.12  -0.21   0.11    -0.06   0.00  -0.05
  12   6     0.28   0.02   0.17    -0.02  -0.07   0.18     0.07  -0.03   0.01
  13   6    -0.38  -0.02  -0.06    -0.03  -0.00  -0.08    -0.01  -0.02  -0.09
  14   6     0.22  -0.06   0.20     0.07  -0.06  -0.11    -0.03   0.08   0.01
  15   6     0.17  -0.03   0.01     0.14  -0.04  -0.14    -0.00   0.05   0.16
  16   6    -0.14   0.02  -0.13    -0.05   0.16  -0.03    -0.08  -0.08  -0.03
  17   6     0.23   0.06   0.09     0.04   0.12   0.06     0.07  -0.07   0.03
  18   6    -0.23   0.04  -0.04    -0.09   0.07   0.07    -0.01  -0.02  -0.15
  19   6     0.06  -0.02   0.07     0.01  -0.13  -0.04    -0.01   0.09  -0.01
  20   1     0.03   0.03   0.12    -0.14  -0.09  -0.16     0.06   0.03   0.02
  21   1    -0.06   0.04  -0.02    -0.04  -0.12  -0.02     0.09   0.03   0.06
  22   1    -0.02   0.03   0.03     0.14  -0.10   0.23    -0.03   0.03  -0.10
  23   1    -0.01  -0.01   0.04     0.01   0.04   0.00     0.01   0.09   0.02
  24   1     0.05  -0.01   0.02    -0.04  -0.01  -0.04    -0.11  -0.05  -0.01
  25   1    -0.03   0.01   0.02     0.01   0.02   0.02     0.05   0.08   0.02
  26   1     0.04  -0.02   0.01    -0.04  -0.02  -0.04    -0.06  -0.09  -0.08
  27   1    -0.01  -0.02   0.03    -0.00   0.04  -0.01     0.05   0.06  -0.03
  28   1    -0.07   0.02  -0.03    -0.05  -0.07   0.05    -0.03   0.01  -0.05
  29   1     0.15  -0.02   0.06    -0.01   0.02   0.09     0.03  -0.00   0.01
  30   1    -0.20  -0.01  -0.07    -0.01   0.04  -0.03    -0.01  -0.02  -0.02
  31   1    -0.03   0.01  -0.05     0.04  -0.04  -0.03     0.02   0.03   0.05
  32   1    -0.17   0.00  -0.09    -0.05   0.04   0.02    -0.01  -0.01  -0.04
  33   1     0.07   0.01   0.02     0.04   0.01  -0.00     0.04   0.00   0.05
  34   1    -0.16   0.00  -0.07    -0.03   0.05   0.01     0.00  -0.01  -0.03
                     25                     26                     27
                        a                      a                      a 
 Frequencies --   598.7994               630.2106               659.0006
 Red. masses --    10.8752                10.7848                10.0363
 Frc consts  --     0.0000                 0.0000                 0.0000
 IR Inten    --    10.5351                 2.2851                 0.2550
 Raman Activ --     0.0000                 0.0000                 0.0000
 Depolar     --     0.0000                 0.0000                 0.0000
 Atom AN      X      Y      Z        X      Y      Z        X      Y      Z
   1   6    -0.06   0.02  -0.02     0.09   0.01   0.13     0.04  -0.00   0.06
   2   6     0.11  -0.03  -0.13     0.04   0.04   0.08    -0.01  -0.03   0.03
   3   7     0.19   0.15   0.24     0.03  -0.05  -0.15    -0.02  -0.03   0.05
   4   6    -0.04   0.07   0.04     0.06  -0.03  -0.18    -0.34   0.19  -0.26
   5   6    -0.17   0.13   0.04     0.15   0.06   0.04     0.12  -0.15   0.20
   6   6    -0.15  -0.16   0.23     0.02   0.13  -0.09    -0.25   0.06  -0.22
   7   6    -0.09  -0.04  -0.16    -0.03   0.02   0.19     0.23  -0.13   0.13
   8   6     0.14  -0.21  -0.05    -0.11  -0.07  -0.08    -0.18   0.19  -0.21
   9   6     0.09   0.11  -0.20     0.02  -0.15   0.06     0.18  -0.02   0.21
  10   6    -0.17  -0.08  -0.28    -0.53   0.05  -0.15     0.05  -0.01  -0.08
  11   6     0.13   0.06   0.03     0.06  -0.05   0.10     0.04   0.06  -0.07
  12   6    -0.08   0.10  -0.07    -0.09  -0.11   0.02     0.05   0.12  -0.09
  13   6    -0.01   0.04   0.17     0.06  -0.05  -0.08    -0.04   0.06   0.07
  14   6     0.08  -0.12   0.04     0.21   0.09   0.14     0.01  -0.08  -0.02
  15   6    -0.03  -0.08  -0.24    -0.22   0.09   0.04     0.07  -0.09  -0.12
  16   6     0.15   0.09   0.06     0.18  -0.05   0.12     0.00   0.03  -0.01
  17   6    -0.13   0.08  -0.06    -0.14  -0.03  -0.11    -0.01   0.01   0.02
  18   6     0.02   0.01   0.24     0.26   0.01  -0.04    -0.08  -0.02   0.12
  19   6     0.00  -0.14   0.03    -0.03   0.11  -0.04    -0.01  -0.09   0.02
  20   1    -0.00   0.02   0.10     0.01  -0.01   0.03     0.02   0.00   0.02
  21   1    -0.12   0.03  -0.07     0.01  -0.01   0.03     0.01   0.00   0.02
  22   1    -0.03   0.02   0.04     0.04  -0.01   0.06     0.01   0.00   0.01
  23   1     0.01   0.02   0.03     0.01   0.01   0.04     0.15  -0.10   0.16
  24   1     0.00  -0.07   0.12     0.01   0.01  -0.07    -0.01   0.00   0.04
  25   1     0.03   0.06  -0.03    -0.01   0.00   0.06     0.15  -0.08   0.14
  26   1     0.05  -0.09   0.06    -0.01  -0.01  -0.06    -0.01   0.01   0.04
  27   1     0.06   0.01  -0.02    -0.01  -0.01   0.04     0.16  -0.07   0.16
  28   1     0.07   0.01   0.08     0.15  -0.00   0.06    -0.00   0.01  -0.00
  29   1    -0.02   0.00  -0.05    -0.01  -0.01   0.04     0.02   0.01  -0.05
  30   1    -0.00   0.01   0.05     0.01  -0.01  -0.03    -0.01   0.01   0.02
  31   1    -0.05  -0.04  -0.09    -0.17   0.04  -0.05     0.02  -0.04  -0.03
  32   1     0.02   0.01   0.06     0.02  -0.00  -0.03    -0.01  -0.00   0.03
  33   1    -0.07  -0.01  -0.08    -0.15   0.02  -0.06     0.01  -0.02  -0.02
  34   1    -0.02   0.01   0.05     0.00   0.00  -0.05    -0.02  -0.01   0.04
                     28                     29                     30
                        a                      a                      a 
 Frequencies --   709.2969               726.6017               760.2140
 Red. masses --     8.5988                 9.3882                 4.6465
 Frc consts  --     0.0000                 0.0000                 0.0000
 IR Inten    --    19.9922                 2.1234                 0.2916
 Raman Activ --     0.0000                 0.0000                 0.0000
 Depolar     --     0.0000                 0.0000                 0.0000
 Atom AN      X      Y      Z        X      Y      Z        X      Y      Z
   1   6    -0.15   0.01  -0.26    -0.06  -0.01  -0.10     0.05  -0.00   0.05
   2   6     0.14  -0.01  -0.20     0.03   0.00  -0.06     0.01   0.01  -0.01
   3   7     0.20   0.01   0.24     0.05   0.00   0.06     0.02  -0.00   0.05
   4   6    -0.00  -0.00  -0.05     0.01  -0.01   0.03    -0.06   0.03  -0.10
   5   6    -0.03   0.02  -0.04    -0.03   0.00  -0.02     0.05  -0.01   0.03
   6   6    -0.06   0.06  -0.07    -0.03   0.00  -0.02     0.04   0.01   0.01
   7   6    -0.04   0.02   0.01    -0.01   0.00  -0.03     0.01  -0.00   0.06
   8   6    -0.06  -0.02  -0.10    -0.02   0.02  -0.02     0.01  -0.05   0.01
   9   6    -0.02  -0.02  -0.04    -0.02   0.02  -0.02     0.03  -0.04   0.02
  10   6    -0.01  -0.05   0.01     0.26  -0.02   0.13    -0.24   0.00  -0.13
  11   6    -0.01  -0.06   0.14    -0.13  -0.00  -0.03     0.12   0.00   0.06
  12   6    -0.16  -0.21   0.16     0.16  -0.07   0.17     0.05   0.00   0.02
  13   6     0.06  -0.10   0.01    -0.08  -0.03  -0.05     0.13  -0.00   0.08
  14   6    -0.21   0.11  -0.04     0.39   0.02   0.24    -0.05   0.00  -0.02
  15   6    -0.04   0.18   0.22    -0.21   0.06  -0.06    -0.12   0.00  -0.07
  16   6    -0.08   0.01  -0.04     0.10   0.01   0.06    -0.14   0.00  -0.08
  17   6     0.09  -0.00   0.01    -0.18  -0.00  -0.11    -0.07   0.00  -0.04
  18   6     0.04   0.04  -0.23     0.11   0.00  -0.00    -0.16   0.01  -0.11
  19   6     0.20   0.08   0.05    -0.40   0.03  -0.25     0.24  -0.00   0.14
  20   1    -0.04   0.01   0.02    -0.02   0.00  -0.01     0.01  -0.00   0.05
  21   1    -0.17   0.02  -0.15    -0.04   0.00  -0.04    -0.02   0.00  -0.01
  22   1    -0.05   0.01   0.01    -0.02  -0.00  -0.01     0.01  -0.00   0.04
  23   1     0.13  -0.08   0.17     0.05  -0.03   0.06    -0.05   0.03  -0.05
  24   1     0.12  -0.07   0.13     0.04  -0.02   0.06    -0.05   0.03  -0.08
  25   1     0.15  -0.07   0.18     0.06  -0.03   0.07    -0.09   0.05  -0.09
  26   1     0.13  -0.08   0.12     0.05  -0.02   0.06    -0.05   0.02  -0.08
  27   1     0.14  -0.08   0.16     0.05  -0.03   0.06    -0.05   0.02  -0.06
  28   1    -0.02  -0.02   0.01    -0.14  -0.00  -0.07    -0.17  -0.00  -0.09
  29   1    -0.03  -0.04   0.07    -0.15  -0.02  -0.06    -0.19  -0.00  -0.11
  30   1     0.04  -0.02   0.01    -0.20  -0.00  -0.12    -0.25  -0.00  -0.13
  31   1     0.03   0.09   0.07     0.03   0.02   0.03     0.30  -0.00   0.17
  32   1     0.03   0.02  -0.05     0.13   0.01   0.05     0.33  -0.00   0.19
  33   1     0.00   0.04   0.03     0.13   0.00   0.08     0.30  -0.01   0.18
  34   1     0.01   0.02  -0.07     0.20  -0.00   0.10     0.22  -0.00   0.13
                     31                     32                     33
                        a                      a                      a 
 Frequencies --   765.6261               779.1523               810.0078
 Red. masses --     7.3029                10.8056                10.0261
 Frc consts  --     0.0000                 0.0000                 0.0000
 IR Inten    --    22.0269                 0.5307                46.8698
 Raman Activ --     0.0000                 0.0000                 0.0000
 Depolar     --     0.0000                 0.0000                 0.0000
 Atom AN      X      Y      Z        X      Y      Z        X      Y      Z
   1   6     0.01   0.01   0.11    -0.02   0.00  -0.05     0.17   0.00   0.16
   2   6    -0.17   0.06   0.15     0.04   0.01  -0.03     0.07  -0.03  -0.07
   3   7    -0.16   0.07  -0.04     0.04  -0.01   0.03    -0.03  -0.09  -0.46
   4   6     0.25  -0.14   0.21    -0.03   0.02  -0.03     0.14  -0.07   0.17
   5   6     0.01   0.12  -0.15    -0.01  -0.02   0.02    -0.14  -0.03   0.05
   6   6     0.08   0.12  -0.13    -0.01  -0.02   0.02    -0.25  -0.16   0.10
   7   6    -0.17   0.09  -0.01     0.02  -0.01   0.00     0.08  -0.05  -0.22
   8   6    -0.08  -0.13  -0.11     0.01   0.01   0.01     0.01   0.31   0.10
   9   6    -0.10  -0.05  -0.14     0.01   0.00   0.02    -0.06   0.16   0.04
  10   6    -0.12   0.06   0.06    -0.01  -0.21   0.07    -0.06  -0.08  -0.13
  11   6     0.06  -0.04  -0.04     0.02  -0.43  -0.05    -0.03  -0.02  -0.02
  12   6     0.07   0.14  -0.13     0.11   0.27  -0.18    -0.07  -0.02  -0.01
  13   6     0.06   0.09  -0.04    -0.07   0.17   0.12    -0.11  -0.03   0.09
  14   6     0.00  -0.04  -0.05    -0.06   0.05   0.14     0.03   0.01   0.08
  15   6     0.03  -0.15  -0.11    -0.12  -0.07   0.20    -0.08   0.08   0.03
  16   6    -0.02  -0.09  -0.03     0.04  -0.38  -0.06    -0.05   0.05  -0.01
  17   6     0.00   0.04  -0.02     0.14   0.33  -0.24    -0.04   0.01  -0.02
  18   6    -0.11   0.00   0.11     0.04   0.22  -0.04     0.02   0.02  -0.14
  19   6     0.02  -0.00   0.10    -0.05   0.03   0.03     0.12  -0.02  -0.01
  20   1     0.00  -0.00  -0.07    -0.01  -0.00   0.00     0.03  -0.01   0.06
  21   1     0.13  -0.01   0.11    -0.04  -0.00  -0.03     0.02  -0.01   0.03
  22   1     0.01  -0.01  -0.05    -0.00  -0.00   0.02     0.06  -0.01   0.09
  23   1     0.14  -0.05   0.14    -0.02   0.00  -0.01     0.01  -0.02   0.03
  24   1     0.21  -0.10   0.13    -0.03   0.01  -0.01    -0.02  -0.02   0.16
  25   1     0.20  -0.11   0.28    -0.02   0.02  -0.03     0.15  -0.09   0.09
  26   1     0.19  -0.12   0.13    -0.02   0.01  -0.02     0.00   0.04   0.16
  27   1     0.12  -0.08   0.15    -0.01   0.01  -0.02     0.04   0.00   0.06
  28   1    -0.02  -0.01  -0.03    -0.05  -0.15   0.08     0.11  -0.01   0.09
  29   1    -0.02   0.06  -0.04    -0.00   0.13  -0.00     0.13  -0.03   0.05
  30   1    -0.03   0.02  -0.04    -0.03  -0.03   0.05     0.05  -0.03   0.08
  31   1     0.07  -0.06   0.01    -0.03   0.06   0.03     0.07   0.04   0.06
  32   1     0.04  -0.04   0.08    -0.03  -0.12   0.03     0.12   0.02   0.04
  33   1     0.06  -0.00   0.02    -0.01   0.17   0.00     0.10   0.02   0.08
  34   1     0.01  -0.03   0.07    -0.00   0.01  -0.01     0.09   0.03   0.00
                     34                     35                     36
                        a                      a                      a 
 Frequencies --   816.9769               853.8745               866.4176
 Red. masses --     4.5639                10.5487                 3.3066
 Frc consts  --     0.0000                 0.0000                 0.0000
 IR Inten    --    33.1256                 0.5150                 0.7318
 Raman Activ --     0.0000                 0.0000                 0.0000
 Depolar     --     0.0000                 0.0000                 0.0000
 Atom AN      X      Y      Z        X      Y      Z        X      Y      Z
   1   6     0.09   0.01   0.09    -0.01  -0.02  -0.08    -0.00   0.01   0.00
   2   6     0.02  -0.01  -0.02     0.10  -0.05  -0.05    -0.01   0.00   0.00
   3   7    -0.02  -0.03  -0.16     0.11  -0.07  -0.12    -0.00  -0.00   0.01
   4   6     0.05  -0.03   0.05     0.03  -0.02  -0.03    -0.01   0.01   0.00
   5   6    -0.04  -0.01   0.02    -0.03  -0.00   0.05     0.17  -0.09   0.18
   6   6    -0.08  -0.05   0.03    -0.10  -0.08   0.06     0.13  -0.05   0.12
   7   6     0.02  -0.02  -0.07     0.05  -0.03  -0.07     0.00   0.00   0.02
   8   6     0.00   0.10   0.03     0.01   0.14   0.05    -0.11   0.04  -0.13
   9   6    -0.02   0.05   0.01    -0.03   0.05   0.03    -0.17   0.08  -0.20
  10   6    -0.07  -0.03  -0.08    -0.05   0.12   0.02     0.00  -0.00  -0.00
  11   6     0.14   0.00   0.07    -0.05   0.15   0.10     0.01  -0.00  -0.00
  12   6     0.15  -0.01   0.09    -0.06  -0.09   0.13    -0.00   0.00  -0.01
  13   6     0.18  -0.02   0.16     0.27   0.02  -0.44    -0.01  -0.00   0.01
  14   6    -0.21   0.01  -0.10     0.05   0.10  -0.09     0.00  -0.00   0.00
  15   6     0.09   0.03   0.08    -0.04  -0.08   0.07     0.00   0.00  -0.00
  16   6     0.06   0.02   0.03     0.04  -0.29  -0.08    -0.00   0.01   0.00
  17   6     0.10  -0.00   0.06     0.08   0.10  -0.13    -0.00  -0.00   0.00
  18   6     0.11   0.00   0.01    -0.23   0.01   0.38     0.01  -0.00  -0.01
  19   6    -0.08  -0.01  -0.08    -0.08   0.04   0.19     0.00  -0.00  -0.01
  20   1     0.01  -0.01   0.03     0.02   0.01   0.05    -0.00   0.00  -0.01
  21   1     0.00  -0.01   0.01    -0.07   0.02  -0.07     0.00  -0.00   0.00
  22   1     0.03  -0.00   0.05    -0.02   0.01  -0.00     0.00  -0.00   0.00
  23   1    -0.00  -0.00   0.01    -0.03   0.01  -0.01    -0.30   0.17  -0.36
  24   1    -0.01  -0.01   0.05    -0.04   0.01   0.03    -0.22   0.12  -0.26
  25   1     0.05  -0.03   0.03     0.02  -0.01  -0.01    -0.01   0.01  -0.01
  26   1     0.00   0.01   0.05    -0.02   0.03   0.04     0.21  -0.12   0.23
  27   1     0.01  -0.00   0.02     0.01   0.01   0.02     0.34  -0.18   0.39
  28   1    -0.35  -0.01  -0.18     0.01   0.05  -0.02    -0.01  -0.00  -0.00
  29   1    -0.37  -0.02  -0.22    -0.07   0.06   0.10     0.01  -0.00  -0.00
  30   1    -0.35  -0.01  -0.18     0.06   0.10  -0.16     0.00  -0.00   0.01
  31   1    -0.11   0.02  -0.05    -0.00  -0.01   0.01     0.00   0.00   0.00
  32   1    -0.19   0.01  -0.12    -0.01  -0.09   0.02     0.00   0.00  -0.00
  33   1    -0.24   0.01  -0.13     0.03  -0.01  -0.06     0.00   0.00   0.00
  34   1    -0.13   0.02  -0.10    -0.08  -0.12   0.13    -0.00   0.00  -0.01
                     37                     38                     39
                        a                      a                      a 
 Frequencies --   877.6907               879.3204               895.7622
 Red. masses --     3.7203                 3.8605                 4.0209
 Frc consts  --     0.0000                 0.0000                 0.0000
 IR Inten    --     0.3898                 1.4310                 0.6675
 Raman Activ --     0.0000                 0.0000                 0.0000
 Depolar     --     0.0000                 0.0000                 0.0000
 Atom AN      X      Y      Z        X      Y      Z        X      Y      Z
   1   6    -0.02   0.01  -0.02    -0.01  -0.01  -0.02    -0.03  -0.01  -0.03
   2   6     0.01  -0.01   0.02     0.01   0.00   0.00     0.01   0.01   0.01
   3   7     0.01   0.00   0.01     0.02   0.00   0.06     0.01  -0.00   0.01
   4   6    -0.01   0.01  -0.01    -0.08   0.04  -0.07    -0.00   0.00  -0.00
   5   6     0.02  -0.01   0.02     0.16  -0.10   0.17    -0.00  -0.00   0.00
   6   6     0.00   0.00  -0.00     0.01   0.02  -0.02     0.00  -0.00   0.00
   7   6    -0.02   0.01  -0.02    -0.22   0.13  -0.22     0.00  -0.00   0.00
   8   6    -0.00  -0.00  -0.00    -0.03  -0.01  -0.03    -0.00   0.00  -0.00
   9   6     0.02  -0.01   0.02     0.16  -0.08   0.16    -0.00   0.00  -0.00
  10   6     0.04   0.00   0.02     0.01  -0.00   0.00     0.05   0.01   0.04
  11   6    -0.10  -0.00  -0.06     0.01   0.00   0.01    -0.32  -0.02  -0.18
  12   6     0.02   0.00   0.01    -0.00  -0.00   0.00     0.03   0.01   0.01
  13   6     0.03   0.00   0.02    -0.00  -0.00  -0.00     0.26   0.01   0.16
  14   6     0.06   0.00   0.04    -0.01   0.00  -0.00    -0.09  -0.00  -0.05
  15   6    -0.24   0.00  -0.15     0.03   0.00   0.02     0.06  -0.01   0.02
  16   6    -0.15   0.00  -0.09     0.02  -0.00   0.01     0.05   0.01   0.04
  17   6     0.19  -0.01   0.12    -0.02   0.00  -0.01    -0.00  -0.00   0.00
  18   6     0.20  -0.01   0.12    -0.02   0.00  -0.01    -0.08   0.00  -0.06
  19   6    -0.06   0.00  -0.04     0.00  -0.00   0.00     0.05  -0.00   0.03
  20   1    -0.01  -0.00  -0.02    -0.00  -0.00   0.01     0.00   0.00  -0.01
  21   1     0.00  -0.01   0.00    -0.02   0.01  -0.02     0.01   0.01   0.00
  22   1    -0.01   0.00  -0.01    -0.01   0.00  -0.00    -0.01  -0.00  -0.03
  23   1    -0.03   0.02  -0.04    -0.29   0.16  -0.34    -0.00   0.00  -0.00
  24   1     0.01  -0.00   0.01     0.06  -0.03   0.06    -0.01   0.00  -0.01
  25   1     0.03  -0.02   0.04     0.33  -0.18   0.38    -0.00   0.00  -0.00
  26   1     0.01  -0.01   0.01     0.09  -0.05   0.09     0.01  -0.00   0.01
  27   1    -0.03   0.02  -0.03    -0.27   0.15  -0.31     0.00  -0.00   0.00
  28   1     0.17   0.00   0.09    -0.02   0.00  -0.01     0.56   0.00   0.29
  29   1    -0.02  -0.00  -0.01    -0.00  -0.00  -0.00    -0.01   0.00  -0.01
  30   1    -0.08  -0.00  -0.04     0.01   0.00   0.00    -0.46  -0.00  -0.26
  31   1     0.48  -0.01   0.27    -0.05   0.00  -0.03    -0.09  -0.00  -0.05
  32   1     0.21  -0.00   0.12    -0.02   0.00  -0.01    -0.09   0.00  -0.05
  33   1    -0.28   0.00  -0.16     0.03  -0.00   0.02    -0.02   0.00  -0.01
  34   1    -0.41   0.02  -0.25     0.04  -0.00   0.03     0.15  -0.00   0.09
                     40                     41                     42
                        a                      a                      a 
 Frequencies --   917.2978               920.4873               924.7294
 Red. masses --     3.8026                 3.7963                 3.4036
 Frc consts  --     0.0000                 0.0000                 0.0000
 IR Inten    --     0.1131                 0.0730                 0.0753
 Raman Activ --     0.0000                 0.0000                 0.0000
 Depolar     --     0.0000                 0.0000                 0.0000
 Atom AN      X      Y      Z        X      Y      Z        X      Y      Z
   1   6     0.02  -0.01   0.01    -0.00  -0.00   0.00     0.02  -0.01   0.01
   2   6    -0.01   0.01  -0.02     0.00   0.01  -0.00    -0.01   0.01  -0.02
   3   7    -0.01   0.00   0.00    -0.00  -0.00   0.00    -0.01   0.00  -0.00
   4   6    -0.00   0.00   0.00     0.01  -0.01   0.03     0.01  -0.00   0.01
   5   6    -0.00  -0.00  -0.01     0.14  -0.08   0.15     0.00  -0.00  -0.00
   6   6     0.01   0.00   0.01    -0.22   0.13  -0.26    -0.01   0.01  -0.01
   7   6    -0.01   0.00   0.00     0.05  -0.02   0.07     0.02  -0.01   0.02
   8   6    -0.00  -0.01  -0.01     0.12  -0.08   0.13    -0.02   0.01  -0.03
   9   6     0.01   0.00   0.00    -0.10   0.06  -0.12     0.01  -0.00   0.01
  10   6     0.01  -0.01  -0.01     0.00  -0.00  -0.00    -0.04  -0.00  -0.02
  11   6     0.08   0.00   0.04     0.00  -0.00   0.00    -0.10  -0.00  -0.05
  12   6    -0.14  -0.00  -0.07    -0.01  -0.00  -0.00     0.27   0.00   0.15
  13   6     0.03  -0.00   0.01     0.00  -0.00   0.00    -0.18  -0.00  -0.10
  14   6     0.05   0.00   0.03     0.00   0.00   0.00    -0.01   0.00  -0.00
  15   6    -0.22   0.01  -0.12    -0.01   0.00  -0.00    -0.05   0.00  -0.03
  16   6     0.22  -0.00   0.12     0.01   0.00   0.00     0.01   0.00   0.01
  17   6     0.15   0.01   0.08     0.00   0.00   0.00     0.13   0.00   0.08
  18   6    -0.21   0.00  -0.12    -0.00   0.00  -0.00    -0.15   0.00  -0.09
  19   6     0.00  -0.00   0.00     0.00  -0.00  -0.00     0.06  -0.00   0.04
  20   1     0.01   0.00   0.02     0.00   0.00   0.00     0.01   0.00   0.02
  21   1    -0.00   0.00  -0.00    -0.00   0.00  -0.00    -0.01   0.01  -0.00
  22   1     0.00  -0.00   0.01    -0.00   0.00  -0.00     0.00  -0.00   0.01
  23   1     0.01  -0.01   0.01    -0.24   0.14  -0.29    -0.01   0.01  -0.02
  24   1    -0.01   0.01  -0.02     0.41  -0.22   0.46     0.03  -0.01   0.03
  25   1     0.00  -0.00   0.01    -0.12   0.07  -0.13    -0.04   0.02  -0.04
  26   1     0.01  -0.00   0.00    -0.17   0.09  -0.19     0.05  -0.03   0.05
  27   1    -0.00   0.00  -0.01     0.13  -0.07   0.15    -0.02   0.01  -0.02
  28   1    -0.15  -0.00  -0.08    -0.00  -0.00  -0.00     0.22   0.00   0.12
  29   1     0.26   0.00   0.15     0.02  -0.00   0.01    -0.51  -0.00  -0.29
  30   1    -0.07   0.00  -0.04    -0.01  -0.00  -0.01     0.36   0.00   0.20
  31   1     0.36  -0.01   0.21     0.01   0.00   0.01     0.05  -0.00   0.03
  32   1    -0.38   0.01  -0.22    -0.01   0.00  -0.01     0.00   0.00   0.00
  33   1    -0.26   0.01  -0.15    -0.00   0.00  -0.00    -0.25   0.01  -0.14
  34   1     0.34  -0.02   0.21     0.01   0.00   0.00     0.27  -0.01   0.17
                     43                     44                     45
                        a                      a                      a 
 Frequencies --   924.8428               929.4626               950.5881
 Red. masses --     2.9737                 3.2321                10.6189
 Frc consts  --     0.0000                 0.0000                 0.0000
 IR Inten    --     0.0583                 0.0353                13.7766
 Raman Activ --     0.0000                 0.0000                 0.0000
 Depolar     --     0.0000                 0.0000                 0.0000
 Atom AN      X      Y      Z        X      Y      Z        X      Y      Z
   1   6    -0.00  -0.00  -0.01    -0.00   0.01  -0.01     0.27   0.07   0.20
   2   6     0.00   0.00   0.00     0.00  -0.01   0.01    -0.17  -0.08  -0.22
   3   7     0.00  -0.00   0.01     0.01  -0.00  -0.00    -0.22   0.10   0.02
   4   6    -0.05   0.03  -0.05     0.00  -0.00  -0.00    -0.10   0.07   0.15
   5   6     0.02  -0.02   0.02    -0.00   0.00   0.00    -0.05  -0.21  -0.08
   6   6     0.06  -0.02   0.05    -0.00  -0.00   0.00     0.14   0.12  -0.07
   7   6    -0.14   0.08  -0.15     0.00  -0.00  -0.01    -0.13   0.08   0.15
   8   6     0.20  -0.12   0.22     0.00   0.00   0.00    -0.03  -0.19  -0.07
   9   6    -0.07   0.04  -0.09    -0.00  -0.00   0.00     0.16   0.13  -0.08
  10   6    -0.00   0.00  -0.00    -0.02   0.00  -0.00     0.20  -0.17  -0.21
  11   6    -0.01  -0.00  -0.01    -0.05  -0.00  -0.03    -0.04   0.18   0.00
  12   6     0.03   0.00   0.02     0.10   0.00   0.05    -0.05  -0.08   0.07
  13   6    -0.02   0.00  -0.01    -0.04   0.00  -0.03     0.03  -0.05  -0.05
  14   6    -0.00  -0.00  -0.00    -0.08   0.00  -0.05     0.00   0.04  -0.02
  15   6    -0.00  -0.00  -0.00    -0.11  -0.00  -0.07    -0.11   0.13   0.21
  16   6    -0.00   0.00   0.00     0.23  -0.00   0.13     0.02  -0.09  -0.05
  17   6     0.02  -0.00   0.01    -0.21   0.00  -0.12     0.06   0.11  -0.11
  18   6    -0.02   0.00  -0.01     0.09  -0.00   0.06    -0.05   0.04   0.12
  19   6     0.01   0.00   0.00     0.09   0.00   0.05     0.03  -0.18  -0.08
  20   1     0.00   0.00   0.00    -0.01  -0.00  -0.01    -0.01  -0.04   0.08
  21   1    -0.00   0.00  -0.00     0.00  -0.00   0.00    -0.02  -0.05   0.01
  22   1    -0.00   0.00  -0.00     0.00   0.00   0.00     0.14  -0.03   0.25
  23   1     0.05  -0.03   0.06     0.00  -0.00   0.00    -0.01  -0.07   0.00
  24   1    -0.16   0.09  -0.18    -0.00   0.00  -0.00     0.04   0.04  -0.02
  25   1     0.28  -0.15   0.32     0.00  -0.00   0.00    -0.03   0.02   0.04
  26   1    -0.41   0.22  -0.46    -0.00   0.00  -0.00    -0.01  -0.05  -0.01
  27   1     0.20  -0.10   0.23     0.00  -0.00   0.00     0.04   0.04  -0.02
  28   1     0.03  -0.00   0.02     0.10   0.00   0.05     0.02   0.03   0.08
  29   1    -0.06   0.00  -0.03    -0.20  -0.00  -0.11     0.02  -0.06  -0.01
  30   1     0.04   0.00   0.02     0.10  -0.00   0.06     0.01   0.01  -0.02
  31   1     0.00  -0.00   0.00     0.27  -0.01   0.16    -0.03   0.08   0.04
  32   1     0.00   0.00   0.00    -0.46   0.01  -0.27     0.03  -0.01  -0.05
  33   1    -0.03   0.00  -0.02     0.43  -0.01   0.25     0.04   0.02  -0.03
  34   1     0.03  -0.00   0.02    -0.25   0.01  -0.15    -0.04   0.03   0.01
                     46                     47                     48
                        a                      a                      a 
 Frequencies --   987.4154               996.9678              1007.5046
 Red. masses --     8.8988                 6.8504                 6.8847
 Frc consts  --     0.0000                 0.0000                 0.0000
 IR Inten    --     6.3284                12.9323                21.4236
 Raman Activ --     0.0000                 0.0000                 0.0000
 Depolar     --     0.0000                 0.0000                 0.0000
 Atom AN      X      Y      Z        X      Y      Z        X      Y      Z
   1   6     0.02  -0.23  -0.04     0.11   0.28  -0.22     0.37  -0.16  -0.03
   2   6     0.12   0.17  -0.04    -0.05  -0.35   0.12    -0.14   0.04  -0.20
   3   7     0.01  -0.09  -0.15     0.08   0.04  -0.09    -0.23   0.06   0.04
   4   6    -0.02  -0.00   0.06     0.02  -0.00   0.01    -0.05   0.02   0.04
   5   6    -0.13  -0.39  -0.09    -0.06  -0.15  -0.03     0.08   0.24   0.04
   6   6     0.05   0.07  -0.00    -0.01   0.01   0.01     0.03  -0.00  -0.04
   7   6    -0.17   0.10   0.20    -0.06   0.04   0.07     0.08  -0.05  -0.10
   8   6    -0.05  -0.07  -0.00    -0.01  -0.01   0.01     0.02  -0.02  -0.03
   9   6     0.29   0.33  -0.10     0.10   0.11  -0.04    -0.16  -0.18   0.05
  10   6    -0.08   0.10   0.10    -0.08   0.13   0.18     0.04   0.09   0.14
  11   6     0.01  -0.13  -0.00     0.00  -0.07  -0.01    -0.01  -0.11  -0.02
  12   6    -0.00   0.02   0.01     0.04   0.06  -0.07    -0.02   0.02   0.01
  13   6    -0.00   0.04   0.01     0.01   0.02  -0.01     0.00   0.03   0.00
  14   6    -0.01  -0.00   0.02    -0.02  -0.00   0.03    -0.02   0.01   0.02
  15   6     0.06  -0.07  -0.11     0.08  -0.10  -0.14     0.06  -0.06  -0.10
  16   6    -0.01   0.02   0.02    -0.01   0.04   0.03    -0.01   0.01   0.01
  17   6    -0.04  -0.06   0.06    -0.04  -0.07   0.07    -0.03  -0.05   0.05
  18   6     0.04  -0.01  -0.04     0.02  -0.03  -0.06     0.04  -0.01  -0.02
  19   6    -0.04   0.12   0.06    -0.04   0.18   0.08    -0.05   0.11   0.05
  20   1     0.19   0.07   0.25    -0.24  -0.11  -0.14     0.18   0.02   0.46
  21   1    -0.06   0.12  -0.07    -0.23  -0.14  -0.19    -0.28   0.08  -0.25
  22   1    -0.17   0.08  -0.19     0.24  -0.08   0.43    -0.03   0.08   0.18
  23   1    -0.07  -0.12   0.02    -0.04  -0.05   0.01     0.07   0.07  -0.02
  24   1    -0.01   0.08   0.04    -0.01   0.03   0.03     0.03  -0.05  -0.05
  25   1    -0.05   0.02   0.05    -0.02   0.02   0.02     0.02  -0.02  -0.03
  26   1    -0.07  -0.03   0.07    -0.03  -0.00   0.02     0.05  -0.00  -0.05
  27   1     0.07   0.14   0.02     0.02   0.04   0.00    -0.03  -0.09  -0.01
  28   1     0.01  -0.03  -0.04     0.02  -0.01  -0.04     0.04  -0.02  -0.02
  29   1    -0.03   0.05   0.05    -0.00   0.05   0.02    -0.01   0.05   0.05
  30   1    -0.00   0.02  -0.00    -0.00  -0.03   0.00     0.00   0.02  -0.00
  31   1     0.02  -0.04  -0.03     0.02  -0.06  -0.04     0.01  -0.03  -0.03
  32   1    -0.02  -0.00   0.03    -0.03  -0.00   0.05    -0.01  -0.01   0.02
  33   1    -0.01  -0.01   0.03    -0.02  -0.01   0.02    -0.01  -0.01   0.03
  34   1    -0.01  -0.00  -0.03     0.02  -0.06   0.01    -0.03   0.00  -0.03
                     49                     50                     51
                        a                      a                      a 
 Frequencies --  1079.7350              1079.8538              1108.9387
 Red. masses --     6.6758                 7.0817                 6.7192
 Frc consts  --     0.0000                 0.0000                 0.0000
 IR Inten    --     0.2928                 0.6654                13.9802
 Raman Activ --     0.0000                 0.0000                 0.0000
 Depolar     --     0.0000                 0.0000                 0.0000
 Atom AN      X      Y      Z        X      Y      Z        X      Y      Z
   1   6    -0.01   0.01  -0.00    -0.02   0.02   0.03     0.01  -0.06  -0.14
   2   6     0.01  -0.01   0.01    -0.01  -0.03  -0.03     0.03   0.09   0.19
   3   7     0.01  -0.01  -0.02     0.01   0.00   0.02    -0.02  -0.02  -0.05
   4   6     0.00  -0.01  -0.00    -0.00   0.00  -0.00     0.02   0.02   0.02
   5   6    -0.09   0.06   0.12     0.01  -0.00  -0.01     0.00  -0.03  -0.02
   6   6     0.21   0.29  -0.05    -0.02  -0.02   0.00    -0.02  -0.01   0.01
   7   6     0.27  -0.17  -0.32    -0.02   0.01   0.02     0.01   0.03   0.00
   8   6    -0.14  -0.32  -0.03     0.01   0.03   0.00    -0.00  -0.02  -0.01
   9   6    -0.10   0.06   0.11     0.01  -0.01  -0.01    -0.03  -0.01   0.02
  10   6    -0.00   0.00  -0.00     0.02  -0.00  -0.03    -0.07  -0.09   0.11
  11   6     0.00  -0.01  -0.00     0.03  -0.08  -0.06    -0.16   0.29   0.29
  12   6    -0.00  -0.00   0.00    -0.04  -0.05   0.07     0.15   0.12  -0.27
  13   6    -0.00  -0.00   0.00    -0.02   0.02   0.04     0.10  -0.17  -0.17
  14   6    -0.00   0.01   0.00    -0.01   0.09   0.03    -0.04  -0.04   0.07
  15   6     0.01   0.00  -0.02     0.11   0.05  -0.18     0.02   0.03  -0.04
  16   6     0.01  -0.03  -0.02     0.14  -0.34  -0.25     0.03  -0.05  -0.04
  17   6    -0.02  -0.01   0.03    -0.21  -0.15   0.36    -0.03  -0.01   0.05
  18   6    -0.01   0.01   0.01    -0.09   0.15   0.15     0.01   0.05  -0.01
  19   6     0.00   0.01  -0.00     0.05   0.07  -0.08     0.02  -0.14  -0.04
  20   1    -0.01  -0.00  -0.01    -0.02  -0.00  -0.04     0.03   0.01   0.08
  21   1     0.00  -0.00   0.00     0.04  -0.01   0.04    -0.11   0.03  -0.11
  22   1     0.00  -0.00   0.00     0.02  -0.01   0.00    -0.04   0.02   0.01
  23   1    -0.27  -0.01   0.22     0.01   0.00  -0.01     0.05  -0.00  -0.04
  24   1    -0.01   0.30   0.16     0.00  -0.02  -0.01    -0.02   0.02   0.03
  25   1     0.08  -0.06  -0.10    -0.01   0.00   0.01     0.03   0.05   0.00
  26   1    -0.26  -0.13   0.18     0.02   0.01  -0.01     0.03  -0.00  -0.03
  27   1    -0.11   0.24   0.21     0.01  -0.02  -0.02    -0.02   0.04   0.04
  28   1    -0.00  -0.00  -0.00     0.04  -0.01  -0.08    -0.19   0.01   0.36
  29   1    -0.00   0.00   0.00    -0.02   0.01   0.04     0.10  -0.06  -0.17
  30   1    -0.00   0.00   0.00     0.00   0.06  -0.00    -0.02  -0.41   0.04
  31   1     0.01   0.03  -0.01     0.08   0.37  -0.14     0.02   0.10  -0.03
  32   1     0.01  -0.00  -0.02     0.12  -0.06  -0.21     0.02  -0.01  -0.03
  33   1    -0.01   0.01   0.02    -0.12   0.07   0.21    -0.03   0.03   0.04
  34   1     0.01   0.03   0.00     0.04   0.37  -0.01     0.03   0.17  -0.04
                     52                     53                     54
                        a                      a                      a 
 Frequencies --  1115.2665              1128.3381              1170.9947
 Red. masses --     4.1148                 7.2545                 2.8271
 Frc consts  --     0.0000                 0.0000                 0.0000
 IR Inten    --     0.7507                49.9505                 8.6268
 Raman Activ --     0.0000                 0.0000                 0.0000
 Depolar     --     0.0000                 0.0000                 0.0000
 Atom AN      X      Y      Z        X      Y      Z        X      Y      Z
   1   6    -0.00  -0.00  -0.04     0.01  -0.05  -0.23    -0.00  -0.02  -0.07
   2   6     0.01   0.01   0.05     0.03   0.06   0.39     0.02   0.03   0.16
   3   7     0.01   0.03  -0.00    -0.02  -0.01  -0.09    -0.01  -0.01  -0.04
   4   6    -0.08  -0.14   0.00     0.01  -0.00   0.03    -0.02   0.01   0.04
   5   6    -0.04   0.20   0.14     0.00  -0.01  -0.01     0.00   0.01   0.00
   6   6     0.13   0.09  -0.08    -0.00   0.00   0.00     0.01   0.02  -0.00
   7   6    -0.11  -0.18   0.01     0.00   0.01   0.00    -0.00  -0.00  -0.00
   8   6     0.02   0.18   0.07    -0.01  -0.01  -0.01    -0.01  -0.02  -0.00
   9   6     0.20   0.06  -0.15    -0.01   0.00   0.00    -0.00  -0.01  -0.00
  10   6    -0.01  -0.01   0.02    -0.09   0.02   0.13    -0.01  -0.07  -0.00
  11   6    -0.02   0.04   0.04     0.04  -0.02  -0.07     0.01   0.05  -0.01
  12   6     0.02   0.02  -0.04     0.01  -0.04  -0.02     0.01  -0.10  -0.02
  13   6     0.01  -0.02  -0.01    -0.11   0.08   0.19     0.01   0.09  -0.02
  14   6     0.00  -0.01   0.00     0.11  -0.07  -0.20    -0.01   0.02   0.02
  15   6    -0.01   0.01   0.01    -0.12   0.07   0.22     0.06   0.10  -0.09
  16   6     0.00  -0.01  -0.01     0.03  -0.03  -0.05    -0.05  -0.04   0.09
  17   6     0.00   0.00  -0.00     0.04   0.01  -0.07     0.01   0.06  -0.01
  18   6    -0.00   0.01   0.00    -0.11   0.07   0.18     0.06  -0.11  -0.11
  19   6     0.01  -0.04  -0.02     0.11  -0.12  -0.20    -0.05  -0.16   0.08
  20   1     0.00   0.00   0.01     0.01  -0.00   0.09     0.00   0.00   0.02
  21   1    -0.03   0.00  -0.03    -0.18   0.03  -0.18    -0.06   0.01  -0.05
  22   1    -0.00   0.00   0.01    -0.03   0.03   0.04    -0.02   0.01   0.01
  23   1    -0.33   0.01   0.28     0.03  -0.00  -0.02     0.04   0.01  -0.03
  24   1     0.11  -0.18  -0.19    -0.00   0.01   0.01    -0.00   0.03   0.02
  25   1    -0.22  -0.38   0.01     0.01   0.02   0.00    -0.01  -0.02   0.00
  26   1    -0.19   0.03   0.18     0.01  -0.00  -0.00    -0.01  -0.01   0.01
  27   1     0.17  -0.28  -0.27    -0.00   0.01   0.02     0.01  -0.03  -0.02
  28   1    -0.02   0.00   0.04     0.10   0.05  -0.21     0.01   0.02  -0.02
  29   1     0.02  -0.02  -0.03     0.10  -0.22  -0.18     0.14  -0.29  -0.24
  30   1    -0.00  -0.05   0.01    -0.01   0.20   0.01     0.05   0.40  -0.09
  31   1    -0.00   0.01   0.00    -0.05  -0.07   0.08     0.07   0.40  -0.11
  32   1     0.01   0.00  -0.01     0.13   0.06  -0.22    -0.22  -0.12   0.37
  33   1     0.00  -0.00  -0.00     0.09  -0.16  -0.16    -0.09   0.21   0.17
  34   1     0.01   0.03  -0.00    -0.00   0.15   0.03    -0.01  -0.18  -0.00
                     55                     56                     57
                        a                      a                      a 
 Frequencies --  1179.4044              1179.7197              1187.8542
 Red. masses --     1.5684                 1.5145                 2.4383
 Frc consts  --     0.0000                 0.0000                 0.0000
 IR Inten    --     0.0218                 0.7540                23.9706
 Raman Activ --     0.0000                 0.0000                 0.0000
 Depolar     --     0.0000                 0.0000                 0.0000
 Atom AN      X      Y      Z        X      Y      Z        X      Y      Z
   1   6     0.00  -0.00   0.01    -0.01   0.00  -0.01    -0.03  -0.00  -0.05
   2   6     0.01   0.00  -0.01     0.01  -0.01   0.02     0.08  -0.00   0.10
   3   7     0.00   0.00  -0.00     0.01   0.00  -0.01     0.03  -0.03  -0.09
   4   6     0.01   0.04   0.01     0.01   0.05   0.01    -0.11   0.05   0.13
   5   6    -0.03   0.03   0.04    -0.04   0.03   0.04     0.07   0.04  -0.05
   6   6     0.00   0.03   0.02    -0.00   0.04   0.02     0.04   0.14   0.03
   7   6    -0.03  -0.05   0.00    -0.03  -0.06   0.00    -0.00   0.01   0.01
   8   6     0.01  -0.00  -0.01     0.02  -0.00  -0.01    -0.10  -0.10   0.04
   9   6     0.04  -0.03  -0.04     0.04  -0.03  -0.05    -0.00  -0.08  -0.03
  10   6    -0.00  -0.05   0.00     0.00   0.04  -0.01     0.01  -0.02  -0.06
  11   6     0.00  -0.00  -0.01    -0.00   0.00   0.01     0.01   0.02  -0.02
  12   6    -0.00  -0.00   0.00    -0.00   0.01   0.00    -0.02   0.01   0.03
  13   6    -0.01  -0.02   0.02     0.01   0.02  -0.02     0.00  -0.01  -0.01
  14   6     0.05   0.02  -0.09    -0.04  -0.02   0.08    -0.01   0.01   0.01
  15   6     0.01   0.00  -0.02    -0.01  -0.01   0.02     0.00   0.00  -0.01
  16   6     0.03   0.01  -0.05    -0.02  -0.01   0.04     0.01   0.00  -0.01
  17   6    -0.03   0.04   0.05     0.02  -0.04  -0.04    -0.00   0.02   0.00
  18   6    -0.00   0.00   0.01     0.00   0.00  -0.01     0.00  -0.02  -0.01
  19   6    -0.04   0.07   0.08     0.04  -0.06  -0.07     0.01  -0.05  -0.01
  20   1     0.00   0.00   0.00    -0.01  -0.00  -0.01    -0.00   0.00  -0.01
  21   1     0.00   0.00   0.00    -0.00  -0.00  -0.00    -0.02   0.00  -0.02
  22   1    -0.00   0.00  -0.00     0.00  -0.00   0.00    -0.01   0.00  -0.01
  23   1     0.11   0.02  -0.08     0.12   0.03  -0.09     0.37   0.06  -0.28
  24   1    -0.09   0.24   0.19    -0.10   0.28   0.22    -0.07   0.27   0.19
  25   1    -0.23  -0.41   0.01    -0.27  -0.47   0.02     0.03   0.06  -0.00
  26   1     0.20   0.03  -0.16     0.23   0.03  -0.19    -0.35  -0.08   0.28
  27   1    -0.01   0.05   0.03    -0.02   0.06   0.04     0.13  -0.39  -0.30
  28   1    -0.06  -0.04   0.12     0.05   0.03  -0.11     0.05   0.03  -0.09
  29   1     0.07  -0.13  -0.12    -0.07   0.14   0.12    -0.06   0.12   0.11
  30   1     0.00   0.06  -0.01    -0.01  -0.08   0.01    -0.02  -0.12   0.03
  31   1    -0.03  -0.25   0.05     0.02   0.20  -0.04    -0.00  -0.03   0.00
  32   1     0.19   0.09  -0.32    -0.16  -0.08   0.27     0.01   0.01  -0.02
  33   1    -0.15   0.29   0.27     0.13  -0.26  -0.24    -0.03   0.06   0.05
  34   1    -0.05  -0.27   0.06     0.04   0.24  -0.05    -0.00  -0.03   0.00
                     58                     59                     60
                        a                      a                      a 
 Frequencies --  1197.8295              1222.2716              1235.8034
 Red. masses --     3.5199                 6.3417                 8.7697
 Frc consts  --     0.0000                 0.0000                 0.0000
 IR Inten    --     8.6341                 6.1585                98.9699
 Raman Activ --     0.0000                 0.0000                 0.0000
 Depolar     --     0.0000                 0.0000                 0.0000
 Atom AN      X      Y      Z        X      Y      Z        X      Y      Z
   1   6    -0.00   0.02   0.09     0.01  -0.00   0.05     0.05   0.01   0.09
   2   6    -0.02  -0.05  -0.22    -0.03   0.00  -0.13    -0.17  -0.00  -0.26
   3   7     0.03  -0.00   0.04     0.00   0.01   0.05    -0.03   0.06   0.21
   4   6     0.01  -0.01  -0.03     0.05  -0.02  -0.06     0.27  -0.13  -0.33
   5   6     0.03   0.00  -0.02     0.01  -0.01  -0.01     0.08  -0.05  -0.08
   6   6    -0.01   0.03   0.02    -0.02  -0.01   0.01    -0.11  -0.07   0.07
   7   6    -0.01   0.00   0.01    -0.01   0.00   0.01    -0.03   0.02   0.04
   8   6    -0.03  -0.00   0.03    -0.01   0.02   0.02    -0.01   0.12   0.07
   9   6     0.01  -0.03  -0.02     0.01  -0.01  -0.02     0.06  -0.05  -0.08
  10   6    -0.01   0.08   0.04    -0.05  -0.14   0.11    -0.08   0.09   0.23
  11   6    -0.02  -0.12   0.03     0.00   0.01  -0.01    -0.08   0.05   0.15
  12   6     0.03  -0.02  -0.06    -0.07  -0.02   0.11     0.06   0.00  -0.12
  13   6     0.01  -0.03  -0.01    -0.06   0.04   0.10     0.03   0.11  -0.05
  14   6    -0.00  -0.05  -0.00     0.09   0.52  -0.14    -0.04  -0.16   0.06
  15   6    -0.01  -0.06   0.02     0.05  -0.03  -0.08     0.00   0.06  -0.00
  16   6    -0.01   0.01   0.01     0.06  -0.13  -0.11    -0.03   0.02   0.05
  17   6    -0.02  -0.10   0.03    -0.03   0.03   0.05     0.06  -0.01  -0.09
  18   6    -0.02   0.09   0.03    -0.05  -0.11   0.07     0.03   0.04  -0.05
  19   6    -0.02   0.31   0.04     0.04   0.13  -0.07    -0.07  -0.27   0.09
  20   1    -0.00   0.00  -0.03     0.01   0.00  -0.00     0.01  -0.00   0.03
  21   1     0.07  -0.02   0.07     0.03  -0.00   0.03     0.05  -0.01   0.05
  22   1     0.02  -0.01  -0.01     0.00  -0.00  -0.00     0.02  -0.01   0.03
  23   1     0.10   0.02  -0.08    -0.01  -0.00  -0.00    -0.05  -0.03   0.02
  24   1    -0.04   0.11   0.08    -0.02   0.04   0.04    -0.10   0.17   0.17
  25   1     0.00   0.01   0.00    -0.00   0.00   0.00    -0.01   0.02   0.01
  26   1    -0.12  -0.02   0.10    -0.04   0.00   0.03    -0.16   0.01   0.14
  27   1     0.04  -0.10  -0.09     0.01  -0.02  -0.01     0.02   0.01  -0.01
  28   1    -0.23  -0.16   0.43     0.06   0.03  -0.11     0.13   0.10  -0.25
  29   1     0.13  -0.24  -0.22     0.13  -0.30  -0.23     0.05  -0.05  -0.08
  30   1     0.05   0.33  -0.08    -0.06  -0.33   0.12     0.02   0.06  -0.02
  31   1     0.00   0.01   0.00    -0.02  -0.27   0.03    -0.01  -0.05   0.01
  32   1     0.01   0.01  -0.03    -0.16  -0.13   0.28     0.05   0.03  -0.08
  33   1     0.13  -0.30  -0.24     0.01  -0.04  -0.02    -0.04   0.10   0.06
  34   1     0.01   0.11  -0.00    -0.00   0.03   0.01     0.03   0.20  -0.06
                     61                     62                     63
                        a                      a                      a 
 Frequencies --  1247.8242              1277.4449              1282.5076
 Red. masses --     5.2480                 4.1218                 8.4879
 Frc consts  --     0.0000                 0.0000                 0.0000
 IR Inten    --    11.3476                 2.8867                 5.6738
 Raman Activ --     0.0000                 0.0000                 0.0000
 Depolar     --     0.0000                 0.0000                 0.0000
 Atom AN      X      Y      Z        X      Y      Z        X      Y      Z
   1   6     0.04  -0.01   0.03     0.02   0.00  -0.01    -0.03   0.03   0.11
   2   6    -0.09   0.04  -0.05    -0.05   0.01   0.05     0.16  -0.10  -0.37
   3   7    -0.04   0.04   0.11    -0.01   0.06   0.05     0.14  -0.07  -0.13
   4   6     0.14  -0.08  -0.17    -0.13  -0.37  -0.07    -0.26   0.07   0.25
   5   6     0.04  -0.02  -0.04    -0.05   0.04   0.06    -0.10   0.03   0.10
   6   6    -0.06  -0.04   0.03    -0.03   0.14   0.10     0.09   0.11  -0.02
   7   6    -0.02   0.01   0.02     0.04   0.08   0.01     0.05  -0.01  -0.04
   8   6    -0.00   0.07   0.03     0.14   0.10  -0.07     0.02  -0.10  -0.06
   9   6     0.04  -0.03  -0.05     0.09  -0.05  -0.10    -0.04   0.05   0.07
  10   6    -0.03   0.01   0.08     0.03   0.01  -0.05    -0.14   0.08   0.25
  11   6    -0.01  -0.03   0.01     0.02  -0.00  -0.04    -0.13  -0.04   0.24
  12   6     0.01   0.08  -0.02    -0.01  -0.02   0.02     0.06   0.05  -0.11
  13   6    -0.05  -0.06   0.08    -0.01  -0.01   0.01     0.02   0.13  -0.03
  14   6     0.11  -0.12  -0.19     0.00   0.03  -0.00     0.02  -0.13  -0.03
  15   6    -0.04  -0.01   0.08     0.00   0.01  -0.00     0.01   0.01  -0.01
  16   6    -0.02   0.01   0.04     0.01  -0.00  -0.02    -0.05  -0.01   0.09
  17   6    -0.06   0.04   0.10     0.00   0.00  -0.00     0.00  -0.03  -0.01
  18   6    -0.06   0.00   0.10    -0.00  -0.02   0.00     0.00   0.10   0.00
  19   6     0.18   0.16  -0.30    -0.00  -0.02   0.00     0.01  -0.03  -0.02
  20   1     0.01  -0.00   0.03    -0.01  -0.01   0.01    -0.01   0.00  -0.07
  21   1     0.00   0.01   0.00    -0.01   0.00  -0.01     0.08  -0.03   0.08
  22   1    -0.01   0.02   0.01    -0.00   0.01   0.02     0.02  -0.02  -0.05
  23   1    -0.03  -0.01   0.02     0.34   0.06  -0.26     0.14   0.04  -0.10
  24   1    -0.05   0.07   0.08     0.08  -0.22  -0.18     0.09  -0.15  -0.16
  25   1    -0.01   0.01   0.01    -0.12  -0.19   0.01    -0.02  -0.05  -0.01
  26   1    -0.08   0.01   0.07    -0.29  -0.02   0.25     0.06  -0.02  -0.06
  27   1     0.00   0.02   0.01    -0.12   0.38   0.28    -0.02  -0.00   0.00
  28   1    -0.00  -0.01   0.01    -0.03  -0.02   0.05     0.14   0.09  -0.27
  29   1    -0.02   0.06   0.03    -0.02   0.02   0.03     0.09  -0.13  -0.16
  30   1    -0.03  -0.20   0.07    -0.00   0.01   0.00    -0.01  -0.12   0.03
  31   1     0.05   0.44  -0.08    -0.00  -0.03   0.01     0.02   0.12  -0.03
  32   1     0.02   0.02  -0.03    -0.01  -0.01   0.02     0.06   0.03  -0.10
  33   1     0.03  -0.08  -0.05    -0.01   0.02   0.01     0.02  -0.04  -0.03
  34   1    -0.11  -0.54   0.14     0.00   0.03  -0.01    -0.02  -0.11   0.03
                     64                     65                     66
                        a                      a                      a 
 Frequencies --  1316.2821              1337.2242              1370.4034
 Red. masses --    11.4299                 9.5150                 8.8420
 Frc consts  --     0.0000                 0.0000                 0.0000
 IR Inten    --     3.8516                 0.6303                 4.7803
 Raman Activ --     0.0000                 0.0000                 0.0000
 Depolar     --     0.0000                 0.0000                 0.0000
 Atom AN      X      Y      Z        X      Y      Z        X      Y      Z
   1   6    -0.00  -0.01  -0.00     0.01   0.01   0.02    -0.04  -0.01  -0.09
   2   6     0.01   0.00   0.01    -0.00  -0.04  -0.01    -0.03   0.03   0.19
   3   7    -0.00  -0.00  -0.01     0.01  -0.01  -0.01    -0.06   0.02   0.02
   4   6     0.20   0.36  -0.00     0.01   0.04   0.01     0.03  -0.02  -0.03
   5   6    -0.33  -0.07   0.26    -0.03   0.00   0.03     0.03   0.01  -0.02
   6   6     0.08  -0.24  -0.19     0.02  -0.03  -0.03    -0.01  -0.03  -0.01
   7   6     0.23   0.39  -0.01     0.02   0.03  -0.00    -0.01   0.01   0.01
   8   6    -0.25  -0.04   0.20    -0.04  -0.01   0.03     0.01   0.03   0.01
   9   6     0.10  -0.34  -0.25     0.01  -0.01  -0.01     0.01  -0.03  -0.03
  10   6    -0.00  -0.04   0.01     0.04   0.49  -0.08     0.16  -0.05  -0.31
  11   6     0.00   0.02  -0.01    -0.02  -0.18   0.04    -0.03  -0.10   0.07
  12   6     0.00   0.02  -0.00     0.02  -0.24  -0.03    -0.07  -0.10   0.13
  13   6     0.01  -0.02  -0.01    -0.07   0.21   0.13     0.07   0.31  -0.12
  14   6    -0.01   0.00   0.02     0.11  -0.09  -0.19    -0.06   0.06   0.12
  15   6    -0.00  -0.02   0.00     0.03   0.34  -0.05     0.10  -0.02  -0.18
  16   6     0.00   0.01  -0.01    -0.04  -0.12   0.07    -0.14  -0.16   0.23
  17   6    -0.01   0.01   0.01     0.08  -0.23  -0.15    -0.03  -0.03   0.06
  18   6     0.01  -0.01  -0.01    -0.07   0.13   0.13     0.10   0.33  -0.16
  19   6    -0.00   0.02   0.01     0.04  -0.19  -0.08    -0.11  -0.07   0.19
  20   1     0.00   0.00  -0.00    -0.01  -0.01  -0.01     0.03   0.02   0.07
  21   1     0.00   0.01   0.00    -0.01  -0.01  -0.01     0.05   0.02   0.02
  22   1    -0.01   0.00  -0.00     0.00  -0.00  -0.01     0.02  -0.01   0.08
  23   1     0.03  -0.00  -0.02    -0.00   0.00   0.00    -0.03  -0.00   0.02
  24   1     0.03  -0.10  -0.08     0.00   0.00   0.00    -0.02   0.02   0.03
  25   1    -0.06  -0.10   0.00     0.01   0.01  -0.00     0.00   0.01   0.00
  26   1    -0.10  -0.02   0.08     0.01   0.00  -0.01    -0.02   0.00   0.02
  27   1    -0.02   0.03   0.03     0.00  -0.01  -0.01    -0.01   0.03   0.02
  28   1     0.01   0.01  -0.02    -0.13  -0.12   0.24     0.04  -0.01  -0.08
  29   1     0.00   0.00  -0.00    -0.04   0.02   0.07     0.05  -0.17  -0.09
  30   1     0.00   0.02  -0.01    -0.05  -0.17   0.09    -0.02  -0.21   0.04
  31   1     0.00   0.01  -0.00    -0.01  -0.11   0.03     0.03   0.01  -0.06
  32   1     0.01   0.01  -0.01    -0.09  -0.08   0.16     0.11   0.03  -0.19
  33   1     0.01  -0.01  -0.01    -0.07   0.11   0.12     0.09  -0.21  -0.17
  34   1     0.00   0.00  -0.00    -0.03   0.01   0.04    -0.02  -0.19   0.02
                     67                     68                     69
                        a                      a                      a 
 Frequencies --  1375.3212              1391.0463              1417.1038
 Red. masses --     3.2165                 9.7646                 9.5749
 Frc consts  --     0.0000                 0.0000                 0.0000
 IR Inten    --    18.5826                 0.1664                 0.3733
 Raman Activ --     0.0000                 0.0000                 0.0000
 Depolar     --     0.0000                 0.0000                 0.0000
 Atom AN      X      Y      Z        X      Y      Z        X      Y      Z
   1   6     0.29   0.01   0.32     0.01   0.00   0.01     0.01  -0.02  -0.00
   2   6    -0.03   0.01   0.01    -0.00  -0.02  -0.02    -0.00   0.03   0.01
   3   7    -0.01   0.01   0.01     0.01  -0.00  -0.00    -0.01  -0.00   0.00
   4   6     0.01  -0.01  -0.01    -0.00   0.00   0.00     0.02   0.03   0.00
   5   6     0.01   0.00  -0.00    -0.00  -0.00   0.00     0.02  -0.02  -0.03
   6   6    -0.00  -0.01  -0.00     0.00   0.00   0.00    -0.03   0.02   0.03
   7   6    -0.00  -0.00   0.00     0.00  -0.00  -0.00     0.01   0.02   0.00
   8   6    -0.00   0.01   0.00    -0.00  -0.00   0.00     0.04  -0.01  -0.04
   9   6     0.00  -0.00  -0.01    -0.00   0.00   0.00    -0.03  -0.01   0.02
  10   6     0.03  -0.02  -0.04    -0.03  -0.09   0.06    -0.01  -0.33   0.02
  11   6    -0.01  -0.01   0.01     0.13   0.03  -0.24    -0.04   0.14   0.08
  12   6    -0.01  -0.01   0.02    -0.12   0.19   0.22     0.09   0.05  -0.16
  13   6     0.01   0.04  -0.02    -0.01  -0.11   0.02    -0.06  -0.26   0.10
  14   6    -0.02   0.02   0.04     0.25  -0.13  -0.45     0.08  -0.11  -0.15
  15   6     0.02  -0.02  -0.03    -0.02   0.01   0.04     0.05   0.42  -0.08
  16   6    -0.01  -0.02   0.02    -0.11   0.02   0.19     0.02  -0.17  -0.03
  17   6    -0.01   0.01   0.02     0.10  -0.07  -0.17    -0.04  -0.23   0.06
  18   6     0.02   0.05  -0.03     0.02  -0.01  -0.04     0.03   0.39  -0.03
  19   6    -0.01  -0.02   0.02    -0.23   0.09   0.40    -0.08   0.14   0.14
  20   1    -0.29  -0.21  -0.37    -0.01  -0.00  -0.01    -0.01  -0.01  -0.01
  21   1    -0.43  -0.04  -0.25    -0.01  -0.01  -0.01     0.00   0.02  -0.00
  22   1    -0.23   0.19  -0.43     0.00  -0.00  -0.01    -0.02   0.02   0.01
  23   1    -0.01  -0.00   0.00     0.00   0.00  -0.00    -0.01  -0.01   0.01
  24   1    -0.00   0.01   0.01     0.00  -0.00  -0.00     0.00  -0.02  -0.01
  25   1     0.00   0.00   0.00     0.00  -0.00  -0.00    -0.02  -0.03   0.00
  26   1    -0.00   0.00   0.00     0.00  -0.00  -0.00    -0.02  -0.01   0.02
  27   1     0.00  -0.00   0.00     0.00  -0.00  -0.00    -0.00  -0.01   0.00
  28   1     0.01   0.00  -0.01    -0.02  -0.02   0.04     0.07   0.08  -0.12
  29   1     0.01  -0.03  -0.01     0.02  -0.05  -0.04    -0.04   0.15   0.08
  30   1    -0.00  -0.02   0.00    -0.03  -0.22   0.05     0.02   0.16  -0.03
  31   1     0.00  -0.01  -0.01     0.03   0.26  -0.05    -0.03  -0.21   0.05
  32   1     0.02   0.01  -0.03     0.03   0.04  -0.05    -0.09  -0.10   0.16
  33   1     0.02  -0.04  -0.03    -0.01   0.06   0.02     0.01  -0.12  -0.02
  34   1     0.01  -0.02   0.00     0.04   0.24  -0.06    -0.04  -0.15   0.05
                     70                     71                     72
                        a                      a                      a 
 Frequencies --  1433.0254              1452.0113              1459.3960
 Red. masses --     8.9917                 9.7288                 1.8857
 Frc consts  --     0.0000                 0.0000                 0.0000
 IR Inten    --     6.4861                 6.0373                 3.0831
 Raman Activ --     0.0000                 0.0000                 0.0000
 Depolar     --     0.0000                 0.0000                 0.0000
 Atom AN      X      Y      Z        X      Y      Z        X      Y      Z
   1   6    -0.00   0.00   0.00     0.01  -0.02  -0.01    -0.01  -0.22   0.07
   2   6    -0.01   0.00   0.01     0.00   0.02   0.08    -0.02  -0.04  -0.02
   3   7    -0.02  -0.04  -0.01    -0.03   0.01  -0.00    -0.02   0.01   0.02
   4   6     0.18   0.32  -0.00    -0.04   0.03   0.05     0.05  -0.02  -0.06
   5   6     0.11  -0.22  -0.21     0.07   0.03  -0.04    -0.04  -0.03   0.02
   6   6    -0.25   0.12   0.28    -0.01  -0.07  -0.03    -0.01   0.06   0.03
   7   6     0.13   0.23  -0.00    -0.03   0.02   0.04     0.03  -0.01  -0.03
   8   6     0.23  -0.16  -0.28     0.06   0.04  -0.03    -0.03  -0.03   0.01
   9   6    -0.24  -0.01   0.21     0.00  -0.07  -0.04    -0.01   0.05   0.04
  10   6     0.01   0.05  -0.01     0.12  -0.08  -0.23     0.00   0.01   0.01
  11   6     0.01  -0.02  -0.01    -0.07  -0.18   0.14     0.00   0.00  -0.01
  12   6    -0.01  -0.02   0.02    -0.08   0.21   0.14     0.00  -0.01  -0.00
  13   6     0.00   0.04  -0.01     0.10   0.11  -0.18    -0.00   0.01   0.00
  14   6    -0.01   0.01   0.02    -0.08  -0.38   0.14    -0.00   0.01   0.01
  15   6    -0.00  -0.04   0.00    -0.06   0.06   0.11     0.00  -0.01  -0.01
  16   6    -0.01   0.01   0.02     0.09   0.17  -0.15    -0.01  -0.00   0.02
  17   6     0.01   0.02  -0.01     0.06  -0.25  -0.11     0.01  -0.00  -0.01
  18   6    -0.00  -0.03   0.01    -0.08  -0.02   0.14    -0.00  -0.01   0.00
  19   6     0.01  -0.01  -0.02     0.06   0.36  -0.09     0.00  -0.00  -0.00
  20   1     0.00   0.00   0.02    -0.03  -0.02  -0.02     0.19   0.09  -0.48
  21   1    -0.01  -0.03  -0.00     0.01   0.05   0.00    -0.02   0.71  -0.08
  22   1     0.01  -0.01  -0.02    -0.05   0.04   0.03    -0.07   0.06   0.35
  23   1    -0.12  -0.09   0.06    -0.05  -0.00   0.04     0.03  -0.00  -0.03
  24   1     0.01  -0.19  -0.10    -0.02   0.04   0.04     0.02  -0.03  -0.03
  25   1    -0.18  -0.31   0.01    -0.01   0.01   0.01     0.00  -0.02  -0.01
  26   1    -0.17  -0.08   0.11    -0.05   0.00   0.04     0.03  -0.00  -0.03
  27   1    -0.02  -0.14  -0.05    -0.02   0.05   0.04     0.02  -0.04  -0.03
  28   1    -0.01  -0.01   0.02     0.08  -0.00  -0.15    -0.00  -0.00   0.00
  29   1     0.00  -0.01  -0.00     0.08  -0.14  -0.15    -0.00  -0.00   0.00
  30   1    -0.00  -0.02   0.01     0.01  -0.13  -0.02    -0.00  -0.00   0.00
  31   1     0.00   0.02  -0.01    -0.03  -0.04   0.05     0.00   0.01  -0.00
  32   1     0.01   0.01  -0.02    -0.09  -0.01   0.15     0.01   0.00  -0.01
  33   1    -0.00   0.01   0.00    -0.08   0.12   0.14     0.00   0.00  -0.00
  34   1     0.00   0.01  -0.00    -0.01   0.09   0.02    -0.00   0.01  -0.00
                     73                     74                     75
                        a                      a                      a 
 Frequencies --  1464.7995              1468.2306              1507.0959
 Red. masses --     2.7736                 7.8066                10.8184
 Frc consts  --     0.0000                 0.0000                 0.0000
 IR Inten    --     6.1078                38.8521                 0.7451
 Raman Activ --     0.0000                 0.0000                 0.0000
 Depolar     --     0.0000                 0.0000                 0.0000
 Atom AN      X      Y      Z        X      Y      Z        X      Y      Z
   1   6     0.13  -0.03  -0.16     0.04  -0.05  -0.05     0.00   0.00  -0.00
   2   6    -0.05   0.02   0.01     0.08  -0.04  -0.07    -0.01   0.03   0.05
   3   7     0.04  -0.01   0.02     0.06  -0.04  -0.07    -0.03   0.01   0.01
   4   6     0.10  -0.05  -0.11    -0.25   0.14   0.28     0.02  -0.02  -0.02
   5   6    -0.10  -0.07   0.06     0.21   0.13  -0.13    -0.01  -0.01   0.01
   6   6    -0.01   0.13   0.07     0.01  -0.26  -0.13    -0.00   0.02   0.01
   7   6     0.06  -0.04  -0.07    -0.13   0.07   0.16     0.00  -0.01  -0.01
   8   6    -0.11  -0.06   0.07     0.23   0.12  -0.15    -0.02   0.00   0.01
   9   6    -0.00   0.12   0.06    -0.01  -0.25  -0.11     0.01   0.01  -0.00
  10   6     0.00   0.01  -0.01    -0.04   0.04   0.07     0.07  -0.19  -0.14
  11   6     0.00  -0.01  -0.01     0.00   0.04  -0.00    -0.13   0.03   0.24
  12   6    -0.01   0.01   0.01     0.03  -0.06  -0.06     0.14  -0.21  -0.25
  13   6     0.00   0.01  -0.01    -0.03  -0.03   0.06    -0.08  -0.00   0.13
  14   6    -0.00  -0.01   0.01     0.03   0.10  -0.05     0.02   0.27  -0.02
  15   6    -0.00  -0.01   0.01     0.01  -0.03  -0.02     0.06  -0.17  -0.11
  16   6     0.00   0.01  -0.01    -0.03  -0.03   0.05    -0.20   0.02   0.35
  17   6     0.00  -0.00  -0.00     0.00   0.06   0.00     0.18  -0.19  -0.31
  18   6    -0.00  -0.01   0.00     0.01  -0.03  -0.02    -0.10  -0.09   0.17
  19   6     0.00  -0.00  -0.00    -0.01  -0.07   0.02     0.05   0.31  -0.08
  20   1    -0.44  -0.28   0.19    -0.17  -0.11  -0.02    -0.00  -0.00   0.01
  21   1     0.31   0.04   0.16     0.14   0.14   0.07    -0.01  -0.02  -0.01
  22   1    -0.42   0.37   0.21    -0.19   0.17   0.15     0.00  -0.00  -0.02
  23   1     0.08  -0.00  -0.07    -0.17   0.00   0.15     0.01  -0.00  -0.01
  24   1     0.04  -0.07  -0.07    -0.08   0.15   0.14     0.00  -0.01  -0.01
  25   1     0.02  -0.02  -0.02    -0.04   0.03   0.05     0.01   0.00  -0.00
  26   1     0.08  -0.00  -0.07    -0.16   0.00   0.15     0.01   0.00  -0.01
  27   1     0.05  -0.08  -0.07    -0.09   0.15   0.14     0.00  -0.00  -0.00
  28   1    -0.00  -0.00   0.01    -0.02   0.00   0.03     0.04   0.05  -0.07
  29   1     0.00  -0.01  -0.00    -0.02   0.04   0.04    -0.04   0.09   0.06
  30   1    -0.00  -0.01   0.00    -0.00   0.04   0.01    -0.01   0.09   0.02
  31   1    -0.00   0.00   0.00     0.01   0.03  -0.01     0.04   0.10  -0.06
  32   1    -0.00   0.00   0.00     0.02   0.01  -0.04     0.06   0.06  -0.11
  33   1    -0.00   0.00   0.00     0.01  -0.01  -0.02    -0.04   0.12   0.07
  34   1     0.01   0.01   0.00     0.01   0.01  -0.01    -0.00   0.14   0.01
                     76                     77                     78
                        a                      a                      a 
 Frequencies --  1565.2085              1570.3739              1595.3073
 Red. masses --    11.7001                11.4443                11.4584
 Frc consts  --     0.0000                 0.0000                 0.0000
 IR Inten    --     0.0980                 2.5580               103.2666
 Raman Activ --     0.0000                 0.0000                 0.0000
 Depolar     --     0.0000                 0.0000                 0.0000
 Atom AN      X      Y      Z        X      Y      Z        X      Y      Z
   1   6    -0.00   0.00  -0.00     0.00   0.00  -0.00    -0.00  -0.00   0.00
   2   6     0.02  -0.00  -0.04     0.00  -0.00  -0.01    -0.02   0.00  -0.01
   3   7     0.01  -0.01  -0.01     0.01   0.02   0.00     0.04  -0.02  -0.01
   4   6     0.02   0.05   0.01    -0.21  -0.38   0.00    -0.15   0.07   0.17
   5   6    -0.03  -0.02   0.02     0.21   0.17  -0.10     0.32  -0.06  -0.31
   6   6     0.02   0.03  -0.00    -0.08  -0.33  -0.09    -0.20   0.27   0.31
   7   6    -0.04  -0.07   0.01     0.28   0.50  -0.00     0.14  -0.05  -0.15
   8   6     0.04   0.03  -0.02    -0.20  -0.23   0.06    -0.34   0.03   0.31
   9   6    -0.01  -0.04  -0.01     0.02   0.30   0.13     0.20  -0.23  -0.29
  10   6    -0.13  -0.07   0.25    -0.01   0.00   0.02     0.02   0.08  -0.04
  11   6     0.18   0.08  -0.34     0.01  -0.00  -0.02    -0.03  -0.06   0.05
  12   6    -0.13   0.21   0.23    -0.02   0.06   0.03    -0.01   0.10   0.02
  13   6     0.06  -0.14  -0.11     0.01  -0.06  -0.01    -0.00  -0.12   0.00
  14   6    -0.17   0.07   0.31    -0.02   0.03   0.03     0.00   0.05  -0.01
  15   6     0.09   0.10  -0.16     0.01   0.01  -0.02     0.01   0.01  -0.02
  16   6    -0.16  -0.07   0.27    -0.02  -0.01   0.04    -0.01  -0.02   0.03
  17   6     0.12  -0.23  -0.21     0.02  -0.03  -0.03     0.00   0.01  -0.00
  18   6    -0.06   0.19   0.10    -0.01   0.03   0.01     0.00  -0.01  -0.00
  19   6     0.17  -0.10  -0.30     0.02  -0.02  -0.04     0.01  -0.04  -0.01
  20   1    -0.00  -0.00   0.01    -0.00  -0.00   0.00     0.01   0.00  -0.01
  21   1     0.01  -0.00   0.01     0.00  -0.00   0.00    -0.01   0.01  -0.00
  22   1    -0.00   0.00  -0.00     0.00   0.00   0.00     0.00  -0.00   0.00
  23   1     0.01  -0.00  -0.01    -0.05   0.03   0.06    -0.08  -0.04   0.05
  24   1     0.01   0.00  -0.00    -0.06   0.01   0.06     0.01  -0.10  -0.05
  25   1     0.01   0.02   0.00    -0.08  -0.13   0.01     0.03  -0.03  -0.04
  26   1    -0.01   0.01   0.01     0.03  -0.05  -0.05     0.09   0.03  -0.06
  27   1    -0.01   0.01   0.01     0.05  -0.05  -0.06    -0.00   0.09   0.04
  28   1    -0.04  -0.02   0.07     0.00  -0.00  -0.00     0.01  -0.00  -0.02
  29   1     0.02  -0.04  -0.03     0.01  -0.01  -0.01     0.01  -0.00  -0.02
  30   1     0.02   0.02  -0.04     0.01   0.01  -0.01     0.01   0.03  -0.01
  31   1     0.01  -0.05  -0.02     0.00  -0.01  -0.00     0.00  -0.00  -0.00
  32   1     0.03   0.01  -0.05     0.00   0.00  -0.01     0.01  -0.00  -0.01
  33   1    -0.02   0.04   0.04    -0.00   0.01   0.00     0.00  -0.00  -0.00
  34   1    -0.03  -0.04   0.04    -0.00  -0.00   0.01     0.00  -0.00  -0.00
                     79                     80                     81
                        a                      a                      a 
 Frequencies --  1597.1387              1608.6990              1741.4830
 Red. masses --    11.4440                11.3994                12.8207
 Frc consts  --     0.0000                 0.0000                 0.0000
 IR Inten    --     3.9485                 0.1247               335.5198
 Raman Activ --     0.0000                 0.0000                 0.0000
 Depolar     --     0.0000                 0.0000                 0.0000
 Atom AN      X      Y      Z        X      Y      Z        X      Y      Z
   1   6     0.00   0.00  -0.00     0.00  -0.00   0.00    -0.03   0.01  -0.02
   2   6    -0.00  -0.02   0.04    -0.00   0.00   0.00     0.69  -0.22  -0.01
   3   7    -0.03   0.01   0.00    -0.00   0.00   0.00    -0.63   0.21   0.08
   4   6     0.06   0.02  -0.04     0.01  -0.00  -0.01     0.05  -0.04  -0.07
   5   6    -0.08  -0.00   0.07    -0.01   0.00   0.01     0.03  -0.01  -0.03
   6   6     0.05  -0.04  -0.06     0.01  -0.01  -0.01    -0.02   0.02   0.03
   7   6    -0.05  -0.02   0.03    -0.00   0.00   0.00     0.01  -0.00  -0.01
   8   6     0.09   0.01  -0.07     0.01  -0.00  -0.01    -0.02   0.01   0.02
   9   6    -0.05   0.03   0.06    -0.01   0.01   0.01     0.01  -0.02  -0.03
  10   6     0.12   0.34  -0.23     0.02  -0.00  -0.03    -0.04   0.02   0.04
  11   6    -0.14  -0.27   0.26    -0.01  -0.04   0.02     0.00   0.00   0.00
  12   6    -0.04   0.40   0.07    -0.01   0.05   0.02     0.01  -0.00  -0.00
  13   6    -0.01  -0.53   0.03     0.02  -0.01  -0.03    -0.00   0.00   0.00
  14   6     0.04   0.23  -0.06    -0.02  -0.23   0.03     0.00  -0.00  -0.00
  15   6     0.02  -0.01  -0.04     0.12   0.45  -0.19    -0.00   0.00   0.00
  16   6    -0.03  -0.03   0.06    -0.14  -0.30   0.24     0.00  -0.00  -0.00
  17   6     0.01   0.01  -0.01    -0.04   0.39   0.08    -0.00   0.00   0.00
  18   6     0.01   0.01  -0.01    -0.02  -0.49   0.02    -0.00  -0.00  -0.00
  19   6    -0.00  -0.18  -0.00     0.05   0.20  -0.08    -0.00   0.00   0.01
  20   1    -0.00  -0.00  -0.00    -0.00  -0.00   0.00    -0.04  -0.03  -0.02
  21   1    -0.00   0.00  -0.00    -0.00  -0.00   0.00     0.04  -0.01   0.02
  22   1     0.00   0.00   0.01    -0.00   0.00  -0.00    -0.03   0.03  -0.02
  23   1     0.02   0.01  -0.01     0.00   0.00  -0.00    -0.01  -0.01   0.00
  24   1     0.00   0.02   0.01    -0.00   0.00   0.00    -0.00  -0.01  -0.00
  25   1    -0.00   0.01   0.01    -0.00   0.00   0.00     0.00  -0.00  -0.00
  26   1    -0.02  -0.00   0.02    -0.00  -0.00   0.00     0.00   0.00  -0.00
  27   1    -0.00  -0.02  -0.01     0.00  -0.00  -0.00     0.00   0.01   0.01
  28   1     0.06  -0.02  -0.12     0.01  -0.00  -0.02    -0.00   0.00  -0.00
  29   1     0.06  -0.02  -0.10     0.01  -0.01  -0.02     0.00  -0.00  -0.00
  30   1     0.03   0.11  -0.06     0.00  -0.02  -0.01    -0.00   0.00  -0.00
  31   1     0.01   0.01  -0.01     0.00  -0.12  -0.01     0.00  -0.00   0.00
  32   1     0.01   0.00  -0.02     0.06  -0.03  -0.10    -0.00  -0.00   0.00
  33   1     0.01  -0.00  -0.01     0.06  -0.03  -0.10     0.00  -0.00  -0.00
  34   1    -0.00  -0.02  -0.00     0.03   0.09  -0.05     0.00  -0.00   0.00
                     82                     83                     84
                        a                      a                      a 
 Frequencies --  2999.9211              3025.4882              3030.8407
 Red. masses --     1.8300                 1.4457                 1.8680
 Frc consts  --     0.0000                 0.0000                 0.0000
 IR Inten    --    10.8007                17.3206                29.2981
 Raman Activ --     0.0000                 0.0000                 0.0000
 Depolar     --     0.0000                 0.0000                 0.0000
 Atom AN      X      Y      Z        X      Y      Z        X      Y      Z
   1   6    -0.14  -0.23   0.03     0.05   0.03  -0.19    -0.20   0.17   0.09
   2   6    -0.01  -0.00  -0.00    -0.00   0.00  -0.01    -0.01   0.01   0.00
   3   7     0.00  -0.00  -0.00     0.00  -0.00   0.00     0.00  -0.00  -0.00
   4   6     0.00  -0.00  -0.00    -0.00   0.00  -0.00     0.00  -0.00  -0.00
   5   6    -0.00   0.00   0.00    -0.00  -0.00  -0.00    -0.00  -0.00  -0.00
   6   6     0.00  -0.00  -0.00     0.00   0.00  -0.00    -0.00  -0.00   0.00
   7   6    -0.00   0.00   0.00     0.00  -0.00  -0.00    -0.00   0.00   0.00
   8   6    -0.00   0.00   0.00    -0.00  -0.00  -0.00     0.00   0.00   0.00
   9   6     0.00   0.00  -0.00     0.00   0.00  -0.00    -0.00  -0.00   0.00
  10   6     0.00  -0.00   0.00    -0.00   0.00   0.00     0.00  -0.00  -0.00
  11   6    -0.00   0.00   0.00     0.00  -0.00  -0.00     0.00   0.00   0.00
  12   6    -0.00  -0.00   0.00     0.00   0.00  -0.00    -0.00  -0.00   0.00
  13   6     0.00   0.00  -0.00     0.00  -0.00  -0.00    -0.00   0.00   0.00
  14   6    -0.00   0.00   0.00     0.00  -0.00   0.00    -0.00  -0.00  -0.00
  15   6     0.00  -0.00  -0.00     0.00  -0.00  -0.00    -0.00   0.00   0.00
  16   6     0.00  -0.00  -0.00    -0.00  -0.00   0.00    -0.00   0.00   0.00
  17   6     0.00   0.00  -0.00    -0.00  -0.00   0.00     0.00   0.00  -0.00
  18   6     0.00  -0.00  -0.00     0.00  -0.00  -0.00    -0.00   0.00   0.00
  19   6    -0.00  -0.00   0.00     0.00  -0.00  -0.00     0.00  -0.00   0.00
  20   1    -0.13   0.14   0.00     0.21  -0.32  -0.02     0.45  -0.74   0.02
  21   1     0.03  -0.04  -0.06    -0.48   0.08   0.74     0.20  -0.01  -0.33
  22   1     0.60   0.72  -0.06     0.11   0.12  -0.03     0.07   0.14   0.00
  23   1    -0.00  -0.00  -0.00     0.00   0.00   0.00     0.00   0.00   0.00
  24   1     0.00   0.00  -0.00    -0.00  -0.00   0.00     0.00   0.00  -0.00
  25   1     0.00  -0.00  -0.00    -0.00   0.00  -0.00     0.00  -0.00  -0.00
  26   1     0.00  -0.00  -0.00     0.00   0.00   0.00    -0.00  -0.00  -0.00
  27   1    -0.01  -0.01   0.01    -0.01  -0.01   0.01     0.01   0.01  -0.01
  28   1     0.00  -0.01  -0.00    -0.00   0.00   0.00     0.00  -0.00  -0.00
  29   1     0.00   0.00  -0.00    -0.00  -0.00   0.00     0.00   0.00  -0.00
  30   1    -0.00   0.00   0.00    -0.00   0.00   0.00     0.00  -0.00  -0.00
  31   1    -0.00   0.00   0.00    -0.00   0.00   0.00     0.00  -0.00  -0.00
  32   1    -0.00   0.00   0.00    -0.00   0.00   0.00     0.00  -0.00  -0.00
  33   1    -0.00  -0.00   0.00     0.00   0.00  -0.00    -0.00  -0.00   0.00
  34   1    -0.00   0.00   0.00    -0.00   0.00   0.00     0.01  -0.00  -0.01
                     85                     86                     87
                        a                      a                      a 
 Frequencies --  3061.5738              3064.0522              3066.4031
 Red. masses --     1.7572                 1.7676                 1.7670
 Frc consts  --     0.0000                 0.0000                 0.0000
 IR Inten    --    14.9827                 8.5518                 4.4655
 Raman Activ --     0.0000                 0.0000                 0.0000
 Depolar     --     0.0000                 0.0000                 0.0000
 Atom AN      X      Y      Z        X      Y      Z        X      Y      Z
   1   6    -0.00   0.00   0.00    -0.00  -0.00   0.00    -0.00   0.00   0.00
   2   6    -0.00   0.00   0.00    -0.00  -0.00   0.00    -0.00   0.00   0.00
   3   7     0.00  -0.00  -0.00     0.00   0.00  -0.00     0.00  -0.00  -0.00
   4   6     0.00   0.00  -0.00    -0.00  -0.00  -0.00    -0.00   0.00   0.00
   5   6     0.00   0.01   0.00    -0.01  -0.10  -0.04     0.00   0.00   0.00
   6   6     0.01   0.01  -0.01     0.16   0.13  -0.08    -0.00  -0.00   0.00
   7   6    -0.04   0.02   0.05    -0.05   0.03   0.06     0.00  -0.00  -0.00
   8   6    -0.03  -0.19  -0.07     0.00   0.02   0.01     0.00   0.00   0.00
   9   6     0.11   0.08  -0.06    -0.04  -0.03   0.02    -0.00  -0.00   0.00
  10   6     0.00   0.00  -0.00     0.00  -0.00  -0.00     0.00  -0.00  -0.00
  11   6     0.00  -0.00  -0.00     0.00  -0.00  -0.00     0.00  -0.02  -0.00
  12   6     0.00   0.00  -0.00     0.00   0.00  -0.00     0.01   0.03  -0.03
  13   6     0.00  -0.00  -0.00     0.00  -0.00  -0.00    -0.04   0.02   0.07
  14   6    -0.00   0.00  -0.00     0.00  -0.00  -0.00     0.00   0.00  -0.00
  15   6     0.00  -0.00  -0.00     0.00  -0.00  -0.00     0.10  -0.05  -0.17
  16   6    -0.00   0.00   0.00    -0.00   0.00   0.00    -0.01   0.12   0.03
  17   6    -0.00  -0.00   0.00    -0.00  -0.00   0.00    -0.02  -0.05   0.04
  18   6     0.00  -0.00  -0.00    -0.00   0.00   0.00     0.01  -0.01  -0.02
  19   6     0.00   0.00  -0.00    -0.00   0.00   0.00    -0.00  -0.00   0.00
  20   1     0.00  -0.01   0.00    -0.00   0.00   0.00     0.00  -0.00   0.00
  21   1     0.01  -0.00  -0.01    -0.00  -0.00   0.00     0.00  -0.00  -0.00
  22   1    -0.00  -0.01   0.00     0.00   0.00  -0.00     0.00   0.00   0.00
  23   1    -0.00  -0.01  -0.01     0.05   0.38   0.14    -0.00  -0.00  -0.00
  24   1    -0.06  -0.05   0.03    -0.59  -0.45   0.30     0.00   0.00  -0.00
  25   1     0.16  -0.10  -0.19     0.18  -0.11  -0.21    -0.00   0.00   0.00
  26   1     0.10   0.70   0.25    -0.01  -0.06  -0.02    -0.00  -0.00  -0.00
  27   1    -0.39  -0.30   0.20     0.13   0.10  -0.06     0.00   0.00  -0.00
  28   1    -0.00   0.01   0.00    -0.00   0.00   0.00    -0.01   0.07   0.02
  29   1    -0.00  -0.00   0.00    -0.00  -0.00   0.00    -0.05  -0.12   0.10
  30   1     0.00  -0.00  -0.00    -0.00   0.00   0.00     0.14  -0.08  -0.24
  31   1    -0.00   0.00   0.00    -0.00   0.00   0.00    -0.34   0.18   0.61
  32   1     0.00  -0.00  -0.00     0.00  -0.00  -0.00     0.05  -0.46  -0.11
  33   1     0.00   0.00  -0.00     0.00   0.00  -0.00     0.09   0.18  -0.15
  34   1    -0.00   0.00   0.00     0.00  -0.00  -0.00    -0.05   0.03   0.08
                     88                     89                     90
                        a                      a                      a 
 Frequencies --  3069.0185              3070.4143              3072.3572
 Red. masses --     1.7586                 1.7809                 1.8434
 Frc consts  --     0.0000                 0.0000                 0.0000
 IR Inten    --     3.1343                11.7285                94.5339
 Raman Activ --     0.0000                 0.0000                 0.0000
 Depolar     --     0.0000                 0.0000                 0.0000
 Atom AN      X      Y      Z        X      Y      Z        X      Y      Z
   1   6     0.00  -0.00  -0.00    -0.00   0.00   0.00    -0.00   0.00   0.00
   2   6     0.00  -0.00  -0.00    -0.00   0.00   0.00     0.00   0.00   0.00
   3   7    -0.00   0.00   0.00    -0.00  -0.00   0.00    -0.00   0.00   0.00
   4   6     0.00  -0.00  -0.00    -0.00  -0.00  -0.00     0.01  -0.00  -0.01
   5   6    -0.00  -0.00  -0.00     0.00   0.00   0.00    -0.01  -0.06  -0.02
   6   6    -0.00  -0.00   0.00     0.00   0.00  -0.00     0.04   0.03  -0.02
   7   6     0.00  -0.00  -0.00     0.00  -0.00  -0.00     0.07  -0.05  -0.09
   8   6     0.00   0.00   0.00     0.00   0.00   0.00     0.01   0.10   0.04
   9   6     0.00   0.00  -0.00     0.00   0.00  -0.00     0.15   0.12  -0.08
  10   6     0.00  -0.00  -0.00     0.00  -0.00  -0.00     0.00  -0.00  -0.00
  11   6     0.01  -0.07  -0.02     0.01  -0.07  -0.02     0.00  -0.00  -0.00
  12   6     0.04   0.09  -0.08     0.03   0.06  -0.05    -0.00  -0.00   0.00
  13   6    -0.07   0.04   0.13    -0.03   0.02   0.05     0.00  -0.00  -0.00
  14   6    -0.00   0.00   0.00    -0.00   0.00   0.01     0.00  -0.00  -0.00
  15   6    -0.00   0.00   0.01    -0.06   0.03   0.10     0.00  -0.00  -0.00
  16   6     0.01  -0.06  -0.01    -0.00  -0.00   0.00    -0.00   0.00   0.00
  17   6     0.04   0.08  -0.06    -0.06  -0.12   0.09     0.00   0.00  -0.00
  18   6    -0.04   0.02   0.06     0.06  -0.03  -0.10    -0.00   0.00   0.00
  19   6    -0.00   0.00   0.00     0.00  -0.00  -0.00    -0.00   0.00   0.00
  20   1    -0.00   0.00  -0.00     0.00  -0.01   0.00     0.00  -0.01   0.00
  21   1    -0.00   0.00   0.00     0.00  -0.00  -0.01     0.01   0.00  -0.01
  22   1     0.00   0.00  -0.00     0.00   0.00   0.00    -0.01  -0.01   0.00
  23   1     0.00   0.01   0.00    -0.00  -0.00  -0.00     0.03   0.20   0.07
  24   1     0.00   0.00  -0.00    -0.01  -0.00   0.00    -0.13  -0.10   0.07
  25   1    -0.00   0.00   0.00    -0.00   0.00   0.00    -0.27   0.16   0.31
  26   1    -0.00  -0.00  -0.00    -0.00  -0.01  -0.00    -0.05  -0.34  -0.12
  27   1    -0.00  -0.00   0.00    -0.01  -0.00   0.00    -0.52  -0.41   0.27
  28   1    -0.03   0.27   0.06    -0.03   0.24   0.05    -0.00   0.02   0.00
  29   1    -0.16  -0.35   0.30    -0.10  -0.22   0.18     0.00   0.01  -0.01
  30   1     0.27  -0.15  -0.48     0.10  -0.06  -0.18    -0.01   0.01   0.02
  31   1     0.02  -0.01  -0.03     0.21  -0.11  -0.37    -0.00   0.00   0.01
  32   1    -0.03   0.22   0.05    -0.00   0.01   0.00     0.00  -0.01  -0.00
  33   1    -0.14  -0.28   0.23     0.21   0.42  -0.34    -0.00  -0.00   0.00
  34   1     0.14  -0.07  -0.23    -0.22   0.12   0.37     0.00  -0.00  -0.01
                     91                     92                     93
                        a                      a                      a 
 Frequencies --  3074.1417              3076.5380              3078.8811
 Red. masses --     1.8245                 1.8622                 1.8575
 Frc consts  --     0.0000                 0.0000                 0.0000
 IR Inten    --    59.4208               136.7020               137.3085
 Raman Activ --     0.0000                 0.0000                 0.0000
 Depolar     --     0.0000                 0.0000                 0.0000
 Atom AN      X      Y      Z        X      Y      Z        X      Y      Z
   1   6     0.00   0.00  -0.00    -0.00   0.00  -0.00    -0.00   0.00   0.00
   2   6    -0.00   0.00  -0.00     0.00   0.00  -0.00    -0.00   0.00   0.00
   3   7     0.00  -0.00   0.00     0.00  -0.00  -0.00     0.00  -0.00   0.00
   4   6     0.00   0.00  -0.00    -0.00   0.00   0.00     0.00  -0.00  -0.00
   5   6     0.00   0.01   0.00     0.03   0.20   0.07    -0.00  -0.02  -0.01
   6   6     0.00   0.00  -0.00     0.06   0.05  -0.03    -0.00  -0.00   0.00
   7   6    -0.00  -0.00  -0.00    -0.06   0.03   0.07     0.01  -0.00  -0.01
   8   6     0.00   0.00   0.00     0.01   0.09   0.03    -0.00  -0.01  -0.00
   9   6     0.01   0.00  -0.00     0.05   0.03  -0.03    -0.00  -0.00   0.00
  10   6    -0.00   0.00   0.01     0.00  -0.00  -0.00     0.00   0.00  -0.00
  11   6    -0.02   0.21   0.04     0.00  -0.01  -0.00     0.00  -0.01  -0.00
  12   6    -0.01  -0.03   0.03     0.00   0.00  -0.00    -0.00  -0.01   0.01
  13   6    -0.07   0.04   0.13     0.00  -0.00  -0.01     0.00  -0.00  -0.01
  14   6    -0.00   0.00   0.00     0.00   0.00  -0.00     0.00   0.00  -0.00
  15   6    -0.01   0.01   0.02     0.00  -0.00  -0.01     0.05  -0.03  -0.09
  16   6     0.00  -0.02  -0.00     0.00  -0.01  -0.00     0.02  -0.15  -0.03
  17   6    -0.01  -0.01   0.01     0.00   0.01  -0.01     0.02   0.05  -0.04
  18   6     0.01  -0.00  -0.02     0.01  -0.00  -0.01     0.09  -0.05  -0.15
  19   6     0.00  -0.00  -0.00     0.00  -0.00  -0.00     0.00  -0.01  -0.00
  20   1     0.00  -0.00   0.00     0.00  -0.00  -0.00     0.00  -0.00   0.00
  21   1    -0.00   0.00   0.00     0.00   0.00  -0.00     0.00  -0.00  -0.01
  22   1    -0.00  -0.00  -0.00    -0.00  -0.00   0.00    -0.00  -0.00   0.00
  23   1    -0.00  -0.02  -0.01    -0.10  -0.71  -0.26     0.01   0.05   0.02
  24   1    -0.01  -0.01   0.01    -0.20  -0.16   0.10     0.01   0.01  -0.00
  25   1    -0.00   0.00   0.00     0.21  -0.13  -0.24    -0.02   0.01   0.03
  26   1    -0.00  -0.01  -0.01    -0.04  -0.30  -0.11     0.00   0.02   0.01
  27   1    -0.02  -0.02   0.01    -0.15  -0.12   0.08     0.01   0.01  -0.01
  28   1     0.09  -0.74  -0.16    -0.00   0.03   0.01    -0.00   0.04   0.01
  29   1     0.05   0.11  -0.09    -0.00  -0.01   0.01     0.01   0.02  -0.02
  30   1     0.26  -0.14  -0.46    -0.01   0.01   0.02    -0.01   0.01   0.02
  31   1     0.05  -0.03  -0.08    -0.02   0.01   0.03    -0.17   0.09   0.31
  32   1    -0.01   0.07   0.02    -0.00   0.03   0.01    -0.06   0.53   0.12
  33   1     0.02   0.05  -0.04    -0.01  -0.03   0.02    -0.08  -0.16   0.14
  34   1    -0.04   0.02   0.07    -0.02   0.01   0.04    -0.32   0.17   0.54
                     94                     95                     96
                        a                      a                      a 
 Frequencies --  3085.2671              3086.0821              3088.1844
 Red. masses --     1.9069                 1.9182                 1.9120
 Frc consts  --     0.0000                 0.0000                 0.0000
 IR Inten    --   191.4093                64.4739                20.1740
 Raman Activ --     0.0000                 0.0000                 0.0000
 Depolar     --     0.0000                 0.0000                 0.0000
 Atom AN      X      Y      Z        X      Y      Z        X      Y      Z
   1   6     0.00  -0.00  -0.00     0.00   0.00   0.00    -0.00  -0.00  -0.00
   2   6     0.00  -0.00  -0.00     0.00  -0.00   0.00     0.00  -0.00  -0.00
   3   7    -0.00   0.00   0.00    -0.00   0.00   0.00    -0.00   0.00   0.00
   4   6     0.00  -0.00  -0.00     0.00  -0.00  -0.00    -0.00   0.00   0.00
   5   6    -0.00  -0.02  -0.01    -0.01  -0.10  -0.04     0.00   0.01   0.00
   6   6    -0.02  -0.02   0.01    -0.09  -0.07   0.05     0.01   0.01  -0.00
   7   6    -0.03   0.02   0.03    -0.12   0.07   0.14     0.01  -0.01  -0.01
   8   6     0.00   0.02   0.01     0.01   0.10   0.03    -0.00  -0.01  -0.00
   9   6     0.01   0.01  -0.01     0.05   0.04  -0.03    -0.01  -0.00   0.00
  10   6     0.00   0.00  -0.00    -0.00  -0.00   0.00     0.00  -0.00  -0.00
  11   6     0.01  -0.11  -0.02    -0.00   0.02   0.00     0.01  -0.06  -0.01
  12   6    -0.06  -0.14   0.11     0.01   0.02  -0.02    -0.03  -0.08   0.06
  13   6    -0.05   0.03   0.08     0.01  -0.00  -0.01    -0.03   0.02   0.06
  14   6     0.00   0.00  -0.00    -0.00  -0.00   0.00    -0.00   0.00   0.00
  15   6     0.01  -0.01  -0.02    -0.01   0.00   0.01    -0.04   0.02   0.07
  16   6     0.01  -0.08  -0.02    -0.00   0.03   0.01    -0.02   0.14   0.03
  17   6    -0.03  -0.06   0.05     0.01   0.02  -0.02     0.05   0.10  -0.08
  18   6    -0.03   0.02   0.05     0.01  -0.01  -0.02     0.05  -0.03  -0.09
  19   6    -0.00   0.00   0.00     0.00  -0.00  -0.00     0.00  -0.00  -0.00
  20   1    -0.00   0.00  -0.00    -0.00   0.00  -0.00     0.00  -0.00  -0.00
  21   1    -0.00   0.00   0.00     0.00  -0.00  -0.00    -0.00   0.00   0.00
  22   1     0.00   0.00   0.00    -0.00  -0.00   0.00     0.00   0.00  -0.00
  23   1     0.01   0.06   0.02     0.05   0.33   0.12    -0.00  -0.02  -0.01
  24   1     0.06   0.05  -0.03     0.29   0.23  -0.15    -0.02  -0.02   0.01
  25   1     0.09  -0.06  -0.11     0.39  -0.24  -0.46    -0.03   0.02   0.04
  26   1    -0.01  -0.07  -0.03    -0.05  -0.31  -0.11     0.00   0.03   0.01
  27   1    -0.04  -0.03   0.02    -0.16  -0.13   0.08     0.02   0.01  -0.01
  28   1    -0.05   0.37   0.08     0.01  -0.07  -0.02    -0.03   0.22   0.05
  29   1     0.22   0.46  -0.39    -0.04  -0.08   0.07     0.12   0.25  -0.22
  30   1     0.16  -0.09  -0.28    -0.03   0.01   0.05     0.11  -0.06  -0.20
  31   1    -0.04   0.02   0.07     0.02  -0.01  -0.03     0.12  -0.06  -0.21
  32   1    -0.03   0.27   0.06     0.01  -0.09  -0.02     0.06  -0.49  -0.11
  33   1     0.10   0.20  -0.17    -0.04  -0.07   0.06    -0.17  -0.34   0.28
  34   1     0.11  -0.06  -0.18    -0.05   0.02   0.08    -0.19   0.10   0.31
