34
 energy: -49.109994601159 gnorm: 0.000118323595 xtb: 6.7.1 (edcfbbe)
C           -1.16608784237917       -0.53735937090841       -1.55869468311415
C           -0.26939168218958       -0.56868668769724       -0.34989435993902
N            0.93682053300894       -0.93155404750042       -0.33187328589087
C            1.67877225107938       -1.40899537200932       -1.39285489041538
C            2.71537291676539       -0.63183774412836       -1.91419769312368
C            3.53942699347806       -1.14129636527539       -2.89795666932641
C            3.35942131216082       -2.43313463437246       -3.36714824859113
C            2.34142381434102       -3.21368022715923       -2.84445743901494
C            1.50252976445115       -2.70989758978536       -1.86917381828048
C           -0.90822938367470       -0.15464147530425        0.92459787761853
C           -1.38007845010553       -1.11007782625094        1.78882319925041
C           -2.03764410603843       -0.74590860337640        2.97289180631339
C           -2.21808327875054        0.57223804555345        3.28407101839740
C           -1.73260154816765        1.58536466227050        2.43040176094861
C           -1.89028571257721        2.95428201496401        2.73579007170094
C           -1.39789496159386        3.91980875980540        1.90336950372943
C           -0.71737364891523        3.55992685760192        0.72953061421740
C           -0.55173069030395        2.24294793142477        0.40207303166892
C           -1.06061076131928        1.22154698139641        1.23327916909513
H           -1.74938203906330        0.38108617235049       -1.57504693800289
H           -0.58603541896342       -0.62847784302235       -2.47561677965625
H           -1.86430685105637       -1.37284219484435       -1.49899578928582
H            2.85479884493457        0.37352250233466       -1.54308355409239
H            4.33169782495248       -0.52579300374801       -3.30050247386378
H            4.01007612651186       -2.82929129435305       -4.13297413934752
H            2.19472078217562       -4.22285489016623       -3.20343494771730
H            0.71027312746289       -3.31940110760309       -1.45713851585621
H           -1.24820352248219       -2.15655372118047        1.55324689445274
H           -2.40162057225003       -1.52012510728588        3.63265873129463
H           -2.73008328371936        0.85902112006241        4.19172682259939
H           -2.40643559928275        3.22480979561481        3.64632964902690
H           -1.52281250018470        4.96557244201955        2.14495033626541
H           -0.32214122465201        4.33376731209063        0.08707729885862
H           -0.01430121324794        1.96851450818427       -0.49437708371823
