      -----------------------------------------------------------      
     |                   =====================                   |     
     |                           x T B                           |     
     |                   =====================                   |     
     |                         S. Grimme                         |     
     |          Mulliken Center for Theoretical Chemistry        |     
     |                    University of Bonn                     |     
      -----------------------------------------------------------      

   * xtb version 6.7.1 (edcfbbe) compiled by 'VssAdministrator@runnervm171ch' on 2026-06-10

   xtb is free software: you can redistribute it and/or modify it under
   the terms of the GNU Lesser General Public License as published by
   the Free Software Foundation, either version 3 of the License, or
   (at your option) any later version.
   
   xtb is distributed in the hope that it will be useful,
   but WITHOUT ANY WARRANTY; without even the implied warranty of
   MERCHANTABILITY or FITNESS FOR A PARTICULAR PURPOSE.  See the
   GNU Lesser General Public License for more details.
   
   Cite this work as:
   * C. Bannwarth, E. Caldeweyher, S. Ehlert, A. Hansen, P. Pracht,
     J. Seibert, S. Spicher, S. Grimme, WIREs Comput. Mol. Sci., 2020, 11,
     e01493. DOI: 10.1002/wcms.1493
   
   for GFN2-xTB:
   * C. Bannwarth, S. Ehlert and S. Grimme., J. Chem. Theory Comput., 2019,
     15, 1652-1671. DOI: 10.1021/acs.jctc.8b01176
   for GFN1-xTB:
   * S. Grimme, C. Bannwarth, P. Shushkov, J. Chem. Theory Comput., 2017,
     13, 1989-2009. DOI: 10.1021/acs.jctc.7b00118
   for GFN0-xTB:
   * P. Pracht, E. Caldeweyher, S. Ehlert, S. Grimme, ChemRxiv, 2019, preprint.
     DOI: 10.26434/chemrxiv.8326202.v1
   for GFN-FF:
   * S. Spicher and S. Grimme, Angew. Chem. Int. Ed., 2020, 59, 15665-15673.
     DOI: 10.1002/anie.202004239
   
   for ALPB and GBSA implicit solvation:
   * S. Ehlert, M. Stahn, S. Spicher, S. Grimme, J. Chem. Theory Comput.,
     2021, 17, 4250-4261. DOI: 10.1021/acs.jctc.1c00471
   
   for ddCOSMO and CPCM-X implicit solvation:
   * M. Stahn, S. Ehlert, S. Grimme, J. Phys. Chem. A,
     2023, XX, XXXX-XXXX. DOI: 10.1021/acs.jpca.3c04382
   
   for DFT-D4:
   * E. Caldeweyher, C. Bannwarth and S. Grimme, J. Chem. Phys., 2017,
     147, 034112. DOI: 10.1063/1.4993215
   * E. Caldeweyher, S. Ehlert, A. Hansen, H. Neugebauer, S. Spicher,
     C. Bannwarth and S. Grimme, J. Chem. Phys., 2019, 150, 154122.
     DOI: 10.1063/1.5090222
   * E. Caldeweyher, J.-M. Mewes, S. Ehlert and S. Grimme, Phys. Chem. Chem. Phys.
     2020, 22, 8499-8512. DOI: 10.1039/D0CP00502A
   
   for sTDA-xTB:
   * S. Grimme and C. Bannwarth, J. Chem. Phys., 2016, 145, 054103.
     DOI: 10.1063/1.4959605
   
   in the mass-spec context:
   * V. Asgeirsson, C. Bauer and S. Grimme, Chem. Sci., 2017, 8, 4879.
     DOI: 10.1039/c7sc00601b
   * J. Koopman and S. Grimme, ACS Omega 2019, 4, 12, 15120-15133.
     DOI: 10.1021/acsomega.9b02011
   
   for metadynamics refer to:
   * S. Grimme, J. Chem. Theory Comput., 2019, 155, 2847-2862
     DOI: 10.1021/acs.jctc.9b00143
   
   for SPH calculations refer to:
   * S. Spicher and S. Grimme, J. Chem. Theory Comput., 2021, 17, 1701-1714
     DOI: 10.1021/acs.jctc.0c01306
   
   for ONIOM refer to:
   * C. Plett, A. Katbashev, S. Ehlert, S. Grimme, M. Bursch,
     Phys. Chem. Chem. Phys., 2023, 25, 17860-17868. DOI: 10.1039/D3CP02178E
   
   for DIPRO refer to:
   * J. Kohn, N. Gildemeister, S. Grimme, D. Fazzi, A. Hansen,
     J. Chem. Phys., 2023, just accepted.
   
   for PTB refer to:
   * S. Grimme, M. Mueller, A. Hansen, J. Chem. Phys., 2023, 158, 124111.
     DOI: 10.1063/5.0137838
   
   with help from (in alphabetical order)
   P. Atkinson, C. Bannwarth, F. Bohle, G. Brandenburg, E. Caldeweyher
   M. Checinski, S. Dohm, S. Ehlert, S. Ehrlich, I. Gerasimov, C. Hölzer
   A. Katbashev, J. Kohn, J. Koopman, C. Lavigne, S. Lehtola, F. März, M. Müller,
   F. Musil, H. Neugebauer, J. Pisarek, C. Plett, P. Pracht, F. Pultar,
   J. Seibert, P. Shushkov, S. Spicher, M. Stahn, M. Steiner, T. Strunk,
   J. Stückrath, T. Rose, and J. Unsleber
   
 * started run on 2026/09/10 at 22:58:15.005     
   ID    Z sym.   atoms
    1    8 O      1, 3, 4, 17, 88, 90, 99, 100
    2   15 P      2
    3    6 C      5-16, 18-37, 59, 60, 62-73, 87, 89, 91-93, 95-98, 101, 102
    4    1 H      38-58, 74-86, 103-117
    5    7 N      61, 94

           -------------------------------------------------
          |                Calculation Setup                |
           -------------------------------------------------

          program call               : C:\Users\HUIWEI\miniconda3\envs\phase2ff\Library\bin\xtb.exe input.xyz --gfn 2 --chrg 0 --uhf 0 --alpb toluene --acc 0.2 --opt vtight
          coordinate file            : input.xyz
          omp threads                :                     1


molecular fragmentation (1/2 indicates fragments):
111111111111111111111111111111111111111111111111111111111122222222222222
222222222222222222222222222222222222222222222
# atoms in fragment 1/2:    58    59
 fragment masses (1/2) :      500.48      420.50
CMA distance (Bohr)    :  12.811
constraining FC (au)   :  0.0500

           -------------------------------------------------
          |                 G F N 2 - x T B                 |
           -------------------------------------------------

        Reference                      10.1021/acs.jctc.8b01176
      * Hamiltonian:
        H0-scaling (s, p, d)           1.850000    2.230000    2.230000
        zeta-weighting                 0.500000
      * Dispersion:
        s8                             2.700000
        a1                             0.520000
        a2                             5.000000
        s9                             5.000000
      * Repulsion:
        kExp                           1.500000    1.000000
        rExp                           1.000000
      * Coulomb:
        alpha                          2.000000
        third order                    shell-resolved
        anisotropic                    true
        a3                             3.000000
        a5                             4.000000
        cn-shift                       1.200000
        cn-exp                         4.000000
        max-rad                        5.000000

      * Solvation model:               ALPB
        Solvent                        toluene
        Parameter file                 internal GFN2-xTB/ALPB
        Dielectric constant                7.0000E+00
        Reference state                gsolv [1 M gas/solution]
        Free energy shift                  2.2081E-03 Eh       1.3856E+00 kcal/mol
        Temperature                        2.9815E+02 K
        Density                            8.6700E-01 kg/L
        Solvent mass                       7.8110E+01 g/mol
        Interaction kernel             P16
        Born radius scaling (c1)           1.7172E+00
        Born radii integrator          GBOBC
        Born offset                        0.0000E+00 a0       0.0000E+00 AA
        H-bond correction              false
        Ion screening                  false
        Surface tension                    1.0000E-05 Eh       1.5569E+01 dyn/cm
        Grid points                               230 per atom

          ...................................................
          :                      SETUP                      :
          :.................................................:
          :  # basis functions                 327          :
          :  # atomic orbitals                 326          :
          :  # shells                          186          :
          :  # electrons                       340          :
          :  max. iterations                   250          :
          :  Hamiltonian                  GFN2-xTB          :
          :  restarted?                      false          :
          :  GBSA solvation                   true          :
          :  PC potential                    false          :
          :  electronic temp.          300.0000000     K    :
          :  accuracy                    0.2000000          :
          :  -> integral cutoff          0.3198970E+02      :
          :  -> integral neglect         0.2000000E-08      :
          :  -> SCF convergence          0.2000000E-06 Eh   :
          :  -> wf. convergence          0.2000000E-04 e    :
          :  Broyden damping             0.4000000          :
          :  net charge                          0          :
          :  unpaired electrons                  0          :
          ...................................................

 iter      E             dE          RMSdq      gap      omega  full diag
   1   -190.4484315 -0.190448E+03  0.477E+00    1.79       0.0  T
   2   -190.6788806 -0.230449E+00  0.282E+00    1.89       1.0  T
   3   -190.6140214  0.648592E-01  0.144E+00    1.85       1.0  T
   4   -190.7248738 -0.110852E+00  0.534E-01    1.72       1.0  T
   5   -190.7428557 -0.179818E-01  0.222E-01    1.78       1.0  T
   6   -190.7445706 -0.171493E-02  0.122E-01    1.83       1.0  T
   7   -190.7460128 -0.144218E-02  0.521E-02    1.80       1.0  T
   8   -190.7461749 -0.162069E-03  0.279E-02    1.81       1.0  T
   9   -190.7462002 -0.253774E-04  0.127E-02    1.80       1.0  T
  10   -190.7462065 -0.627037E-05  0.563E-03    1.80       1.6  T
  11   -190.7462079 -0.135309E-05  0.233E-03    1.80       4.0  T
  12   -190.7462080 -0.157550E-06  0.117E-03    1.80       7.9  T
  13   -190.7462081 -0.774142E-07  0.449E-04    1.80      20.6  T
  14   -190.7462081 -0.584515E-08  0.151E-04    1.80      61.3  T
  15   -190.7462081 -0.177053E-08  0.695E-05    1.80     133.0  T

   *** convergence criteria satisfied after 15 iterations ***

         #    Occupation            Energy/Eh            Energy/eV
      -------------------------------------------------------------
         1        2.0000           -0.7442541             -20.2522
       ...           ...                  ...                  ...
       164        2.0000           -0.3853321             -10.4854
       165        2.0000           -0.3833819             -10.4324
       166        2.0000           -0.3740937             -10.1796
       167        2.0000           -0.3713315             -10.1044
       168        2.0000           -0.3618591              -9.8467
       169        2.0000           -0.3534945              -9.6191
       170        2.0000           -0.3513514              -9.5608 (HOMO)
       171                         -0.2850675              -7.7571 (LUMO)
       172                         -0.2750397              -7.4842
       173                         -0.2673673              -7.2754
       174                         -0.2671061              -7.2683
       175                         -0.2422424              -6.5918
       ...                                ...                  ...
       326                          1.2111141              32.9561
      -------------------------------------------------------------
                  HL-Gap            0.0662839 Eh            1.8037 eV
             Fermi-level           -0.3182095 Eh           -8.6589 eV

 SCC (total)                   0 d,  0 h,  0 min,  0.605 sec
 SCC setup                      ...        0 min,  0.008 sec (  1.382%)
 Dispersion                     ...        0 min,  0.004 sec (  0.651%)
 classical contributions        ...        0 min,  0.001 sec (  0.182%)
 integral evaluation            ...        0 min,  0.052 sec (  8.618%)
 iterations                     ...        0 min,  0.319 sec ( 52.784%)
 molecular gradient             ...        0 min,  0.217 sec ( 35.884%)
 printout                       ...        0 min,  0.003 sec (  0.493%)

         :::::::::::::::::::::::::::::::::::::::::::::::::::::
         ::                     SUMMARY                     ::
         :::::::::::::::::::::::::::::::::::::::::::::::::::::
         :: total energy            -187.931265084932 Eh    ::
         :: total w/o Gsasa/hb      -187.857038041743 Eh    ::
         :: gradient norm              0.311530315959 Eh/a0 ::
         :: HOMO-LUMO gap              1.803676752210 eV    ::
         ::.................................................::
         :: SCC energy              -190.737242454084 Eh    ::
         :: -> isotropic ES            0.241338471089 Eh    ::
         :: -> anisotropic ES         -0.003292581822 Eh    ::
         :: -> anisotropic XC          0.092218384614 Eh    ::
         :: -> dispersion             -0.180863058964 Eh    ::
         :: -> Gsolv                  -0.087175502107 Eh    ::
         ::    -> Gelec               -0.012948458918 Eh    ::
         ::    -> Gsasa               -0.076435186328 Eh    ::
         ::    -> Ghb                  0.000000000000 Eh    ::
         ::    -> Gshift               0.002208143139 Eh    ::
         :: repulsion energy           2.805977369152 Eh    ::
         :: add. restraining           0.000000000000 Eh    ::
         :: total charge              -0.000000000000 e     ::
         :::::::::::::::::::::::::::::::::::::::::::::::::::::

      ----------------------------------------------------------- 
     |                   =====================                   |
     |                        A N C O P T                        |
     |                   =====================                   |
     |               Approximate Normal Coordinate               |
     |                Rational Function Optimizer                |
      ----------------------------------------------------------- 
      ----------------------------------------------------------- 
     |                   =====================                   |
     |                        A N C O P T                        |
     |                   =====================                   |
     |               Approximate Normal Coordinate               |
     |                Rational Function Optimizer                |
      ----------------------------------------------------------- 

          ...................................................
          :                      SETUP                      :
          :.................................................:
          :   optimization level         verytight          :
          :   max. optcycles                  2340          :
          :   ANC micro-cycles                  20          :
          :   degrees of freedom               345          :
          :.................................................:
          :   RF solver                   davidson          :
          :   write xtbopt.log                true          :
          :   linear?                        false          :
          :   energy convergence         0.1000000E-06 Eh   :
          :   grad. convergence          0.2000000E-03 Eh/α :
          :   maxmium RF displ.          1.0000000          :
          :   Hlow (freq-cutoff)         0.1000000E-01      :
          :   Hmax (freq-cutoff)         5.0000000          :
          :   S6 in model hess.         20.0000000          :
          ...................................................

generating ANC from exact Hessian ...
Using Lindh-Hessian (1995)
 Shifting diagonal of input Hessian by    1.0038525826142180E-002
 Lowest  eigenvalues of input Hessian
    0.010000    0.000000    0.000000    0.000000    0.000000    0.000000
    0.000000    0.010104    0.010129    0.010234    0.010307    0.010450
    0.010543    0.010620    0.010752    0.010895    0.010972    0.011121
 Highest eigenvalues
    2.073009    2.119480    2.198338    2.301411    2.306698    2.844752


........................................................................
.............................. CYCLE    1 ..............................
........................................................................

 iter      E             dE          RMSdq      gap      omega  full diag
   1   -190.7462081 -0.190746E+03  0.281E-05    1.80       0.0  T
   2   -190.7462081 -0.126192E-10  0.195E-05    1.80     474.9  T
   3   -190.7462081 -0.150067E-10  0.122E-05    1.80     757.8  T
     SCC iter.                  ...        0 min,  0.061 sec
     gradient                   ...        0 min,  0.228 sec
 * total energy  :  -187.9312651 Eh     change       -0.2597460E-09 Eh
   gradient norm :     0.3115305 Eh/α   predicted     0.0000000E+00 (-100.00%)
   displ. norm   :     0.6746792 α      lambda       -0.1830535E+00
   maximum displ.:     0.2256550 α      in ANC's #107, #187, #211, ...

........................................................................
.............................. CYCLE    2 ..............................
........................................................................

 iter      E             dE          RMSdq      gap      omega  full diag
   1   -190.9503727 -0.190950E+03  0.341E-01    1.92       0.0  T
   2   -190.9517969 -0.142418E-02  0.200E-01    1.91       1.0  T
   3   -190.9516108  0.186053E-03  0.814E-02    1.90       1.0  T
   4   -190.9519488 -0.337983E-03  0.352E-02    1.89       1.0  T
   5   -190.9520362 -0.874134E-04  0.129E-02    1.90       1.0  T
   6   -190.9520471 -0.108850E-04  0.588E-03    1.89       1.6  T
   7   -190.9520497 -0.261319E-05  0.229E-03    1.89       4.0  T
   8   -190.9520502 -0.501587E-06  0.949E-04    1.89       9.7  T
   9   -190.9520503 -0.539119E-07  0.463E-04    1.89      20.0  T
  10   -190.9520503 -0.790249E-08  0.226E-04    1.89      40.9  T
  11   -190.9520503 -0.194979E-08  0.829E-05    1.89     111.5  T
  12   -190.9520503 -0.270887E-09  0.427E-05    1.89     216.4  T
     SCC iter.                  ...        0 min,  0.252 sec
     gradient                   ...        0 min,  0.225 sec
 * total energy  :  -188.0636493 Eh     change       -0.1323842E+00 Eh
   gradient norm :     0.1495966 Eh/α   predicted    -0.1332096E+00 (   0.62%)
   displ. norm   :     0.5904471 α      lambda       -0.7340080E-01
   maximum displ.:     0.1604173 α      in ANC's #107, #187, #212, ...

........................................................................
.............................. CYCLE    3 ..............................
........................................................................

 iter      E             dE          RMSdq      gap      omega  full diag
   1   -191.0656992 -0.191066E+03  0.204E-01    2.00       0.0  T
   2   -191.0660422 -0.342964E-03  0.119E-01    2.01       1.0  T
   3   -191.0658872  0.154955E-03  0.559E-02    2.01       1.0  T
   4   -191.0661269 -0.239641E-03  0.170E-02    2.00       1.0  T
   5   -191.0661399 -0.129943E-04  0.807E-03    2.01       1.1  T
   6   -191.0661449 -0.498986E-05  0.318E-03    2.00       2.9  T
   7   -191.0661454 -0.594233E-06  0.133E-03    2.00       6.9  T
   8   -191.0661456 -0.147968E-06  0.557E-04    2.00      16.6  T
   9   -191.0661456 -0.122863E-07  0.302E-04    2.00      30.6  T
  10   -191.0661456 -0.447520E-08  0.122E-04    2.00      75.8  T
  11   -191.0661456 -0.504258E-09  0.465E-05    2.00     198.6  T
     SCC iter.                  ...        0 min,  0.253 sec
     gradient                   ...        0 min,  0.234 sec
 * total energy  :  -188.1209489 Eh     change       -0.5729959E-01 Eh
   gradient norm :     0.0782584 Eh/α   predicted    -0.4949720E-01 ( -13.62%)
   displ. norm   :     0.6453249 α      lambda       -0.4490645E-01
   maximum displ.:     0.1736788 α      in ANC's #107, #51, #87, ...

........................................................................
.............................. CYCLE    4 ..............................
........................................................................

 iter      E             dE          RMSdq      gap      omega  full diag
   1   -191.1194323 -0.191119E+03  0.179E-01    2.08       0.0  T
   2   -191.1196099 -0.177541E-03  0.102E-01    2.09       1.0  T
   3   -191.1194552  0.154720E-03  0.483E-02    2.09       1.0  T
   4   -191.1196634 -0.208225E-03  0.127E-02    2.08       1.0  T
   5   -191.1196721 -0.868926E-05  0.575E-03    2.09       1.6  T
   6   -191.1196741 -0.203736E-05  0.234E-03    2.09       3.9  T
   7   -191.1196744 -0.265735E-06  0.103E-03    2.09       9.0  T
   8   -191.1196745 -0.818531E-07  0.438E-04    2.09      21.1  T
   9   -191.1196745 -0.710423E-08  0.232E-04    2.09      39.9  T
  10   -191.1196745 -0.285547E-08  0.874E-05    2.09     105.8  T
  11   -191.1196745 -0.238884E-09  0.342E-05    2.09     270.7  T
     SCC iter.                  ...        0 min,  0.226 sec
     gradient                   ...        0 min,  0.225 sec
 * total energy  :  -188.1566554 Eh     change       -0.3570650E-01 Eh
   gradient norm :     0.0500856 Eh/α   predicted    -0.3180377E-01 ( -10.93%)
   displ. norm   :     0.6801390 α      lambda       -0.2857920E-01
   maximum displ.:     0.1817173 α      in ANC's #51, #107, #87, ...

........................................................................
.............................. CYCLE    5 ..............................
........................................................................

 iter      E             dE          RMSdq      gap      omega  full diag
   1   -191.1422811 -0.191142E+03  0.165E-01    2.11       0.0  T
   2   -191.1423696 -0.885058E-04  0.957E-02    2.13       1.0  T
   3   -191.1422172  0.152381E-03  0.409E-02    2.13       1.0  T
   4   -191.1424008 -0.183551E-03  0.910E-03    2.12       1.0  T
   5   -191.1424064 -0.560730E-05  0.395E-03    2.12       2.3  T
   6   -191.1424072 -0.815197E-06  0.179E-03    2.12       5.2  T
   7   -191.1424074 -0.135619E-06  0.829E-04    2.12      11.1  T
   8   -191.1424074 -0.510217E-07  0.338E-04    2.12      27.3  T
   9   -191.1424074 -0.409770E-08  0.169E-04    2.12      54.9  T
  10   -191.1424074 -0.153267E-08  0.648E-05    2.12     142.6  T
     SCC iter.                  ...        0 min,  0.212 sec
     gradient                   ...        0 min,  0.239 sec
 * total energy  :  -188.1798662 Eh     change       -0.2321077E-01 Eh
   gradient norm :     0.0371308 Eh/α   predicted    -0.2089982E-01 (  -9.96%)
   displ. norm   :     0.7069042 α      lambda       -0.1915736E-01
   maximum displ.:     0.1948312 α      in ANC's #51, #36, #21, ...

........................................................................
.............................. CYCLE    6 ..............................
........................................................................

 iter      E             dE          RMSdq      gap      omega  full diag
   1   -191.1561106 -0.191156E+03  0.156E-01    2.13       0.0  T
   2   -191.1561536 -0.429086E-04  0.918E-02    2.14       1.0  T
   3   -191.1560288  0.124713E-03  0.337E-02    2.14       1.0  T
   4   -191.1561713 -0.142478E-03  0.655E-03    2.13       1.4  T
   5   -191.1561747 -0.333861E-05  0.296E-03    2.14       3.1  T
   6   -191.1561751 -0.449843E-06  0.147E-03    2.14       6.3  T
   7   -191.1561752 -0.710956E-07  0.695E-04    2.14      13.3  T
   8   -191.1561752 -0.347777E-07  0.257E-04    2.14      36.0  T
   9   -191.1561752 -0.258453E-08  0.126E-04    2.14      73.6  T
  10   -191.1561752 -0.873484E-09  0.506E-05    2.14     182.8  T
     SCC iter.                  ...        0 min,  0.257 sec
     gradient                   ...        0 min,  0.288 sec
 * total energy  :  -188.1955686 Eh     change       -0.1570240E-01 Eh
   gradient norm :     0.0258490 Eh/α   predicted    -0.1436530E-01 (  -8.52%)
   displ. norm   :     0.7244617 α      lambda       -0.1297776E-01
   maximum displ.:     0.1918599 α      in ANC's #51, #36, #21, ...

........................................................................
.............................. CYCLE    7 ..............................
........................................................................

 iter      E             dE          RMSdq      gap      omega  full diag
   1   -191.1666795 -0.191167E+03  0.145E-01    2.14       0.0  T
   2   -191.1667070 -0.275080E-04  0.869E-02    2.14       1.0  T
   3   -191.1666189  0.880776E-04  0.272E-02    2.15       1.0  T
   4   -191.1667170 -0.980677E-04  0.573E-03    2.14       1.6  T
   5   -191.1667199 -0.297114E-05  0.246E-03    2.15       3.8  T
   6   -191.1667202 -0.274875E-06  0.136E-03    2.14       6.8  T
   7   -191.1667203 -0.502511E-07  0.617E-04    2.14      15.0  T
   8   -191.1667203 -0.278343E-07  0.221E-04    2.14      41.8  T
   9   -191.1667203 -0.196826E-08  0.106E-04    2.14      87.5  T
  10   -191.1667203 -0.613426E-09  0.445E-05    2.14     207.8  T
     SCC iter.                  ...        0 min,  0.214 sec
     gradient                   ...        0 min,  0.235 sec
 * total energy  :  -188.2062880 Eh     change       -0.1071945E-01 Eh
   gradient norm :     0.0185688 Eh/α   predicted    -0.9894551E-02 (  -7.70%)
   displ. norm   :     0.7340330 α      lambda       -0.8978317E-02
   maximum displ.:     0.1959136 α      in ANC's #36, #51, #21, ...

........................................................................
.............................. CYCLE    8 ..............................
........................................................................

 iter      E             dE          RMSdq      gap      omega  full diag
   1   -191.1759051 -0.191176E+03  0.135E-01    2.15       0.0  T
   2   -191.1759272 -0.220292E-04  0.811E-02    2.15       1.0  T
   3   -191.1758844  0.427666E-04  0.194E-02    2.16       1.0  T
   4   -191.1759309 -0.464828E-04  0.585E-03    2.15       1.6  T
   5   -191.1759344 -0.350642E-05  0.225E-03    2.16       4.1  T
   6   -191.1759346 -0.188437E-06  0.134E-03    2.15       6.9  T
   7   -191.1759346 -0.710878E-07  0.527E-04    2.15      17.6  T
   8   -191.1759347 -0.153421E-07  0.229E-04    2.15      40.4  T
   9   -191.1759347 -0.225933E-08  0.978E-05    2.15      94.5  T
  10   -191.1759347 -0.449546E-09  0.435E-05    2.15     212.6  T
     SCC iter.                  ...        0 min,  0.210 sec
     gradient                   ...        0 min,  0.228 sec
 * total energy  :  -188.2137381 Eh     change       -0.7450124E-02 Eh
   gradient norm :     0.0138259 Eh/α   predicted    -0.6907954E-02 (  -7.28%)
   displ. norm   :     0.7391497 α      lambda       -0.6332207E-02
   maximum displ.:     0.2049379 α      in ANC's #36, #21, #32, ...

........................................................................
.............................. CYCLE    9 ..............................
........................................................................

 iter      E             dE          RMSdq      gap      omega  full diag
   1   -191.1802142 -0.191180E+03  0.130E-01    2.17       0.0  T
   2   -191.1802554 -0.412739E-04  0.789E-02    2.18       1.0  T
   3   -191.1802055  0.499515E-04  0.219E-02    2.18       1.0  T
   4   -191.1802595 -0.540486E-04  0.739E-03    2.18       1.3  T
   5   -191.1802653 -0.573209E-05  0.225E-03    2.18       4.1  T
   6   -191.1802654 -0.129262E-06  0.134E-03    2.18       6.9  T
   7   -191.1802655 -0.627165E-07  0.643E-04    2.18      14.4  T
   8   -191.1802655 -0.268102E-07  0.274E-04    2.18      33.7  T
   9   -191.1802655 -0.326426E-08  0.120E-04    2.18      77.0  T
  10   -191.1802655 -0.903100E-09  0.467E-05    2.18     197.9  T
     SCC iter.                  ...        0 min,  0.219 sec
     gradient                   ...        0 min,  0.256 sec
 * total energy  :  -188.2189159 Eh     change       -0.5177814E-02 Eh
   gradient norm :     0.0174490 Eh/α   predicted    -0.4895885E-02 (  -5.44%)
   displ. norm   :     0.7403804 α      lambda       -0.4852198E-02
   maximum displ.:     0.2152272 α      in ANC's #36, #11, #20, ...

........................................................................
.............................. CYCLE   10 ..............................
........................................................................

 iter      E             dE          RMSdq      gap      omega  full diag
   1   -191.1898018 -0.191190E+03  0.124E-01    2.18       0.0  T
   2   -191.1899121 -0.110293E-03  0.755E-02    2.17       1.0  T
   3   -191.1898608  0.512925E-04  0.280E-02    2.18       1.0  T
   4   -191.1899170 -0.562105E-04  0.107E-02    2.18       1.0  T
   5   -191.1899290 -0.120380E-04  0.254E-03    2.18       3.6  T
   6   -191.1899293 -0.302303E-06  0.130E-03    2.18       7.1  T
   7   -191.1899293 -0.132598E-07  0.624E-04    2.18      14.8  T
   8   -191.1899294 -0.204747E-07  0.301E-04    2.18      30.7  T
   9   -191.1899294 -0.376093E-08  0.139E-04    2.18      66.4  T
  10   -191.1899294 -0.137754E-08  0.599E-05    2.18     154.3  T
     SCC iter.                  ...        0 min,  0.207 sec
     gradient                   ...        0 min,  0.240 sec
 * total energy  :  -188.2222165 Eh     change       -0.3300579E-02 Eh
   gradient norm :     0.0278875 Eh/α   predicted    -0.3756002E-02 (  13.80%)
   displ. norm   :     0.6913405 α      lambda       -0.3939537E-02
   maximum displ.:     0.1949331 α      in ANC's #36, #23, #11, ...

........................................................................
.............................. CYCLE   11 ..............................
........................................................................

 iter      E             dE          RMSdq      gap      omega  full diag
   1   -191.1843851 -0.191184E+03  0.123E-01    2.20       0.0  T
   2   -191.1845495 -0.164344E-03  0.768E-02    2.21       1.0  T
   3   -191.1844700  0.794402E-04  0.383E-02    2.19       1.0  T
   4   -191.1845783 -0.108301E-03  0.125E-02    2.19       1.0  T
   5   -191.1845940 -0.156863E-04  0.289E-03    2.20       3.2  T
   6   -191.1845944 -0.378376E-06  0.148E-03    2.20       6.2  T
   7   -191.1845944 -0.196581E-07  0.668E-04    2.20      13.8  T
   8   -191.1845944 -0.181345E-07  0.319E-04    2.20      29.0  T
   9   -191.1845944 -0.525134E-08  0.131E-04    2.20      70.6  T
  10   -191.1845944 -0.105274E-08  0.610E-05    2.20     151.6  T
     SCC iter.                  ...        0 min,  0.213 sec
     gradient                   ...        0 min,  0.241 sec
 * total energy  :  -188.2247446 Eh     change       -0.2528070E-02 Eh
   gradient norm :     0.0202485 Eh/α   predicted    -0.2911224E-02 (  15.16%)
   displ. norm   :     0.5720921 α      lambda       -0.1860289E-02
   maximum displ.:     0.1900799 α      in ANC's #11, #36, #20, ...

........................................................................
.............................. CYCLE   12 ..............................
........................................................................

 iter      E             dE          RMSdq      gap      omega  full diag
   1   -191.1877195 -0.191188E+03  0.863E-02    2.19       0.0  T
   2   -191.1877361 -0.165894E-04  0.517E-02    2.18       1.0  T
   3   -191.1877205  0.155998E-04  0.133E-02    2.18       1.0  T
   4   -191.1877388 -0.183233E-04  0.388E-03    2.18       2.4  T
   5   -191.1877401 -0.130543E-05  0.159E-03    2.18       5.8  T
   6   -191.1877402 -0.112723E-06  0.758E-04    2.18      12.2  T
   7   -191.1877402 -0.379424E-08  0.374E-04    2.18      24.7  T
   8   -191.1877402 -0.916756E-08  0.173E-04    2.18      53.6  T
   9   -191.1877402 -0.146042E-08  0.830E-05    2.18     111.4  T
     SCC iter.                  ...        0 min,  0.212 sec
     gradient                   ...        0 min,  0.253 sec
 * total energy  :  -188.2262342 Eh     change       -0.1489597E-02 Eh
   gradient norm :     0.0111694 Eh/α   predicted    -0.1234576E-02 ( -17.12%)
   displ. norm   :     0.6378607 α      lambda       -0.1547089E-02
   maximum displ.:     0.2379131 α      in ANC's #11, #23, #36, ...

........................................................................
.............................. CYCLE   13 ..............................
........................................................................

 iter      E             dE          RMSdq      gap      omega  full diag
   1   -191.1895464 -0.191190E+03  0.957E-02    2.18       0.0  T
   2   -191.1895825 -0.361021E-04  0.561E-02    2.17       1.0  T
   3   -191.1895623  0.202728E-04  0.161E-02    2.17       1.0  T
   4   -191.1895832 -0.209587E-04  0.604E-03    2.17       1.5  T
   5   -191.1895874 -0.417069E-05  0.165E-03    2.17       5.6  T
   6   -191.1895875 -0.153228E-06  0.900E-04    2.17      10.3  T
   7   -191.1895876 -0.153358E-07  0.479E-04    2.17      19.3  T
   8   -191.1895876 -0.170665E-07  0.173E-04    2.17      53.5  T
   9   -191.1895876 -0.163928E-08  0.737E-05    2.17     125.5  T
     SCC iter.                  ...        0 min,  0.222 sec
     gradient                   ...        0 min,  0.251 sec
 * total energy  :  -188.2273804 Eh     change       -0.1146224E-02 Eh
   gradient norm :     0.0123719 Eh/α   predicted    -0.1088276E-02 (  -5.06%)
   displ. norm   :     0.6407005 α      lambda       -0.1370079E-02
   maximum displ.:     0.2688673 α      in ANC's #11, #36, #20, ...

........................................................................
.............................. CYCLE   14 ..............................
........................................................................

 iter      E             dE          RMSdq      gap      omega  full diag
   1   -191.1949758 -0.191195E+03  0.972E-02    2.16       0.0  T
   2   -191.1950462 -0.704212E-04  0.576E-02    2.14       1.0  T
   3   -191.1950164  0.298362E-04  0.221E-02    2.15       1.0  T
   4   -191.1950513 -0.348837E-04  0.746E-03    2.15       1.2  T
   5   -191.1950573 -0.602515E-05  0.190E-03    2.15       4.9  T
   6   -191.1950575 -0.255749E-06  0.855E-04    2.15      10.8  T
   7   -191.1950575 -0.323399E-08  0.463E-04    2.15      20.0  T
   8   -191.1950576 -0.144653E-07  0.196E-04    2.15      47.2  T
   9   -191.1950576 -0.143569E-08  0.973E-05    2.15      95.1  T
     SCC iter.                  ...        0 min,  0.205 sec
     gradient                   ...        0 min,  0.234 sec
 * total energy  :  -188.2280106 Eh     change       -0.6301852E-03 Eh
   gradient norm :     0.0238924 Eh/α   predicted    -0.9662470E-03 (  53.33%)
   displ. norm   :     0.4778033 α      lambda       -0.1217817E-02
   maximum displ.:     0.1970294 α      in ANC's #11, #23, #36, ...

........................................................................
.............................. CYCLE   15 ..............................
........................................................................

 iter      E             dE          RMSdq      gap      omega  full diag
   1   -191.1871475 -0.191187E+03  0.864E-02    2.16       0.0  T
   2   -191.1872264 -0.789380E-04  0.513E-02    2.17       1.0  T
   3   -191.1871995  0.268956E-04  0.238E-02    2.15       1.0  T
   4   -191.1872344 -0.348928E-04  0.829E-03    2.16       1.1  T
   5   -191.1872416 -0.718466E-05  0.180E-03    2.16       5.1  T
   6   -191.1872418 -0.191597E-06  0.870E-04    2.16      10.6  T
   7   -191.1872418 -0.498525E-08  0.459E-04    2.16      20.1  T
   8   -191.1872418 -0.103335E-07  0.220E-04    2.16      42.1  T
   9   -191.1872418 -0.281435E-08  0.993E-05    2.16      93.1  T
  10   -191.1872418 -0.700766E-09  0.403E-05    2.16     229.4  T
     SCC iter.                  ...        0 min,  0.289 sec
     gradient                   ...        0 min,  0.245 sec
 * total energy  :  -188.2286755 Eh     change       -0.6648874E-03 Eh
   gradient norm :     0.0128575 Eh/α   predicted    -0.7479353E-03 (  12.49%)
   displ. norm   :     0.3600423 α      lambda       -0.6442986E-03
   maximum displ.:     0.1583327 α      in ANC's #11, #19, #23, ...

........................................................................
.............................. CYCLE   16 ..............................
........................................................................

 iter      E             dE          RMSdq      gap      omega  full diag
   1   -191.1886329 -0.191189E+03  0.620E-02    2.16       0.0  T
   2   -191.1886568 -0.238543E-04  0.361E-02    2.16       1.0  T
   3   -191.1886536  0.312762E-05  0.102E-02    2.16       1.0  T
   4   -191.1886578 -0.420018E-05  0.290E-03    2.16       3.2  T
   5   -191.1886587 -0.867831E-06  0.114E-03    2.16       8.1  T
   6   -191.1886588 -0.106878E-06  0.502E-04    2.16      18.4  T
   7   -191.1886588 -0.993367E-09  0.217E-04    2.16      42.7  T
   8   -191.1886588 -0.321893E-08  0.900E-05    2.16     102.7  T
   9   -191.1886588 -0.275293E-09  0.507E-05    2.16     182.5  T
     SCC iter.                  ...        0 min,  0.218 sec
     gradient                   ...        0 min,  0.296 sec
 * total energy  :  -188.2291253 Eh     change       -0.4498112E-03 Eh
   gradient norm :     0.0118274 Eh/α   predicted    -0.3639166E-03 ( -19.10%)
   displ. norm   :     0.4640033 α      lambda       -0.7027136E-03
   maximum displ.:     0.1990262 α      in ANC's #11, #19, #3, ...

........................................................................
.............................. CYCLE   17 ..............................
........................................................................

 iter      E             dE          RMSdq      gap      omega  full diag
   1   -191.1927046 -0.191193E+03  0.818E-02    2.17       0.0  T
   2   -191.1927167 -0.120689E-04  0.484E-02    2.16       1.0  T
   3   -191.1927027  0.139568E-04  0.111E-02    2.17       1.0  T
   4   -191.1927172 -0.145070E-04  0.388E-03    2.17       2.4  T
   5   -191.1927191 -0.185514E-05  0.101E-03    2.17       9.1  T
   6   -191.1927191 -0.382402E-07  0.596E-04    2.17      15.5  T
   7   -191.1927191 -0.104711E-07  0.290E-04    2.17      31.9  T
   8   -191.1927191 -0.705228E-08  0.935E-05    2.17      98.9  T
   9   -191.1927191 -0.376986E-09  0.505E-05    2.17     183.0  T
     SCC iter.                  ...        0 min,  0.239 sec
     gradient                   ...        0 min,  0.266 sec
 * total energy  :  -188.2296702 Eh     change       -0.5448653E-03 Eh
   gradient norm :     0.0109900 Eh/α   predicted    -0.4270128E-03 ( -21.63%)
   displ. norm   :     0.5824079 α      lambda       -0.8412126E-03
   maximum displ.:     0.2149943 α      in ANC's #11, #12, #3, ...

........................................................................
.............................. CYCLE   18 ..............................
........................................................................

 iter      E             dE          RMSdq      gap      omega  full diag
   1   -191.1946079 -0.191195E+03  0.109E-01    2.17       0.0  T
   2   -191.1946229 -0.150471E-04  0.649E-02    2.18       1.0  T
   3   -191.1945923  0.306289E-04  0.156E-02    2.18       1.0  T
   4   -191.1946252 -0.329089E-04  0.442E-03    2.18       2.1  T
   5   -191.1946275 -0.228106E-05  0.163E-03    2.18       5.7  T
   6   -191.1946277 -0.153582E-06  0.871E-04    2.18      10.6  T
   7   -191.1946277 -0.238836E-07  0.395E-04    2.18      23.4  T
   8   -191.1946277 -0.114260E-07  0.132E-04    2.18      70.2  T
   9   -191.1946277 -0.715858E-09  0.707E-05    2.18     130.8  T
     SCC iter.                  ...        0 min,  0.255 sec
     gradient                   ...        0 min,  0.275 sec
 * total energy  :  -188.2302685 Eh     change       -0.5983206E-03 Eh
   gradient norm :     0.0103910 Eh/α   predicted    -0.5632822E-03 (  -5.86%)
   displ. norm   :     0.5479461 α      lambda       -0.6904239E-03
   maximum displ.:     0.1913502 α      in ANC's #12, #11, #3, ...

........................................................................
.............................. CYCLE   19 ..............................
........................................................................

 iter      E             dE          RMSdq      gap      omega  full diag
   1   -191.1903814 -0.191190E+03  0.102E-01    2.19       0.0  T
   2   -191.1903893 -0.788783E-05  0.608E-02    2.20       1.0  T
   3   -191.1903737  0.155011E-04  0.112E-02    2.19       1.0  T
   4   -191.1903904 -0.166365E-04  0.360E-03    2.20       2.6  T
   5   -191.1903918 -0.143902E-05  0.151E-03    2.20       6.1  T
   6   -191.1903919 -0.102865E-06  0.796E-04    2.20      11.6  T
   7   -191.1903920 -0.266387E-07  0.301E-04    2.20      30.7  T
   8   -191.1903920 -0.586439E-08  0.113E-04    2.20      82.0  T
   9   -191.1903920 -0.373717E-09  0.592E-05    2.20     156.2  T
     SCC iter.                  ...        0 min,  0.208 sec
     gradient                   ...        0 min,  0.272 sec
 * total energy  :  -188.2307368 Eh     change       -0.4683444E-03 Eh
   gradient norm :     0.0100860 Eh/α   predicted    -0.4488660E-03 (  -4.16%)
   displ. norm   :     0.4693970 α      lambda       -0.5193970E-03
   maximum displ.:     0.1796472 α      in ANC's #12, #3, #24, ...

........................................................................
.............................. CYCLE   20 ..............................
........................................................................

 iter      E             dE          RMSdq      gap      omega  full diag
   1   -191.1922323 -0.191192E+03  0.864E-02    2.20       0.0  T
   2   -191.1922409 -0.856831E-05  0.516E-02    2.21       1.0  T
   3   -191.1922186  0.222369E-04  0.135E-02    2.21       1.0  T
   4   -191.1922430 -0.244109E-04  0.344E-03    2.21       2.7  T
   5   -191.1922442 -0.117590E-05  0.134E-03    2.21       6.9  T
   6   -191.1922443 -0.723501E-07  0.696E-04    2.21      13.3  T
   7   -191.1922443 -0.201507E-07  0.344E-04    2.21      26.9  T
   8   -191.1922443 -0.717500E-08  0.135E-04    2.21      68.6  T
   9   -191.1922443 -0.863110E-09  0.602E-05    2.21     153.4  T
     SCC iter.                  ...        0 min,  0.234 sec
     gradient                   ...        0 min,  0.316 sec
 * total energy  :  -188.2311306 Eh     change       -0.3937636E-03 Eh
   gradient norm :     0.0089425 Eh/α   predicted    -0.3169342E-03 ( -19.51%)
   displ. norm   :     0.5098356 α      lambda       -0.5954924E-03
   maximum displ.:     0.2087271 α      in ANC's #12, #3, #19, ...
 * RMSD in coord.:     0.8584341 α      energy gain  -0.2998655E+00 Eh

generating ANC from exact Hessian ...
Using Lindh-Hessian (1995)
 Shifting diagonal of input Hessian by    1.0062532781852113E-002
 Lowest  eigenvalues of input Hessian
    0.010000    0.010019    0.000000    0.000000    0.000000    0.000000
    0.000000    0.000000    0.010095    0.010132    0.010223    0.010290
    0.010337    0.010357    0.010562    0.010599    0.010678    0.010838
 Highest eigenvalues
    2.162828    2.190916    2.332891    2.337551    2.341062    3.138907


........................................................................
.............................. CYCLE   21 ..............................
........................................................................

 iter      E             dE          RMSdq      gap      omega  full diag
   1   -191.1906822 -0.191191E+03  0.844E-02    2.21       0.0  T
   2   -191.1906874 -0.521098E-05  0.499E-02    2.22       1.0  T
   3   -191.1906729  0.145848E-04  0.110E-02    2.21       1.0  T
   4   -191.1906894 -0.165161E-04  0.232E-03    2.22       4.0  T
   5   -191.1906898 -0.443405E-06  0.112E-03    2.22       8.2  T
   6   -191.1906899 -0.525199E-07  0.569E-04    2.22      16.3  T
   7   -191.1906899 -0.207199E-07  0.218E-04    2.22      42.5  T
   8   -191.1906899 -0.115512E-08  0.126E-04    2.22      73.5  T
   9   -191.1906899 -0.135995E-08  0.372E-05    2.22     248.2  T
     SCC iter.                  ...        0 min,  0.280 sec
     gradient                   ...        0 min,  0.241 sec
 * total energy  :  -188.2315957 Eh     change       -0.4651603E-03 Eh
   gradient norm :     0.0087892 Eh/α   predicted     0.0000000E+00 (-100.00%)
   displ. norm   :     0.1098200 α      lambda       -0.3164207E-03
   maximum displ.:     0.0315282 α      in ANC's #16, #12, #37, ...

........................................................................
.............................. CYCLE   22 ..............................
........................................................................

 iter      E             dE          RMSdq      gap      omega  full diag
   1   -191.1957663 -0.191196E+03  0.265E-02    2.22       0.0  T
   2   -191.1957668 -0.544385E-06  0.157E-02    2.21       1.0  T
   3   -191.1957655  0.132183E-05  0.336E-03    2.21       2.7  T
   4   -191.1957670 -0.146870E-05  0.876E-04    2.21      10.6  T
   5   -191.1957670 -0.674420E-07  0.405E-04    2.21      22.8  T
   6   -191.1957670 -0.596543E-08  0.217E-04    2.21      42.6  T
   7   -191.1957670 -0.226066E-08  0.886E-05    2.21     104.3  T
   8   -191.1957670 -0.646963E-09  0.308E-05    2.21     299.9  T
     SCC iter.                  ...        0 min,  0.200 sec
     gradient                   ...        0 min,  0.250 sec
 * total energy  :  -188.2318443 Eh     change       -0.2485842E-03 Eh
   gradient norm :     0.0050519 Eh/α   predicted    -0.1601189E-03 ( -35.59%)
   displ. norm   :     0.2860168 α      lambda       -0.4786969E-03
   maximum displ.:     0.0895424 α      in ANC's #16, #12, #10, ...

........................................................................
.............................. CYCLE   23 ..............................
........................................................................

 iter      E             dE          RMSdq      gap      omega  full diag
   1   -191.2015116 -0.191202E+03  0.541E-02    2.21       0.0  T
   2   -191.2015137 -0.214243E-05  0.318E-02    2.21       1.0  T
   3   -191.2015080  0.574533E-05  0.685E-03    2.21       1.4  T
   4   -191.2015143 -0.636296E-05  0.172E-03    2.21       5.4  T
   5   -191.2015146 -0.274828E-06  0.793E-04    2.21      11.7  T
   6   -191.2015146 -0.280071E-07  0.420E-04    2.21      22.0  T
   7   -191.2015146 -0.821294E-08  0.181E-04    2.21      51.1  T
   8   -191.2015146 -0.259936E-08  0.628E-05    2.21     147.3  T
     SCC iter.                  ...        0 min,  0.197 sec
     gradient                   ...        0 min,  0.288 sec
 * total energy  :  -188.2321814 Eh     change       -0.3370740E-03 Eh
   gradient norm :     0.0054274 Eh/α   predicted    -0.2589393E-03 ( -23.18%)
   displ. norm   :     0.3507381 α      lambda       -0.3657921E-03
   maximum displ.:     0.1181262 α      in ANC's #16, #12, #10, ...

........................................................................
.............................. CYCLE   24 ..............................
........................................................................

 iter      E             dE          RMSdq      gap      omega  full diag
   1   -191.2017280 -0.191202E+03  0.563E-02    2.21       0.0  T
   2   -191.2017296 -0.160285E-05  0.331E-02    2.21       1.0  T
   3   -191.2017247  0.487859E-05  0.634E-03    2.21       1.5  T
   4   -191.2017302 -0.546506E-05  0.155E-03    2.21       6.0  T
   5   -191.2017304 -0.175727E-06  0.766E-04    2.21      12.1  T
   6   -191.2017304 -0.288792E-07  0.396E-04    2.21      23.4  T
   7   -191.2017304 -0.778920E-08  0.157E-04    2.21      58.7  T
   8   -191.2017304 -0.160222E-08  0.622E-05    2.21     148.6  T
     SCC iter.                  ...        0 min,  0.202 sec
     gradient                   ...        0 min,  0.268 sec
 * total energy  :  -188.2324757 Eh     change       -0.2942999E-03 Eh
   gradient norm :     0.0070528 Eh/α   predicted    -0.2053961E-03 ( -30.21%)
   displ. norm   :     0.5411635 α      lambda       -0.5074865E-03
   maximum displ.:     0.1886006 α      in ANC's #16, #12, #10, ...

........................................................................
.............................. CYCLE   25 ..............................
........................................................................

 iter      E             dE          RMSdq      gap      omega  full diag
   1   -191.1977559 -0.191198E+03  0.805E-02    2.20       0.0  T
   2   -191.1977592 -0.332785E-05  0.473E-02    2.20       1.0  T
   3   -191.1977529  0.634496E-05  0.748E-03    2.20       1.2  T
   4   -191.1977601 -0.724427E-05  0.215E-03    2.20       4.3  T
   5   -191.1977605 -0.354125E-06  0.102E-03    2.20       9.0  T
   6   -191.1977605 -0.555435E-07  0.528E-04    2.20      17.5  T
   7   -191.1977605 -0.135078E-07  0.204E-04    2.20      45.3  T
   8   -191.1977605 -0.249176E-08  0.912E-05    2.20     101.4  T
   9   -191.1977605 -0.521567E-09  0.357E-05    2.20     258.8  T
     SCC iter.                  ...        0 min,  0.233 sec
     gradient                   ...        0 min,  0.278 sec
 * total energy  :  -188.2328827 Eh     change       -0.4070164E-03 Eh
   gradient norm :     0.0076707 Eh/α   predicted    -0.3280580E-03 ( -19.40%)
   displ. norm   :     0.5637001 α      lambda       -0.5005917E-03
   maximum displ.:     0.2023412 α      in ANC's #16, #12, #10, ...

........................................................................
.............................. CYCLE   26 ..............................
........................................................................

 iter      E             dE          RMSdq      gap      omega  full diag
   1   -191.1922531 -0.191192E+03  0.824E-02    2.19       0.0  T
   2   -191.1922572 -0.407489E-05  0.485E-02    2.19       1.0  T
   3   -191.1922519  0.526627E-05  0.718E-03    2.19       1.3  T
   4   -191.1922581 -0.620350E-05  0.205E-03    2.19       4.5  T
   5   -191.1922585 -0.331602E-06  0.920E-04    2.19      10.1  T
   6   -191.1922585 -0.369124E-07  0.489E-04    2.19      18.9  T
   7   -191.1922585 -0.118656E-07  0.203E-04    2.19      45.6  T
   8   -191.1922585 -0.237080E-08  0.937E-05    2.19      98.7  T
   9   -191.1922585 -0.601005E-09  0.350E-05    2.19     264.4  T
     SCC iter.                  ...        0 min,  0.245 sec
     gradient                   ...        0 min,  0.249 sec
 * total energy  :  -188.2332722 Eh     change       -0.3895183E-03 Eh
   gradient norm :     0.0088705 Eh/α   predicted    -0.3298309E-03 ( -15.32%)
   displ. norm   :     0.4760368 α      lambda       -0.4720408E-03
   maximum displ.:     0.1723048 α      in ANC's #16, #12, #10, ...

........................................................................
.............................. CYCLE   27 ..............................
........................................................................

 iter      E             dE          RMSdq      gap      omega  full diag
   1   -191.1905038 -0.191191E+03  0.731E-02    2.19       0.0  T
   2   -191.1905078 -0.398465E-05  0.430E-02    2.18       1.0  T
   3   -191.1905015  0.627274E-05  0.768E-03    2.18       1.2  T
   4   -191.1905088 -0.725634E-05  0.183E-03    2.18       5.1  T
   5   -191.1905091 -0.308552E-06  0.772E-04    2.18      12.0  T
   6   -191.1905091 -0.310808E-07  0.364E-04    2.18      25.4  T
   7   -191.1905091 -0.528090E-08  0.159E-04    2.18      58.0  T
   8   -191.1905091 -0.151741E-08  0.770E-05    2.18     120.1  T
     SCC iter.                  ...        0 min,  0.204 sec
     gradient                   ...        0 min,  0.261 sec
 * total energy  :  -188.2336406 Eh     change       -0.3683920E-03 Eh
   gradient norm :     0.0087480 Eh/α   predicted    -0.2895058E-03 ( -21.41%)
   displ. norm   :     0.4623916 α      lambda       -0.4587996E-03
   maximum displ.:     0.1667412 α      in ANC's #16, #11, #10, ...

........................................................................
.............................. CYCLE   28 ..............................
........................................................................

 iter      E             dE          RMSdq      gap      omega  full diag
   1   -191.1918497 -0.191192E+03  0.740E-02    2.18       0.0  T
   2   -191.1918542 -0.449473E-05  0.434E-02    2.18       1.0  T
   3   -191.1918455  0.867497E-05  0.889E-03    2.17       1.0  T
   4   -191.1918554 -0.985594E-05  0.206E-03    2.17       4.5  T
   5   -191.1918558 -0.399642E-06  0.867E-04    2.17      10.7  T
   6   -191.1918558 -0.315998E-07  0.440E-04    2.17      21.0  T
   7   -191.1918558 -0.956140E-08  0.198E-04    2.17      46.6  T
   8   -191.1918558 -0.351201E-08  0.801E-05    2.17     115.4  T
     SCC iter.                  ...        0 min,  0.214 sec
     gradient                   ...        0 min,  0.282 sec
 * total energy  :  -188.2340015 Eh     change       -0.3608268E-03 Eh
   gradient norm :     0.0075947 Eh/α   predicted    -0.2784484E-03 ( -22.83%)
   displ. norm   :     0.5167872 α      lambda       -0.4446755E-03
   maximum displ.:     0.1901483 α      in ANC's #16, #11, #10, ...

........................................................................
.............................. CYCLE   29 ..............................
........................................................................

 iter      E             dE          RMSdq      gap      omega  full diag
   1   -191.1929087 -0.191193E+03  0.817E-02    2.17       0.0  T
   2   -191.1929127 -0.407309E-05  0.480E-02    2.17       1.0  T
   3   -191.1929024  0.103062E-04  0.955E-03    2.16       1.0  T
   4   -191.1929142 -0.117803E-04  0.202E-03    2.17       4.6  T
   5   -191.1929145 -0.320030E-06  0.896E-04    2.17      10.3  T
   6   -191.1929146 -0.197198E-07  0.466E-04    2.17      19.8  T
   7   -191.1929146 -0.113091E-07  0.173E-04    2.17      53.6  T
   8   -191.1929146 -0.193481E-08  0.866E-05    2.17     106.8  T
     SCC iter.                  ...        0 min,  0.183 sec
     gradient                   ...        0 min,  0.257 sec
 * total energy  :  -188.2343580 Eh     change       -0.3565707E-03 Eh
   gradient norm :     0.0065245 Eh/α   predicted    -0.2817236E-03 ( -20.99%)
   displ. norm   :     0.4745436 α      lambda       -0.4282607E-03
   maximum displ.:     0.1755859 α      in ANC's #16, #4, #11, ...

........................................................................
.............................. CYCLE   30 ..............................
........................................................................

 iter      E             dE          RMSdq      gap      omega  full diag
   1   -191.1984698 -0.191198E+03  0.815E-02    2.16       0.0  T
   2   -191.1984733 -0.349690E-05  0.478E-02    2.16       1.0  T
   3   -191.1984606  0.127343E-04  0.105E-02    2.16       1.0  T
   4   -191.1984752 -0.145737E-04  0.177E-03    2.16       5.2  T
   5   -191.1984754 -0.174736E-06  0.901E-04    2.16      10.3  T
   6   -191.1984754 -0.146975E-07  0.495E-04    2.16      18.7  T
   7   -191.1984754 -0.127557E-07  0.145E-04    2.16      63.7  T
   8   -191.1984754 -0.111501E-08  0.799E-05    2.16     115.7  T
     SCC iter.                  ...        0 min,  0.187 sec
     gradient                   ...        0 min,  0.281 sec
 * total energy  :  -188.2346563 Eh     change       -0.2982785E-03 Eh
   gradient norm :     0.0054280 Eh/α   predicted    -0.2623507E-03 ( -12.05%)
   displ. norm   :     0.6751558 α      lambda       -0.3745770E-03
   maximum displ.:     0.2647153 α      in ANC's #16, #11, #3, ...

........................................................................
.............................. CYCLE   31 ..............................
........................................................................

 iter      E             dE          RMSdq      gap      omega  full diag
   1   -191.1887860 -0.191189E+03  0.105E-01    2.16       0.0  T
   2   -191.1887928 -0.679259E-05  0.615E-02    2.16       1.0  T
   3   -191.1887798  0.130307E-04  0.109E-02    2.15       1.0  T
   4   -191.1887948 -0.150321E-04  0.236E-03    2.15       3.9  T
   5   -191.1887953 -0.471707E-06  0.102E-03    2.15       9.1  T
   6   -191.1887953 -0.218456E-07  0.622E-04    2.15      14.9  T
   7   -191.1887953 -0.213239E-07  0.204E-04    2.15      45.4  T
   8   -191.1887953 -0.317138E-08  0.914E-05    2.15     101.2  T
   9   -191.1887953 -0.530747E-09  0.391E-05    2.15     236.6  T
     SCC iter.                  ...        0 min,  0.186 sec
     gradient                   ...        0 min,  0.235 sec
 * total energy  :  -188.2347860 Eh     change       -0.1297244E-03 Eh
   gradient norm :     0.0106094 Eh/α   predicted    -0.2726635E-03 ( 110.19%)
   displ. norm   :     0.1231804 α      lambda       -0.2935118E-03
   maximum displ.:     0.0481984 α      in ANC's #4, #23, #3, ...

........................................................................
.............................. CYCLE   32 ..............................
........................................................................

 iter      E             dE          RMSdq      gap      omega  full diag
   1   -191.1967510 -0.191197E+03  0.247E-02    2.16       0.0  T
   2   -191.1967534 -0.235253E-05  0.145E-02    2.16       1.0  T
   3   -191.1967517  0.161681E-05  0.469E-03    2.16       2.0  T
   4   -191.1967536 -0.187039E-05  0.144E-03    2.16       6.4  T
   5   -191.1967538 -0.220822E-06  0.489E-04    2.16      18.9  T
   6   -191.1967538 -0.438979E-08  0.273E-04    2.16      33.8  T
   7   -191.1967538 -0.465400E-08  0.104E-04    2.16      88.9  T
   8   -191.1967538 -0.498090E-09  0.508E-05    2.16     182.1  T
     SCC iter.                  ...        0 min,  0.213 sec
     gradient                   ...        0 min,  0.247 sec
 * total energy  :  -188.2349767 Eh     change       -0.1906352E-03 Eh
   gradient norm :     0.0046273 Eh/α   predicted    -0.1489858E-03 ( -21.85%)
   displ. norm   :     0.3104868 α      lambda       -0.1512152E-03
   maximum displ.:     0.1242237 α      in ANC's #16, #4, #3, ...

........................................................................
.............................. CYCLE   33 ..............................
........................................................................

 iter      E             dE          RMSdq      gap      omega  full diag
   1   -191.1984525 -0.191198E+03  0.488E-02    2.16       0.0  T
   2   -191.1984537 -0.121163E-05  0.286E-02    2.16       1.0  T
   3   -191.1984500  0.370098E-05  0.575E-03    2.16       1.6  T
   4   -191.1984542 -0.424002E-05  0.102E-03    2.16       9.1  T
   5   -191.1984543 -0.806914E-07  0.455E-04    2.16      20.3  T
   6   -191.1984543 -0.467168E-08  0.269E-04    2.16      34.3  T
   7   -191.1984543 -0.431442E-08  0.904E-05    2.16     102.3  T
   8   -191.1984543 -0.292232E-09  0.500E-05    2.16     184.8  T
     SCC iter.                  ...        0 min,  0.195 sec
     gradient                   ...        0 min,  0.237 sec
 * total energy  :  -188.2350968 Eh     change       -0.1201684E-03 Eh
   gradient norm :     0.0037056 Eh/α   predicted    -0.8290159E-04 ( -31.01%)
   displ. norm   :     0.4209642 α      lambda       -0.1833080E-03
   maximum displ.:     0.1680045 α      in ANC's #16, #4, #3, ...

........................................................................
.............................. CYCLE   34 ..............................
........................................................................

 iter      E             dE          RMSdq      gap      omega  full diag
   1   -191.1987950 -0.191199E+03  0.643E-02    2.16       0.0  T
   2   -191.1987967 -0.171352E-05  0.376E-02    2.16       1.0  T
   3   -191.1987933  0.344421E-05  0.599E-03    2.16       1.5  T
   4   -191.1987973 -0.404716E-05  0.137E-03    2.16       6.7  T
   5   -191.1987975 -0.146362E-06  0.600E-04    2.16      15.4  T
   6   -191.1987975 -0.538796E-08  0.336E-04    2.16      27.5  T
   7   -191.1987975 -0.726510E-08  0.958E-05    2.16      96.5  T
   8   -191.1987975 -0.139948E-09  0.525E-05    2.16     176.1  T
     SCC iter.                  ...        0 min,  0.201 sec
     gradient                   ...        0 min,  0.251 sec
 * total energy  :  -188.2352383 Eh     change       -0.1414822E-03 Eh
   gradient norm :     0.0033549 Eh/α   predicted    -0.1078966E-03 ( -23.74%)
   displ. norm   :     0.4297740 α      lambda       -0.1459877E-03
   maximum displ.:     0.1769122 α      in ANC's #4, #16, #3, ...

........................................................................
.............................. CYCLE   35 ..............................
........................................................................

 iter      E             dE          RMSdq      gap      omega  full diag
   1   -191.1970987 -0.191197E+03  0.658E-02    2.16       0.0  T
   2   -191.1971004 -0.169239E-05  0.385E-02    2.16       1.0  T
   3   -191.1970979  0.249097E-05  0.527E-03    2.16       1.8  T
   4   -191.1971009 -0.301065E-05  0.129E-03    2.16       7.2  T
   5   -191.1971010 -0.120481E-06  0.603E-04    2.16      15.3  T
   6   -191.1971010 -0.971130E-08  0.343E-04    2.16      27.0  T
   7   -191.1971010 -0.661583E-08  0.105E-04    2.16      87.7  T
   8   -191.1971010 -0.530520E-09  0.540E-05    2.16     171.1  T
     SCC iter.                  ...        0 min,  0.167 sec
     gradient                   ...        0 min,  0.247 sec
 * total energy  :  -188.2353421 Eh     change       -0.1037374E-03 Eh
   gradient norm :     0.0042797 Eh/α   predicted    -0.8647723E-04 ( -16.64%)
   displ. norm   :     0.3081757 α      lambda       -0.1142121E-03
   maximum displ.:     0.1521299 α      in ANC's #4, #3, #16, ...

........................................................................
.............................. CYCLE   36 ..............................
........................................................................

 iter      E             dE          RMSdq      gap      omega  full diag
   1   -191.1986305 -0.191199E+03  0.440E-02    2.16       0.0  T
   2   -191.1986318 -0.128136E-05  0.257E-02    2.16       1.0  T
   3   -191.1986288  0.306226E-05  0.534E-03    2.16       1.7  T
   4   -191.1986323 -0.349925E-05  0.117E-03    2.16       7.9  T
   5   -191.1986324 -0.106141E-06  0.555E-04    2.16      16.6  T
   6   -191.1986324 -0.955811E-08  0.309E-04    2.16      29.9  T
   7   -191.1986324 -0.525779E-08  0.101E-04    2.16      91.4  T
   8   -191.1986324 -0.759087E-09  0.428E-05    2.16     215.8  T
     SCC iter.                  ...        0 min,  0.177 sec
     gradient                   ...        0 min,  0.245 sec
 * total energy  :  -188.2354042 Eh     change       -0.6215636E-04 Eh
   gradient norm :     0.0048189 Eh/α   predicted    -0.6253060E-04 (   0.60%)
   displ. norm   :     0.2320665 α      lambda       -0.8238908E-04
   maximum displ.:     0.1166679 α      in ANC's #4, #3, #16, ...

........................................................................
.............................. CYCLE   37 ..............................
........................................................................

 iter      E             dE          RMSdq      gap      omega  full diag
   1   -191.1988731 -0.191199E+03  0.316E-02    2.17       0.0  T
   2   -191.1988741 -0.101252E-05  0.186E-02    2.17       1.0  T
   3   -191.1988713  0.277985E-05  0.505E-03    2.17       1.8  T
   4   -191.1988745 -0.312554E-05  0.105E-03    2.17       8.8  T
   5   -191.1988746 -0.101113E-06  0.414E-04    2.17      22.3  T
   6   -191.1988746 -0.423404E-08  0.253E-04    2.17      36.6  T
   7   -191.1988746 -0.333060E-08  0.904E-05    2.17     102.3  T
   8   -191.1988746 -0.698975E-09  0.313E-05    2.17     295.4  T
     SCC iter.                  ...        0 min,  0.200 sec
     gradient                   ...        0 min,  0.249 sec
 * total energy  :  -188.2354546 Eh     change       -0.5037998E-04 Eh
   gradient norm :     0.0042102 Eh/α   predicted    -0.4341704E-04 ( -13.82%)
   displ. norm   :     0.1802218 α      lambda       -0.7278911E-04
   maximum displ.:     0.0950968 α      in ANC's #4, #3, #16, ...

........................................................................
.............................. CYCLE   38 ..............................
........................................................................

 iter      E             dE          RMSdq      gap      omega  full diag
   1   -191.1977991 -0.191198E+03  0.250E-02    2.17       0.0  T
   2   -191.1978000 -0.936963E-06  0.149E-02    2.17       1.0  T
   3   -191.1977965  0.351000E-05  0.594E-03    2.17       1.6  T
   4   -191.1978005 -0.401242E-05  0.101E-03    2.17       9.1  T
   5   -191.1978006 -0.887136E-07  0.384E-04    2.17      24.1  T
   6   -191.1978006 -0.283649E-08  0.232E-04    2.17      39.8  T
   7   -191.1978006 -0.317627E-08  0.923E-05    2.17     100.1  T
   8   -191.1978006 -0.693518E-09  0.351E-05    2.17     263.4  T
     SCC iter.                  ...        0 min,  0.187 sec
     gradient                   ...        0 min,  0.251 sec
 * total energy  :  -188.2354972 Eh     change       -0.4263699E-04 Eh
   gradient norm :     0.0030438 Eh/α   predicted    -0.3758090E-04 ( -11.86%)
   displ. norm   :     0.1484676 α      lambda       -0.6757233E-04
   maximum displ.:     0.0822880 α      in ANC's #4, #3, #7, ...

........................................................................
.............................. CYCLE   39 ..............................
........................................................................

 iter      E             dE          RMSdq      gap      omega  full diag
   1   -191.2006680 -0.191201E+03  0.154E-02    2.17       0.0  T
   2   -191.2006686 -0.635050E-06  0.924E-03    2.17       1.0  T
   3   -191.2006671  0.153598E-05  0.455E-03    2.17       2.0  T
   4   -191.2006690 -0.190529E-05  0.856E-04    2.17      10.8  T
   5   -191.2006690 -0.611427E-07  0.338E-04    2.17      27.3  T
   6   -191.2006690 -0.238617E-08  0.207E-04    2.17      44.7  T
   7   -191.2006690 -0.191690E-08  0.782E-05    2.17     118.2  T
   8   -191.2006690 -0.464297E-09  0.362E-05    2.17     255.4  T
     SCC iter.                  ...        0 min,  0.164 sec
     gradient                   ...        0 min,  0.223 sec
 * total energy  :  -188.2355406 Eh     change       -0.4339186E-04 Eh
   gradient norm :     0.0032244 Eh/α   predicted    -0.3453264E-04 ( -20.42%)
   displ. norm   :     0.1517123 α      lambda       -0.4670178E-04
   maximum displ.:     0.0855204 α      in ANC's #4, #3, #6, ...

........................................................................
.............................. CYCLE   40 ..............................
........................................................................

 iter      E             dE          RMSdq      gap      omega  full diag
   1   -191.1996108 -0.191200E+03  0.152E-02    2.17       0.0  T
   2   -191.1996110 -0.257488E-06  0.899E-03    2.17       1.0  T
   3   -191.1996104  0.611565E-06  0.250E-03    2.17       3.7  T
   4   -191.1996111 -0.710031E-06  0.545E-04    2.17      17.0  T
   5   -191.1996112 -0.234821E-07  0.235E-04    2.17      39.3  T
   6   -191.1996112 -0.730182E-09  0.137E-04    2.17      67.3  T
   7   -191.1996112 -0.867630E-09  0.374E-05    2.17     246.9  T
     SCC iter.                  ...        0 min,  0.150 sec
     gradient                   ...        0 min,  0.237 sec
 * total energy  :  -188.2355752 Eh     change       -0.3461968E-04 Eh
   gradient norm :     0.0036635 Eh/α   predicted    -0.2389091E-04 ( -30.99%)
   displ. norm   :     0.2295699 α      lambda       -0.7301966E-04
   maximum displ.:     0.1240964 α      in ANC's #4, #3, #7, ...

........................................................................
.............................. CYCLE   41 ..............................
........................................................................

 iter      E             dE          RMSdq      gap      omega  full diag
   1   -191.2003105 -0.191200E+03  0.224E-02    2.17       0.0  T
   2   -191.2003110 -0.507032E-06  0.131E-02    2.17       1.0  T
   3   -191.2003099  0.110688E-05  0.343E-03    2.17       2.7  T
   4   -191.2003112 -0.132852E-05  0.702E-04    2.17      13.2  T
   5   -191.2003112 -0.216197E-07  0.395E-04    2.17      23.4  T
   6   -191.2003112 -0.628083E-08  0.208E-04    2.17      44.5  T
   7   -191.2003112 -0.161876E-08  0.751E-05    2.17     123.0  T
   8   -191.2003113 -0.326509E-09  0.391E-05    2.17     236.7  T
     SCC iter.                  ...        0 min,  0.196 sec
     gradient                   ...        0 min,  0.227 sec
 * total energy  :  -188.2356282 Eh     change       -0.5295945E-04 Eh
   gradient norm :     0.0037710 Eh/α   predicted    -0.3843880E-04 ( -27.42%)
   displ. norm   :     0.2662365 α      lambda       -0.6664797E-04
   maximum displ.:     0.1492680 α      in ANC's #4, #3, #6, ...

........................................................................
.............................. CYCLE   42 ..............................
........................................................................

 iter      E             dE          RMSdq      gap      omega  full diag
   1   -191.1989972 -0.191199E+03  0.245E-02    2.17       0.0  T
   2   -191.1989978 -0.557733E-06  0.144E-02    2.17       1.0  T
   3   -191.1989965  0.123366E-05  0.355E-03    2.17       2.6  T
   4   -191.1989980 -0.144521E-05  0.825E-04    2.17      11.2  T
   5   -191.1989980 -0.404520E-07  0.389E-04    2.17      23.8  T
   6   -191.1989980 -0.198895E-08  0.210E-04    2.17      44.1  T
   7   -191.1989980 -0.245257E-08  0.799E-05    2.17     115.7  T
   8   -191.1989980 -0.285667E-09  0.460E-05    2.17     201.2  T
     SCC iter.                  ...        0 min,  0.173 sec
     gradient                   ...        0 min,  0.235 sec
 * total energy  :  -188.2356798 Eh     change       -0.5159267E-04 Eh
   gradient norm :     0.0034560 Eh/α   predicted    -0.3568763E-04 ( -30.83%)
   displ. norm   :     0.3165014 α      lambda       -0.7333462E-04
   maximum displ.:     0.1751165 α      in ANC's #4, #3, #6, ...
 * RMSD in coord.:     0.5792946 α      energy gain  -0.4549206E-02 Eh

generating ANC from exact Hessian ...
Using Lindh-Hessian (1995)
 Shifting diagonal of input Hessian by    1.0073170488295377E-002
 Lowest  eigenvalues of input Hessian
    0.010000    0.010020    0.000000    0.000000    0.000000    0.000000
    0.000000    0.000000    0.010114    0.010147    0.010240    0.010326
    0.010366    0.010429    0.010608    0.010655    0.010774    0.010903
 Highest eigenvalues
    2.157704    2.209464    2.337432    2.340854    2.374836    3.163612


........................................................................
.............................. CYCLE   43 ..............................
........................................................................

 iter      E             dE          RMSdq      gap      omega  full diag
   1   -191.1987869 -0.191199E+03  0.280E-02    2.17       0.0  T
   2   -191.1987878 -0.868048E-06  0.165E-02    2.17       1.0  T
   3   -191.1987860  0.180761E-05  0.429E-03    2.18       2.2  T
   4   -191.1987880 -0.208138E-05  0.107E-03    2.17       8.6  T
   5   -191.1987881 -0.929884E-07  0.438E-04    2.17      21.1  T
   6   -191.1987881 -0.185037E-08  0.244E-04    2.17      37.9  T
   7   -191.1987881 -0.333830E-08  0.780E-05    2.17     118.5  T
   8   -191.1987881 -0.123606E-09  0.473E-05    2.17     195.6  T
     SCC iter.                  ...        0 min,  0.179 sec
     gradient                   ...        0 min,  0.226 sec
 * total energy  :  -188.2357376 Eh     change       -0.5778564E-04 Eh
   gradient norm :     0.0031046 Eh/α   predicted     0.0000000E+00 (-100.00%)
   displ. norm   :     0.0346758 α      lambda       -0.3046848E-04
   maximum displ.:     0.0119737 α      in ANC's #27, #14, #22, ...

........................................................................
.............................. CYCLE   44 ..............................
........................................................................

 iter      E             dE          RMSdq      gap      omega  full diag
   1   -191.1992198 -0.191199E+03  0.788E-03    2.18       0.0  T
   2   -191.1992199 -0.702772E-07  0.460E-03    2.18       2.0  T
   3   -191.1992197  0.216804E-06  0.146E-03    2.18       6.3  T
   4   -191.1992199 -0.249452E-06  0.292E-04    2.18      31.6  T
   5   -191.1992199 -0.500444E-08  0.133E-04    2.18      69.5  T
   6   -191.1992200 -0.714522E-09  0.612E-05    2.18     151.2  T
     SCC iter.                  ...        0 min,  0.164 sec
     gradient                   ...        0 min,  0.239 sec
 * total energy  :  -188.2357640 Eh     change       -0.2638072E-04 Eh
   gradient norm :     0.0018080 Eh/α   predicted    -0.1590277E-04 ( -39.72%)
   displ. norm   :     0.1702106 α      lambda       -0.6405007E-04
   maximum displ.:     0.0598782 α      in ANC's #27, #14, #4, ...

........................................................................
.............................. CYCLE   45 ..............................
........................................................................

 iter      E             dE          RMSdq      gap      omega  full diag
   1   -191.1998317 -0.191200E+03  0.331E-02    2.18       0.0  T
   2   -191.1998329 -0.116604E-05  0.192E-02    2.18       1.0  T
   3   -191.1998296  0.330979E-05  0.569E-03    2.18       1.6  T
   4   -191.1998334 -0.382106E-05  0.126E-03    2.18       7.3  T
   5   -191.1998335 -0.992979E-07  0.565E-04    2.18      16.4  T
   6   -191.1998335 -0.146632E-07  0.263E-04    2.18      35.2  T
   7   -191.1998335 -0.141830E-08  0.983E-05    2.18      94.0  T
   8   -191.1998335 -0.342254E-09  0.507E-05    2.18     182.4  T
     SCC iter.                  ...        0 min,  0.170 sec
     gradient                   ...        0 min,  0.223 sec
 * total energy  :  -188.2358082 Eh     change       -0.4426573E-04 Eh
   gradient norm :     0.0031132 Eh/α   predicted    -0.3243758E-04 ( -26.72%)
   displ. norm   :     0.0389875 α      lambda       -0.1878565E-04
   maximum displ.:     0.0141585 α      in ANC's #14, #4, #3, ...

........................................................................
.............................. CYCLE   46 ..............................
........................................................................

 iter      E             dE          RMSdq      gap      omega  full diag
   1   -191.1996607 -0.191200E+03  0.618E-03    2.18       0.0  T
   2   -191.1996607 -0.342902E-07  0.362E-03    2.18       2.6  T
   3   -191.1996606  0.130424E-06  0.107E-03    2.18       8.6  T
   4   -191.1996608 -0.150076E-06  0.196E-04    2.18      47.1  T
   5   -191.1996608 -0.261159E-08  0.969E-05    2.18      95.4  T
     SCC iter.                  ...        0 min,  0.104 sec
     gradient                   ...        0 min,  0.223 sec
 * total energy  :  -188.2358252 Eh     change       -0.1696405E-04 Eh
   gradient norm :     0.0023309 Eh/α   predicted    -0.9407462E-05 ( -44.54%)
   displ. norm   :     0.1994304 α      lambda       -0.7209513E-04
   maximum displ.:     0.0757651 α      in ANC's #14, #4, #3, ...

........................................................................
.............................. CYCLE   47 ..............................
........................................................................

 iter      E             dE          RMSdq      gap      omega  full diag
   1   -191.1988719 -0.191199E+03  0.296E-02    2.18       0.0  T
   2   -191.1988726 -0.699959E-06  0.173E-02    2.17       1.0  T
   3   -191.1988697  0.289679E-05  0.504E-03    2.17       1.8  T
   4   -191.1988730 -0.333041E-05  0.858E-04    2.17      10.8  T
   5   -191.1988731 -0.474092E-07  0.436E-04    2.17      21.2  T
   6   -191.1988731 -0.946770E-08  0.226E-04    2.17      40.9  T
   7   -191.1988731 -0.174705E-08  0.966E-05    2.17      95.7  T
   8   -191.1988731 -0.843897E-09  0.345E-05    2.17     267.7  T
     SCC iter.                  ...        0 min,  0.170 sec
     gradient                   ...        0 min,  0.222 sec
 * total energy  :  -188.2358714 Eh     change       -0.4616954E-04 Eh
   gradient norm :     0.0017562 Eh/α   predicted    -0.3752986E-04 ( -18.71%)
   displ. norm   :     0.2031418 α      lambda       -0.2309308E-04
   maximum displ.:     0.0796450 α      in ANC's #4, #14, #3, ...

........................................................................
.............................. CYCLE   48 ..............................
........................................................................

 iter      E             dE          RMSdq      gap      omega  full diag
   1   -191.1985165 -0.191199E+03  0.272E-02    2.17       0.0  T
   2   -191.1985170 -0.512554E-06  0.159E-02    2.17       1.0  T
   3   -191.1985148  0.218119E-05  0.431E-03    2.17       2.1  T
   4   -191.1985173 -0.249348E-05  0.734E-04    2.17      12.6  T
   5   -191.1985173 -0.338134E-07  0.380E-04    2.17      24.3  T
   6   -191.1985173 -0.769171E-08  0.191E-04    2.17      48.3  T
   7   -191.1985173 -0.120539E-08  0.845E-05    2.17     109.5  T
     SCC iter.                  ...        0 min,  0.156 sec
     gradient                   ...        0 min,  0.269 sec
 * total energy  :  -188.2358964 Eh     change       -0.2498987E-04 Eh
   gradient norm :     0.0024353 Eh/α   predicted    -0.1184215E-04 ( -52.61%)
   displ. norm   :     0.1385866 α      lambda       -0.2860791E-04
   maximum displ.:     0.0578058 α      in ANC's #4, #14, #3, ...

........................................................................
.............................. CYCLE   49 ..............................
........................................................................

 iter      E             dE          RMSdq      gap      omega  full diag
   1   -191.1988999 -0.191199E+03  0.167E-02    2.17       0.0  T
   2   -191.1989001 -0.175215E-06  0.980E-03    2.17       1.0  T
   3   -191.1988995  0.565831E-06  0.220E-03    2.17       4.2  T
   4   -191.1989002 -0.645227E-06  0.413E-04    2.17      22.4  T
   5   -191.1989002 -0.115187E-07  0.203E-04    2.17      45.6  T
   6   -191.1989002 -0.171815E-08  0.101E-04    2.17      91.5  T
   7   -191.1989002 -0.385256E-09  0.432E-05    2.17     213.9  T
     SCC iter.                  ...        0 min,  0.185 sec
     gradient                   ...        0 min,  0.254 sec
 * total energy  :  -188.2359220 Eh     change       -0.2561554E-04 Eh
   gradient norm :     0.0018590 Eh/α   predicted    -0.1457911E-04 ( -43.08%)
   displ. norm   :     0.4963911 α      lambda       -0.7000277E-04
   maximum displ.:     0.2099055 α      in ANC's #4, #3, #8, ...

........................................................................
.............................. CYCLE   50 ..............................
........................................................................

 iter      E             dE          RMSdq      gap      omega  full diag
   1   -191.1992628 -0.191199E+03  0.579E-02    2.18       0.0  T
   2   -191.1992647 -0.184303E-05  0.340E-02    2.17       1.0  T
   3   -191.1992599  0.483345E-05  0.658E-03    2.17       1.4  T
   4   -191.1992654 -0.556856E-05  0.133E-03    2.17       6.9  T
   5   -191.1992655 -0.110669E-06  0.666E-04    2.17      13.9  T
   6   -191.1992656 -0.162036E-07  0.327E-04    2.17      28.2  T
   7   -191.1992656 -0.447181E-08  0.130E-04    2.17      71.2  T
   8   -191.1992656 -0.110879E-08  0.620E-05    2.17     149.0  T
     SCC iter.                  ...        0 min,  0.212 sec
     gradient                   ...        0 min,  0.276 sec
 * total energy  :  -188.2359922 Eh     change       -0.7019340E-04 Eh
   gradient norm :     0.0026830 Eh/α   predicted    -0.3883501E-04 ( -44.67%)
   displ. norm   :     0.2357423 α      lambda       -0.3942220E-04
   maximum displ.:     0.1026032 α      in ANC's #4, #3, #8, ...

........................................................................
.............................. CYCLE   51 ..............................
........................................................................

 iter      E             dE          RMSdq      gap      omega  full diag
   1   -191.1993927 -0.191199E+03  0.262E-02    2.17       0.0  T
   2   -191.1993931 -0.349138E-06  0.154E-02    2.17       1.0  T
   3   -191.1993923  0.822951E-06  0.275E-03    2.17       3.4  T
   4   -191.1993932 -0.963023E-06  0.562E-04    2.17      16.5  T
   5   -191.1993932 -0.153078E-07  0.304E-04    2.17      30.5  T
   6   -191.1993933 -0.330257E-08  0.155E-04    2.17      59.8  T
   7   -191.1993933 -0.107011E-08  0.562E-05    2.17     164.6  T
     SCC iter.                  ...        0 min,  0.162 sec
     gradient                   ...        0 min,  0.245 sec
 * total energy  :  -188.2360259 Eh     change       -0.3374784E-04 Eh
   gradient norm :     0.0027490 Eh/α   predicted    -0.2080791E-04 ( -38.34%)
   displ. norm   :     0.3837636 α      lambda       -0.7081065E-04
   maximum displ.:     0.1689834 α      in ANC's #4, #3, #8, ...

........................................................................
.............................. CYCLE   52 ..............................
........................................................................

 iter      E             dE          RMSdq      gap      omega  full diag
   1   -191.1997858 -0.191200E+03  0.414E-02    2.17       0.0  T
   2   -191.1997867 -0.847884E-06  0.244E-02    2.17       1.0  T
   3   -191.1997845  0.218160E-05  0.442E-03    2.17       2.1  T
   4   -191.1997871 -0.255846E-05  0.852E-04    2.17      10.8  T
   5   -191.1997871 -0.300343E-07  0.467E-04    2.17      19.8  T
   6   -191.1997871 -0.448981E-08  0.256E-04    2.17      36.1  T
   7   -191.1997871 -0.375874E-08  0.767E-05    2.17     120.6  T
   8   -191.1997871 -0.138243E-09  0.443E-05    2.17     208.9  T
     SCC iter.                  ...        0 min,  0.228 sec
     gradient                   ...        0 min,  0.225 sec
 * total energy  :  -188.2360832 Eh     change       -0.5733088E-04 Eh
   gradient norm :     0.0021765 Eh/α   predicted    -0.4062218E-04 ( -29.14%)
   displ. norm   :     0.4348852 α      lambda       -0.6533771E-04
   maximum displ.:     0.1933213 α      in ANC's #4, #8, #3, ...

........................................................................
.............................. CYCLE   53 ..............................
........................................................................

 iter      E             dE          RMSdq      gap      omega  full diag
   1   -191.1989807 -0.191199E+03  0.456E-02    2.17       0.0  T
   2   -191.1989818 -0.103933E-05  0.269E-02    2.17       1.0  T
   3   -191.1989790  0.271757E-05  0.481E-03    2.17       1.9  T
   4   -191.1989822 -0.316467E-05  0.994E-04    2.17       9.3  T
   5   -191.1989823 -0.566724E-07  0.519E-04    2.17      17.8  T
   6   -191.1989823 -0.493958E-08  0.302E-04    2.17      30.6  T
   7   -191.1989823 -0.529150E-08  0.941E-05    2.17      98.2  T
   8   -191.1989823 -0.525517E-09  0.497E-05    2.17     186.1  T
     SCC iter.                  ...        0 min,  0.186 sec
     gradient                   ...        0 min,  0.258 sec
 * total energy  :  -188.2361341 Eh     change       -0.5090190E-04 Eh
   gradient norm :     0.0017867 Eh/α   predicted    -0.3885290E-04 ( -23.67%)
   displ. norm   :     0.5364696 α      lambda       -0.5445904E-04
   maximum displ.:     0.2421426 α      in ANC's #4, #8, #3, ...

........................................................................
.............................. CYCLE   54 ..............................
........................................................................

 iter      E             dE          RMSdq      gap      omega  full diag
   1   -191.1993838 -0.191199E+03  0.547E-02    2.17       0.0  T
   2   -191.1993853 -0.150172E-05  0.324E-02    2.17       1.0  T
   3   -191.1993806  0.473853E-05  0.619E-03    2.17       1.5  T
   4   -191.1993860 -0.547892E-05  0.123E-03    2.17       7.5  T
   5   -191.1993861 -0.908720E-07  0.658E-04    2.17      14.0  T
   6   -191.1993861 -0.576674E-08  0.406E-04    2.17      22.8  T
   7   -191.1993861 -0.101537E-07  0.120E-04    2.17      77.3  T
   8   -191.1993861 -0.118982E-08  0.570E-05    2.17     162.3  T
     SCC iter.                  ...        0 min,  0.211 sec
     gradient                   ...        0 min,  0.221 sec
 * total energy  :  -188.2361892 Eh     change       -0.5504975E-04 Eh
   gradient norm :     0.0026119 Eh/α   predicted    -0.3071298E-04 ( -44.21%)
   displ. norm   :     0.3034743 α      lambda       -0.4228459E-04
   maximum displ.:     0.1371219 α      in ANC's #4, #8, #3, ...

........................................................................
.............................. CYCLE   55 ..............................
........................................................................

 iter      E             dE          RMSdq      gap      omega  full diag
   1   -191.1983796 -0.191198E+03  0.302E-02    2.17       0.0  T
   2   -191.1983801 -0.467724E-06  0.178E-02    2.17       1.0  T
   3   -191.1983790  0.107957E-05  0.304E-03    2.17       3.0  T
   4   -191.1983802 -0.122705E-05  0.808E-04    2.17      11.4  T
   5   -191.1983803 -0.592702E-07  0.365E-04    2.17      25.3  T
   6   -191.1983803 -0.451740E-08  0.207E-04    2.17      44.7  T
   7   -191.1983803 -0.197417E-08  0.745E-05    2.17     124.2  T
   8   -191.1983803 -0.530747E-09  0.281E-05    2.17     328.8  T
     SCC iter.                  ...        0 min,  0.181 sec
     gradient                   ...        0 min,  0.222 sec
 * total energy  :  -188.2362248 Eh     change       -0.3565052E-04 Eh
   gradient norm :     0.0026585 Eh/α   predicted    -0.2309791E-04 ( -35.21%)
   displ. norm   :     0.4140693 α      lambda       -0.8967319E-04
   maximum displ.:     0.1850576 α      in ANC's #4, #8, #1, ...

........................................................................
.............................. CYCLE   56 ..............................
........................................................................

 iter      E             dE          RMSdq      gap      omega  full diag
   1   -191.2000555 -0.191200E+03  0.424E-02    2.17       0.0  T
   2   -191.2000563 -0.869952E-06  0.249E-02    2.17       1.0  T
   3   -191.2000536  0.269019E-05  0.477E-03    2.17       1.9  T
   4   -191.2000567 -0.304495E-05  0.111E-03    2.17       8.3  T
   5   -191.2000568 -0.105764E-06  0.519E-04    2.17      17.8  T
   6   -191.2000568 -0.955009E-08  0.296E-04    2.17      31.3  T
   7   -191.2000568 -0.459411E-08  0.100E-04    2.17      92.4  T
   8   -191.2000568 -0.826589E-09  0.419E-05    2.17     220.5  T
     SCC iter.                  ...        0 min,  0.172 sec
     gradient                   ...        0 min,  0.251 sec
 * total energy  :  -188.2362958 Eh     change       -0.7100101E-04 Eh
   gradient norm :     0.0024064 Eh/α   predicted    -0.5252661E-04 ( -26.02%)
   displ. norm   :     0.5597424 α      lambda       -0.9101626E-04
   maximum displ.:     0.2510420 α      in ANC's #8, #4, #1, ...

........................................................................
.............................. CYCLE   57 ..............................
........................................................................

 iter      E             dE          RMSdq      gap      omega  full diag
   1   -191.1989581 -0.191199E+03  0.547E-02    2.17       0.0  T
   2   -191.1989593 -0.121232E-05  0.321E-02    2.17       1.0  T
   3   -191.1989558  0.351691E-05  0.536E-03    2.17       1.7  T
   4   -191.1989599 -0.406235E-05  0.130E-03    2.17       7.1  T
   5   -191.1989600 -0.122870E-06  0.650E-04    2.17      14.2  T
   6   -191.1989600 -0.146499E-07  0.349E-04    2.17      26.5  T
   7   -191.1989600 -0.721985E-08  0.120E-04    2.17      77.2  T
   8   -191.1989600 -0.116560E-08  0.519E-05    2.17     178.0  T
     SCC iter.                  ...        0 min,  0.212 sec
     gradient                   ...        0 min,  0.241 sec
 * total energy  :  -188.2363693 Eh     change       -0.7345193E-04 Eh
   gradient norm :     0.0024456 Eh/α   predicted    -0.5976996E-04 ( -18.63%)
   displ. norm   :     0.4953449 α      lambda       -0.8597843E-04
   maximum displ.:     0.2268452 α      in ANC's #8, #4, #1, ...

........................................................................
.............................. CYCLE   58 ..............................
........................................................................

 iter      E             dE          RMSdq      gap      omega  full diag
   1   -191.1995026 -0.191200E+03  0.478E-02    2.17       0.0  T
   2   -191.1995037 -0.106050E-05  0.280E-02    2.18       1.0  T
   3   -191.1995011  0.261785E-05  0.457E-03    2.18       2.0  T
   4   -191.1995041 -0.305102E-05  0.119E-03    2.18       7.7  T
   5   -191.1995042 -0.100787E-06  0.561E-04    2.18      16.5  T
   6   -191.1995042 -0.691821E-08  0.311E-04    2.18      29.7  T
   7   -191.1995042 -0.714579E-08  0.110E-04    2.18      84.4  T
   8   -191.1995042 -0.755762E-09  0.531E-05    2.18     174.0  T
     SCC iter.                  ...        0 min,  0.182 sec
     gradient                   ...        0 min,  0.254 sec
 * total energy  :  -188.2364407 Eh     change       -0.7137804E-04 Eh
   gradient norm :     0.0025040 Eh/α   predicted    -0.5354163E-04 ( -24.99%)
   displ. norm   :     0.5259750 α      lambda       -0.9824192E-04
   maximum displ.:     0.2472411 α      in ANC's #8, #4, #1, ...

........................................................................
.............................. CYCLE   59 ..............................
........................................................................

 iter      E             dE          RMSdq      gap      omega  full diag
   1   -191.2001730 -0.191200E+03  0.489E-02    2.18       0.0  T
   2   -191.2001743 -0.125515E-05  0.286E-02    2.18       1.0  T
   3   -191.2001715  0.274925E-05  0.475E-03    2.18       1.9  T
   4   -191.2001748 -0.323401E-05  0.129E-03    2.18       7.2  T
   5   -191.2001749 -0.121205E-06  0.580E-04    2.18      15.9  T
   6   -191.2001749 -0.698333E-08  0.300E-04    2.18      30.8  T
   7   -191.2001749 -0.591541E-08  0.109E-04    2.18      84.6  T
   8   -191.2001749 -0.522590E-09  0.619E-05    2.18     149.4  T
     SCC iter.                  ...        0 min,  0.197 sec
     gradient                   ...        0 min,  0.237 sec
 * total energy  :  -188.2365235 Eh     change       -0.8287398E-04 Eh
   gradient norm :     0.0026996 Eh/α   predicted    -0.6271354E-04 ( -24.33%)
   displ. norm   :     0.5102759 α      lambda       -0.1072867E-03
   maximum displ.:     0.2453737 α      in ANC's #8, #1, #4, ...

........................................................................
.............................. CYCLE   60 ..............................
........................................................................

 iter      E             dE          RMSdq      gap      omega  full diag
   1   -191.2013928 -0.191201E+03  0.465E-02    2.19       0.0  T
   2   -191.2013942 -0.140207E-05  0.271E-02    2.19       1.0  T
   3   -191.2013901  0.404630E-05  0.592E-03    2.19       1.6  T
   4   -191.2013948 -0.468734E-05  0.132E-03    2.19       7.0  T
   5   -191.2013949 -0.120172E-06  0.605E-04    2.19      15.3  T
   6   -191.2013949 -0.104667E-07  0.291E-04    2.19      31.8  T
   7   -191.2013949 -0.481714E-08  0.909E-05    2.19     101.7  T
   8   -191.2013949 -0.134520E-09  0.478E-05    2.19     193.2  T
     SCC iter.                  ...        0 min,  0.245 sec
     gradient                   ...        0 min,  0.297 sec
 * total energy  :  -188.2366103 Eh     change       -0.8672440E-04 Eh
   gradient norm :     0.0028835 Eh/α   predicted    -0.6761567E-04 ( -22.03%)
   displ. norm   :     0.5315116 α      lambda       -0.9383395E-04
   maximum displ.:     0.2606433 α      in ANC's #8, #1, #4, ...

........................................................................
.............................. CYCLE   61 ..............................
........................................................................

 iter      E             dE          RMSdq      gap      omega  full diag
   1   -191.2002162 -0.191200E+03  0.474E-02    2.19       0.0  T
   2   -191.2002175 -0.124551E-05  0.277E-02    2.19       1.0  T
   3   -191.2002126  0.493877E-05  0.647E-03    2.19       1.4  T
   4   -191.2002183 -0.573623E-05  0.116E-03    2.19       8.0  T
   5   -191.2002183 -0.534611E-07  0.621E-04    2.19      14.9  T
   6   -191.2002184 -0.156239E-07  0.259E-04    2.19      35.7  T
   7   -191.2002184 -0.332898E-08  0.906E-05    2.19     102.1  T
   8   -191.2002184 -0.219359E-09  0.514E-05    2.19     179.9  T
     SCC iter.                  ...        0 min,  0.260 sec
     gradient                   ...        0 min,  0.293 sec
 * total energy  :  -188.2366829 Eh     change       -0.7265427E-04 Eh
   gradient norm :     0.0028740 Eh/α   predicted    -0.6017262E-04 ( -17.18%)
   displ. norm   :     0.4046123 α      lambda       -0.8841487E-04
   maximum displ.:     0.2005129 α      in ANC's #8, #1, #4, ...

........................................................................
.............................. CYCLE   62 ..............................
........................................................................

 iter      E             dE          RMSdq      gap      omega  full diag
   1   -191.2035026 -0.191204E+03  0.395E-02    2.20       0.0  T
   2   -191.2035041 -0.145539E-05  0.230E-02    2.20       1.0  T
   3   -191.2034981  0.597955E-05  0.731E-03    2.20       1.3  T
   4   -191.2035049 -0.683163E-05  0.120E-03    2.20       7.7  T
   5   -191.2035050 -0.107381E-06  0.555E-04    2.20      16.7  T
   6   -191.2035050 -0.730984E-08  0.293E-04    2.20      31.6  T
   7   -191.2035050 -0.391273E-08  0.112E-04    2.20      82.5  T
   8   -191.2035051 -0.933170E-09  0.482E-05    2.20     192.0  T
     SCC iter.                  ...        0 min,  0.266 sec
     gradient                   ...        0 min,  0.270 sec
 * total energy  :  -188.2367304 Eh     change       -0.4747084E-04 Eh
   gradient norm :     0.0031047 Eh/α   predicted    -0.5144726E-04 (   8.38%)
   displ. norm   :     0.4786829 α      lambda       -0.6912879E-04
   maximum displ.:     0.2391932 α      in ANC's #8, #1, #4, ...

........................................................................
.............................. CYCLE   63 ..............................
........................................................................

 iter      E             dE          RMSdq      gap      omega  full diag
   1   -191.1991393 -0.191199E+03  0.451E-02    2.20       0.0  T
   2   -191.1991406 -0.128076E-05  0.264E-02    2.20       1.0  T
   3   -191.1991375  0.309207E-05  0.507E-03    2.20       1.8  T
   4   -191.1991411 -0.361132E-05  0.112E-03    2.20       8.3  T
   5   -191.1991412 -0.830134E-07  0.583E-04    2.20      15.9  T
   6   -191.1991412 -0.810959E-08  0.319E-04    2.20      29.0  T
   7   -191.1991412 -0.528769E-08  0.110E-04    2.20      84.0  T
   8   -191.1991412 -0.102020E-08  0.481E-05    2.20     192.1  T
     SCC iter.                  ...        0 min,  0.244 sec
     gradient                   ...        0 min,  0.333 sec
 * total energy  :  -188.2367697 Eh     change       -0.3926675E-04 Eh
   gradient norm :     0.0031820 Eh/α   predicted    -0.4248521E-04 (   8.20%)
   displ. norm   :     0.1232185 α      lambda       -0.4431107E-04
   maximum displ.:     0.0632674 α      in ANC's #8, #1, #4, ...

........................................................................
.............................. CYCLE   64 ..............................
........................................................................

 iter      E             dE          RMSdq      gap      omega  full diag
   1   -191.1997916 -0.191200E+03  0.159E-02    2.20       0.0  T
   2   -191.1997920 -0.375433E-06  0.955E-03    2.20       1.0  T
   3   -191.1997914  0.513631E-06  0.224E-03    2.20       4.1  T
   4   -191.1997920 -0.537357E-06  0.831E-04    2.20      11.1  T
   5   -191.1997921 -0.820765E-07  0.302E-04    2.20      30.6  T
   6   -191.1997921 -0.473182E-08  0.166E-04    2.20      55.6  T
   7   -191.1997921 -0.156231E-08  0.590E-05    2.20     156.8  T
     SCC iter.                  ...        0 min,  0.246 sec
     gradient                   ...        0 min,  0.302 sec
 * total energy  :  -188.2368070 Eh     change       -0.3736995E-04 Eh
   gradient norm :     0.0025905 Eh/α   predicted    -0.2249237E-04 ( -39.81%)
   displ. norm   :     0.3010778 α      lambda       -0.9668180E-04
   maximum displ.:     0.1548863 α      in ANC's #8, #1, #4, ...

........................................................................
.............................. CYCLE   65 ..............................
........................................................................

 iter      E             dE          RMSdq      gap      omega  full diag
   1   -191.2014174 -0.191201E+03  0.406E-02    2.19       0.0  T
   2   -191.2014193 -0.186692E-05  0.242E-02    2.19       1.0  T
   3   -191.2014160  0.326771E-05  0.548E-03    2.19       1.7  T
   4   -191.2014194 -0.336252E-05  0.204E-03    2.19       4.5  T
   5   -191.2014199 -0.508235E-06  0.716E-04    2.19      12.9  T
   6   -191.2014199 -0.222304E-07  0.403E-04    2.19      22.9  T
   7   -191.2014199 -0.892484E-08  0.134E-04    2.19      68.9  T
   8   -191.2014199 -0.680728E-09  0.650E-05    2.19     142.3  T
     SCC iter.                  ...        0 min,  0.221 sec
     gradient                   ...        0 min,  0.262 sec
 * total energy  :  -188.2368691 Eh     change       -0.6206949E-04 Eh
   gradient norm :     0.0029812 Eh/α   predicted    -0.5272703E-04 ( -15.05%)
   displ. norm   :     0.3446081 α      lambda       -0.4382416E-04
   maximum displ.:     0.1853230 α      in ANC's #8, #1, #4, ...

........................................................................
.............................. CYCLE   66 ..............................
........................................................................

 iter      E             dE          RMSdq      gap      omega  full diag
   1   -191.2009089 -0.191201E+03  0.379E-02    2.18       0.0  T
   2   -191.2009095 -0.672955E-06  0.223E-02    2.18       1.0  T
   3   -191.2009074  0.213112E-05  0.406E-03    2.18       2.3  T
   4   -191.2009098 -0.242425E-05  0.100E-03    2.18       9.2  T
   5   -191.2009099 -0.682702E-07  0.534E-04    2.18      17.3  T
   6   -191.2009099 -0.130472E-07  0.270E-04    2.18      34.2  T
   7   -191.2009099 -0.339173E-08  0.940E-05    2.18      98.3  T
   8   -191.2009099 -0.607059E-09  0.421E-05    2.18     219.7  T
     SCC iter.                  ...        0 min,  0.246 sec
     gradient                   ...        0 min,  0.282 sec
 * total energy  :  -188.2369041 Eh     change       -0.3496296E-04 Eh
   gradient norm :     0.0031980 Eh/α   predicted    -0.2451488E-04 ( -29.88%)
   displ. norm   :     0.3858411 α      lambda       -0.6095574E-04
   maximum displ.:     0.2112718 α      in ANC's #8, #1, #4, ...
 * RMSD in coord.:     0.6548707 α      energy gain  -0.1224269E-02 Eh

generating ANC from exact Hessian ...
Using Lindh-Hessian (1995)
 Shifting diagonal of input Hessian by    1.0078691894963866E-002
 Lowest  eigenvalues of input Hessian
    0.010000    0.010030    0.000000    0.000000    0.000000    0.000000
    0.000000    0.000000    0.010161    0.010180    0.010277    0.010332
    0.010384    0.010494    0.010628    0.010740    0.010844    0.010959
 Highest eigenvalues
    2.162728    2.205155    2.337346    2.340565    2.376500    3.163283


........................................................................
.............................. CYCLE   67 ..............................
........................................................................

 iter      E             dE          RMSdq      gap      omega  full diag
   1   -191.2010738 -0.191201E+03  0.445E-02    2.17       0.0  T
   2   -191.2010748 -0.953242E-06  0.260E-02    2.17       1.0  T
   3   -191.2010705  0.426805E-05  0.575E-03    2.17       1.6  T
   4   -191.2010753 -0.485380E-05  0.110E-03    2.17       8.4  T
   5   -191.2010754 -0.323647E-07  0.649E-04    2.17      14.2  T
   6   -191.2010754 -0.216077E-07  0.286E-04    2.17      32.4  T
   7   -191.2010754 -0.437623E-08  0.121E-04    2.17      76.3  T
   8   -191.2010754 -0.886388E-09  0.512E-05    2.17     180.6  T
     SCC iter.                  ...        0 min,  0.216 sec
     gradient                   ...        0 min,  0.286 sec
 * total energy  :  -188.2369510 Eh     change       -0.4697092E-04 Eh
   gradient norm :     0.0024252 Eh/α   predicted     0.0000000E+00 (-100.00%)
   displ. norm   :     0.0279450 α      lambda       -0.1347020E-04
   maximum displ.:     0.0079443 α      in ANC's #22, #1, #8, ...

........................................................................
.............................. CYCLE   68 ..............................
........................................................................

 iter      E             dE          RMSdq      gap      omega  full diag
   1   -191.2013642 -0.191201E+03  0.524E-03    2.17       0.0  T
   2   -191.2013643 -0.675015E-07  0.320E-03    2.17       2.9  T
   3   -191.2013641  0.154757E-06  0.123E-03    2.17       7.5  T
   4   -191.2013643 -0.172833E-06  0.344E-04    2.17      26.8  T
   5   -191.2013643 -0.126135E-07  0.111E-04    2.17      83.3  T
   6   -191.2013643 -0.113204E-09  0.664E-05    2.17     139.2  T
     SCC iter.                  ...        0 min,  0.181 sec
     gradient                   ...        0 min,  0.263 sec
 * total energy  :  -188.2369665 Eh     change       -0.1543208E-04 Eh
   gradient norm :     0.0015216 Eh/α   predicted    -0.9061332E-05 ( -41.28%)
   displ. norm   :     0.1579829 α      lambda       -0.4673114E-04
   maximum displ.:     0.0464578 α      in ANC's #8, #1, #22, ...

........................................................................
.............................. CYCLE   69 ..............................
........................................................................

 iter      E             dE          RMSdq      gap      omega  full diag
   1   -191.2019339 -0.191202E+03  0.259E-02    2.17       0.0  T
   2   -191.2019353 -0.136264E-05  0.157E-02    2.17       1.0  T
   3   -191.2019321  0.313696E-05  0.544E-03    2.17       1.7  T
   4   -191.2019356 -0.345140E-05  0.156E-03    2.17       5.9  T
   5   -191.2019359 -0.273092E-06  0.533E-04    2.17      17.4  T
   6   -191.2019359 -0.342914E-08  0.329E-04    2.17      28.1  T
   7   -191.2019359 -0.876830E-08  0.112E-04    2.17      82.5  T
   8   -191.2019359 -0.990411E-09  0.510E-05    2.17     181.3  T
     SCC iter.                  ...        0 min,  0.216 sec
     gradient                   ...        0 min,  0.234 sec
 * total energy  :  -188.2369936 Eh     change       -0.2711153E-04 Eh
   gradient norm :     0.0026806 Eh/α   predicted    -0.2362498E-04 ( -12.86%)
   displ. norm   :     0.0189929 α      lambda       -0.1197641E-04
   maximum displ.:     0.0066376 α      in ANC's #8, #1, #5, ...

........................................................................
.............................. CYCLE   70 ..............................
........................................................................

 iter      E             dE          RMSdq      gap      omega  full diag
   1   -191.2017656 -0.191202E+03  0.395E-03    2.17       0.0  T
   2   -191.2017656 -0.266689E-07  0.236E-03    2.17       3.9  T
   3   -191.2017656  0.328218E-07  0.629E-04    2.17      14.7  T
   4   -191.2017656 -0.355178E-07  0.218E-04    2.17      42.4  T
   5   -191.2017657 -0.495621E-08  0.774E-05    2.17     119.5  T
   6   -191.2017657 -0.240050E-09  0.442E-05    2.17     209.1  T
     SCC iter.                  ...        0 min,  0.155 sec
     gradient                   ...        0 min,  0.279 sec
 * total energy  :  -188.2370035 Eh     change       -0.9916756E-05 Eh
   gradient norm :     0.0018888 Eh/α   predicted    -0.5991204E-05 ( -39.59%)
   displ. norm   :     0.1244587 α      lambda       -0.2974104E-04
   maximum displ.:     0.0457009 α      in ANC's #8, #1, #13, ...

........................................................................
.............................. CYCLE   71 ..............................
........................................................................

 iter      E             dE          RMSdq      gap      omega  full diag
   1   -191.2009641 -0.191201E+03  0.195E-02    2.17       0.0  T
   2   -191.2009646 -0.544725E-06  0.115E-02    2.17       1.0  T
   3   -191.2009640  0.673777E-06  0.281E-03    2.17       3.3  T
   4   -191.2009647 -0.701844E-06  0.106E-03    2.17       8.7  T
   5   -191.2009648 -0.124112E-06  0.353E-04    2.17      26.2  T
   6   -191.2009648 -0.467219E-08  0.208E-04    2.17      44.4  T
   7   -191.2009648 -0.330499E-08  0.687E-05    2.17     134.6  T
   8   -191.2009648 -0.300219E-09  0.327E-05    2.17     282.5  T
     SCC iter.                  ...        0 min,  0.215 sec
     gradient                   ...        0 min,  0.275 sec
 * total energy  :  -188.2370246 Eh     change       -0.2112466E-04 Eh
   gradient norm :     0.0020007 Eh/α   predicted    -0.1497318E-04 ( -29.12%)
   displ. norm   :     0.0565324 α      lambda       -0.1100043E-04
   maximum displ.:     0.0216755 α      in ANC's #8, #1, #5, ...

........................................................................
.............................. CYCLE   72 ..............................
........................................................................

 iter      E             dE          RMSdq      gap      omega  full diag
   1   -191.2009681 -0.191201E+03  0.685E-03    2.17       0.0  T
   2   -191.2009681 -0.242836E-07  0.404E-03    2.17       2.3  T
   3   -191.2009679  0.208806E-06  0.126E-03    2.17       7.3  T
   4   -191.2009681 -0.234715E-06  0.154E-04    2.17      60.1  T
   5   -191.2009681 -0.100545E-08  0.864E-05    2.17     107.1  T
   6   -191.2009681 -0.197645E-09  0.425E-05    2.17     217.3  T
     SCC iter.                  ...        0 min,  0.145 sec
     gradient                   ...        0 min,  0.267 sec
 * total energy  :  -188.2370347 Eh     change       -0.1009214E-04 Eh
   gradient norm :     0.0016403 Eh/α   predicted    -0.5529110E-05 ( -45.21%)
   displ. norm   :     0.3562910 α      lambda       -0.4251734E-04
   maximum displ.:     0.1378263 α      in ANC's #8, #1, #5, ...

........................................................................
.............................. CYCLE   73 ..............................
........................................................................

 iter      E             dE          RMSdq      gap      omega  full diag
   1   -191.2006279 -0.191201E+03  0.417E-02    2.17       0.0  T
   2   -191.2006288 -0.910183E-06  0.245E-02    2.17       1.0  T
   3   -191.2006218  0.693209E-05  0.730E-03    2.17       1.3  T
   4   -191.2006297 -0.780668E-05  0.977E-04    2.17       9.5  T
   5   -191.2006297 -0.486985E-07  0.535E-04    2.17      17.3  T
   6   -191.2006297 -0.767216E-08  0.284E-04    2.17      32.6  T
   7   -191.2006297 -0.148066E-08  0.109E-04    2.17      85.0  T
   8   -191.2006297 -0.126704E-08  0.370E-05    2.17     249.7  T
     SCC iter.                  ...        0 min,  0.202 sec
     gradient                   ...        0 min,  0.252 sec
 * total energy  :  -188.2370692 Eh     change       -0.3445524E-04 Eh
   gradient norm :     0.0015755 Eh/α   predicted    -0.2245865E-04 ( -34.82%)
   displ. norm   :     0.1227684 α      lambda       -0.1086337E-04
   maximum displ.:     0.0498666 α      in ANC's #8, #1, #5, ...

........................................................................
.............................. CYCLE   74 ..............................
........................................................................

 iter      E             dE          RMSdq      gap      omega  full diag
   1   -191.2010976 -0.191201E+03  0.132E-02    2.17       0.0  T
   2   -191.2010977 -0.115732E-06  0.772E-03    2.17       1.2  T
   3   -191.2010972  0.497260E-06  0.204E-03    2.17       4.5  T
   4   -191.2010978 -0.563433E-06  0.394E-04    2.17      23.5  T
   5   -191.2010978 -0.124311E-07  0.188E-04    2.17      49.2  T
   6   -191.2010978 -0.818403E-09  0.113E-04    2.17      81.7  T
     SCC iter.                  ...        0 min,  0.156 sec
     gradient                   ...        0 min,  0.294 sec
 * total energy  :  -188.2370832 Eh     change       -0.1402333E-04 Eh
   gradient norm :     0.0010925 Eh/α   predicted    -0.5476662E-05 ( -60.95%)
   displ. norm   :     0.2569449 α      lambda       -0.2465200E-04
   maximum displ.:     0.1039236 α      in ANC's #8, #1, #6, ...

........................................................................
.............................. CYCLE   75 ..............................
........................................................................

 iter      E             dE          RMSdq      gap      omega  full diag
   1   -191.2015774 -0.191202E+03  0.258E-02    2.17       0.0  T
   2   -191.2015778 -0.407144E-06  0.151E-02    2.17       1.0  T
   3   -191.2015761  0.162594E-05  0.373E-03    2.17       2.5  T
   4   -191.2015780 -0.186965E-05  0.729E-04    2.17      12.7  T
   5   -191.2015780 -0.343361E-07  0.378E-04    2.17      24.5  T
   6   -191.2015780 -0.311195E-08  0.212E-04    2.17      43.6  T
   7   -191.2015780 -0.176905E-08  0.768E-05    2.17     120.4  T
   8   -191.2015780 -0.557947E-09  0.312E-05    2.17     296.5  T
     SCC iter.                  ...        0 min,  0.188 sec
     gradient                   ...        0 min,  0.269 sec
 * total energy  :  -188.2371119 Eh     change       -0.2866380E-04 Eh
   gradient norm :     0.0010190 Eh/α   predicted    -0.1269229E-04 ( -55.72%)
   displ. norm   :     0.3325400 α      lambda       -0.2324279E-04
   maximum displ.:     0.1353299 α      in ANC's #1, #8, #6, ...

........................................................................
.............................. CYCLE   76 ..............................
........................................................................

 iter      E             dE          RMSdq      gap      omega  full diag
   1   -191.2008947 -0.191201E+03  0.317E-02    2.17       0.0  T
   2   -191.2008953 -0.582139E-06  0.186E-02    2.17       1.0  T
   3   -191.2008922  0.310075E-05  0.499E-03    2.17       1.9  T
   4   -191.2008957 -0.355329E-05  0.831E-04    2.17      11.1  T
   5   -191.2008958 -0.316962E-07  0.462E-04    2.17      20.0  T
   6   -191.2008958 -0.421761E-08  0.229E-04    2.17      40.4  T
   7   -191.2008958 -0.199373E-08  0.789E-05    2.17     117.2  T
   8   -191.2008958 -0.505082E-09  0.358E-05    2.17     258.6  T
     SCC iter.                  ...        0 min,  0.201 sec
     gradient                   ...        0 min,  0.256 sec
 * total energy  :  -188.2371373 Eh     change       -0.2547354E-04 Eh
   gradient norm :     0.0014771 Eh/α   predicted    -0.1219704E-04 ( -52.12%)
   displ. norm   :     0.2647515 α      lambda       -0.1959975E-04
   maximum displ.:     0.1122597 α      in ANC's #6, #1, #8, ...

........................................................................
.............................. CYCLE   77 ..............................
........................................................................

 iter      E             dE          RMSdq      gap      omega  full diag
   1   -191.2016921 -0.191202E+03  0.233E-02    2.17       0.0  T
   2   -191.2016925 -0.355361E-06  0.137E-02    2.17       1.0  T
   3   -191.2016909  0.155537E-05  0.352E-03    2.17       2.6  T
   4   -191.2016927 -0.178791E-05  0.643E-04    2.17      14.4  T
   5   -191.2016928 -0.216544E-07  0.342E-04    2.17      27.0  T
   6   -191.2016928 -0.206362E-08  0.167E-04    2.17      55.4  T
   7   -191.2016928 -0.118845E-08  0.539E-05    2.17     171.5  T
     SCC iter.                  ...        0 min,  0.206 sec
     gradient                   ...        0 min,  0.280 sec
 * total energy  :  -188.2371576 Eh     change       -0.2028420E-04 Eh
   gradient norm :     0.0015630 Eh/α   predicted    -0.1010602E-04 ( -50.18%)
   displ. norm   :     0.3088816 α      lambda       -0.1861184E-04
   maximum displ.:     0.1342254 α      in ANC's #1, #6, #8, ...

........................................................................
.............................. CYCLE   78 ..............................
........................................................................

 iter      E             dE          RMSdq      gap      omega  full diag
   1   -191.2005102 -0.191201E+03  0.280E-02    2.17       0.0  T
   2   -191.2005107 -0.504849E-06  0.165E-02    2.18       1.0  T
   3   -191.2005081  0.262625E-05  0.444E-03    2.18       2.1  T
   4   -191.2005110 -0.299256E-05  0.774E-04    2.18      11.9  T
   5   -191.2005111 -0.297278E-07  0.413E-04    2.18      22.4  T
   6   -191.2005111 -0.279672E-08  0.194E-04    2.18      47.8  T
   7   -191.2005111 -0.162288E-08  0.656E-05    2.18     141.0  T
     SCC iter.                  ...        0 min,  0.151 sec
     gradient                   ...        0 min,  0.242 sec
 * total energy  :  -188.2371780 Eh     change       -0.2043736E-04 Eh
   gradient norm :     0.0016791 Eh/α   predicted    -0.9704385E-05 ( -52.52%)
   displ. norm   :     0.2736735 α      lambda       -0.2581408E-04
   maximum displ.:     0.1249264 α      in ANC's #6, #1, #8, ...

........................................................................
.............................. CYCLE   79 ..............................
........................................................................

 iter      E             dE          RMSdq      gap      omega  full diag
   1   -191.2009361 -0.191201E+03  0.258E-02    2.17       0.0  T
   2   -191.2009366 -0.443826E-06  0.152E-02    2.18       1.0  T
   3   -191.2009349  0.165045E-05  0.350E-03    2.18       2.6  T
   4   -191.2009368 -0.187112E-05  0.753E-04    2.18      12.3  T
   5   -191.2009369 -0.428882E-07  0.351E-04    2.18      26.3  T
   6   -191.2009369 -0.265499E-08  0.170E-04    2.18      54.4  T
   7   -191.2009369 -0.120286E-08  0.564E-05    2.18     164.0  T
     SCC iter.                  ...        0 min,  0.153 sec
     gradient                   ...        0 min,  0.236 sec
 * total energy  :  -188.2372092 Eh     change       -0.3113510E-04 Eh
   gradient norm :     0.0015556 Eh/α   predicted    -0.1333878E-04 ( -57.16%)
   displ. norm   :     0.4227610 α      lambda       -0.3756874E-04
   maximum displ.:     0.1943777 α      in ANC's #6, #1, #8, ...

........................................................................
.............................. CYCLE   80 ..............................
........................................................................

 iter      E             dE          RMSdq      gap      omega  full diag
   1   -191.2009680 -0.191201E+03  0.413E-02    2.18       0.0  T
   2   -191.2009688 -0.813390E-06  0.242E-02    2.18       1.0  T
   3   -191.2009658  0.305744E-05  0.466E-03    2.18       2.0  T
   4   -191.2009693 -0.351547E-05  0.977E-04    2.18       9.5  T
   5   -191.2009694 -0.507144E-07  0.500E-04    2.18      18.5  T
   6   -191.2009694 -0.777908E-08  0.216E-04    2.18      42.9  T
   7   -191.2009694 -0.160978E-08  0.905E-05    2.18     102.2  T
   8   -191.2009694 -0.389548E-09  0.500E-05    2.18     184.9  T
     SCC iter.                  ...        0 min,  0.183 sec
     gradient                   ...        0 min,  0.253 sec
 * total energy  :  -188.2372547 Eh     change       -0.4549989E-04 Eh
   gradient norm :     0.0021766 Eh/α   predicted    -0.2027801E-04 ( -55.43%)
   displ. norm   :     0.3744042 α      lambda       -0.5004191E-04
   maximum displ.:     0.1737770 α      in ANC's #6, #1, #8, ...

........................................................................
.............................. CYCLE   81 ..............................
........................................................................

 iter      E             dE          RMSdq      gap      omega  full diag
   1   -191.2007298 -0.191201E+03  0.383E-02    2.18       0.0  T
   2   -191.2007303 -0.540003E-06  0.224E-02    2.18       1.0  T
   3   -191.2007283  0.198591E-05  0.384E-03    2.18       2.4  T
   4   -191.2007306 -0.231506E-05  0.774E-04    2.18      11.9  T
   5   -191.2007306 -0.230197E-07  0.426E-04    2.18      21.7  T
   6   -191.2007307 -0.652173E-08  0.171E-04    2.18      54.2  T
   7   -191.2007307 -0.118507E-08  0.803E-05    2.18     115.2  T
     SCC iter.                  ...        0 min,  0.159 sec
     gradient                   ...        0 min,  0.234 sec
 * total energy  :  -188.2372981 Eh     change       -0.4342455E-04 Eh
   gradient norm :     0.0025308 Eh/α   predicted    -0.2852936E-04 ( -34.30%)
   displ. norm   :     0.5138716 α      lambda       -0.7018233E-04
   maximum displ.:     0.2399316 α      in ANC's #6, #1, #8, ...

........................................................................
.............................. CYCLE   82 ..............................
........................................................................

 iter      E             dE          RMSdq      gap      omega  full diag
   1   -191.2005333 -0.191201E+03  0.538E-02    2.18       0.0  T
   2   -191.2005344 -0.112504E-05  0.315E-02    2.18       1.0  T
   3   -191.2005303  0.404745E-05  0.548E-03    2.19       1.7  T
   4   -191.2005350 -0.466593E-05  0.109E-03    2.19       8.4  T
   5   -191.2005351 -0.645237E-07  0.574E-04    2.19      16.1  T
   6   -191.2005351 -0.885652E-08  0.280E-04    2.18      33.0  T
   7   -191.2005351 -0.353262E-08  0.116E-04    2.18      79.7  T
   8   -191.2005351 -0.116691E-08  0.517E-05    2.19     178.8  T
     SCC iter.                  ...        0 min,  0.181 sec
     gradient                   ...        0 min,  0.233 sec
 * total energy  :  -188.2373573 Eh     change       -0.5916815E-04 Eh
   gradient norm :     0.0027972 Eh/α   predicted    -0.4435862E-04 ( -25.03%)
   displ. norm   :     0.5552159 α      lambda       -0.7175732E-04
   maximum displ.:     0.2606895 α      in ANC's #6, #1, #8, ...

........................................................................
.............................. CYCLE   83 ..............................
........................................................................

 iter      E             dE          RMSdq      gap      omega  full diag
   1   -191.1996741 -0.191200E+03  0.585E-02    2.19       0.0  T
   2   -191.1996753 -0.122014E-05  0.343E-02    2.19       1.0  T
   3   -191.1996706  0.469168E-05  0.594E-03    2.19       1.6  T
   4   -191.1996760 -0.541860E-05  0.116E-03    2.19       8.0  T
   5   -191.1996761 -0.652598E-07  0.638E-04    2.19      14.5  T
   6   -191.1996761 -0.113561E-07  0.318E-04    2.19      29.1  T
   7   -191.1996761 -0.489948E-08  0.129E-04    2.19      71.8  T
   8   -191.1996761 -0.154026E-08  0.529E-05    2.19     174.9  T
     SCC iter.                  ...        0 min,  0.161 sec
     gradient                   ...        0 min,  0.223 sec
 * total energy  :  -188.2374171 Eh     change       -0.5983006E-04 Eh
   gradient norm :     0.0031313 Eh/α   predicted    -0.4694498E-04 ( -21.54%)
   displ. norm   :     0.4827864 α      lambda       -0.7598494E-04
   maximum displ.:     0.2284804 α      in ANC's #6, #1, #2, ...

........................................................................
.............................. CYCLE   84 ..............................
........................................................................

 iter      E             dE          RMSdq      gap      omega  full diag
   1   -191.2012048 -0.191201E+03  0.538E-02    2.19       0.0  T
   2   -191.2012060 -0.114480E-05  0.316E-02    2.19       1.0  T
   3   -191.2012016  0.442002E-05  0.578E-03    2.19       1.6  T
   4   -191.2012066 -0.501247E-05  0.113E-03    2.19       8.2  T
   5   -191.2012067 -0.868083E-07  0.577E-04    2.19      16.0  T
   6   -191.2012067 -0.104054E-07  0.316E-04    2.19      29.3  T
   7   -191.2012067 -0.433946E-08  0.117E-04    2.19      79.2  T
   8   -191.2012067 -0.125047E-08  0.480E-05    2.19     192.6  T
     SCC iter.                  ...        0 min,  0.158 sec
     gradient                   ...        0 min,  0.218 sec
 * total energy  :  -188.2374744 Eh     change       -0.5724775E-04 Eh
   gradient norm :     0.0028385 Eh/α   predicted    -0.4684911E-04 ( -18.16%)
   displ. norm   :     0.5578985 α      lambda       -0.7688568E-04
   maximum displ.:     0.2725290 α      in ANC's #1, #6, #8, ...

........................................................................
.............................. CYCLE   85 ..............................
........................................................................

 iter      E             dE          RMSdq      gap      omega  full diag
   1   -191.1990841 -0.191199E+03  0.584E-02    2.19       0.0  T
   2   -191.1990855 -0.147167E-05  0.343E-02    2.19       1.0  T
   3   -191.1990796  0.598233E-05  0.662E-03    2.20       1.4  T
   4   -191.1990864 -0.685393E-05  0.125E-03    2.19       7.4  T
   5   -191.1990865 -0.828033E-07  0.721E-04    2.19      12.8  T
   6   -191.1990865 -0.158432E-07  0.377E-04    2.19      24.5  T
   7   -191.1990865 -0.581321E-08  0.154E-04    2.19      60.0  T
   8   -191.1990865 -0.219930E-08  0.552E-05    2.19     167.5  T
     SCC iter.                  ...        0 min,  0.197 sec
     gradient                   ...        0 min,  0.256 sec
 * total energy  :  -188.2375293 Eh     change       -0.5492695E-04 Eh
   gradient norm :     0.0038017 Eh/α   predicted    -0.5041166E-04 (  -8.22%)
   displ. norm   :     0.3498477 α      lambda       -0.7240557E-04
   maximum displ.:     0.1783711 α      in ANC's #1, #6, #2, ...

........................................................................
.............................. CYCLE   86 ..............................
........................................................................

 iter      E             dE          RMSdq      gap      omega  full diag
   1   -191.2010126 -0.191201E+03  0.391E-02    2.19       0.0  T
   2   -191.2010133 -0.684144E-06  0.230E-02    2.19       1.0  T
   3   -191.2010096  0.365193E-05  0.512E-03    2.19       1.8  T
   4   -191.2010138 -0.413605E-05  0.852E-04    2.19      10.8  T
   5   -191.2010138 -0.298146E-07  0.527E-04    2.19      17.5  T
   6   -191.2010138 -0.125867E-07  0.259E-04    2.19      35.6  T
   7   -191.2010138 -0.236156E-08  0.111E-04    2.19      83.5  T
   8   -191.2010138 -0.100661E-08  0.438E-05    2.19     211.0  T
     SCC iter.                  ...        0 min,  0.198 sec
     gradient                   ...        0 min,  0.238 sec
 * total energy  :  -188.2375868 Eh     change       -0.5751771E-04 Eh
   gradient norm :     0.0032960 Eh/α   predicted    -0.4063840E-04 ( -29.35%)
   displ. norm   :     0.4644115 α      lambda       -0.8744998E-04
   maximum displ.:     0.2405841 α      in ANC's #1, #6, #8, ...

........................................................................
.............................. CYCLE   87 ..............................
........................................................................

 iter      E             dE          RMSdq      gap      omega  full diag
   1   -191.2009499 -0.191201E+03  0.488E-02    2.18       0.0  T
   2   -191.2009510 -0.106379E-05  0.287E-02    2.18       1.0  T
   3   -191.2009434  0.756843E-05  0.723E-03    2.18       1.3  T
   4   -191.2009520 -0.854487E-05  0.103E-03    2.18       8.9  T
   5   -191.2009520 -0.271995E-07  0.642E-04    2.18      14.4  T
   6   -191.2009520 -0.153004E-07  0.313E-04    2.18      29.5  T
   7   -191.2009520 -0.410324E-08  0.140E-04    2.18      66.1  T
   8   -191.2009520 -0.135569E-08  0.617E-05    2.18     150.0  T
     SCC iter.                  ...        0 min,  0.182 sec
     gradient                   ...        0 min,  0.257 sec
 * total energy  :  -188.2376595 Eh     change       -0.7274872E-04 Eh
   gradient norm :     0.0033397 Eh/α   predicted    -0.5315865E-04 ( -26.93%)
   displ. norm   :     0.5011657 α      lambda       -0.1044251E-03
   maximum displ.:     0.2632513 α      in ANC's #1, #6, #8, ...

........................................................................
.............................. CYCLE   88 ..............................
........................................................................

 iter      E             dE          RMSdq      gap      omega  full diag
   1   -191.2010379 -0.191201E+03  0.511E-02    2.17       0.0  T
   2   -191.2010393 -0.142487E-05  0.301E-02    2.17       1.0  T
   3   -191.2010276  0.116794E-04  0.907E-03    2.17       1.0  T
   4   -191.2010408 -0.131557E-04  0.122E-03    2.17       7.5  T
   5   -191.2010408 -0.470557E-07  0.702E-04    2.17      13.2  T
   6   -191.2010408 -0.991542E-08  0.359E-04    2.17      25.8  T
   7   -191.2010408 -0.751101E-08  0.150E-04    2.17      61.5  T
   8   -191.2010408 -0.832216E-09  0.801E-05    2.17     115.4  T
     SCC iter.                  ...        0 min,  0.169 sec
     gradient                   ...        0 min,  0.208 sec
 * total energy  :  -188.2377452 Eh     change       -0.8564636E-04 Eh
   gradient norm :     0.0036619 Eh/α   predicted    -0.6532956E-04 ( -23.72%)
   displ. norm   :     0.5757993 α      lambda       -0.1044308E-03
   maximum displ.:     0.3040882 α      in ANC's #1, #6, #8, ...

........................................................................
.............................. CYCLE   89 ..............................
........................................................................

 iter      E             dE          RMSdq      gap      omega  full diag
   1   -191.1990079 -0.191199E+03  0.575E-02    2.16       0.0  T
   2   -191.1990096 -0.177144E-05  0.339E-02    2.16       1.0  T
   3   -191.1989942  0.154639E-04  0.105E-02    2.16       1.0  T
   4   -191.1990116 -0.173951E-04  0.135E-03    2.16       6.8  T
   5   -191.1990116 -0.602623E-07  0.754E-04    2.16      12.3  T
   6   -191.1990116 -0.784573E-08  0.396E-04    2.16      23.3  T
   7   -191.1990117 -0.908099E-08  0.156E-04    2.16      59.2  T
   8   -191.1990117 -0.867800E-09  0.837E-05    2.16     110.5  T
     SCC iter.                  ...        0 min,  0.164 sec
     gradient                   ...        0 min,  0.206 sec
 * total energy  :  -188.2378319 Eh     change       -0.8668932E-04 Eh
   gradient norm :     0.0041188 Eh/α   predicted    -0.6952974E-04 ( -19.79%)
   displ. norm   :     0.5279901 α      lambda       -0.1094606E-03
   maximum displ.:     0.2839999 α      in ANC's #1, #6, #2, ...

........................................................................
.............................. CYCLE   90 ..............................
........................................................................

 iter      E             dE          RMSdq      gap      omega  full diag
   1   -191.2000872 -0.191200E+03  0.522E-02    2.14       0.0  T
   2   -191.2000890 -0.173877E-05  0.307E-02    2.14       1.0  T
   3   -191.2000751  0.138439E-04  0.100E-02    2.14       1.0  T
   4   -191.2000907 -0.155980E-04  0.135E-03    2.14       6.8  T
   5   -191.2000908 -0.805246E-07  0.711E-04    2.14      13.0  T
   6   -191.2000908 -0.568554E-08  0.385E-04    2.14      24.0  T
   7   -191.2000908 -0.858103E-08  0.147E-04    2.14      62.8  T
   8   -191.2000908 -0.809735E-09  0.798E-05    2.14     115.8  T
     SCC iter.                  ...        0 min,  0.160 sec
     gradient                   ...        0 min,  0.208 sec
 * total energy  :  -188.2379183 Eh     change       -0.8640379E-04 Eh
   gradient norm :     0.0040953 Eh/α   predicted    -0.6999336E-04 ( -18.99%)
   displ. norm   :     0.6596341 α      lambda       -0.1127326E-03
   maximum displ.:     0.3530749 α      in ANC's #1, #6, #2, ...

........................................................................
.............................. CYCLE   91 ..............................
........................................................................

 iter      E             dE          RMSdq      gap      omega  full diag
   1   -191.1969384 -0.191197E+03  0.658E-02    2.13       0.0  T
   2   -191.1969408 -0.243590E-05  0.387E-02    2.13       1.0  T
   3   -191.1969238  0.169731E-04  0.110E-02    2.13       1.0  T
   4   -191.1969429 -0.191050E-04  0.155E-03    2.13       6.0  T
   5   -191.1969430 -0.115500E-06  0.837E-04    2.13      11.0  T
   6   -191.1969431 -0.130906E-07  0.471E-04    2.13      19.6  T
   7   -191.1969431 -0.873024E-08  0.192E-04    2.13      48.0  T
   8   -191.1969431 -0.285897E-08  0.801E-05    2.13     115.4  T
     SCC iter.                  ...        0 min,  0.163 sec
     gradient                   ...        0 min,  0.236 sec
 * total energy  :  -188.2380103 Eh     change       -0.9202989E-04 Eh
   gradient norm :     0.0044667 Eh/α   predicted    -0.8089291E-04 ( -12.10%)
   displ. norm   :     0.5399587 α      lambda       -0.1364808E-03
   maximum displ.:     0.2931612 α      in ANC's #1, #6, #2, ...

........................................................................
.............................. CYCLE   92 ..............................
........................................................................

 iter      E             dE          RMSdq      gap      omega  full diag
   1   -191.1997649 -0.191200E+03  0.535E-02    2.12       0.0  T
   2   -191.1997670 -0.209186E-05  0.312E-02    2.12       1.0  T
   3   -191.1997579  0.914055E-05  0.838E-03    2.13       1.1  T
   4   -191.1997682 -0.102811E-04  0.160E-03    2.12       5.8  T
   5   -191.1997684 -0.193361E-06  0.728E-04    2.12      12.7  T
   6   -191.1997684 -0.996485E-08  0.439E-04    2.12      21.1  T
   7   -191.1997684 -0.100664E-07  0.162E-04    2.12      56.9  T
   8   -191.1997684 -0.188209E-08  0.806E-05    2.12     114.7  T
     SCC iter.                  ...        0 min,  0.191 sec
     gradient                   ...        0 min,  0.220 sec
 * total energy  :  -188.2381134 Eh     change       -0.1030628E-03 Eh
   gradient norm :     0.0037879 Eh/α   predicted    -0.8814026E-04 ( -14.48%)
   displ. norm   :     0.6324910 α      lambda       -0.1201021E-03
   maximum displ.:     0.3427539 α      in ANC's #1, #6, #2, ...
 * RMSD in coord.:     0.6631734 α      energy gain  -0.1209317E-02 Eh

generating ANC from exact Hessian ...
Using Lindh-Hessian (1995)
 Shifting diagonal of input Hessian by    1.0080844363275207E-002
 Lowest  eigenvalues of input Hessian
    0.010000    0.010028    0.000000    0.000000    0.000000    0.000000
    0.000000    0.000000    0.010164    0.010173    0.010291    0.010382
    0.010409    0.010564    0.010688    0.010804    0.010858    0.010981
 Highest eigenvalues
    2.158117    2.192878    2.330474    2.335856    2.382914    3.145498


........................................................................
.............................. CYCLE   93 ..............................
........................................................................

 iter      E             dE          RMSdq      gap      omega  full diag
   1   -191.1987935 -0.191199E+03  0.628E-02    2.12       0.0  T
   2   -191.1987959 -0.244047E-05  0.368E-02    2.12       1.0  T
   3   -191.1987843  0.116714E-04  0.942E-03    2.12       1.0  T
   4   -191.1987974 -0.131365E-04  0.170E-03    2.12       5.4  T
   5   -191.1987976 -0.214444E-06  0.855E-04    2.12      10.8  T
   6   -191.1987976 -0.258445E-07  0.475E-04    2.12      19.5  T
   7   -191.1987977 -0.757538E-08  0.219E-04    2.12      42.2  T
   8   -191.1987977 -0.383514E-08  0.749E-05    2.12     123.4  T
   9   -191.1987977 -0.100357E-09  0.419E-05    2.12     220.9  T
     SCC iter.                  ...        0 min,  0.205 sec
     gradient                   ...        0 min,  0.232 sec
 * total energy  :  -188.2382078 Eh     change       -0.9446627E-04 Eh
   gradient norm :     0.0048631 Eh/α   predicted     0.0000000E+00 (-100.00%)
   displ. norm   :     0.0349444 α      lambda       -0.1945219E-04
   maximum displ.:     0.0126455 α      in ANC's #1, #12, #2, ...

........................................................................
.............................. CYCLE   94 ..............................
........................................................................

 iter      E             dE          RMSdq      gap      omega  full diag
   1   -191.2004774 -0.191200E+03  0.671E-03    2.12       0.0  T
   2   -191.2004778 -0.372145E-06  0.397E-03    2.12       2.3  T
   3   -191.2004777  0.141207E-06  0.170E-03    2.12       5.4  T
   4   -191.2004779 -0.189319E-06  0.576E-04    2.12      16.0  T
   5   -191.2004779 -0.331831E-07  0.195E-04    2.12      47.4  T
   6   -191.2004779 -0.139391E-08  0.970E-05    2.12      95.3  T
     SCC iter.                  ...        0 min,  0.143 sec
     gradient                   ...        0 min,  0.279 sec
 * total energy  :  -188.2382379 Eh     change       -0.3009433E-04 Eh
   gradient norm :     0.0028194 Eh/α   predicted    -0.1897903E-04 ( -36.93%)
   displ. norm   :     0.0916018 α      lambda       -0.4949157E-04
   maximum displ.:     0.0359473 α      in ANC's #1, #12, #2, ...

........................................................................
.............................. CYCLE   95 ..............................
........................................................................

 iter      E             dE          RMSdq      gap      omega  full diag
   1   -191.2023469 -0.191202E+03  0.146E-02    2.12       0.0  T
   2   -191.2023478 -0.929628E-06  0.858E-03    2.12       1.1  T
   3   -191.2023472  0.663069E-06  0.309E-03    2.12       3.0  T
   4   -191.2023479 -0.761510E-06  0.109E-03    2.12       8.5  T
   5   -191.2023481 -0.123840E-06  0.383E-04    2.12      24.1  T
   6   -191.2023481 -0.315171E-08  0.214E-04    2.12      43.1  T
   7   -191.2023481 -0.180117E-08  0.969E-05    2.12      95.4  T
   8   -191.2023481 -0.970260E-09  0.368E-05    2.12     251.3  T
     SCC iter.                  ...        0 min,  0.241 sec
     gradient                   ...        0 min,  0.257 sec
 * total energy  :  -188.2382728 Eh     change       -0.3487061E-04 Eh
   gradient norm :     0.0020746 Eh/α   predicted    -0.2699711E-04 ( -22.58%)
   displ. norm   :     0.0774709 α      lambda       -0.2252016E-04
   maximum displ.:     0.0336181 α      in ANC's #1, #12, #2, ...

........................................................................
.............................. CYCLE   96 ..............................
........................................................................

 iter      E             dE          RMSdq      gap      omega  full diag
   1   -191.2024555 -0.191202E+03  0.103E-02    2.12       0.0  T
   2   -191.2024558 -0.287172E-06  0.604E-03    2.13       1.5  T
   3   -191.2024555  0.283887E-06  0.187E-03    2.13       4.9  T
   4   -191.2024559 -0.310010E-06  0.654E-04    2.13      14.1  T
   5   -191.2024559 -0.476210E-07  0.240E-04    2.13      38.5  T
   6   -191.2024559 -0.279755E-09  0.157E-04    2.13      58.8  T
   7   -191.2024559 -0.208237E-08  0.464E-05    2.13     199.2  T
     SCC iter.                  ...        0 min,  0.169 sec
     gradient                   ...        0 min,  0.248 sec
 * total energy  :  -188.2382902 Eh     change       -0.1739747E-04 Eh
   gradient norm :     0.0023206 Eh/α   predicted    -0.1137289E-04 ( -34.63%)
   displ. norm   :     0.1111200 α      lambda       -0.2692544E-04
   maximum displ.:     0.0509636 α      in ANC's #1, #2, #12, ...

........................................................................
.............................. CYCLE   97 ..............................
........................................................................

 iter      E             dE          RMSdq      gap      omega  full diag
   1   -191.2018443 -0.191202E+03  0.132E-02    2.13       0.0  T
   2   -191.2018446 -0.354062E-06  0.776E-03    2.13       1.2  T
   3   -191.2018442  0.445643E-06  0.220E-03    2.13       4.2  T
   4   -191.2018447 -0.493331E-06  0.685E-04    2.13      13.5  T
   5   -191.2018447 -0.519432E-07  0.266E-04    2.13      34.7  T
   6   -191.2018447 -0.855437E-09  0.174E-04    2.13      53.1  T
   7   -191.2018447 -0.212748E-08  0.580E-05    2.13     159.4  T
     SCC iter.                  ...        0 min,  0.168 sec
     gradient                   ...        0 min,  0.240 sec
 * total energy  :  -188.2383106 Eh     change       -0.2038555E-04 Eh
   gradient norm :     0.0024741 Eh/α   predicted    -0.1365308E-04 ( -33.03%)
   displ. norm   :     0.1232697 α      lambda       -0.2509000E-04
   maximum displ.:     0.0597457 α      in ANC's #1, #2, #12, ...

........................................................................
.............................. CYCLE   98 ..............................
........................................................................

 iter      E             dE          RMSdq      gap      omega  full diag
   1   -191.2010720 -0.191201E+03  0.133E-02    2.13       0.0  T
   2   -191.2010722 -0.247858E-06  0.781E-03    2.13       1.2  T
   3   -191.2010715  0.662759E-06  0.242E-03    2.13       3.8  T
   4   -191.2010723 -0.752351E-06  0.512E-04    2.13      18.1  T
   5   -191.2010723 -0.244637E-07  0.217E-04    2.13      42.6  T
   6   -191.2010723 -0.102645E-08  0.133E-04    2.13      69.5  T
   7   -191.2010723 -0.683912E-09  0.581E-05    2.13     159.2  T
     SCC iter.                  ...        0 min,  0.178 sec
     gradient                   ...        0 min,  0.217 sec
 * total energy  :  -188.2383307 Eh     change       -0.2012969E-04 Eh
   gradient norm :     0.0027120 Eh/α   predicted    -0.1273684E-04 ( -36.73%)
   displ. norm   :     0.1636757 α      lambda       -0.3195388E-04
   maximum displ.:     0.0819176 α      in ANC's #1, #2, #5, ...

........................................................................
.............................. CYCLE   99 ..............................
........................................................................

 iter      E             dE          RMSdq      gap      omega  full diag
   1   -191.2004861 -0.191200E+03  0.168E-02    2.13       0.0  T
   2   -191.2004864 -0.260343E-06  0.990E-03    2.13       1.0  T
   3   -191.2004851  0.130731E-05  0.326E-03    2.13       2.8  T
   4   -191.2004866 -0.148391E-05  0.491E-04    2.13      18.8  T
   5   -191.2004866 -0.158442E-07  0.233E-04    2.13      39.7  T
   6   -191.2004866 -0.156723E-08  0.123E-04    2.13      75.4  T
   7   -191.2004866 -0.412911E-09  0.521E-05    2.13     177.5  T
     SCC iter.                  ...        0 min,  0.139 sec
     gradient                   ...        0 min,  0.227 sec
 * total energy  :  -188.2383572 Eh     change       -0.2643672E-04 Eh
   gradient norm :     0.0028489 Eh/α   predicted    -0.1640557E-04 ( -37.94%)
   displ. norm   :     0.2301486 α      lambda       -0.4320448E-04
   maximum displ.:     0.1178795 α      in ANC's #1, #2, #5, ...

........................................................................
.............................. CYCLE  100 ..............................
........................................................................

 iter      E             dE          RMSdq      gap      omega  full diag
   1   -191.2003276 -0.191200E+03  0.228E-02    2.13       0.0  T
   2   -191.2003280 -0.403091E-06  0.134E-02    2.13       1.0  T
   3   -191.2003254  0.258316E-05  0.448E-03    2.13       2.1  T
   4   -191.2003284 -0.292343E-05  0.622E-04    2.13      14.9  T
   5   -191.2003284 -0.213007E-07  0.305E-04    2.13      30.3  T
   6   -191.2003284 -0.292684E-08  0.151E-04    2.13      61.1  T
   7   -191.2003284 -0.867175E-09  0.585E-05    2.13     157.9  T
     SCC iter.                  ...        0 min,  0.143 sec
     gradient                   ...        0 min,  0.238 sec
 * total energy  :  -188.2383924 Eh     change       -0.3520591E-04 Eh
   gradient norm :     0.0027388 Eh/α   predicted    -0.2276703E-04 ( -35.33%)
   displ. norm   :     0.2688155 α      lambda       -0.4580331E-04
   maximum displ.:     0.1410803 α      in ANC's #1, #2, #5, ...

........................................................................
.............................. CYCLE  101 ..............................
........................................................................

 iter      E             dE          RMSdq      gap      omega  full diag
   1   -191.2008461 -0.191201E+03  0.251E-02    2.13       0.0  T
   2   -191.2008466 -0.461157E-06  0.147E-02    2.13       1.0  T
   3   -191.2008436  0.304044E-05  0.478E-03    2.13       1.9  T
   4   -191.2008470 -0.343395E-05  0.691E-04    2.13      13.4  T
   5   -191.2008470 -0.259839E-07  0.333E-04    2.13      27.8  T
   6   -191.2008470 -0.348939E-08  0.161E-04    2.13      57.3  T
   7   -191.2008470 -0.119917E-08  0.630E-05    2.13     146.7  T
     SCC iter.                  ...        0 min,  0.150 sec
     gradient                   ...        0 min,  0.220 sec
 * total energy  :  -188.2384292 Eh     change       -0.3682379E-04 Eh
   gradient norm :     0.0024485 Eh/α   predicted    -0.2456173E-04 ( -33.30%)
   displ. norm   :     0.2646287 α      lambda       -0.4146232E-04
   maximum displ.:     0.1423887 α      in ANC's #1, #2, #5, ...

........................................................................
.............................. CYCLE  102 ..............................
........................................................................

 iter      E             dE          RMSdq      gap      omega  full diag
   1   -191.2017962 -0.191202E+03  0.228E-02    2.12       0.0  T
   2   -191.2017965 -0.388754E-06  0.133E-02    2.13       1.0  T
   3   -191.2017940  0.253934E-05  0.430E-03    2.13       2.1  T
   4   -191.2017969 -0.286725E-05  0.644E-04    2.13      14.4  T
   5   -191.2017969 -0.223765E-07  0.308E-04    2.13      30.0  T
   6   -191.2017969 -0.350454E-08  0.141E-04    2.13      65.4  T
   7   -191.2017969 -0.813316E-09  0.622E-05    2.13     148.6  T
     SCC iter.                  ...        0 min,  0.171 sec
     gradient                   ...        0 min,  0.258 sec
 * total energy  :  -188.2384632 Eh     change       -0.3396155E-04 Eh
   gradient norm :     0.0023119 Eh/α   predicted    -0.2218375E-04 ( -34.68%)
   displ. norm   :     0.2680299 α      lambda       -0.4158056E-04
   maximum displ.:     0.1470160 α      in ANC's #1, #2, #5, ...

........................................................................
.............................. CYCLE  103 ..............................
........................................................................

 iter      E             dE          RMSdq      gap      omega  full diag
   1   -191.2028504 -0.191203E+03  0.213E-02    2.12       0.0  T
   2   -191.2028507 -0.349325E-06  0.125E-02    2.12       1.0  T
   3   -191.2028484  0.226628E-05  0.405E-03    2.12       2.3  T
   4   -191.2028510 -0.256166E-05  0.622E-04    2.12      14.9  T
   5   -191.2028510 -0.200124E-07  0.307E-04    2.12      30.1  T
   6   -191.2028510 -0.453502E-08  0.132E-04    2.12      70.2  T
   7   -191.2028510 -0.595151E-09  0.709E-05    2.12     130.4  T
     SCC iter.                  ...        0 min,  0.159 sec
     gradient                   ...        0 min,  0.218 sec
 * total energy  :  -188.2384984 Eh     change       -0.3520389E-04 Eh
   gradient norm :     0.0024441 Eh/α   predicted    -0.2228397E-04 ( -36.70%)
   displ. norm   :     0.3027361 α      lambda       -0.4890183E-04
   maximum displ.:     0.1675257 α      in ANC's #1, #2, #5, ...

........................................................................
.............................. CYCLE  104 ..............................
........................................................................

 iter      E             dE          RMSdq      gap      omega  full diag
   1   -191.2036396 -0.191204E+03  0.229E-02    2.12       0.0  T
   2   -191.2036400 -0.420571E-06  0.135E-02    2.12       1.0  T
   3   -191.2036371  0.292535E-05  0.465E-03    2.12       2.0  T
   4   -191.2036404 -0.330297E-05  0.705E-04    2.12      13.1  T
   5   -191.2036404 -0.261829E-07  0.366E-04    2.12      25.3  T
   6   -191.2036404 -0.707877E-08  0.163E-04    2.12      56.7  T
   7   -191.2036404 -0.118041E-08  0.871E-05    2.12     106.2  T
     SCC iter.                  ...        0 min,  0.150 sec
     gradient                   ...        0 min,  0.232 sec
 * total energy  :  -188.2385407 Eh     change       -0.4231003E-04 Eh
   gradient norm :     0.0027318 Eh/α   predicted    -0.2669220E-04 ( -36.91%)
   displ. norm   :     0.3695325 α      lambda       -0.6183297E-04
   maximum displ.:     0.2047240 α      in ANC's #1, #2, #5, ...

........................................................................
.............................. CYCLE  105 ..............................
........................................................................

 iter      E             dE          RMSdq      gap      omega  full diag
   1   -191.2039002 -0.191204E+03  0.279E-02    2.11       0.0  T
   2   -191.2039008 -0.613266E-06  0.164E-02    2.11       1.0  T
   3   -191.2038964  0.439521E-05  0.572E-03    2.12       1.6  T
   4   -191.2039014 -0.493793E-05  0.893E-04    2.12      10.4  T
   5   -191.2039014 -0.498698E-07  0.469E-04    2.12      19.7  T
   6   -191.2039014 -0.121250E-07  0.223E-04    2.12      41.5  T
   7   -191.2039014 -0.202604E-08  0.110E-04    2.12      83.7  T
   8   -191.2039014 -0.817636E-09  0.439E-05    2.12     210.5  T
     SCC iter.                  ...        0 min,  0.164 sec
     gradient                   ...        0 min,  0.230 sec
 * total energy  :  -188.2385944 Eh     change       -0.5374631E-04 Eh
   gradient norm :     0.0029786 Eh/α   predicted    -0.3513932E-04 ( -34.62%)
   displ. norm   :     0.4421902 α      lambda       -0.7366719E-04
   maximum displ.:     0.2447078 α      in ANC's #1, #2, #5, ...

........................................................................
.............................. CYCLE  106 ..............................
........................................................................

 iter      E             dE          RMSdq      gap      omega  full diag
   1   -191.2034225 -0.191203E+03  0.340E-02    2.11       0.0  T
   2   -191.2034234 -0.852786E-06  0.200E-02    2.11       1.0  T
   3   -191.2034168  0.650757E-05  0.694E-03    2.11       1.3  T
   4   -191.2034241 -0.727455E-05  0.107E-03    2.11       8.6  T
   5   -191.2034242 -0.766885E-07  0.575E-04    2.11      16.1  T
   6   -191.2034242 -0.187243E-07  0.283E-04    2.11      32.7  T
   7   -191.2034242 -0.248238E-08  0.133E-04    2.11      69.7  T
   8   -191.2034242 -0.138380E-08  0.483E-05    2.11     191.3  T
     SCC iter.                  ...        0 min,  0.185 sec
     gradient                   ...        0 min,  0.218 sec
 * total energy  :  -188.2386582 Eh     change       -0.6383069E-04 Eh
   gradient norm :     0.0030423 Eh/α   predicted    -0.4403890E-04 ( -31.01%)
   displ. norm   :     0.4889498 α      lambda       -0.8039743E-04
   maximum displ.:     0.2707878 α      in ANC's #1, #2, #3, ...

........................................................................
.............................. CYCLE  107 ..............................
........................................................................

 iter      E             dE          RMSdq      gap      omega  full diag
   1   -191.2025081 -0.191203E+03  0.383E-02    2.10       0.0  T
   2   -191.2025091 -0.977453E-06  0.225E-02    2.10       1.0  T
   3   -191.2025016  0.753535E-05  0.741E-03    2.10       1.2  T
   4   -191.2025100 -0.839240E-05  0.114E-03    2.10       8.1  T
   5   -191.2025101 -0.849515E-07  0.637E-04    2.10      14.5  T
   6   -191.2025101 -0.232986E-07  0.318E-04    2.10      29.0  T
   7   -191.2025101 -0.230693E-08  0.143E-04    2.10      64.6  T
   8   -191.2025101 -0.180444E-08  0.484E-05    2.10     191.1  T
     SCC iter.                  ...        0 min,  0.159 sec
     gradient                   ...        0 min,  0.218 sec
 * total energy  :  -188.2387285 Eh     change       -0.7028650E-04 Eh
   gradient norm :     0.0028740 Eh/α   predicted    -0.4981342E-04 ( -29.13%)
   displ. norm   :     0.5255671 α      lambda       -0.8762927E-04
   maximum displ.:     0.2916975 α      in ANC's #1, #2, #3, ...

........................................................................
.............................. CYCLE  108 ..............................
........................................................................

 iter      E             dE          RMSdq      gap      omega  full diag
   1   -191.2015100 -0.191202E+03  0.419E-02    2.09       0.0  T
   2   -191.2015111 -0.108419E-05  0.247E-02    2.09       1.0  T
   3   -191.2015028  0.828006E-05  0.777E-03    2.09       1.2  T
   4   -191.2015121 -0.922700E-05  0.113E-03    2.09       8.2  T
   5   -191.2015121 -0.718124E-07  0.675E-04    2.09      13.7  T
   6   -191.2015122 -0.264070E-07  0.338E-04    2.09      27.4  T
   7   -191.2015122 -0.222411E-08  0.150E-04    2.09      61.4  T
   8   -191.2015122 -0.202019E-08  0.507E-05    2.09     182.5  T
     SCC iter.                  ...        0 min,  0.177 sec
     gradient                   ...        0 min,  0.225 sec
 * total energy  :  -188.2388062 Eh     change       -0.7766170E-04 Eh
   gradient norm :     0.0026520 Eh/α   predicted    -0.5591748E-04 ( -28.00%)
   displ. norm   :     0.5623714 α      lambda       -0.9859393E-04
   maximum displ.:     0.3129658 α      in ANC's #1, #2, #3, ...

........................................................................
.............................. CYCLE  109 ..............................
........................................................................

 iter      E             dE          RMSdq      gap      omega  full diag
   1   -191.2007482 -0.191201E+03  0.456E-02    2.07       0.0  T
   2   -191.2007494 -0.127153E-05  0.269E-02    2.07       1.0  T
   3   -191.2007405  0.894062E-05  0.811E-03    2.08       1.1  T
   4   -191.2007505 -0.999016E-05  0.114E-03    2.07       8.1  T
   5   -191.2007505 -0.635590E-07  0.699E-04    2.07      13.2  T
   6   -191.2007506 -0.278670E-07  0.352E-04    2.07      26.2  T
   7   -191.2007506 -0.266283E-08  0.159E-04    2.07      58.1  T
   8   -191.2007506 -0.206180E-08  0.574E-05    2.07     161.0  T
     SCC iter.                  ...        0 min,  0.165 sec
     gradient                   ...        0 min,  0.238 sec
 * total energy  :  -188.2388945 Eh     change       -0.8829436E-04 Eh
   gradient norm :     0.0026880 Eh/α   predicted    -0.6488835E-04 ( -26.51%)
   displ. norm   :     0.6075240 α      lambda       -0.1144982E-03
   maximum displ.:     0.3387210 α      in ANC's #1, #2, #3, ...

........................................................................
.............................. CYCLE  110 ..............................
........................................................................

 iter      E             dE          RMSdq      gap      omega  full diag
   1   -191.2003010 -0.191200E+03  0.500E-02    2.06       0.0  T
   2   -191.2003026 -0.160970E-05  0.296E-02    2.06       1.0  T
   3   -191.2002923  0.103470E-04  0.880E-03    2.06       1.1  T
   4   -191.2003038 -0.115962E-04  0.120E-03    2.06       7.7  T
   5   -191.2003039 -0.729567E-07  0.710E-04    2.06      13.0  T
   6   -191.2003039 -0.259185E-07  0.371E-04    2.06      24.9  T
   7   -191.2003040 -0.371196E-08  0.168E-04    2.06      55.0  T
   8   -191.2003040 -0.197164E-08  0.678E-05    2.06     136.3  T
     SCC iter.                  ...        0 min,  0.170 sec
     gradient                   ...        0 min,  0.230 sec
 * total energy  :  -188.2389979 Eh     change       -0.1034449E-03 Eh
   gradient norm :     0.0032388 Eh/α   predicted    -0.7837976E-04 ( -24.23%)
   displ. norm   :     0.6611514 α      lambda       -0.1375497E-03
   maximum displ.:     0.3681906 α      in ANC's #1, #2, #3, ...

........................................................................
.............................. CYCLE  111 ..............................
........................................................................

 iter      E             dE          RMSdq      gap      omega  full diag
   1   -191.2003095 -0.191200E+03  0.549E-02    2.04       0.0  T
   2   -191.2003116 -0.209606E-05  0.325E-02    2.04       1.0  T
   3   -191.2002989  0.126574E-04  0.979E-03    2.04       1.0  T
   4   -191.2003131 -0.142088E-04  0.130E-03    2.04       7.1  T
   5   -191.2003132 -0.101176E-06  0.720E-04    2.04      12.8  T
   6   -191.2003132 -0.239670E-07  0.387E-04    2.04      23.9  T
   7   -191.2003132 -0.464843E-08  0.173E-04    2.04      53.4  T
   8   -191.2003132 -0.173472E-08  0.780E-05    2.04     118.6  T
     SCC iter.                  ...        0 min,  0.163 sec
     gradient                   ...        0 min,  0.238 sec
 * total energy  :  -188.2391237 Eh     change       -0.1257629E-03 Eh
   gradient norm :     0.0040712 Eh/α   predicted    -0.9883993E-04 ( -21.41%)
   displ. norm   :     0.7141816 α      lambda       -0.1661789E-03
   maximum displ.:     0.3962252 α      in ANC's #1, #2, #3, ...

........................................................................
.............................. CYCLE  112 ..............................
........................................................................

 iter      E             dE          RMSdq      gap      omega  full diag
   1   -191.2006491 -0.191201E+03  0.592E-02    2.03       0.0  T
   2   -191.2006517 -0.255182E-05  0.350E-02    2.03       1.0  T
   3   -191.2006369  0.147962E-04  0.106E-02    2.03       1.0  T
   4   -191.2006535 -0.166223E-04  0.140E-03    2.03       6.6  T
   5   -191.2006536 -0.135280E-06  0.739E-04    2.03      12.5  T
   6   -191.2006536 -0.244565E-07  0.401E-04    2.03      23.1  T
   7   -191.2006536 -0.534314E-08  0.171E-04    2.03      54.2  T
   8   -191.2006536 -0.144902E-08  0.837E-05    2.03     110.4  T
     SCC iter.                  ...        0 min,  0.170 sec
     gradient                   ...        0 min,  0.222 sec
 * total energy  :  -188.2392770 Eh     change       -0.1533133E-03 Eh
   gradient norm :     0.0047154 Eh/α   predicted    -0.1254744E-03 ( -18.16%)
   displ. norm   :     0.7338079 α      lambda       -0.1998638E-03
   maximum displ.:     0.4038000 α      in ANC's #1, #2, #3, ...

........................................................................
.............................. CYCLE  113 ..............................
........................................................................

 iter      E             dE          RMSdq      gap      omega  full diag
   1   -191.2017919 -0.191202E+03  0.604E-02    2.01       0.0  T
   2   -191.2017948 -0.287687E-05  0.356E-02    2.01       1.0  T
   3   -191.2017794  0.154458E-04  0.108E-02    2.01       1.0  T
   4   -191.2017967 -0.173638E-04  0.148E-03    2.01       6.3  T
   5   -191.2017969 -0.161657E-06  0.751E-04    2.01      12.3  T
   6   -191.2017969 -0.249072E-07  0.405E-04    2.01      22.9  T
   7   -191.2017969 -0.604464E-08  0.165E-04    2.01      56.0  T
   8   -191.2017969 -0.141094E-08  0.839E-05    2.01     110.1  T
     SCC iter.                  ...        0 min,  0.172 sec
     gradient                   ...        0 min,  0.226 sec
 * total energy  :  -188.2394587 Eh     change       -0.1816437E-03 Eh
   gradient norm :     0.0047370 Eh/α   predicted    -0.1537424E-03 ( -15.36%)
   displ. norm   :     0.7304933 α      lambda       -0.2244943E-03
   maximum displ.:     0.3982396 α      in ANC's #1, #2, #3, ...

........................................................................
.............................. CYCLE  114 ..............................
........................................................................

 iter      E             dE          RMSdq      gap      omega  full diag
   1   -191.2027142 -0.191203E+03  0.595E-02    2.00       0.0  T
   2   -191.2027169 -0.271541E-05  0.349E-02    2.00       1.0  T
   3   -191.2027031  0.138402E-04  0.102E-02    2.00       1.0  T
   4   -191.2027187 -0.155793E-04  0.149E-03    2.00       6.2  T
   5   -191.2027188 -0.142397E-06  0.801E-04    2.00      11.5  T
   6   -191.2027189 -0.296433E-07  0.416E-04    2.00      22.2  T
   7   -191.2027189 -0.765434E-08  0.170E-04    2.00      54.4  T
   8   -191.2027189 -0.199697E-08  0.830E-05    2.00     111.4  T
     SCC iter.                  ...        0 min,  0.171 sec
     gradient                   ...        0 min,  0.229 sec
 * total energy  :  -188.2396566 Eh     change       -0.1979523E-03 Eh
   gradient norm :     0.0043680 Eh/α   predicted    -0.1721459E-03 ( -13.04%)
   displ. norm   :     0.6968860 α      lambda       -0.2300259E-03
   maximum displ.:     0.3774311 α      in ANC's #1, #2, #3, ...

........................................................................
.............................. CYCLE  115 ..............................
........................................................................

 iter      E             dE          RMSdq      gap      omega  full diag
   1   -191.2036695 -0.191204E+03  0.566E-02    1.99       0.0  T
   2   -191.2036726 -0.307821E-05  0.330E-02    1.99       1.0  T
   3   -191.2036597  0.128134E-04  0.979E-03    1.99       1.0  T
   4   -191.2036741 -0.143785E-04  0.171E-03    1.99       5.4  T
   5   -191.2036743 -0.183895E-06  0.883E-04    1.99      10.5  T
   6   -191.2036743 -0.380125E-07  0.445E-04    1.99      20.8  T
   7   -191.2036744 -0.113531E-07  0.174E-04    1.99      53.2  T
   8   -191.2036744 -0.206612E-08  0.859E-05    1.99     107.6  T
     SCC iter.                  ...        0 min,  0.161 sec
     gradient                   ...        0 min,  0.215 sec
 * total energy  :  -188.2398521 Eh     change       -0.1955062E-03 Eh
   gradient norm :     0.0043649 Eh/α   predicted    -0.1708696E-03 ( -12.60%)
   displ. norm   :     0.7062319 α      lambda       -0.2225311E-03
   maximum displ.:     0.3923757 α      in ANC's #1, #2, #3, ...

........................................................................
.............................. CYCLE  116 ..............................
........................................................................

 iter      E             dE          RMSdq      gap      omega  full diag
   1   -191.2013950 -0.191201E+03  0.561E-02    1.98       0.0  T
   2   -191.2013974 -0.243369E-05  0.328E-02    1.98       1.0  T
   3   -191.2013812  0.162650E-04  0.109E-02    1.98       1.0  T
   4   -191.2013994 -0.182378E-04  0.168E-03    1.98       5.5  T
   5   -191.2013995 -0.106133E-06  0.988E-04    1.98       9.4  T
   6   -191.2013996 -0.547107E-07  0.435E-04    1.98      21.3  T
   7   -191.2013996 -0.111600E-07  0.183E-04    1.98      50.5  T
   8   -191.2013996 -0.171849E-08  0.890E-05    1.98     103.9  T
     SCC iter.                  ...        0 min,  0.181 sec
     gradient                   ...        0 min,  0.239 sec
 * total energy  :  -188.2400390 Eh     change       -0.1868595E-03 Eh
   gradient norm :     0.0055147 Eh/α   predicted    -0.1667622E-03 ( -10.76%)
   displ. norm   :     0.5229172 α      lambda       -0.3018128E-03
   maximum displ.:     0.2466513 α      in ANC's #1, #2, #8, ...

........................................................................
.............................. CYCLE  117 ..............................
........................................................................

 iter      E             dE          RMSdq      gap      omega  full diag
   1   -191.2080631 -0.191208E+03  0.610E-02    1.99       0.0  T
   2   -191.2080730 -0.997602E-05  0.358E-02    1.99       1.0  T
   3   -191.2080569  0.161655E-04  0.123E-02    1.99       1.0  T
   4   -191.2080742 -0.172872E-04  0.391E-03    1.99       2.4  T
   5   -191.2080759 -0.173989E-05  0.132E-03    1.99       7.0  T
   6   -191.2080760 -0.598477E-07  0.780E-04    1.99      11.8  T
   7   -191.2080760 -0.385355E-07  0.249E-04    1.99      37.1  T
   8   -191.2080760 -0.213279E-08  0.132E-04    1.99      69.8  T
   9   -191.2080760 -0.706848E-09  0.530E-05    1.99     174.4  T
     SCC iter.                  ...        0 min,  0.219 sec
     gradient                   ...        0 min,  0.257 sec
 * total energy  :  -188.2401307 Eh     change       -0.9173300E-04 Eh
   gradient norm :     0.0093862 Eh/α   predicted    -0.1921723E-03 ( 109.49%)
   displ. norm   :     0.5148833 α      lambda       -0.3049980E-03
   maximum displ.:     0.2926821 α      in ANC's #1, #2, #3, ...

........................................................................
.............................. CYCLE  118 ..............................
........................................................................

 iter      E             dE          RMSdq      gap      omega  full diag
   1   -191.2008941 -0.191201E+03  0.425E-02    1.98       0.0  T
   2   -191.2008963 -0.215097E-05  0.249E-02    1.97       1.0  T
   3   -191.2008879  0.839023E-05  0.811E-03    1.98       1.1  T
   4   -191.2008973 -0.948473E-05  0.149E-03    1.97       6.2  T
   5   -191.2008975 -0.124933E-06  0.820E-04    1.97      11.3  T
   6   -191.2008975 -0.293074E-07  0.441E-04    1.97      21.0  T
   7   -191.2008975 -0.705953E-08  0.180E-04    1.97      51.4  T
   8   -191.2008975 -0.248042E-08  0.641E-05    1.97     144.2  T
     SCC iter.                  ...        0 min,  0.212 sec
     gradient                   ...        0 min,  0.260 sec
 * total energy  :  -188.2403176 Eh     change       -0.1868993E-03 Eh
   gradient norm :     0.0074603 Eh/α   predicted    -0.1929327E-03 (   3.23%)
   displ. norm   :     0.3068397 α      lambda       -0.1579325E-03
   maximum displ.:     0.1756270 α      in ANC's #1, #2, #5, ...

........................................................................
.............................. CYCLE  119 ..............................
........................................................................

 iter      E             dE          RMSdq      gap      omega  full diag
   1   -191.1972753 -0.191197E+03  0.290E-02    1.97       0.0  T
   2   -191.1972780 -0.268709E-05  0.171E-02    1.97       1.0  T
   3   -191.1972735  0.444535E-05  0.675E-03    1.97       1.4  T
   4   -191.1972785 -0.499992E-05  0.165E-03    1.97       5.6  T
   5   -191.1972788 -0.285834E-06  0.503E-04    1.97      18.4  T
   6   -191.1972788 -0.849340E-08  0.290E-04    1.97      31.9  T
   7   -191.1972788 -0.211452E-08  0.148E-04    1.97      62.7  T
   8   -191.1972788 -0.158491E-08  0.580E-05    1.97     159.4  T
     SCC iter.                  ...        0 min,  0.170 sec
     gradient                   ...        0 min,  0.213 sec
 * total energy  :  -188.2404296 Eh     change       -0.1119886E-03 Eh
   gradient norm :     0.0054252 Eh/α   predicted    -0.8640197E-04 ( -22.85%)
   displ. norm   :     0.3381958 α      lambda       -0.1942034E-03
   maximum displ.:     0.1875740 α      in ANC's #1, #2, #8, ...

........................................................................
.............................. CYCLE  120 ..............................
........................................................................

 iter      E             dE          RMSdq      gap      omega  full diag
   1   -191.1997311 -0.191200E+03  0.357E-02    1.97       0.0  T
   2   -191.1997334 -0.223872E-05  0.211E-02    1.97       1.0  T
   3   -191.1997250  0.840629E-05  0.865E-03    1.97       1.1  T
   4   -191.1997346 -0.964218E-05  0.144E-03    1.97       6.4  T
   5   -191.1997348 -0.149714E-06  0.586E-04    1.97      15.8  T
   6   -191.1997348 -0.944692E-08  0.308E-04    1.97      30.0  T
   7   -191.1997348 -0.223247E-08  0.167E-04    1.97      55.4  T
   8   -191.1997348 -0.211318E-08  0.616E-05    1.97     150.2  T
     SCC iter.                  ...        0 min,  0.217 sec
     gradient                   ...        0 min,  0.236 sec
 * total energy  :  -188.2405720 Eh     change       -0.1423884E-03 Eh
   gradient norm :     0.0040993 Eh/α   predicted    -0.1082131E-03 ( -24.00%)
   displ. norm   :     0.4613065 α      lambda       -0.1644914E-03
   maximum displ.:     0.2566644 α      in ANC's #1, #2, #8, ...
 * RMSD in coord.:     0.7596243 α      energy gain  -0.2458598E-02 Eh

generating ANC from exact Hessian ...
Using Lindh-Hessian (1995)
 Shifting diagonal of input Hessian by    1.0101814034792895E-002
 Lowest  eigenvalues of input Hessian
    0.010000    0.000000    0.000000    0.000000    0.000000    0.000000
    0.000000    0.010149    0.010192    0.010265    0.010361    0.010434
    0.010473    0.010660    0.010827    0.010878    0.010968    0.011055
 Highest eigenvalues
    2.162030    2.184452    2.329550    2.333849    2.368527    3.119864


........................................................................
.............................. CYCLE  121 ..............................
........................................................................

 iter      E             dE          RMSdq      gap      omega  full diag
   1   -191.2021796 -0.191202E+03  0.444E-02    1.97       0.0  T
   2   -191.2021814 -0.185995E-05  0.260E-02    1.97       1.0  T
   3   -191.2021744  0.701262E-05  0.749E-03    1.97       1.2  T
   4   -191.2021824 -0.799479E-05  0.127E-03    1.97       7.3  T
   5   -191.2021825 -0.984990E-07  0.666E-04    1.97      13.9  T
   6   -191.2021825 -0.161813E-07  0.323E-04    1.97      28.6  T
   7   -191.2021825 -0.363303E-08  0.145E-04    1.97      63.8  T
   8   -191.2021825 -0.166773E-08  0.598E-05    1.97     154.5  T
     SCC iter.                  ...        0 min,  0.166 sec
     gradient                   ...        0 min,  0.235 sec
 * total energy  :  -188.2406999 Eh     change       -0.1279369E-03 Eh
   gradient norm :     0.0039221 Eh/α   predicted     0.0000000E+00 (-100.00%)
   displ. norm   :     0.0499317 α      lambda       -0.4897761E-04
   maximum displ.:     0.0270075 α      in ANC's #2, #35, #29, ...

........................................................................
.............................. CYCLE  122 ..............................
........................................................................

 iter      E             dE          RMSdq      gap      omega  full diag
   1   -191.2030267 -0.191203E+03  0.903E-03    1.97       0.0  T
   2   -191.2030269 -0.223818E-06  0.532E-03    1.97       1.7  T
   3   -191.2030265  0.419807E-06  0.202E-03    1.97       4.6  T
   4   -191.2030269 -0.469041E-06  0.522E-04    1.97      17.7  T
   5   -191.2030270 -0.284281E-07  0.167E-04    1.97      55.4  T
   6   -191.2030270 -0.609816E-09  0.103E-04    1.97      89.6  T
     SCC iter.                  ...        0 min,  0.135 sec
     gradient                   ...        0 min,  0.225 sec
 * total energy  :  -188.2407468 Eh     change       -0.4683736E-04 Eh
   gradient norm :     0.0021531 Eh/α   predicted    -0.2731717E-04 ( -41.68%)
   displ. norm   :     0.1975550 α      lambda       -0.1490405E-03
   maximum displ.:     0.1036557 α      in ANC's #2, #35, #29, ...

........................................................................
.............................. CYCLE  123 ..............................
........................................................................

 iter      E             dE          RMSdq      gap      omega  full diag
   1   -191.2043391 -0.191204E+03  0.314E-02    1.97       0.0  T
   2   -191.2043406 -0.142477E-05  0.185E-02    1.97       1.0  T
   3   -191.2043343  0.630217E-05  0.737E-03    1.97       1.3  T
   4   -191.2043413 -0.707342E-05  0.131E-03    1.97       7.0  T
   5   -191.2043415 -0.150811E-06  0.532E-04    1.97      17.4  T
   6   -191.2043415 -0.565103E-08  0.337E-04    1.97      27.4  T
   7   -191.2043415 -0.344991E-08  0.149E-04    1.97      61.9  T
   8   -191.2043415 -0.187521E-08  0.550E-05    1.97     168.2  T
     SCC iter.                  ...        0 min,  0.165 sec
     gradient                   ...        0 min,  0.233 sec
 * total energy  :  -188.2408506 Eh     change       -0.1038785E-03 Eh
   gradient norm :     0.0033163 Eh/α   predicted    -0.7743147E-04 ( -25.46%)
   displ. norm   :     0.2110984 α      lambda       -0.9571262E-04
   maximum displ.:     0.1130076 α      in ANC's #2, #35, #29, ...

........................................................................
.............................. CYCLE  124 ..............................
........................................................................

 iter      E             dE          RMSdq      gap      omega  full diag
   1   -191.2042483 -0.191204E+03  0.304E-02    1.98       0.0  T
   2   -191.2042491 -0.736508E-06  0.178E-02    1.98       1.0  T
   3   -191.2042429  0.616949E-05  0.721E-03    1.98       1.3  T
   4   -191.2042499 -0.694495E-05  0.922E-04    1.98      10.0  T
   5   -191.2042499 -0.450276E-07  0.482E-04    1.98      19.2  T
   6   -191.2042499 -0.409329E-08  0.292E-04    1.98      31.7  T
   7   -191.2042499 -0.378341E-08  0.114E-04    1.98      81.1  T
   8   -191.2042499 -0.114474E-08  0.447E-05    1.98     206.7  T
     SCC iter.                  ...        0 min,  0.205 sec
     gradient                   ...        0 min,  0.273 sec
 * total energy  :  -188.2409285 Eh     change       -0.7783052E-04 Eh
   gradient norm :     0.0050385 Eh/α   predicted    -0.5022545E-04 ( -35.47%)
   displ. norm   :     0.3379846 α      lambda       -0.1453662E-03
   maximum displ.:     0.1788507 α      in ANC's #2, #35, #3, ...

........................................................................
.............................. CYCLE  125 ..............................
........................................................................

 iter      E             dE          RMSdq      gap      omega  full diag
   1   -191.2030995 -0.191203E+03  0.453E-02    1.99       0.0  T
   2   -191.2031009 -0.140891E-05  0.264E-02    1.99       1.0  T
   3   -191.2030885  0.123631E-04  0.102E-02    1.99       1.0  T
   4   -191.2031025 -0.139445E-04  0.124E-03    1.99       7.5  T
   5   -191.2031025 -0.603298E-07  0.680E-04    1.99      13.6  T
   6   -191.2031026 -0.101286E-07  0.361E-04    1.99      25.6  T
   7   -191.2031026 -0.555687E-08  0.153E-04    1.99      60.4  T
   8   -191.2031026 -0.185193E-08  0.645E-05    1.99     143.3  T
     SCC iter.                  ...        0 min,  0.189 sec
     gradient                   ...        0 min,  0.238 sec
 * total energy  :  -188.2410468 Eh     change       -0.1183821E-03 Eh
   gradient norm :     0.0059187 Eh/α   predicted    -0.8098918E-04 ( -31.59%)
   displ. norm   :     0.4077809 α      lambda       -0.1767393E-03
   maximum displ.:     0.2187959 α      in ANC's #2, #3, #35, ...

........................................................................
.............................. CYCLE  126 ..............................
........................................................................

 iter      E             dE          RMSdq      gap      omega  full diag
   1   -191.2012391 -0.191201E+03  0.527E-02    2.00       0.0  T
   2   -191.2012410 -0.189750E-05  0.308E-02    2.00       1.0  T
   3   -191.2012268  0.141788E-04  0.111E-02    2.00       1.0  T
   4   -191.2012429 -0.160386E-04  0.140E-03    2.00       6.6  T
   5   -191.2012430 -0.786592E-07  0.751E-04    2.00      12.3  T
   6   -191.2012430 -0.133184E-07  0.339E-04    2.00      27.3  T
   7   -191.2012430 -0.435978E-08  0.147E-04    2.00      63.0  T
   8   -191.2012430 -0.106081E-08  0.647E-05    2.00     143.0  T
     SCC iter.                  ...        0 min,  0.184 sec
     gradient                   ...        0 min,  0.238 sec
 * total energy  :  -188.2411822 Eh     change       -0.1353757E-03 Eh
   gradient norm :     0.0063518 Eh/α   predicted    -0.1030862E-03 ( -23.85%)
   displ. norm   :     0.3477393 α      lambda       -0.1824006E-03
   maximum displ.:     0.1943061 α      in ANC's #2, #3, #8, ...

........................................................................
.............................. CYCLE  127 ..............................
........................................................................

 iter      E             dE          RMSdq      gap      omega  full diag
   1   -191.2010458 -0.191201E+03  0.451E-02    2.01       0.0  T
   2   -191.2010474 -0.158025E-05  0.265E-02    2.01       1.0  T
   3   -191.2010383  0.906788E-05  0.887E-03    2.01       1.0  T
   4   -191.2010486 -0.102699E-04  0.128E-03    2.01       7.2  T
   5   -191.2010487 -0.990688E-07  0.624E-04    2.01      14.8  T
   6   -191.2010487 -0.529673E-08  0.323E-04    2.01      28.6  T
   7   -191.2010487 -0.551873E-08  0.150E-04    2.01      61.8  T
   8   -191.2010487 -0.134298E-08  0.655E-05    2.01     141.2  T
     SCC iter.                  ...        0 min,  0.186 sec
     gradient                   ...        0 min,  0.234 sec
 * total energy  :  -188.2413246 Eh     change       -0.1424293E-03 Eh
   gradient norm :     0.0055468 Eh/α   predicted    -0.1022330E-03 ( -28.22%)
   displ. norm   :     0.3290352 α      lambda       -0.1833450E-03
   maximum displ.:     0.1903878 α      in ANC's #2, #3, #8, ...

........................................................................
.............................. CYCLE  128 ..............................
........................................................................

 iter      E             dE          RMSdq      gap      omega  full diag
   1   -191.2025726 -0.191203E+03  0.443E-02    2.02       0.0  T
   2   -191.2025744 -0.182496E-05  0.262E-02    2.02       1.0  T
   3   -191.2025656  0.876725E-05  0.857E-03    2.02       1.1  T
   4   -191.2025754 -0.978010E-05  0.149E-03    2.02       6.2  T
   5   -191.2025756 -0.205408E-06  0.640E-04    2.02      14.4  T
   6   -191.2025756 -0.140263E-07  0.373E-04    2.02      24.8  T
   7   -191.2025756 -0.546521E-08  0.170E-04    2.02      54.3  T
   8   -191.2025756 -0.189581E-08  0.606E-05    2.02     152.5  T
     SCC iter.                  ...        0 min,  0.186 sec
     gradient                   ...        0 min,  0.227 sec
 * total energy  :  -188.2414591 Eh     change       -0.1344861E-03 Eh
   gradient norm :     0.0047686 Eh/α   predicted    -0.1015985E-03 ( -24.45%)
   displ. norm   :     0.3809263 α      lambda       -0.1348095E-03
   maximum displ.:     0.2211292 α      in ANC's #2, #3, #8, ...

........................................................................
.............................. CYCLE  129 ..............................
........................................................................

 iter      E             dE          RMSdq      gap      omega  full diag
   1   -191.2022244 -0.191202E+03  0.475E-02    2.03       0.0  T
   2   -191.2022260 -0.159524E-05  0.280E-02    2.03       1.0  T
   3   -191.2022161  0.987503E-05  0.895E-03    2.03       1.0  T
   4   -191.2022271 -0.109808E-04  0.137E-03    2.03       6.7  T
   5   -191.2022272 -0.156423E-06  0.622E-04    2.03      14.9  T
   6   -191.2022273 -0.131931E-07  0.349E-04    2.03      26.5  T
   7   -191.2022273 -0.539649E-08  0.154E-04    2.03      60.0  T
   8   -191.2022273 -0.160057E-08  0.586E-05    2.03     157.6  T
     SCC iter.                  ...        0 min,  0.183 sec
     gradient                   ...        0 min,  0.234 sec
 * total energy  :  -188.2415616 Eh     change       -0.1024864E-03 Eh
   gradient norm :     0.0048301 Eh/α   predicted    -0.7718552E-04 ( -24.69%)
   displ. norm   :     0.3064587 α      lambda       -0.1321691E-03
   maximum displ.:     0.1848295 α      in ANC's #2, #3, #8, ...

........................................................................
.............................. CYCLE  130 ..............................
........................................................................

 iter      E             dE          RMSdq      gap      omega  full diag
   1   -191.2049658 -0.191205E+03  0.388E-02    2.03       0.0  T
   2   -191.2049672 -0.140553E-05  0.228E-02    2.03       1.0  T
   3   -191.2049607  0.644902E-05  0.711E-03    2.03       1.3  T
   4   -191.2049678 -0.709316E-05  0.128E-03    2.03       7.2  T
   5   -191.2049680 -0.152266E-06  0.542E-04    2.03      17.1  T
   6   -191.2049680 -0.130667E-07  0.300E-04    2.03      30.9  T
   7   -191.2049680 -0.271640E-08  0.141E-04    2.03      65.4  T
   8   -191.2049680 -0.135930E-08  0.459E-05    2.03     201.3  T
     SCC iter.                  ...        0 min,  0.213 sec
     gradient                   ...        0 min,  0.235 sec
 * total energy  :  -188.2416511 Eh     change       -0.8945111E-04 Eh
   gradient norm :     0.0042134 Eh/α   predicted    -0.7229132E-04 ( -19.18%)
   displ. norm   :     0.3620389 α      lambda       -0.1038126E-03
   maximum displ.:     0.2159987 α      in ANC's #2, #3, #1, ...

........................................................................
.............................. CYCLE  131 ..............................
........................................................................

 iter      E             dE          RMSdq      gap      omega  full diag
   1   -191.2035970 -0.191204E+03  0.414E-02    2.04       0.0  T
   2   -191.2035979 -0.899648E-06  0.243E-02    2.04       1.0  T
   3   -191.2035921  0.572940E-05  0.683E-03    2.04       1.4  T
   4   -191.2035986 -0.640924E-05  0.966E-04    2.04       9.6  T
   5   -191.2035986 -0.496609E-07  0.506E-04    2.04      18.3  T
   6   -191.2035986 -0.584211E-08  0.270E-04    2.04      34.2  T
   7   -191.2035986 -0.365588E-08  0.104E-04    2.04      88.5  T
   8   -191.2035986 -0.896847E-09  0.482E-05    2.04     191.7  T
     SCC iter.                  ...        0 min,  0.167 sec
     gradient                   ...        0 min,  0.233 sec
 * total energy  :  -188.2417286 Eh     change       -0.7754644E-04 Eh
   gradient norm :     0.0033654 Eh/α   predicted    -0.5871869E-04 ( -24.28%)
   displ. norm   :     0.2712724 α      lambda       -0.8668528E-04
   maximum displ.:     0.1670520 α      in ANC's #2, #3, #1, ...

........................................................................
.............................. CYCLE  132 ..............................
........................................................................

 iter      E             dE          RMSdq      gap      omega  full diag
   1   -191.2043973 -0.191204E+03  0.303E-02    2.04       0.0  T
   2   -191.2043978 -0.500031E-06  0.178E-02    2.04       1.0  T
   3   -191.2043959  0.196899E-05  0.396E-03    2.04       2.3  T
   4   -191.2043981 -0.223319E-05  0.764E-04    2.04      12.1  T
   5   -191.2043981 -0.377310E-07  0.397E-04    2.04      23.3  T
   6   -191.2043981 -0.282972E-08  0.212E-04    2.04      43.6  T
   7   -191.2043981 -0.213515E-08  0.641E-05    2.04     144.1  T
   8   -191.2043981 -0.220666E-09  0.365E-05    2.04     253.6  T
     SCC iter.                  ...        0 min,  0.172 sec
     gradient                   ...        0 min,  0.244 sec
 * total energy  :  -188.2417982 Eh     change       -0.6962977E-04 Eh
   gradient norm :     0.0028003 Eh/α   predicted    -0.4653249E-04 ( -33.17%)
   displ. norm   :     0.2808755 α      lambda       -0.8361578E-04
   maximum displ.:     0.1753478 α      in ANC's #2, #3, #1, ...

........................................................................
.............................. CYCLE  133 ..............................
........................................................................

 iter      E             dE          RMSdq      gap      omega  full diag
   1   -191.2048397 -0.191205E+03  0.323E-02    2.04       0.0  T
   2   -191.2048404 -0.717908E-06  0.190E-02    2.04       1.0  T
   3   -191.2048383  0.210229E-05  0.407E-03    2.04       2.3  T
   4   -191.2048407 -0.238144E-05  0.937E-04    2.04       9.9  T
   5   -191.2048408 -0.763550E-07  0.450E-04    2.04      20.5  T
   6   -191.2048408 -0.245720E-08  0.249E-04    2.04      37.1  T
   7   -191.2048408 -0.276785E-08  0.858E-05    2.04     107.8  T
   8   -191.2048408 -0.615017E-09  0.382E-05    2.04     242.0  T
     SCC iter.                  ...        0 min,  0.193 sec
     gradient                   ...        0 min,  0.216 sec
 * total energy  :  -188.2418664 Eh     change       -0.6819456E-04 Eh
   gradient norm :     0.0027946 Eh/α   predicted    -0.4510748E-04 ( -33.85%)
   displ. norm   :     0.2875095 α      lambda       -0.7878731E-04
   maximum displ.:     0.1820490 α      in ANC's #2, #3, #1, ...

........................................................................
.............................. CYCLE  134 ..............................
........................................................................

 iter      E             dE          RMSdq      gap      omega  full diag
   1   -191.2050662 -0.191205E+03  0.341E-02    2.04       0.0  T
   2   -191.2050671 -0.891790E-06  0.200E-02    2.04       1.0  T
   3   -191.2050637  0.337906E-05  0.523E-03    2.04       1.8  T
   4   -191.2050675 -0.381596E-05  0.104E-03    2.04       8.9  T
   5   -191.2050676 -0.753632E-07  0.488E-04    2.04      19.0  T
   6   -191.2050676 -0.103040E-08  0.275E-04    2.04      33.7  T
   7   -191.2050676 -0.293295E-08  0.102E-04    2.04      91.1  T
   8   -191.2050676 -0.914639E-09  0.422E-05    2.04     219.1  T
     SCC iter.                  ...        0 min,  0.176 sec
     gradient                   ...        0 min,  0.234 sec
 * total energy  :  -188.2419324 Eh     change       -0.6596177E-04 Eh
   gradient norm :     0.0028657 Eh/α   predicted    -0.4265154E-04 ( -35.34%)
   displ. norm   :     0.2901050 α      lambda       -0.7694433E-04
   maximum displ.:     0.1860327 α      in ANC's #2, #3, #1, ...

........................................................................
.............................. CYCLE  135 ..............................
........................................................................

 iter      E             dE          RMSdq      gap      omega  full diag
   1   -191.2050233 -0.191205E+03  0.344E-02    2.04       0.0  T
   2   -191.2050243 -0.960298E-06  0.202E-02    2.04       1.0  T
   3   -191.2050199  0.438091E-05  0.609E-03    2.04       1.5  T
   4   -191.2050248 -0.495919E-05  0.103E-03    2.04       9.0  T
   5   -191.2050249 -0.569017E-07  0.504E-04    2.04      18.4  T
   6   -191.2050249 -0.829175E-09  0.282E-04    2.04      32.7  T
   7   -191.2050249 -0.301520E-08  0.103E-04    2.04      90.2  T
   8   -191.2050249 -0.775344E-09  0.413E-05    2.04     223.8  T
     SCC iter.                  ...        0 min,  0.222 sec
     gradient                   ...        0 min,  0.267 sec
 * total energy  :  -188.2419982 Eh     change       -0.6579889E-04 Eh
   gradient norm :     0.0026932 Eh/α   predicted    -0.4171027E-04 ( -36.61%)
   displ. norm   :     0.2932517 α      lambda       -0.7696692E-04
   maximum displ.:     0.1904634 α      in ANC's #2, #3, #5, ...

........................................................................
.............................. CYCLE  136 ..............................
........................................................................

 iter      E             dE          RMSdq      gap      omega  full diag
   1   -191.2049356 -0.191205E+03  0.336E-02    2.03       0.0  T
   2   -191.2049364 -0.827762E-06  0.197E-02    2.03       1.0  T
   3   -191.2049321  0.425532E-05  0.604E-03    2.03       1.5  T
   4   -191.2049370 -0.481747E-05  0.962E-04    2.03       9.6  T
   5   -191.2049370 -0.400794E-07  0.504E-04    2.03      18.4  T
   6   -191.2049370 -0.537540E-09  0.308E-04    2.03      30.1  T
   7   -191.2049370 -0.485784E-08  0.117E-04    2.03      79.3  T
   8   -191.2049370 -0.949086E-09  0.497E-05    2.03     186.1  T
     SCC iter.                  ...        0 min,  0.182 sec
     gradient                   ...        0 min,  0.256 sec
 * total energy  :  -188.2420645 Eh     change       -0.6627026E-04 Eh
   gradient norm :     0.0024216 Eh/α   predicted    -0.4179636E-04 ( -36.93%)
   displ. norm   :     0.2942624 α      lambda       -0.7617441E-04
   maximum displ.:     0.1927525 α      in ANC's #2, #3, #5, ...

........................................................................
.............................. CYCLE  137 ..............................
........................................................................

 iter      E             dE          RMSdq      gap      omega  full diag
   1   -191.2047107 -0.191205E+03  0.315E-02    2.03       0.0  T
   2   -191.2047114 -0.609040E-06  0.185E-02    2.03       1.0  T
   3   -191.2047080  0.333129E-05  0.531E-03    2.03       1.7  T
   4   -191.2047118 -0.375933E-05  0.859E-04    2.03      10.8  T
   5   -191.2047118 -0.307821E-07  0.473E-04    2.03      19.5  T
   6   -191.2047118 -0.305991E-08  0.287E-04    2.03      32.2  T
   7   -191.2047118 -0.469851E-08  0.106E-04    2.03      87.6  T
   8   -191.2047118 -0.618684E-09  0.468E-05    2.03     197.4  T
     SCC iter.                  ...        0 min,  0.224 sec
     gradient                   ...        0 min,  0.278 sec
 * total energy  :  -188.2421311 Eh     change       -0.6662697E-04 Eh
   gradient norm :     0.0024349 Eh/α   predicted    -0.4138623E-04 ( -37.88%)
   displ. norm   :     0.3038119 α      lambda       -0.8090283E-04
   maximum displ.:     0.1999951 α      in ANC's #2, #3, #5, ...

........................................................................
.............................. CYCLE  138 ..............................
........................................................................

 iter      E             dE          RMSdq      gap      omega  full diag
   1   -191.2048014 -0.191205E+03  0.303E-02    2.02       0.0  T
   2   -191.2048018 -0.457490E-06  0.178E-02    2.02       1.0  T
   3   -191.2047994  0.241351E-05  0.444E-03    2.02       2.1  T
   4   -191.2048021 -0.271086E-05  0.771E-04    2.02      12.0  T
   5   -191.2048022 -0.286230E-07  0.433E-04    2.02      21.3  T
   6   -191.2048022 -0.567169E-08  0.238E-04    2.02      38.8  T
   7   -191.2048022 -0.289691E-08  0.901E-05    2.02     102.6  T
   8   -191.2048022 -0.349303E-09  0.411E-05    2.02     225.1  T
     SCC iter.                  ...        0 min,  0.206 sec
     gradient                   ...        0 min,  0.266 sec
 * total energy  :  -188.2422028 Eh     change       -0.7172233E-04 Eh
   gradient norm :     0.0024593 Eh/α   predicted    -0.4418793E-04 ( -38.39%)
   displ. norm   :     0.3432070 α      lambda       -0.9447386E-04
   maximum displ.:     0.2253006 α      in ANC's #2, #3, #5, ...

........................................................................
.............................. CYCLE  139 ..............................
........................................................................

 iter      E             dE          RMSdq      gap      omega  full diag
   1   -191.2044055 -0.191204E+03  0.322E-02    2.01       0.0  T
   2   -191.2044060 -0.466607E-06  0.189E-02    2.01       1.0  T
   3   -191.2044037  0.228980E-05  0.424E-03    2.01       2.2  T
   4   -191.2044062 -0.256087E-05  0.767E-04    2.01      12.1  T
   5   -191.2044063 -0.341565E-07  0.424E-04    2.01      21.8  T
   6   -191.2044063 -0.836977E-08  0.206E-04    2.01      44.9  T
   7   -191.2044063 -0.171474E-08  0.830E-05    2.01     111.4  T
   8   -191.2044063 -0.305022E-09  0.380E-05    2.01     243.2  T
     SCC iter.                  ...        0 min,  0.226 sec
     gradient                   ...        0 min,  0.316 sec
 * total energy  :  -188.2422866 Eh     change       -0.8381789E-04 Eh
   gradient norm :     0.0027899 Eh/α   predicted    -0.5280463E-04 ( -37.00%)
   displ. norm   :     0.3967702 α      lambda       -0.1134770E-03
   maximum displ.:     0.2592333 α      in ANC's #2, #3, #5, ...

........................................................................
.............................. CYCLE  140 ..............................
........................................................................

 iter      E             dE          RMSdq      gap      omega  full diag
   1   -191.2047997 -0.191205E+03  0.362E-02    2.00       0.0  T
   2   -191.2048004 -0.694629E-06  0.212E-02    2.00       1.0  T
   3   -191.2047976  0.286130E-05  0.471E-03    2.00       2.0  T
   4   -191.2048008 -0.320300E-05  0.849E-04    2.00      10.9  T
   5   -191.2048008 -0.476099E-07  0.466E-04    2.00      19.8  T
   6   -191.2048008 -0.128242E-07  0.221E-04    2.00      41.8  T
   7   -191.2048008 -0.187219E-08  0.893E-05    2.00     103.6  T
   8   -191.2048008 -0.379600E-09  0.412E-05    2.00     224.1  T
     SCC iter.                  ...        0 min,  0.230 sec
     gradient                   ...        0 min,  0.346 sec
 * total energy  :  -188.2423855 Eh     change       -0.9889497E-04 Eh
   gradient norm :     0.0029042 Eh/α   predicted    -0.6567525E-04 ( -33.59%)
   displ. norm   :     0.4505089 α      lambda       -0.1251356E-03
   maximum displ.:     0.2958586 α      in ANC's #2, #3, #5, ...

........................................................................
.............................. CYCLE  141 ..............................
........................................................................

 iter      E             dE          RMSdq      gap      omega  full diag
   1   -191.2038931 -0.191204E+03  0.410E-02    1.99       0.0  T
   2   -191.2038940 -0.905032E-06  0.240E-02    1.99       1.0  T
   3   -191.2038905  0.357558E-05  0.536E-03    1.99       1.7  T
   4   -191.2038945 -0.406361E-05  0.875E-04    1.99      10.6  T
   5   -191.2038946 -0.378678E-07  0.518E-04    1.99      17.8  T
   6   -191.2038946 -0.159473E-07  0.244E-04    1.99      37.8  T
   7   -191.2038946 -0.247607E-08  0.104E-04    1.99      89.0  T
   8   -191.2038946 -0.585771E-09  0.476E-05    1.99     194.1  T
     SCC iter.                  ...        0 min,  0.214 sec
     gradient                   ...        0 min,  0.305 sec
 * total energy  :  -188.2424953 Eh     change       -0.1097401E-03 Eh
   gradient norm :     0.0028674 Eh/α   predicted    -0.7526800E-04 ( -31.41%)
   displ. norm   :     0.4604439 α      lambda       -0.1258665E-03
   maximum displ.:     0.3029153 α      in ANC's #2, #3, #5, ...

........................................................................
.............................. CYCLE  142 ..............................
........................................................................

 iter      E             dE          RMSdq      gap      omega  full diag
   1   -191.2041705 -0.191204E+03  0.415E-02    1.98       0.0  T
   2   -191.2041717 -0.114578E-05  0.243E-02    1.98       1.0  T
   3   -191.2041679  0.373650E-05  0.557E-03    1.98       1.7  T
   4   -191.2041722 -0.430601E-05  0.880E-04    1.98      10.5  T
   5   -191.2041723 -0.309296E-07  0.529E-04    1.98      17.5  T
   6   -191.2041723 -0.140506E-07  0.268E-04    1.98      34.4  T
   7   -191.2041723 -0.321904E-08  0.111E-04    1.98      83.4  T
   8   -191.2041723 -0.703352E-09  0.525E-05    1.98     176.0  T
     SCC iter.                  ...        0 min,  0.231 sec
     gradient                   ...        0 min,  0.272 sec
 * total energy  :  -188.2426077 Eh     change       -0.1123874E-03 Eh
   gradient norm :     0.0028262 Eh/α   predicted    -0.7627984E-04 ( -32.13%)
   displ. norm   :     0.4790359 α      lambda       -0.1324450E-03
   maximum displ.:     0.3202524 α      in ANC's #2, #3, #5, ...

........................................................................
.............................. CYCLE  143 ..............................
........................................................................

 iter      E             dE          RMSdq      gap      omega  full diag
   1   -191.2037516 -0.191204E+03  0.439E-02    1.98       0.0  T
   2   -191.2037530 -0.138191E-05  0.256E-02    1.97       1.0  T
   3   -191.2037479  0.513289E-05  0.660E-03    1.97       1.4  T
   4   -191.2037538 -0.593167E-05  0.960E-04    1.97       9.6  T
   5   -191.2037538 -0.308839E-07  0.558E-04    1.97      16.6  T
   6   -191.2037539 -0.119911E-07  0.278E-04    1.97      33.3  T
   7   -191.2037539 -0.259561E-08  0.113E-04    1.97      81.9  T
   8   -191.2037539 -0.595520E-09  0.562E-05    1.97     164.5  T
     SCC iter.                  ...        0 min,  0.210 sec
     gradient                   ...        0 min,  0.296 sec
 * total energy  :  -188.2427277 Eh     change       -0.1199999E-03 Eh
   gradient norm :     0.0025590 Eh/α   predicted    -0.8142168E-04 ( -32.15%)
   displ. norm   :     0.5010750 α      lambda       -0.1435893E-03
   maximum displ.:     0.3363856 α      in ANC's #2, #3, #5, ...

........................................................................
.............................. CYCLE  144 ..............................
........................................................................

 iter      E             dE          RMSdq      gap      omega  full diag
   1   -191.2041689 -0.191204E+03  0.455E-02    1.97       0.0  T
   2   -191.2041706 -0.168836E-05  0.266E-02    1.96       1.0  T
   3   -191.2041647  0.596344E-05  0.722E-03    1.96       1.3  T
   4   -191.2041716 -0.689268E-05  0.107E-03    1.96       8.7  T
   5   -191.2041716 -0.413663E-07  0.600E-04    1.96      15.4  T
   6   -191.2041716 -0.121016E-07  0.310E-04    1.96      29.8  T
   7   -191.2041716 -0.358455E-08  0.114E-04    1.96      80.9  T
   8   -191.2041716 -0.484903E-09  0.548E-05    1.96     168.7  T
     SCC iter.                  ...        0 min,  0.277 sec
     gradient                   ...        0 min,  0.352 sec
 * total energy  :  -188.2428584 Eh     change       -0.1307401E-03 Eh
   gradient norm :     0.0029150 Eh/α   predicted    -0.8982280E-04 ( -31.30%)
   displ. norm   :     0.5443578 α      lambda       -0.1588842E-03
   maximum displ.:     0.3703636 α      in ANC's #2, #3, #5, ...

........................................................................
.............................. CYCLE  145 ..............................
........................................................................

 iter      E             dE          RMSdq      gap      omega  full diag
   1   -191.2038027 -0.191204E+03  0.498E-02    1.96       0.0  T
   2   -191.2038048 -0.210270E-05  0.292E-02    1.95       1.0  T
   3   -191.2037963  0.844383E-05  0.862E-03    1.95       1.1  T
   4   -191.2038060 -0.969480E-05  0.123E-03    1.95       7.5  T
   5   -191.2038061 -0.603446E-07  0.675E-04    1.95      13.7  T
   6   -191.2038061 -0.153136E-07  0.355E-04    1.95      26.1  T
   7   -191.2038061 -0.426004E-08  0.137E-04    1.95      67.4  T
   8   -191.2038061 -0.795467E-09  0.633E-05    1.95     146.0  T
     SCC iter.                  ...        0 min,  0.258 sec
     gradient                   ...        0 min,  0.328 sec
 * total energy  :  -188.2430031 Eh     change       -0.1447304E-03 Eh
   gradient norm :     0.0029514 Eh/α   predicted    -0.1029862E-03 ( -28.84%)
   displ. norm   :     0.5639016 α      lambda       -0.1626378E-03
   maximum displ.:     0.3853759 α      in ANC's #2, #3, #5, ...

........................................................................
.............................. CYCLE  146 ..............................
........................................................................

 iter      E             dE          RMSdq      gap      omega  full diag
   1   -191.2039790 -0.191204E+03  0.506E-02    1.95       0.0  T
   2   -191.2039813 -0.226593E-05  0.297E-02    1.94       1.0  T
   3   -191.2039727  0.862159E-05  0.874E-03    1.94       1.1  T
   4   -191.2039825 -0.984914E-05  0.131E-03    1.94       7.1  T
   5   -191.2039826 -0.811488E-07  0.683E-04    1.94      13.5  T
   6   -191.2039826 -0.138866E-07  0.368E-04    1.94      25.1  T
   7   -191.2039826 -0.477371E-08  0.147E-04    1.94      62.7  T
   8   -191.2039826 -0.884711E-09  0.699E-05    1.94     132.3  T
     SCC iter.                  ...        0 min,  0.246 sec
     gradient                   ...        0 min,  0.386 sec
 * total energy  :  -188.2431500 Eh     change       -0.1468809E-03 Eh
   gradient norm :     0.0028387 Eh/α   predicted    -0.1071788E-03 ( -27.03%)
   displ. norm   :     0.5699272 α      lambda       -0.1550382E-03
   maximum displ.:     0.3931119 α      in ANC's #2, #3, #5, ...

........................................................................
.............................. CYCLE  147 ..............................
........................................................................

 iter      E             dE          RMSdq      gap      omega  full diag
   1   -191.2036561 -0.191204E+03  0.507E-02    1.93       0.0  T
   2   -191.2036585 -0.240013E-05  0.298E-02    1.93       1.0  T
   3   -191.2036504  0.811319E-05  0.850E-03    1.93       1.1  T
   4   -191.2036597 -0.923702E-05  0.138E-03    1.93       6.7  T
   5   -191.2036598 -0.105889E-06  0.690E-04    1.93      13.4  T
   6   -191.2036598 -0.134788E-07  0.382E-04    1.93      24.2  T
   7   -191.2036598 -0.529968E-08  0.166E-04    1.93      55.7  T
   8   -191.2036598 -0.126616E-08  0.804E-05    1.93     115.0  T
     SCC iter.                  ...        0 min,  0.350 sec
     gradient                   ...        0 min,  0.419 sec
 * total energy  :  -188.2432898 Eh     change       -0.1397494E-03 Eh
   gradient norm :     0.0024497 Eh/α   predicted    -0.1027006E-03 ( -26.51%)
   displ. norm   :     0.5438914 α      lambda       -0.1394676E-03
   maximum displ.:     0.3777570 α      in ANC's #2, #3, #5, ...

........................................................................
.............................. CYCLE  148 ..............................
........................................................................

 iter      E             dE          RMSdq      gap      omega  full diag
   1   -191.2037276 -0.191204E+03  0.475E-02    1.92       0.0  T
   2   -191.2037298 -0.221403E-05  0.281E-02    1.91       1.0  T
   3   -191.2037240  0.577398E-05  0.716E-03    1.91       1.3  T
   4   -191.2037305 -0.653251E-05  0.142E-03    1.91       6.5  T
   5   -191.2037307 -0.139306E-06  0.679E-04    1.91      13.6  T
   6   -191.2037307 -0.141745E-07  0.388E-04    1.91      23.9  T
   7   -191.2037307 -0.668854E-08  0.173E-04    1.91      53.5  T
   8   -191.2037307 -0.149632E-08  0.822E-05    1.91     112.5  T
     SCC iter.                  ...        0 min,  0.304 sec
     gradient                   ...        0 min,  0.404 sec
 * total energy  :  -188.2434163 Eh     change       -0.1265806E-03 Eh
   gradient norm :     0.0021808 Eh/α   predicted    -0.9036476E-04 ( -28.61%)
   displ. norm   :     0.5219819 α      lambda       -0.1300939E-03
   maximum displ.:     0.3651871 α      in ANC's #2, #3, #5, ...

........................................................................
.............................. CYCLE  149 ..............................
........................................................................

 iter      E             dE          RMSdq      gap      omega  full diag
   1   -191.2034276 -0.191203E+03  0.458E-02    1.90       0.0  T
   2   -191.2034298 -0.223232E-05  0.271E-02    1.90       1.0  T
   3   -191.2034259  0.393435E-05  0.599E-03    1.90       1.5  T
   4   -191.2034303 -0.442228E-05  0.151E-03    1.90       6.1  T
   5   -191.2034305 -0.189382E-06  0.688E-04    1.90      13.4  T
   6   -191.2034305 -0.173543E-07  0.399E-04    1.90      23.1  T
   7   -191.2034305 -0.865836E-08  0.169E-04    1.90      54.6  T
   8   -191.2034305 -0.117709E-08  0.809E-05    1.90     114.3  T
     SCC iter.                  ...        0 min,  0.295 sec
     gradient                   ...        0 min,  0.336 sec
 * total energy  :  -188.2435361 Eh     change       -0.1197659E-03 Eh
   gradient norm :     0.0023361 Eh/α   predicted    -0.8277101E-04 ( -30.89%)
   displ. norm   :     0.5206900 α      lambda       -0.1335228E-03
   maximum displ.:     0.3661135 α      in ANC's #2, #3, #5, ...

........................................................................
.............................. CYCLE  150 ..............................
........................................................................

 iter      E             dE          RMSdq      gap      omega  full diag
   1   -191.2035979 -0.191204E+03  0.459E-02    1.89       0.0  T
   2   -191.2036004 -0.253585E-05  0.273E-02    1.88       1.0  T
   3   -191.2035974  0.303554E-05  0.529E-03    1.88       1.7  T
   4   -191.2036007 -0.329467E-05  0.177E-03    1.88       5.2  T
   5   -191.2036010 -0.325442E-06  0.752E-04    1.88      12.3  T
   6   -191.2036010 -0.266467E-07  0.423E-04    1.88      21.9  T
   7   -191.2036010 -0.100359E-07  0.168E-04    1.88      55.2  T
   8   -191.2036010 -0.753460E-09  0.798E-05    1.88     115.8  T
     SCC iter.                  ...        0 min,  0.332 sec
     gradient                   ...        0 min,  0.415 sec
 * total energy  :  -188.2436605 Eh     change       -0.1243836E-03 Eh
   gradient norm :     0.0026789 Eh/α   predicted    -0.8486407E-04 ( -31.77%)
   displ. norm   :     0.5659299 α      lambda       -0.1511115E-03
   maximum displ.:     0.3999881 α      in ANC's #2, #3, #1, ...
 * RMSD in coord.:     0.9266738 α      energy gain  -0.3088516E-02 Eh

generating ANC from exact Hessian ...
Using Lindh-Hessian (1995)
 Shifting diagonal of input Hessian by    1.0099761235761600E-002
 Lowest  eigenvalues of input Hessian
    0.010000    0.000000    0.000000    0.000000    0.000000    0.000000
    0.000000    0.010186    0.010232    0.010299    0.010389    0.010470
    0.010493    0.010688    0.010838    0.010875    0.011012    0.011142
 Highest eigenvalues
    2.152753    2.186201    2.330207    2.333921    2.411842    3.141350


........................................................................
.............................. CYCLE  151 ..............................
........................................................................

 iter      E             dE          RMSdq      gap      omega  full diag
   1   -191.2030513 -0.191203E+03  0.508E-02    1.87       0.0  T
   2   -191.2030551 -0.379781E-05  0.303E-02    1.87       1.0  T
   3   -191.2030514  0.372613E-05  0.589E-03    1.87       1.6  T
   4   -191.2030554 -0.396593E-05  0.219E-03    1.86       4.2  T
   5   -191.2030559 -0.530168E-06  0.882E-04    1.86      10.5  T
   6   -191.2030559 -0.377756E-07  0.501E-04    1.87      18.5  T
   7   -191.2030560 -0.152124E-07  0.195E-04    1.87      47.4  T
   8   -191.2030560 -0.827072E-09  0.870E-05    1.87     106.3  T
     SCC iter.                  ...        0 min,  0.270 sec
     gradient                   ...        0 min,  0.407 sec
 * total energy  :  -188.2438014 Eh     change       -0.1409414E-03 Eh
   gradient norm :     0.0029987 Eh/α   predicted     0.0000000E+00 (-100.00%)
   displ. norm   :     0.0432657 α      lambda       -0.2629501E-04
   maximum displ.:     0.0271763 α      in ANC's #2, #5, #16, ...

........................................................................
.............................. CYCLE  152 ..............................
........................................................................

 iter      E             dE          RMSdq      gap      omega  full diag
   1   -191.2041718 -0.191204E+03  0.642E-03    1.87       0.0  T
   2   -191.2041719 -0.159126E-06  0.381E-03    1.87       2.4  T
   3   -191.2041717  0.251057E-06  0.168E-03    1.87       5.5  T
   4   -191.2041720 -0.302400E-06  0.374E-04    1.87      24.7  T
   5   -191.2041720 -0.108541E-07  0.141E-04    1.87      65.4  T
   6   -191.2041720 -0.575284E-09  0.731E-05    1.87     126.5  T
     SCC iter.                  ...        0 min,  0.263 sec
     gradient                   ...        0 min,  0.351 sec
 * total energy  :  -188.2438314 Eh     change       -0.2992067E-04 Eh
   gradient norm :     0.0021633 Eh/α   predicted    -0.1670350E-04 ( -44.17%)
   displ. norm   :     0.1851467 α      lambda       -0.1121532E-03
   maximum displ.:     0.1094471 α      in ANC's #2, #5, #16, ...

........................................................................
.............................. CYCLE  153 ..............................
........................................................................

 iter      E             dE          RMSdq      gap      omega  full diag
   1   -191.2061450 -0.191206E+03  0.255E-02    1.87       0.0  T
   2   -191.2061475 -0.254748E-05  0.152E-02    1.86       1.0  T
   3   -191.2061436  0.387339E-05  0.657E-03    1.86       1.4  T
   4   -191.2061483 -0.462200E-05  0.152E-03    1.86       6.1  T
   5   -191.2061484 -0.179160E-06  0.565E-04    1.86      16.4  T
   6   -191.2061485 -0.876346E-08  0.301E-04    1.86      30.7  T
   7   -191.2061485 -0.258353E-08  0.143E-04    1.86      64.5  T
   8   -191.2061485 -0.115523E-08  0.698E-05    1.86     132.5  T
     SCC iter.                  ...        0 min,  0.226 sec
     gradient                   ...        0 min,  0.247 sec
 * total energy  :  -188.2439122 Eh     change       -0.8083142E-04 Eh
   gradient norm :     0.0026405 Eh/α   predicted    -0.5800131E-04 ( -28.24%)
   displ. norm   :     0.1842864 α      lambda       -0.6767488E-04
   maximum displ.:     0.1137485 α      in ANC's #2, #5, #16, ...

........................................................................
.............................. CYCLE  154 ..............................
........................................................................

 iter      E             dE          RMSdq      gap      omega  full diag
   1   -191.2061314 -0.191206E+03  0.225E-02    1.86       0.0  T
   2   -191.2061339 -0.249847E-05  0.135E-02    1.86       1.0  T
   3   -191.2061314  0.252688E-05  0.558E-03    1.86       1.7  T
   4   -191.2061344 -0.300290E-05  0.160E-03    1.86       5.8  T
   5   -191.2061346 -0.216241E-06  0.557E-04    1.86      16.6  T
   6   -191.2061346 -0.645079E-08  0.325E-04    1.86      28.4  T
   7   -191.2061346 -0.513049E-08  0.161E-04    1.86      57.3  T
   8   -191.2061346 -0.130333E-08  0.796E-05    1.86     116.2  T
     SCC iter.                  ...        0 min,  0.189 sec
     gradient                   ...        0 min,  0.234 sec
 * total energy  :  -188.2439655 Eh     change       -0.5327264E-04 Eh
   gradient norm :     0.0040918 Eh/α   predicted    -0.3503204E-04 ( -34.24%)
   displ. norm   :     0.2075294 α      lambda       -0.7275278E-04
   maximum displ.:     0.1319139 α      in ANC's #2, #5, #16, ...

........................................................................
.............................. CYCLE  155 ..............................
........................................................................

 iter      E             dE          RMSdq      gap      omega  full diag
   1   -191.2051787 -0.191205E+03  0.236E-02    1.85       0.0  T
   2   -191.2051828 -0.407291E-05  0.145E-02    1.85       1.0  T
   3   -191.2051807  0.215055E-05  0.583E-03    1.85       1.6  T
   4   -191.2051832 -0.250385E-05  0.218E-03    1.84       4.2  T
   5   -191.2051836 -0.462979E-06  0.709E-04    1.84      13.0  T
   6   -191.2051836 -0.913718E-08  0.438E-04    1.84      21.1  T
   7   -191.2051836 -0.130519E-07  0.204E-04    1.84      45.4  T
   8   -191.2051836 -0.132397E-08  0.101E-04    1.84      91.4  T
   9   -191.2051836 -0.600380E-09  0.408E-05    1.84     226.5  T
     SCC iter.                  ...        0 min,  0.228 sec
     gradient                   ...        0 min,  0.285 sec
 * total energy  :  -188.2440295 Eh     change       -0.6408309E-04 Eh
   gradient norm :     0.0048449 Eh/α   predicted    -0.3794353E-04 ( -40.79%)
   displ. norm   :     0.3403063 α      lambda       -0.1343004E-03
   maximum displ.:     0.2212313 α      in ANC's #2, #5, #16, ...

........................................................................
.............................. CYCLE  156 ..............................
........................................................................

 iter      E             dE          RMSdq      gap      omega  full diag
   1   -191.2030169 -0.191203E+03  0.383E-02    1.83       0.0  T
   2   -191.2030328 -0.158985E-04  0.242E-02    1.82       1.0  T
   3   -191.2030290  0.384473E-05  0.973E-03    1.82       1.0  T
   4   -191.2030333 -0.427081E-05  0.435E-03    1.81       2.1  T
   5   -191.2030353 -0.203013E-05  0.141E-03    1.82       6.6  T
   6   -191.2030353 -0.551484E-07  0.843E-04    1.82      11.0  T
   7   -191.2030354 -0.504044E-07  0.383E-04    1.82      24.1  T
   8   -191.2030354 -0.343744E-08  0.190E-04    1.82      48.6  T
   9   -191.2030354 -0.215962E-08  0.791E-05    1.82     116.9  T
     SCC iter.                  ...        0 min,  0.245 sec
     gradient                   ...        0 min,  0.257 sec
 * total energy  :  -188.2441532 Eh     change       -0.1236181E-03 Eh
   gradient norm :     0.0057413 Eh/α   predicted    -0.7494465E-04 ( -39.37%)
   displ. norm   :     0.6158630 α      lambda       -0.2731501E-03
   maximum displ.:     0.4101176 α      in ANC's #2, #5, #16, ...

........................................................................
.............................. CYCLE  157 ..............................
........................................................................

 iter      E             dE          RMSdq      gap      omega  full diag
   1   -191.1986276 -0.191199E+03  0.720E-02    1.79       0.0  T
   2   -191.1987034 -0.757747E-04  0.469E-02    1.75       1.0  T
   3   -191.1986946  0.876922E-05  0.194E-02    1.75       1.0  T
   4   -191.1987038 -0.918741E-05  0.925E-03    1.75       1.0  T
   5   -191.1987134 -0.962223E-05  0.307E-03    1.75       3.0  T
   6   -191.1987138 -0.337174E-06  0.175E-03    1.75       5.3  T
   7   -191.1987140 -0.216110E-06  0.799E-04    1.75      11.6  T
   8   -191.1987140 -0.140346E-07  0.393E-04    1.75      23.5  T
   9   -191.1987140 -0.886214E-08  0.169E-04    1.75      54.7  T
  10   -191.1987140 -0.144092E-08  0.728E-05    1.75     127.0  T
     SCC iter.                  ...        0 min,  0.234 sec
     gradient                   ...        0 min,  0.251 sec
 * total energy  :  -188.2444288 Eh     change       -0.2756515E-03 Eh
   gradient norm :     0.0093269 Eh/α   predicted    -0.1885652E-03 ( -31.59%)
   displ. norm   :     0.5673833 α      lambda       -0.3028929E-03
   maximum displ.:     0.3831218 α      in ANC's #2, #5, #16, ...

........................................................................
.............................. CYCLE  158 ..............................
........................................................................

 iter      E             dE          RMSdq      gap      omega  full diag
   1   -191.1949304 -0.191195E+03  0.681E-02    1.73       0.0  T
   2   -191.1950106 -0.801929E-04  0.452E-02    1.69       1.0  T
   3   -191.1950047  0.587233E-05  0.194E-02    1.69       1.0  T
   4   -191.1950110 -0.628901E-05  0.928E-03    1.68       1.0  T
   5   -191.1950208 -0.979613E-05  0.310E-03    1.68       3.0  T
   6   -191.1950212 -0.359213E-06  0.175E-03    1.68       5.3  T
   7   -191.1950214 -0.215412E-06  0.801E-04    1.68      11.5  T
   8   -191.1950214 -0.146313E-07  0.392E-04    1.68      23.6  T
   9   -191.1950214 -0.859077E-08  0.170E-04    1.68      54.3  T
  10   -191.1950214 -0.149066E-08  0.741E-05    1.68     124.7  T
     SCC iter.                  ...        0 min,  0.209 sec
     gradient                   ...        0 min,  0.231 sec
 * total energy  :  -188.2447561 Eh     change       -0.3272892E-03 Eh
   gradient norm :     0.0140944 Eh/α   predicted    -0.2002042E-03 ( -38.83%)
   displ. norm   :     0.4710700 α      lambda       -0.3946097E-03
   maximum displ.:     0.3259722 α      in ANC's #2, #5, #16, ...

........................................................................
.............................. CYCLE  159 ..............................
........................................................................

 iter      E             dE          RMSdq      gap      omega  full diag
   1   -191.1933207 -0.191193E+03  0.591E-02    1.66       0.0  T
   2   -191.1933910 -0.702780E-04  0.400E-02    1.62       1.0  T
   3   -191.1933882  0.278811E-05  0.176E-02    1.62       1.0  T
   4   -191.1933911 -0.286830E-05  0.853E-03    1.62       1.1  T
   5   -191.1933996 -0.851529E-05  0.290E-03    1.62       3.2  T
   6   -191.1933999 -0.346341E-06  0.160E-03    1.62       5.8  T
   7   -191.1934001 -0.179097E-06  0.733E-04    1.62      12.6  T
   8   -191.1934001 -0.115837E-07  0.359E-04    1.62      25.8  T
   9   -191.1934001 -0.711253E-08  0.159E-04    1.62      58.2  T
  10   -191.1934001 -0.135537E-08  0.690E-05    1.62     133.9  T
     SCC iter.                  ...        0 min,  0.223 sec
     gradient                   ...        0 min,  0.237 sec
 * total energy  :  -188.2451809 Eh     change       -0.4247957E-03 Eh
   gradient norm :     0.0177138 Eh/α   predicted    -0.2410898E-03 ( -43.25%)
   displ. norm   :     0.4040702 α      lambda       -0.4974243E-03
   maximum displ.:     0.2855576 α      in ANC's #2, #5, #16, ...

........................................................................
.............................. CYCLE  160 ..............................
........................................................................

 iter      E             dE          RMSdq      gap      omega  full diag
   1   -191.1930096 -0.191193E+03  0.534E-02    1.60       0.0  T
   2   -191.1930717 -0.621011E-04  0.365E-02    1.56       1.0  T
   3   -191.1930702  0.146508E-05  0.162E-02    1.56       1.0  T
   4   -191.1930718 -0.155072E-05  0.789E-03    1.56       1.2  T
   5   -191.1930792 -0.738899E-05  0.274E-03    1.56       3.4  T
   6   -191.1930795 -0.325263E-06  0.149E-03    1.56       6.2  T
   7   -191.1930796 -0.153621E-06  0.683E-04    1.56      13.5  T
   8   -191.1930797 -0.996457E-08  0.332E-04    1.56      27.8  T
   9   -191.1930797 -0.597146E-08  0.149E-04    1.56      62.0  T
  10   -191.1930797 -0.122432E-08  0.651E-05    1.56     142.1  T
     SCC iter.                  ...        0 min,  0.244 sec
     gradient                   ...        0 min,  0.308 sec
 * total energy  :  -188.2457011 Eh     change       -0.5202256E-03 Eh
   gradient norm :     0.0201589 Eh/α   predicted    -0.2893229E-03 ( -44.39%)
   displ. norm   :     0.3434678 α      lambda       -0.5708773E-03
   maximum displ.:     0.2476452 α      in ANC's #2, #5, #9, ...

........................................................................
.............................. CYCLE  161 ..............................
........................................................................

 iter      E             dE          RMSdq      gap      omega  full diag
   1   -191.1936981 -0.191194E+03  0.478E-02    1.54       0.0  T
   2   -191.1937490 -0.508678E-04  0.329E-02    1.51       1.0  T
   3   -191.1937480  0.957840E-06  0.145E-02    1.51       1.0  T
   4   -191.1937491 -0.111416E-05  0.705E-03    1.50       1.3  T
   5   -191.1937550 -0.593182E-05  0.250E-03    1.50       3.7  T
   6   -191.1937553 -0.281887E-06  0.135E-03    1.50       6.8  T
   7   -191.1937555 -0.124143E-06  0.618E-04    1.50      15.0  T
   8   -191.1937555 -0.826694E-08  0.298E-04    1.50      31.0  T
   9   -191.1937555 -0.465818E-08  0.135E-04    1.50      68.5  T
  10   -191.1937555 -0.101383E-08  0.595E-05    1.50     155.4  T
     SCC iter.                  ...        0 min,  0.245 sec
     gradient                   ...        0 min,  0.312 sec
 * total energy  :  -188.2462778 Eh     change       -0.5766956E-03 Eh
   gradient norm :     0.0212735 Eh/α   predicted    -0.3191152E-03 ( -44.66%)
   displ. norm   :     0.2672223 α      lambda       -0.5858464E-03
   maximum displ.:     0.1972952 α      in ANC's #2, #5, #3, ...

........................................................................
.............................. CYCLE  162 ..............................
........................................................................

 iter      E             dE          RMSdq      gap      omega  full diag
   1   -191.1954899 -0.191195E+03  0.397E-02    1.49       0.0  T
   2   -191.1955242 -0.343131E-04  0.273E-02    1.46       1.0  T
   3   -191.1955235  0.741540E-06  0.117E-02    1.46       1.0  T
   4   -191.1955244 -0.919274E-06  0.572E-03    1.46       1.6  T
   5   -191.1955283 -0.392681E-05  0.208E-03    1.46       4.4  T
   6   -191.1955285 -0.202161E-06  0.111E-03    1.46       8.3  T
   7   -191.1955286 -0.818710E-07  0.511E-04    1.46      18.1  T
   8   -191.1955286 -0.587428E-08  0.244E-04    1.46      37.8  T
   9   -191.1955286 -0.301972E-08  0.111E-04    1.46      83.0  T
  10   -191.1955286 -0.676636E-09  0.500E-05    1.46     184.9  T
     SCC iter.                  ...        0 min,  0.286 sec
     gradient                   ...        0 min,  0.288 sec
 * total energy  :  -188.2468567 Eh     change       -0.5788418E-03 Eh
   gradient norm :     0.0210499 Eh/α   predicted    -0.3138429E-03 ( -45.78%)
   displ. norm   :     0.7343267 α      lambda       -0.5450404E-02
   maximum displ.:     0.3546109 α      in ANC's #2, #34, #28, ...

........................................................................
.............................. CYCLE  163 ..............................
........................................................................

 iter      E             dE          RMSdq      gap      omega  full diag
   1   -191.2537551 -0.191254E+03  0.206E-01    1.34       0.0  T
   2   -191.2545342 -0.779090E-03  0.139E-01    1.20       1.0  T
   3   -191.2544547  0.794144E-04  0.636E-02    1.20       1.0  T
   4   -191.2545894 -0.134693E-03  0.286E-02    1.19       1.0  T
   5   -191.2546698 -0.803417E-04  0.963E-03    1.19       1.0  T
   6   -191.2546733 -0.357519E-05  0.482E-03    1.19       1.9  T
   7   -191.2546742 -0.804280E-06  0.270E-03    1.19       3.4  T
   8   -191.2546745 -0.367991E-06  0.125E-03    1.19       7.4  T
   9   -191.2546746 -0.718332E-07  0.540E-04    1.19      17.1  T
  10   -191.2546746 -0.131856E-07  0.264E-04    1.19      35.0  T
  11   -191.2546746 -0.305576E-08  0.111E-04    1.19      82.9  T
  12   -191.2546746 -0.274383E-09  0.600E-05    1.19     154.0  T
     SCC iter.                  ...        0 min,  0.300 sec
     gradient                   ...        0 min,  0.274 sec
 * total energy  :  -188.2482607 Eh     change       -0.1404005E-02 Eh
   gradient norm :     0.0463188 Eh/α   predicted    -0.4194765E-02 ( 198.77%)
   displ. norm   :     0.3365769 α      lambda       -0.3369450E-02
   maximum displ.:     0.1824420 α      in ANC's #2, #30, #5, ...

........................................................................
.............................. CYCLE  164 ..............................
........................................................................

 iter      E             dE          RMSdq      gap      omega  full diag
   1   -191.2320886 -0.191232E+03  0.658E-02    1.19       0.0  T
   2   -191.2321444 -0.557746E-04  0.398E-02    1.18       1.0  T
   3   -191.2321331  0.113008E-04  0.201E-02    1.17       1.0  T
   4   -191.2321536 -0.205272E-04  0.685E-03    1.17       1.3  T
   5   -191.2321576 -0.398752E-05  0.220E-03    1.17       4.2  T
   6   -191.2321578 -0.159315E-06  0.107E-03    1.17       8.7  T
   7   -191.2321578 -0.428190E-08  0.559E-04    1.17      16.5  T
   8   -191.2321578 -0.215050E-07  0.222E-04    1.17      41.7  T
   9   -191.2321578 -0.275330E-08  0.862E-05    1.17     107.3  T
  10   -191.2321578 -0.511847E-09  0.466E-05    1.17     198.2  T
     SCC iter.                  ...        0 min,  0.249 sec
     gradient                   ...        0 min,  0.260 sec
 * total energy  :  -188.2503102 Eh     change       -0.2049503E-02 Eh
   gradient norm :     0.0162592 Eh/α   predicted    -0.1875576E-02 (  -8.49%)
   displ. norm   :     0.3375807 α      lambda       -0.1458904E-02
   maximum displ.:     0.1294316 α      in ANC's #2, #5, #34, ...

........................................................................
.............................. CYCLE  165 ..............................
........................................................................

 iter      E             dE          RMSdq      gap      omega  full diag
   1   -191.2118318 -0.191212E+03  0.481E-02    1.18       0.0  T
   2   -191.2118597 -0.278923E-04  0.299E-02    1.21       1.0  T
   3   -191.2118486  0.110897E-04  0.148E-02    1.21       1.0  T
   4   -191.2118639 -0.152445E-04  0.552E-03    1.21       1.7  T
   5   -191.2118671 -0.316925E-05  0.189E-03    1.21       4.9  T
   6   -191.2118672 -0.174170E-06  0.911E-04    1.21      10.1  T
   7   -191.2118672 -0.175223E-07  0.552E-04    1.21      16.8  T
   8   -191.2118673 -0.211321E-07  0.210E-04    1.21      44.1  T
   9   -191.2118673 -0.172065E-08  0.936E-05    1.21      98.8  T
  10   -191.2118673 -0.399751E-09  0.483E-05    1.21     191.3  T
     SCC iter.                  ...        0 min,  0.233 sec
     gradient                   ...        0 min,  0.239 sec
 * total energy  :  -188.2508146 Eh     change       -0.5044100E-03 Eh
   gradient norm :     0.0148038 Eh/α   predicted    -0.8125930E-03 (  61.10%)
   displ. norm   :     0.3725206 α      lambda       -0.1129726E-02
   maximum displ.:     0.1689830 α      in ANC's #2, #34, #27, ...

........................................................................
.............................. CYCLE  166 ..............................
........................................................................

 iter      E             dE          RMSdq      gap      omega  full diag
   1   -191.2110206 -0.191211E+03  0.695E-02    1.17       0.0  T
   2   -191.2110689 -0.482413E-04  0.438E-02    1.14       1.0  T
   3   -191.2110588  0.101053E-04  0.145E-02    1.14       1.0  T
   4   -191.2110710 -0.122650E-04  0.632E-03    1.13       1.5  T
   5   -191.2110757 -0.465926E-05  0.264E-03    1.14       3.5  T
   6   -191.2110760 -0.347192E-06  0.126E-03    1.14       7.3  T
   7   -191.2110761 -0.815125E-07  0.630E-04    1.14      14.7  T
   8   -191.2110761 -0.108475E-07  0.296E-04    1.14      31.2  T
   9   -191.2110761 -0.581494E-08  0.132E-04    1.14      69.9  T
  10   -191.2110761 -0.825082E-09  0.652E-05    1.14     141.9  T
     SCC iter.                  ...        0 min,  0.244 sec
     gradient                   ...        0 min,  0.282 sec
 * total energy  :  -188.2516506 Eh     change       -0.8360222E-03 Eh
   gradient norm :     0.0085042 Eh/α   predicted    -0.6432506E-03 ( -23.06%)
   displ. norm   :     0.4941366 α      lambda       -0.9016431E-03
   maximum displ.:     0.1747920 α      in ANC's #34, #12, #16, ...

........................................................................
.............................. CYCLE  167 ..............................
........................................................................

 iter      E             dE          RMSdq      gap      omega  full diag
   1   -191.2166346 -0.191217E+03  0.744E-02    1.10       0.0  T
   2   -191.2166597 -0.250646E-04  0.449E-02    1.08       1.0  T
   3   -191.2166315  0.282294E-04  0.176E-02    1.08       1.0  T
   4   -191.2166653 -0.337983E-04  0.471E-03    1.08       2.0  T
   5   -191.2166672 -0.191628E-05  0.189E-03    1.08       4.9  T
   6   -191.2166673 -0.144615E-06  0.928E-04    1.08      10.0  T
   7   -191.2166673 -0.321666E-07  0.442E-04    1.08      20.9  T
   8   -191.2166674 -0.757296E-08  0.215E-04    1.08      43.0  T
   9   -191.2166674 -0.286784E-08  0.100E-04    1.08      92.4  T
  10   -191.2166674 -0.480100E-09  0.499E-05    1.08     185.2  T
     SCC iter.                  ...        0 min,  0.244 sec
     gradient                   ...        0 min,  0.280 sec
 * total energy  :  -188.2522929 Eh     change       -0.6423036E-03 Eh
   gradient norm :     0.0066089 Eh/α   predicted    -0.5609010E-03 ( -12.67%)
   displ. norm   :     0.4980862 α      lambda       -0.5661197E-03
   maximum displ.:     0.1814247 α      in ANC's #12, #16, #34, ...

........................................................................
.............................. CYCLE  168 ..............................
........................................................................

 iter      E             dE          RMSdq      gap      omega  full diag
   1   -191.2164007 -0.191216E+03  0.681E-02    1.06       0.0  T
   2   -191.2164090 -0.837034E-05  0.402E-02    1.06       1.0  T
   3   -191.2163849  0.241230E-04  0.150E-02    1.05       1.0  T
   4   -191.2164130 -0.281048E-04  0.272E-03    1.06       3.4  T
   5   -191.2164135 -0.517178E-06  0.129E-03    1.06       7.2  T
   6   -191.2164136 -0.675677E-07  0.744E-04    1.06      12.4  T
   7   -191.2164136 -0.275536E-07  0.336E-04    1.06      27.5  T
   8   -191.2164136 -0.728900E-08  0.145E-04    1.06      63.8  T
   9   -191.2164136 -0.113920E-08  0.596E-05    1.06     155.0  T
     SCC iter.                  ...        0 min,  0.200 sec
     gradient                   ...        0 min,  0.314 sec
 * total energy  :  -188.2527175 Eh     change       -0.4245493E-03 Eh
   gradient norm :     0.0047145 Eh/α   predicted    -0.3532860E-03 ( -16.79%)
   displ. norm   :     0.4421921 α      lambda       -0.3593636E-03
   maximum displ.:     0.1808993 α      in ANC's #12, #16, #9, ...

........................................................................
.............................. CYCLE  169 ..............................
........................................................................

 iter      E             dE          RMSdq      gap      omega  full diag
   1   -191.2178918 -0.191218E+03  0.658E-02    1.04       0.0  T
   2   -191.2178980 -0.622278E-05  0.386E-02    1.04       1.0  T
   3   -191.2178794  0.185976E-04  0.132E-02    1.04       1.0  T
   4   -191.2179011 -0.216777E-04  0.223E-03    1.04       4.1  T
   5   -191.2179014 -0.317418E-06  0.107E-03    1.04       8.6  T
   6   -191.2179015 -0.361916E-07  0.612E-04    1.04      15.1  T
   7   -191.2179015 -0.140576E-07  0.273E-04    1.04      33.9  T
   8   -191.2179015 -0.514910E-08  0.118E-04    1.04      78.2  T
   9   -191.2179015 -0.855323E-09  0.512E-05    1.04     180.4  T
     SCC iter.                  ...        0 min,  0.328 sec
     gradient                   ...        0 min,  0.340 sec
 * total energy  :  -188.2529815 Eh     change       -0.2640513E-03 Eh
   gradient norm :     0.0038245 Eh/α   predicted    -0.2148167E-03 ( -18.65%)
   displ. norm   :     0.3554783 α      lambda       -0.2430461E-03
   maximum displ.:     0.1538904 α      in ANC's #12, #21, #14, ...

........................................................................
.............................. CYCLE  170 ..............................
........................................................................

 iter      E             dE          RMSdq      gap      omega  full diag
   1   -191.2193464 -0.191219E+03  0.592E-02    1.02       0.0  T
   2   -191.2193498 -0.344647E-05  0.345E-02    1.02       1.0  T
   3   -191.2193379  0.119496E-04  0.104E-02    1.03       1.0  T
   4   -191.2193517 -0.138499E-04  0.160E-03    1.03       5.8  T
   5   -191.2193519 -0.155405E-06  0.778E-04    1.03      11.9  T
   6   -191.2193519 -0.143630E-07  0.405E-04    1.03      22.8  T
   7   -191.2193519 -0.467139E-08  0.161E-04    1.03      57.6  T
   8   -191.2193519 -0.147026E-08  0.730E-05    1.03     126.6  T
     SCC iter.                  ...        0 min,  0.337 sec
     gradient                   ...        0 min,  0.394 sec
 * total energy  :  -188.2531706 Eh     change       -0.1891100E-03 Eh
   gradient norm :     0.0039912 Eh/α   predicted    -0.1368865E-03 ( -27.62%)
   displ. norm   :     0.3775816 α      lambda       -0.2550564E-03
   maximum displ.:     0.1582542 α      in ANC's #12, #21, #14, ...

........................................................................
.............................. CYCLE  171 ..............................
........................................................................

 iter      E             dE          RMSdq      gap      omega  full diag
   1   -191.2201891 -0.191220E+03  0.678E-02    1.01       0.0  T
   2   -191.2201929 -0.378771E-05  0.396E-02    1.02       1.0  T
   3   -191.2201793  0.136246E-04  0.109E-02    1.02       1.0  T
   4   -191.2201948 -0.155898E-04  0.173E-03    1.02       5.3  T
   5   -191.2201951 -0.240047E-06  0.742E-04    1.02      12.5  T
   6   -191.2201951 -0.102237E-07  0.388E-04    1.02      23.8  T
   7   -191.2201951 -0.606599E-08  0.181E-04    1.02      51.1  T
   8   -191.2201951 -0.191227E-08  0.834E-05    1.02     110.9  T
     SCC iter.                  ...        0 min,  0.226 sec
     gradient                   ...        0 min,  0.264 sec
 * total energy  :  -188.2533690 Eh     change       -0.1984180E-03 Eh
   gradient norm :     0.0044560 Eh/α   predicted    -0.1457107E-03 ( -26.56%)
   displ. norm   :     0.4037629 α      lambda       -0.2392642E-03
   maximum displ.:     0.1549796 α      in ANC's #12, #21, #14, ...

........................................................................
.............................. CYCLE  172 ..............................
........................................................................

 iter      E             dE          RMSdq      gap      omega  full diag
   1   -191.2193019 -0.191219E+03  0.732E-02    1.01       0.0  T
   2   -191.2193057 -0.384773E-05  0.429E-02    1.01       1.0  T
   3   -191.2192945  0.112885E-04  0.992E-03    1.01       1.0  T
   4   -191.2193071 -0.126964E-04  0.193E-03    1.01       4.8  T
   5   -191.2193075 -0.372996E-06  0.724E-04    1.01      12.8  T
   6   -191.2193075 -0.144607E-07  0.418E-04    1.01      22.1  T
   7   -191.2193075 -0.895935E-08  0.197E-04    1.01      46.9  T
   8   -191.2193075 -0.247360E-08  0.804E-05    1.01     115.0  T
     SCC iter.                  ...        0 min,  0.222 sec
     gradient                   ...        0 min,  0.263 sec
 * total energy  :  -188.2535475 Eh     change       -0.1785150E-03 Eh
   gradient norm :     0.0046325 Eh/α   predicted    -0.1391361E-03 ( -22.06%)
   displ. norm   :     0.3451257 α      lambda       -0.1770587E-03
   maximum displ.:     0.1154922 α      in ANC's #12, #10, #21, ...

........................................................................
.............................. CYCLE  173 ..............................
........................................................................

 iter      E             dE          RMSdq      gap      omega  full diag
   1   -191.2186156 -0.191219E+03  0.608E-02    1.00       0.0  T
   2   -191.2186181 -0.256253E-05  0.356E-02    1.01       1.0  T
   3   -191.2186126  0.557547E-05  0.697E-03    1.01       1.3  T
   4   -191.2186187 -0.611351E-05  0.175E-03    1.01       5.3  T
   5   -191.2186190 -0.356765E-06  0.597E-04    1.01      15.5  T
   6   -191.2186191 -0.160681E-07  0.340E-04    1.01      27.2  T
   7   -191.2186191 -0.555130E-08  0.150E-04    1.01      61.6  T
   8   -191.2186191 -0.132357E-08  0.595E-05    1.01     155.3  T
     SCC iter.                  ...        0 min,  0.236 sec
     gradient                   ...        0 min,  0.305 sec
 * total energy  :  -188.2536788 Eh     change       -0.1312735E-03 Eh
   gradient norm :     0.0045402 Eh/α   predicted    -0.9908189E-04 ( -24.52%)
   displ. norm   :     0.3001931 α      lambda       -0.1434689E-03
   maximum displ.:     0.1109099 α      in ANC's #2, #3, #12, ...

........................................................................
.............................. CYCLE  174 ..............................
........................................................................

 iter      E             dE          RMSdq      gap      omega  full diag
   1   -191.2179066 -0.191218E+03  0.510E-02    1.00       0.0  T
   2   -191.2179083 -0.164864E-05  0.299E-02    1.00       1.0  T
   3   -191.2179027  0.556783E-05  0.652E-03    1.00       1.4  T
   4   -191.2179089 -0.617473E-05  0.136E-03    1.00       6.8  T
   5   -191.2179091 -0.186062E-06  0.571E-04    1.00      16.2  T
   6   -191.2179091 -0.162070E-07  0.305E-04    1.00      30.3  T
   7   -191.2179091 -0.253041E-08  0.131E-04    1.00      70.6  T
   8   -191.2179091 -0.132218E-08  0.499E-05    1.00     185.4  T
     SCC iter.                  ...        0 min,  0.231 sec
     gradient                   ...        0 min,  0.305 sec
 * total energy  :  -188.2537874 Eh     change       -0.1085450E-03 Eh
   gradient norm :     0.0041149 Eh/α   predicted    -0.7820633E-04 ( -27.95%)
   displ. norm   :     0.2919606 α      lambda       -0.1353860E-03
   maximum displ.:     0.1324094 α      in ANC's #2, #3, #10, ...

........................................................................
.............................. CYCLE  175 ..............................
........................................................................

 iter      E             dE          RMSdq      gap      omega  full diag
   1   -191.2181071 -0.191218E+03  0.475E-02    0.99       0.0  T
   2   -191.2181091 -0.194017E-05  0.278E-02    1.00       1.0  T
   3   -191.2180977  0.113368E-04  0.932E-03    1.00       1.0  T
   4   -191.2181105 -0.128038E-04  0.140E-03    1.00       6.6  T
   5   -191.2181107 -0.133127E-06  0.693E-04    1.00      13.3  T
   6   -191.2181107 -0.183981E-07  0.378E-04    1.00      24.5  T
   7   -191.2181107 -0.342177E-08  0.173E-04    1.00      53.4  T
   8   -191.2181107 -0.234297E-08  0.676E-05    1.00     136.8  T
     SCC iter.                  ...        0 min,  0.259 sec
     gradient                   ...        0 min,  0.317 sec
 * total energy  :  -188.2538886 Eh     change       -0.1012287E-03 Eh
   gradient norm :     0.0040923 Eh/α   predicted    -0.7346441E-04 ( -27.43%)
   displ. norm   :     0.3019321 α      lambda       -0.1172773E-03
   maximum displ.:     0.1446792 α      in ANC's #2, #3, #10, ...

........................................................................
.............................. CYCLE  176 ..............................
........................................................................

 iter      E             dE          RMSdq      gap      omega  full diag
   1   -191.2176400 -0.191218E+03  0.461E-02    0.99       0.0  T
   2   -191.2176430 -0.300857E-05  0.272E-02    0.99       1.0  T
   3   -191.2176273  0.156650E-04  0.116E-02    0.99       1.0  T
   4   -191.2176453 -0.180146E-04  0.175E-03    0.99       5.3  T
   5   -191.2176456 -0.227421E-06  0.760E-04    0.99      12.2  T
   6   -191.2176456 -0.160759E-07  0.440E-04    0.99      21.0  T
   7   -191.2176456 -0.563315E-08  0.199E-04    0.99      46.3  T
   8   -191.2176456 -0.254471E-08  0.827E-05    0.99     111.7  T
     SCC iter.                  ...        0 min,  0.275 sec
     gradient                   ...        0 min,  0.343 sec
 * total energy  :  -188.2539776 Eh     change       -0.8902068E-04 Eh
   gradient norm :     0.0041200 Eh/α   predicted    -0.6398959E-04 ( -28.12%)
   displ. norm   :     0.3043572 α      lambda       -0.1126007E-03
   maximum displ.:     0.1606658 α      in ANC's #2, #3, #5, ...

........................................................................
.............................. CYCLE  177 ..............................
........................................................................

 iter      E             dE          RMSdq      gap      omega  full diag
   1   -191.2189693 -0.191219E+03  0.424E-02    0.98       0.0  T
   2   -191.2189725 -0.322276E-05  0.253E-02    0.99       1.0  T
   3   -191.2189566  0.158695E-04  0.123E-02    0.99       1.0  T
   4   -191.2189753 -0.187339E-04  0.181E-03    0.99       5.1  T
   5   -191.2189756 -0.230634E-06  0.793E-04    0.99      11.7  T
   6   -191.2189756 -0.122181E-07  0.505E-04    0.99      18.3  T
   7   -191.2189756 -0.100320E-07  0.203E-04    0.99      45.6  T
   8   -191.2189756 -0.207334E-08  0.919E-05    0.99     100.6  T
   9   -191.2189756 -0.568207E-09  0.397E-05    0.99     232.7  T
     SCC iter.                  ...        0 min,  0.332 sec
     gradient                   ...        0 min,  0.302 sec
 * total energy  :  -188.2540619 Eh     change       -0.8427389E-04 Eh
   gradient norm :     0.0036877 Eh/α   predicted    -0.6151999E-04 ( -27.00%)
   displ. norm   :     0.3460749 α      lambda       -0.1007638E-03
   maximum displ.:     0.1744645 α      in ANC's #2, #3, #12, ...

........................................................................
.............................. CYCLE  178 ..............................
........................................................................

 iter      E             dE          RMSdq      gap      omega  full diag
   1   -191.2179636 -0.191218E+03  0.457E-02    0.98       0.0  T
   2   -191.2179664 -0.277696E-05  0.272E-02    0.98       1.0  T
   3   -191.2179501  0.163150E-04  0.122E-02    0.98       1.0  T
   4   -191.2179689 -0.188184E-04  0.168E-03    0.98       5.5  T
   5   -191.2179691 -0.204723E-06  0.732E-04    0.98      12.6  T
   6   -191.2179691 -0.973969E-08  0.481E-04    0.98      19.2  T
   7   -191.2179691 -0.105320E-07  0.173E-04    0.98      53.4  T
   8   -191.2179691 -0.141091E-08  0.834E-05    0.98     110.8  T
     SCC iter.                  ...        0 min,  0.212 sec
     gradient                   ...        0 min,  0.299 sec
 * total energy  :  -188.2541361 Eh     change       -0.7417264E-04 Eh
   gradient norm :     0.0037619 Eh/α   predicted    -0.5641881E-04 ( -23.94%)
   displ. norm   :     0.2747038 α      lambda       -0.9269366E-04
   maximum displ.:     0.1663042 α      in ANC's #2, #3, #5, ...

........................................................................
.............................. CYCLE  179 ..............................
........................................................................

 iter      E             dE          RMSdq      gap      omega  full diag
   1   -191.2208118 -0.191221E+03  0.349E-02    0.98       0.0  T
   2   -191.2208134 -0.158085E-05  0.208E-02    0.98       1.0  T
   3   -191.2208031  0.102217E-04  0.101E-02    0.98       1.0  T
   4   -191.2208151 -0.119693E-04  0.124E-03    0.98       7.4  T
   5   -191.2208152 -0.907954E-07  0.599E-04    0.98      15.4  T
   6   -191.2208152 -0.367615E-08  0.414E-04    0.98      22.3  T
   7   -191.2208152 -0.835010E-08  0.137E-04    0.98      67.6  T
   8   -191.2208152 -0.101576E-08  0.649E-05    0.98     142.4  T
     SCC iter.                  ...        0 min,  0.230 sec
     gradient                   ...        0 min,  0.288 sec
 * total energy  :  -188.2541976 Eh     change       -0.6155633E-04 Eh
   gradient norm :     0.0042243 Eh/α   predicted    -0.4984725E-04 ( -19.02%)
   displ. norm   :     0.2801942 α      lambda       -0.6898209E-04
   maximum displ.:     0.1576933 α      in ANC's #2, #3, #6, ...

........................................................................
.............................. CYCLE  180 ..............................
........................................................................

 iter      E             dE          RMSdq      gap      omega  full diag
   1   -191.2194687 -0.191219E+03  0.370E-02    0.98       0.0  T
   2   -191.2194696 -0.920633E-06  0.217E-02    0.98       1.0  T
   3   -191.2194640  0.564331E-05  0.684E-03    0.98       1.4  T
   4   -191.2194703 -0.633996E-05  0.927E-04    0.98      10.0  T
   5   -191.2194704 -0.630494E-07  0.475E-04    0.98      19.5  T
   6   -191.2194704 -0.819782E-08  0.282E-04    0.98      32.8  T
   7   -191.2194704 -0.335515E-08  0.101E-04    0.98      91.2  T
   8   -191.2194704 -0.773099E-09  0.409E-05    0.98     226.1  T
     SCC iter.                  ...        0 min,  0.231 sec
     gradient                   ...        0 min,  0.295 sec
 * total energy  :  -188.2542500 Eh     change       -0.5242047E-04 Eh
   gradient norm :     0.0039657 Eh/α   predicted    -0.3720045E-04 ( -29.03%)
   displ. norm   :     0.2145327 α      lambda       -0.6523193E-04
   maximum displ.:     0.1388956 α      in ANC's #2, #3, #5, ...

........................................................................
.............................. CYCLE  181 ..............................
........................................................................

 iter      E             dE          RMSdq      gap      omega  full diag
   1   -191.2196172 -0.191220E+03  0.281E-02    0.98       0.0  T
   2   -191.2196179 -0.650921E-06  0.163E-02    0.98       1.0  T
   3   -191.2196162  0.163372E-05  0.362E-03    0.98       2.6  T
   4   -191.2196180 -0.180870E-05  0.883E-04    0.98      10.5  T
   5   -191.2196181 -0.672757E-07  0.402E-04    0.98      23.0  T
   6   -191.2196181 -0.905212E-08  0.208E-04    0.98      44.4  T
   7   -191.2196181 -0.245879E-08  0.778E-05    0.98     118.8  T
   8   -191.2196181 -0.318948E-09  0.354E-05    0.98     261.5  T
     SCC iter.                  ...        0 min,  0.285 sec
     gradient                   ...        0 min,  0.292 sec
 * total energy  :  -188.2543035 Eh     change       -0.5347515E-04 Eh
   gradient norm :     0.0029059 Eh/α   predicted    -0.3412175E-04 ( -36.19%)
   displ. norm   :     0.2381531 α      lambda       -0.7137030E-04
   maximum displ.:     0.1561596 α      in ANC's #2, #3, #5, ...

........................................................................
.............................. CYCLE  182 ..............................
........................................................................

 iter      E             dE          RMSdq      gap      omega  full diag
   1   -191.2195410 -0.191220E+03  0.313E-02    0.98       0.0  T
   2   -191.2195419 -0.866143E-06  0.181E-02    0.98       1.0  T
   3   -191.2195393  0.260150E-05  0.462E-03    0.98       2.0  T
   4   -191.2195422 -0.290473E-05  0.102E-03    0.98       9.1  T
   5   -191.2195422 -0.757742E-07  0.438E-04    0.98      21.1  T
   6   -191.2195422 -0.710423E-08  0.232E-04    0.98      39.9  T
   7   -191.2195423 -0.351673E-08  0.905E-05    0.98     102.2  T
   8   -191.2195423 -0.536232E-09  0.442E-05    0.98     209.3  T
     SCC iter.                  ...        0 min,  0.217 sec
     gradient                   ...        0 min,  0.307 sec
 * total energy  :  -188.2543604 Eh     change       -0.5690597E-04 Eh
   gradient norm :     0.0023507 Eh/α   predicted    -0.3771179E-04 ( -33.73%)
   displ. norm   :     0.2438187 α      lambda       -0.6243166E-04
   maximum displ.:     0.1589379 α      in ANC's #2, #3, #5, ...

........................................................................
.............................. CYCLE  183 ..............................
........................................................................

 iter      E             dE          RMSdq      gap      omega  full diag
   1   -191.2193796 -0.191219E+03  0.319E-02    0.99       0.0  T
   2   -191.2193803 -0.685091E-06  0.185E-02    0.99       1.0  T
   3   -191.2193760  0.428389E-05  0.587E-03    0.99       1.6  T
   4   -191.2193809 -0.482042E-05  0.819E-04    0.99      11.3  T
   5   -191.2193809 -0.256488E-07  0.417E-04    0.99      22.2  T
   6   -191.2193809 -0.649902E-08  0.196E-04    0.99      47.1  T
   7   -191.2193809 -0.220663E-08  0.814E-05    0.99     113.6  T
     SCC iter.                  ...        0 min,  0.205 sec
     gradient                   ...        0 min,  0.294 sec
 * total energy  :  -188.2544120 Eh     change       -0.5162806E-04 Eh
   gradient norm :     0.0031327 Eh/α   predicted    -0.3307612E-04 ( -35.93%)
   displ. norm   :     0.2580397 α      lambda       -0.6461787E-04
   maximum displ.:     0.1653587 α      in ANC's #2, #3, #1, ...
 * RMSD in coord.:     0.6279154 α      energy gain  -0.1075155E-01 Eh

generating ANC from exact Hessian ...
Using Lindh-Hessian (1995)
 Shifting diagonal of input Hessian by    1.0115160620377091E-002
 Lowest  eigenvalues of input Hessian
    0.010000    0.000000    0.000000    0.000000    0.000000    0.000000
    0.000000    0.010204    0.010241    0.010274    0.010420    0.010452
    0.010503    0.010669    0.010800    0.010877    0.010962    0.011076
 Highest eigenvalues
    2.144872    2.262761    2.321699    2.334856    2.439909    3.109678


........................................................................
.............................. CYCLE  184 ..............................
........................................................................

 iter      E             dE          RMSdq      gap      omega  full diag
   1   -191.2195741 -0.191220E+03  0.341E-02    0.99       0.0  T
   2   -191.2195749 -0.747566E-06  0.199E-02    0.99       1.0  T
   3   -191.2195686  0.625769E-05  0.709E-03    0.99       1.3  T
   4   -191.2195757 -0.703768E-05  0.781E-04    0.99      11.8  T
   5   -191.2195757 -0.276337E-07  0.404E-04    0.99      22.9  T
   6   -191.2195757 -0.553641E-08  0.185E-04    0.99      50.0  T
   7   -191.2195757 -0.191579E-08  0.751E-05    0.99     123.1  T
     SCC iter.                  ...        0 min,  0.235 sec
     gradient                   ...        0 min,  0.374 sec
 * total energy  :  -188.2544678 Eh     change       -0.5570987E-04 Eh
   gradient norm :     0.0037581 Eh/α   predicted     0.0000000E+00 (-100.00%)
   displ. norm   :     0.0354625 α      lambda       -0.5910859E-05
   maximum displ.:     0.0209064 α      in ANC's #2, #3, #11, ...

........................................................................
.............................. CYCLE  185 ..............................
........................................................................

 iter      E             dE          RMSdq      gap      omega  full diag
   1   -191.2200591 -0.191220E+03  0.746E-03    0.99       0.0  T
   2   -191.2200593 -0.114065E-06  0.431E-03    0.99       2.1  T
   3   -191.2200592  0.858813E-07  0.956E-04    0.99       9.7  T
   4   -191.2200593 -0.896909E-07  0.394E-04    0.99      23.4  T
   5   -191.2200593 -0.183490E-07  0.144E-04    0.99      64.1  T
   6   -191.2200593 -0.631786E-09  0.841E-05    0.99     110.0  T
     SCC iter.                  ...        0 min,  0.247 sec
     gradient                   ...        0 min,  0.415 sec
 * total energy  :  -188.2544924 Eh     change       -0.2461131E-04 Eh
   gradient norm :     0.0024740 Eh/α   predicted    -0.1410254E-04 ( -42.70%)
   displ. norm   :     0.1312027 α      lambda       -0.7328769E-04
   maximum displ.:     0.0762811 α      in ANC's #2, #3, #11, ...

........................................................................
.............................. CYCLE  186 ..............................
........................................................................

 iter      E             dE          RMSdq      gap      omega  full diag
   1   -191.2207004 -0.191221E+03  0.245E-02    0.99       0.0  T
   2   -191.2207015 -0.110185E-05  0.141E-02    0.99       1.0  T
   3   -191.2207006  0.866353E-06  0.315E-03    0.99       2.9  T
   4   -191.2207016 -0.926463E-06  0.125E-03    0.99       7.4  T
   5   -191.2207017 -0.174984E-06  0.485E-04    0.99      19.1  T
   6   -191.2207018 -0.718313E-08  0.269E-04    0.99      34.4  T
   7   -191.2207018 -0.540371E-08  0.967E-05    0.99      95.6  T
   8   -191.2207018 -0.326196E-09  0.528E-05    0.99     175.0  T
     SCC iter.                  ...        0 min,  0.323 sec
     gradient                   ...        0 min,  0.345 sec
 * total energy  :  -188.2545402 Eh     change       -0.4779292E-04 Eh
   gradient norm :     0.0016470 Eh/α   predicted    -0.3727518E-04 ( -22.01%)
   displ. norm   :     0.1393698 α      lambda       -0.2498825E-04
   maximum displ.:     0.0845783 α      in ANC's #2, #3, #11, ...

........................................................................
.............................. CYCLE  187 ..............................
........................................................................

 iter      E             dE          RMSdq      gap      omega  full diag
   1   -191.2205898 -0.191221E+03  0.202E-02    0.99       0.0  T
   2   -191.2205904 -0.564021E-06  0.117E-02    0.99       1.0  T
   3   -191.2205892  0.115936E-05  0.338E-03    0.99       2.7  T
   4   -191.2205905 -0.131130E-05  0.915E-04    0.99      10.1  T
   5   -191.2205906 -0.752269E-07  0.379E-04    0.99      24.4  T
   6   -191.2205906 -0.377358E-08  0.195E-04    0.99      47.5  T
   7   -191.2205906 -0.254934E-08  0.769E-05    0.99     120.2  T
     SCC iter.                  ...        0 min,  0.302 sec
     gradient                   ...        0 min,  0.349 sec
 * total energy  :  -188.2545674 Eh     change       -0.2725955E-04 Eh
   gradient norm :     0.0031094 Eh/α   predicted    -0.1262997E-04 ( -53.67%)
   displ. norm   :     0.0939410 α      lambda       -0.2783043E-04
   maximum displ.:     0.0561083 α      in ANC's #2, #3, #1, ...

........................................................................
.............................. CYCLE  188 ..............................
........................................................................

 iter      E             dE          RMSdq      gap      omega  full diag
   1   -191.2203454 -0.191220E+03  0.112E-02    0.99       0.0  T
   2   -191.2203455 -0.109682E-06  0.653E-03    0.99       1.4  T
   3   -191.2203446  0.932042E-06  0.291E-03    0.99       3.2  T
   4   -191.2203457 -0.106895E-05  0.318E-04    0.99      29.1  T
   5   -191.2203457 -0.403597E-08  0.172E-04    0.99      53.6  T
   6   -191.2203457 -0.799389E-09  0.846E-05    0.99     109.3  T
     SCC iter.                  ...        0 min,  0.267 sec
     gradient                   ...        0 min,  0.406 sec
 * total energy  :  -188.2545928 Eh     change       -0.2541827E-04 Eh
   gradient norm :     0.0028767 Eh/α   predicted    -0.1403907E-04 ( -44.77%)
   displ. norm   :     0.2180333 α      lambda       -0.6444413E-04
   maximum displ.:     0.1273888 α      in ANC's #2, #3, #1, ...

........................................................................
.............................. CYCLE  189 ..............................
........................................................................

 iter      E             dE          RMSdq      gap      omega  full diag
   1   -191.2197871 -0.191220E+03  0.247E-02    0.99       0.0  T
   2   -191.2197877 -0.620823E-06  0.145E-02    0.99       1.0  T
   3   -191.2197825  0.519095E-05  0.696E-03    0.99       1.3  T
   4   -191.2197885 -0.598411E-05  0.665E-04    0.99      13.9  T
   5   -191.2197885 -0.201773E-07  0.356E-04    0.99      25.9  T
   6   -191.2197885 -0.425246E-08  0.187E-04    0.99      49.5  T
   7   -191.2197885 -0.884910E-09  0.883E-05    0.99     104.7  T
     SCC iter.                  ...        0 min,  0.275 sec
     gradient                   ...        0 min,  0.331 sec
 * total energy  :  -188.2546455 Eh     change       -0.5263569E-04 Eh
   gradient norm :     0.0022118 Eh/α   predicted    -0.3375417E-04 ( -35.87%)
   displ. norm   :     0.2818844 α      lambda       -0.6183074E-04
   maximum displ.:     0.1652466 α      in ANC's #2, #3, #1, ...

........................................................................
.............................. CYCLE  190 ..............................
........................................................................

 iter      E             dE          RMSdq      gap      omega  full diag
   1   -191.2192983 -0.191219E+03  0.305E-02    0.99       0.0  T
   2   -191.2192993 -0.996553E-06  0.179E-02    0.99       1.0  T
   3   -191.2192917  0.763466E-05  0.849E-03    0.99       1.1  T
   4   -191.2193005 -0.880061E-05  0.828E-04    0.99      11.2  T
   5   -191.2193005 -0.327173E-07  0.427E-04    0.99      21.7  T
   6   -191.2193005 -0.595909E-08  0.224E-04    0.99      41.2  T
   7   -191.2193005 -0.121256E-08  0.110E-04    0.99      83.7  T
   8   -191.2193005 -0.849667E-09  0.383E-05    0.99     241.4  T
     SCC iter.                  ...        0 min,  0.294 sec
     gradient                   ...        0 min,  0.342 sec
 * total energy  :  -188.2546943 Eh     change       -0.4878877E-04 Eh
   gradient norm :     0.0024046 Eh/α   predicted    -0.3337215E-04 ( -31.60%)
   displ. norm   :     0.2554378 α      lambda       -0.4657462E-04
   maximum displ.:     0.1509488 α      in ANC's #2, #3, #1, ...

........................................................................
.............................. CYCLE  191 ..............................
........................................................................

 iter      E             dE          RMSdq      gap      omega  full diag
   1   -191.2193735 -0.191219E+03  0.259E-02    0.99       0.0  T
   2   -191.2193742 -0.688760E-06  0.152E-02    0.99       1.0  T
   3   -191.2193690  0.520435E-05  0.695E-03    0.99       1.3  T
   4   -191.2193750 -0.596713E-05  0.713E-04    0.99      13.0  T
   5   -191.2193750 -0.253301E-07  0.349E-04    0.99      26.5  T
   6   -191.2193750 -0.321018E-08  0.174E-04    0.99      53.0  T
   7   -191.2193750 -0.997488E-09  0.905E-05    0.99     102.1  T
     SCC iter.                  ...        0 min,  0.284 sec
     gradient                   ...        0 min,  0.357 sec
 * total energy  :  -188.2547338 Eh     change       -0.3951525E-04 Eh
   gradient norm :     0.0024377 Eh/α   predicted    -0.2480856E-04 ( -37.22%)
   displ. norm   :     0.2620025 α      lambda       -0.5059474E-04
   maximum displ.:     0.1558680 α      in ANC's #2, #3, #1, ...

........................................................................
.............................. CYCLE  192 ..............................
........................................................................

 iter      E             dE          RMSdq      gap      omega  full diag
   1   -191.2199410 -0.191220E+03  0.258E-02    0.99       0.0  T
   2   -191.2199416 -0.581691E-06  0.150E-02    0.99       1.0  T
   3   -191.2199377  0.389957E-05  0.590E-03    0.99       1.6  T
   4   -191.2199421 -0.442563E-05  0.707E-04    0.99      13.1  T
   5   -191.2199422 -0.226664E-07  0.339E-04    0.99      27.3  T
   6   -191.2199422 -0.287039E-08  0.153E-04    0.99      60.3  T
   7   -191.2199422 -0.953293E-09  0.803E-05    0.99     115.1  T
     SCC iter.                  ...        0 min,  0.287 sec
     gradient                   ...        0 min,  0.353 sec
 * total energy  :  -188.2547779 Eh     change       -0.4408507E-04 Eh
   gradient norm :     0.0020495 Eh/α   predicted    -0.2703600E-04 ( -38.67%)
   displ. norm   :     0.3163899 α      lambda       -0.6134273E-04
   maximum displ.:     0.1889198 α      in ANC's #2, #3, #1, ...

........................................................................
.............................. CYCLE  193 ..............................
........................................................................

 iter      E             dE          RMSdq      gap      omega  full diag
   1   -191.2206095 -0.191221E+03  0.305E-02    0.99       0.0  T
   2   -191.2206100 -0.554365E-06  0.178E-02    0.99       1.0  T
   3   -191.2206069  0.314648E-05  0.518E-03    0.99       1.8  T
   4   -191.2206104 -0.354817E-05  0.770E-04    0.99      12.0  T
   5   -191.2206104 -0.219282E-07  0.381E-04    0.99      24.3  T
   6   -191.2206105 -0.437728E-08  0.157E-04    0.99      59.0  T
   7   -191.2206105 -0.115023E-08  0.799E-05    0.99     115.6  T
     SCC iter.                  ...        0 min,  0.270 sec
     gradient                   ...        0 min,  0.290 sec
 * total energy  :  -188.2548297 Eh     change       -0.5180707E-04 Eh
   gradient norm :     0.0017971 Eh/α   predicted    -0.3374569E-04 ( -34.86%)
   displ. norm   :     0.5139109 α      lambda       -0.5911050E-04
   maximum displ.:     0.3077184 α      in ANC's #2, #3, #1, ...

........................................................................
.............................. CYCLE  194 ..............................
........................................................................

 iter      E             dE          RMSdq      gap      omega  full diag
   1   -191.2209087 -0.191221E+03  0.483E-02    0.99       0.0  T
   2   -191.2209096 -0.918473E-06  0.282E-02    0.99       1.0  T
   3   -191.2209059  0.368746E-05  0.551E-03    0.99       1.7  T
   4   -191.2209101 -0.421670E-05  0.109E-03    0.99       8.5  T
   5   -191.2209101 -0.414066E-07  0.568E-04    0.99      16.3  T
   6   -191.2209102 -0.144012E-07  0.219E-04    0.99      42.3  T
   7   -191.2209102 -0.192699E-08  0.107E-04    0.99      86.5  T
   8   -191.2209102 -0.308034E-09  0.544E-05    0.99     170.0  T
     SCC iter.                  ...        0 min,  0.228 sec
     gradient                   ...        0 min,  0.254 sec
 * total energy  :  -188.2548958 Eh     change       -0.6610108E-04 Eh
   gradient norm :     0.0024584 Eh/α   predicted    -0.3302478E-04 ( -50.04%)
   displ. norm   :     0.2354669 α      lambda       -0.3713542E-04
   maximum displ.:     0.1412050 α      in ANC's #2, #3, #1, ...

........................................................................
.............................. CYCLE  195 ..............................
........................................................................

 iter      E             dE          RMSdq      gap      omega  full diag
   1   -191.2210869 -0.191221E+03  0.207E-02    0.99       0.0  T
   2   -191.2210871 -0.172285E-06  0.121E-02    0.99       1.0  T
   3   -191.2210864  0.686798E-06  0.229E-03    0.99       4.0  T
   4   -191.2210872 -0.790197E-06  0.423E-04    0.99      21.9  T
   5   -191.2210872 -0.790888E-08  0.247E-04    0.99      37.5  T
   6   -191.2210872 -0.223571E-08  0.101E-04    0.99      91.4  T
   7   -191.2210872 -0.381220E-09  0.469E-05    0.99     197.1  T
     SCC iter.                  ...        0 min,  0.249 sec
     gradient                   ...        0 min,  0.305 sec
 * total energy  :  -188.2549296 Eh     change       -0.3385815E-04 Eh
   gradient norm :     0.0024819 Eh/α   predicted    -0.1959760E-04 ( -42.12%)
   displ. norm   :     0.3261264 α      lambda       -0.6483244E-04
   maximum displ.:     0.1925438 α      in ANC's #2, #3, #1, ...

........................................................................
.............................. CYCLE  196 ..............................
........................................................................

 iter      E             dE          RMSdq      gap      omega  full diag
   1   -191.2213194 -0.191221E+03  0.288E-02    0.99       0.0  T
   2   -191.2213200 -0.550703E-06  0.169E-02    0.99       1.0  T
   3   -191.2213169  0.302891E-05  0.503E-03    0.99       1.8  T
   4   -191.2213204 -0.345269E-05  0.699E-04    0.99      13.2  T
   5   -191.2213204 -0.230287E-07  0.372E-04    0.99      24.8  T
   6   -191.2213204 -0.213657E-08  0.168E-04    0.99      54.9  T
   7   -191.2213204 -0.733309E-09  0.716E-05    0.99     129.0  T
     SCC iter.                  ...        0 min,  0.219 sec
     gradient                   ...        0 min,  0.352 sec
 * total energy  :  -188.2549869 Eh     change       -0.5727822E-04 Eh
   gradient norm :     0.0021370 Eh/α   predicted    -0.3586644E-04 ( -37.38%)
   displ. norm   :     0.4578072 α      lambda       -0.8795776E-04
   maximum displ.:     0.2673981 α      in ANC's #2, #3, #1, ...

........................................................................
.............................. CYCLE  197 ..............................
........................................................................

 iter      E             dE          RMSdq      gap      omega  full diag
   1   -191.2206750 -0.191221E+03  0.409E-02    0.99       0.0  T
   2   -191.2206763 -0.130449E-05  0.240E-02    0.99       1.0  T
   3   -191.2206689  0.744129E-05  0.801E-03    0.99       1.2  T
   4   -191.2206774 -0.850020E-05  0.107E-03    0.99       8.6  T
   5   -191.2206775 -0.524878E-07  0.561E-04    0.99      16.5  T
   6   -191.2206775 -0.435506E-08  0.266E-04    0.99      34.8  T
   7   -191.2206775 -0.186040E-08  0.114E-04    0.99      81.4  T
   8   -191.2206775 -0.720462E-09  0.504E-05    0.99     183.3  T
     SCC iter.                  ...        0 min,  0.269 sec
     gradient                   ...        0 min,  0.260 sec
 * total energy  :  -188.2550596 Eh     change       -0.7267421E-04 Eh
   gradient norm :     0.0020678 Eh/α   predicted    -0.5319879E-04 ( -26.80%)
   displ. norm   :     0.4573385 α      lambda       -0.7379567E-04
   maximum displ.:     0.2662815 α      in ANC's #2, #3, #1, ...

........................................................................
.............................. CYCLE  198 ..............................
........................................................................

 iter      E             dE          RMSdq      gap      omega  full diag
   1   -191.2198790 -0.191220E+03  0.406E-02    0.99       0.0  T
   2   -191.2198801 -0.106504E-05  0.238E-02    0.99       1.0  T
   3   -191.2198741  0.599058E-05  0.720E-03    0.99       1.3  T
   4   -191.2198809 -0.684662E-05  0.101E-03    0.99       9.2  T
   5   -191.2198810 -0.380582E-07  0.547E-04    0.99      16.9  T
   6   -191.2198810 -0.410898E-08  0.259E-04    0.99      35.7  T
   7   -191.2198810 -0.214763E-08  0.106E-04    0.99      86.9  T
   8   -191.2198810 -0.560220E-09  0.520E-05    0.99     177.7  T
     SCC iter.                  ...        0 min,  0.213 sec
     gradient                   ...        0 min,  0.290 sec
 * total energy  :  -188.2551200 Eh     change       -0.6044250E-04 Eh
   gradient norm :     0.0024904 Eh/α   predicted    -0.4461635E-04 ( -26.18%)
   displ. norm   :     0.4073008 α      lambda       -0.6427706E-04
   maximum displ.:     0.2364891 α      in ANC's #2, #3, #1, ...

........................................................................
.............................. CYCLE  199 ..............................
........................................................................

 iter      E             dE          RMSdq      gap      omega  full diag
   1   -191.2197260 -0.191220E+03  0.363E-02    0.99       0.0  T
   2   -191.2197265 -0.576590E-06  0.213E-02    0.99       1.0  T
   3   -191.2197239  0.259994E-05  0.478E-03    0.99       1.9  T
   4   -191.2197270 -0.301006E-05  0.790E-04    0.99      11.7  T
   5   -191.2197270 -0.166345E-07  0.450E-04    0.99      20.5  T
   6   -191.2197270 -0.308998E-08  0.217E-04    0.99      42.6  T
   7   -191.2197270 -0.227286E-08  0.774E-05    0.99     119.5  T
   8   -191.2197270 -0.201453E-09  0.438E-05    0.99     211.2  T
     SCC iter.                  ...        0 min,  0.264 sec
     gradient                   ...        0 min,  0.348 sec
 * total energy  :  -188.2551758 Eh     change       -0.5575659E-04 Eh
   gradient norm :     0.0026134 Eh/α   predicted    -0.3747202E-04 ( -32.79%)
   displ. norm   :     0.4449166 α      lambda       -0.8166156E-04
   maximum displ.:     0.2566063 α      in ANC's #2, #3, #1, ...

........................................................................
.............................. CYCLE  200 ..............................
........................................................................

 iter      E             dE          RMSdq      gap      omega  full diag
   1   -191.2201378 -0.191220E+03  0.412E-02    0.99       0.0  T
   2   -191.2201385 -0.676336E-06  0.241E-02    0.99       1.0  T
   3   -191.2201366  0.187517E-05  0.410E-03    0.99       2.3  T
   4   -191.2201388 -0.222076E-05  0.822E-04    0.99      11.3  T
   5   -191.2201388 -0.253835E-07  0.457E-04    0.99      20.2  T
   6   -191.2201388 -0.352091E-08  0.231E-04    0.99      40.0  T
   7   -191.2201389 -0.358290E-08  0.802E-05    0.99     115.3  T
   8   -191.2201389 -0.289845E-09  0.419E-05    0.99     220.9  T
     SCC iter.                  ...        0 min,  0.335 sec
     gradient                   ...        0 min,  0.333 sec
 * total energy  :  -188.2552477 Eh     change       -0.7190476E-04 Eh
   gradient norm :     0.0024371 Eh/α   predicted    -0.4891899E-04 ( -31.97%)
   displ. norm   :     0.5447670 α      lambda       -0.1070496E-03
   maximum displ.:     0.3124512 α      in ANC's #2, #3, #1, ...

........................................................................
.............................. CYCLE  201 ..............................
........................................................................

 iter      E             dE          RMSdq      gap      omega  full diag
   1   -191.2204770 -0.191220E+03  0.526E-02    0.98       0.0  T
   2   -191.2204784 -0.145908E-05  0.308E-02    0.99       1.0  T
   3   -191.2204734  0.497740E-05  0.645E-03    0.98       1.4  T
   4   -191.2204791 -0.570763E-05  0.111E-03    0.99       8.3  T
   5   -191.2204792 -0.748608E-07  0.571E-04    0.99      16.2  T
   6   -191.2204792 -0.688593E-08  0.283E-04    0.99      32.6  T
   7   -191.2204792 -0.324309E-08  0.110E-04    0.99      83.7  T
   8   -191.2204792 -0.827981E-09  0.507E-05    0.99     182.4  T
     SCC iter.                  ...        0 min,  0.325 sec
     gradient                   ...        0 min,  0.339 sec
 * total energy  :  -188.2553402 Eh     change       -0.9249398E-04 Eh
   gradient norm :     0.0025974 Eh/α   predicted    -0.6941077E-04 ( -24.96%)
   displ. norm   :     0.6048130 α      lambda       -0.1116853E-03
   maximum displ.:     0.3467130 α      in ANC's #2, #3, #1, ...

........................................................................
.............................. CYCLE  202 ..............................
........................................................................

 iter      E             dE          RMSdq      gap      omega  full diag
   1   -191.2203397 -0.191220E+03  0.589E-02    0.98       0.0  T
   2   -191.2203418 -0.209271E-05  0.345E-02    0.99       1.0  T
   3   -191.2203332  0.852634E-05  0.840E-03    0.98       1.1  T
   4   -191.2203429 -0.969611E-05  0.128E-03    0.99       7.2  T
   5   -191.2203430 -0.107303E-06  0.631E-04    0.99      14.7  T
   6   -191.2203431 -0.831096E-08  0.321E-04    0.99      28.8  T
   7   -191.2203431 -0.334802E-08  0.126E-04    0.99      73.1  T
   8   -191.2203431 -0.106652E-08  0.585E-05    0.99     158.1  T
     SCC iter.                  ...        0 min,  0.302 sec
     gradient                   ...        0 min,  0.307 sec
 * total energy  :  -188.2554353 Eh     change       -0.9511732E-04 Eh
   gradient norm :     0.0031139 Eh/α   predicted    -0.7627435E-04 ( -19.81%)
   displ. norm   :     0.6041413 α      lambda       -0.1038097E-03
   maximum displ.:     0.3474456 α      in ANC's #2, #3, #1, ...

........................................................................
.............................. CYCLE  203 ..............................
........................................................................

 iter      E             dE          RMSdq      gap      omega  full diag
   1   -191.2202077 -0.191220E+03  0.580E-02    0.99       0.0  T
   2   -191.2202097 -0.204360E-05  0.339E-02    0.99       1.0  T
   3   -191.2202009  0.883258E-05  0.855E-03    0.99       1.1  T
   4   -191.2202110 -0.100578E-04  0.126E-03    0.99       7.3  T
   5   -191.2202111 -0.966274E-07  0.632E-04    0.99      14.6  T
   6   -191.2202111 -0.789134E-08  0.326E-04    0.99      28.4  T
   7   -191.2202111 -0.378719E-08  0.126E-04    0.99      73.2  T
   8   -191.2202111 -0.961279E-09  0.639E-05    0.99     144.6  T
     SCC iter.                  ...        0 min,  0.250 sec
     gradient                   ...        0 min,  0.299 sec
 * total energy  :  -188.2555236 Eh     change       -0.8834660E-04 Eh
   gradient norm :     0.0032574 Eh/α   predicted    -0.7085216E-04 ( -19.80%)
   displ. norm   :     0.5953799 α      lambda       -0.9968470E-04
   maximum displ.:     0.3448336 α      in ANC's #2, #3, #1, ...

........................................................................
.............................. CYCLE  204 ..............................
........................................................................

 iter      E             dE          RMSdq      gap      omega  full diag
   1   -191.2203590 -0.191220E+03  0.551E-02    0.99       0.0  T
   2   -191.2203608 -0.180415E-05  0.322E-02    0.99       1.0  T
   3   -191.2203537  0.705537E-05  0.765E-03    0.99       1.2  T
   4   -191.2203618 -0.809518E-05  0.121E-03    0.99       7.6  T
   5   -191.2203619 -0.749245E-07  0.638E-04    0.99      14.5  T
   6   -191.2203619 -0.797621E-08  0.326E-04    0.99      28.3  T
   7   -191.2203619 -0.497101E-08  0.125E-04    0.99      74.2  T
   8   -191.2203619 -0.840544E-09  0.682E-05    0.99     135.6  T
     SCC iter.                  ...        0 min,  0.271 sec
     gradient                   ...        0 min,  0.317 sec
 * total energy  :  -188.2556086 Eh     change       -0.8491674E-04 Eh
   gradient norm :     0.0027550 Eh/α   predicted    -0.6751300E-04 ( -20.50%)
   displ. norm   :     0.6060020 α      lambda       -0.9771778E-04
   maximum displ.:     0.3550104 α      in ANC's #2, #3, #1, ...

........................................................................
.............................. CYCLE  205 ..............................
........................................................................

 iter      E             dE          RMSdq      gap      omega  full diag
   1   -191.2203792 -0.191220E+03  0.529E-02    0.99       0.0  T
   2   -191.2203808 -0.158494E-05  0.309E-02    1.00       1.0  T
   3   -191.2203764  0.439851E-05  0.613E-03    0.99       1.5  T
   4   -191.2203816 -0.515702E-05  0.115E-03    1.00       8.0  T
   5   -191.2203816 -0.488422E-07  0.629E-04    1.00      14.7  T
   6   -191.2203816 -0.796933E-08  0.322E-04    1.00      28.7  T
   7   -191.2203816 -0.678244E-08  0.121E-04    1.00      76.5  T
   8   -191.2203816 -0.756074E-09  0.670E-05    1.00     137.9  T
     SCC iter.                  ...        0 min,  0.374 sec
     gradient                   ...        0 min,  0.338 sec
 * total energy  :  -188.2556907 Eh     change       -0.8214675E-04 Eh
   gradient norm :     0.0021034 Eh/α   predicted    -0.6680424E-04 ( -18.68%)
   displ. norm   :     0.6077171 α      lambda       -0.9044251E-04
   maximum displ.:     0.3600292 α      in ANC's #2, #3, #1, ...

........................................................................
.............................. CYCLE  206 ..............................
........................................................................

 iter      E             dE          RMSdq      gap      omega  full diag
   1   -191.2202804 -0.191220E+03  0.496E-02    0.99       0.0  T
   2   -191.2202816 -0.125852E-05  0.290E-02    1.00       1.0  T
   3   -191.2202790  0.262448E-05  0.495E-03    1.00       1.9  T
   4   -191.2202822 -0.316464E-05  0.106E-03    1.00       8.7  T
   5   -191.2202822 -0.269243E-07  0.577E-04    1.00      16.0  T
   6   -191.2202822 -0.776328E-08  0.268E-04    1.00      34.5  T
   7   -191.2202822 -0.464308E-08  0.108E-04    1.00      85.8  T
   8   -191.2202822 -0.605468E-09  0.585E-05    1.00     158.1  T
     SCC iter.                  ...        0 min,  0.228 sec
     gradient                   ...        0 min,  0.340 sec
 * total energy  :  -188.2557658 Eh     change       -0.7508028E-04 Eh
   gradient norm :     0.0023715 Eh/α   predicted    -0.6192627E-04 ( -17.52%)
   displ. norm   :     0.5991174 α      lambda       -0.8226493E-04
   maximum displ.:     0.3573872 α      in ANC's #2, #3, #1, ...

........................................................................
.............................. CYCLE  207 ..............................
........................................................................

 iter      E             dE          RMSdq      gap      omega  full diag
   1   -191.2202273 -0.191220E+03  0.463E-02    1.00       0.0  T
   2   -191.2202283 -0.918982E-06  0.271E-02    1.00       1.0  T
   3   -191.2202257  0.257011E-05  0.496E-03    1.00       1.9  T
   4   -191.2202287 -0.304711E-05  0.102E-03    1.00       9.1  T
   5   -191.2202288 -0.217642E-07  0.579E-04    1.00      16.0  T
   6   -191.2202288 -0.106915E-07  0.215E-04    1.00      43.0  T
   7   -191.2202288 -0.208621E-08  0.864E-05    1.00     107.0  T
   8   -191.2202288 -0.284189E-09  0.423E-05    1.00     218.8  T
     SCC iter.                  ...        0 min,  0.277 sec
     gradient                   ...        0 min,  0.327 sec
 * total energy  :  -188.2558346 Eh     change       -0.6881251E-04 Eh
   gradient norm :     0.0031473 Eh/α   predicted    -0.5590212E-04 ( -18.76%)
   displ. norm   :     0.5939153 α      lambda       -0.8160250E-04
   maximum displ.:     0.3556175 α      in ANC's #2, #3, #1, ...

........................................................................
.............................. CYCLE  208 ..............................
........................................................................

 iter      E             dE          RMSdq      gap      omega  full diag
   1   -191.2206532 -0.191221E+03  0.445E-02    0.99       0.0  T
   2   -191.2206539 -0.752623E-06  0.260E-02    0.99       1.0  T
   3   -191.2206509  0.304721E-05  0.535E-03    0.99       1.7  T
   4   -191.2206544 -0.355580E-05  0.984E-04    0.99       9.4  T
   5   -191.2206544 -0.169294E-07  0.571E-04    0.99      16.2  T
   6   -191.2206544 -0.835607E-08  0.220E-04    0.99      42.0  T
   7   -191.2206544 -0.237915E-08  0.867E-05    0.99     106.7  T
   8   -191.2206544 -0.307921E-09  0.494E-05    0.99     187.2  T
     SCC iter.                  ...        0 min,  0.271 sec
     gradient                   ...        0 min,  0.312 sec
 * total energy  :  -188.2559046 Eh     change       -0.6998693E-04 Eh
   gradient norm :     0.0034808 Eh/α   predicted    -0.5519734E-04 ( -21.13%)
   displ. norm   :     0.6367666 α      lambda       -0.9165850E-04
   maximum displ.:     0.3823792 α      in ANC's #2, #3, #1, ...

........................................................................
.............................. CYCLE  209 ..............................
........................................................................

 iter      E             dE          RMSdq      gap      omega  full diag
   1   -191.2207143 -0.191221E+03  0.479E-02    0.99       0.0  T
   2   -191.2207154 -0.100867E-05  0.280E-02    0.99       1.0  T
   3   -191.2207122  0.317909E-05  0.552E-03    0.99       1.7  T
   4   -191.2207159 -0.373725E-05  0.114E-03    0.99       8.1  T
   5   -191.2207160 -0.366103E-07  0.646E-04    0.99      14.3  T
   6   -191.2207160 -0.324616E-08  0.339E-04    0.99      27.3  T
   7   -191.2207160 -0.810522E-08  0.118E-04    0.99      78.5  T
   8   -191.2207160 -0.932687E-09  0.623E-05    0.99     148.3  T
     SCC iter.                  ...        0 min,  0.230 sec
     gradient                   ...        0 min,  0.291 sec
 * total energy  :  -188.2559844 Eh     change       -0.7984208E-04 Eh
   gradient norm :     0.0031590 Eh/α   predicted    -0.6441529E-04 ( -19.32%)
   displ. norm   :     0.6066818 α      lambda       -0.1008152E-03
   maximum displ.:     0.3644721 α      in ANC's #2, #3, #1, ...

........................................................................
.............................. CYCLE  210 ..............................
........................................................................

 iter      E             dE          RMSdq      gap      omega  full diag
   1   -191.2228487 -0.191223E+03  0.473E-02    0.98       0.0  T
   2   -191.2228502 -0.146849E-05  0.276E-02    0.98       1.0  T
   3   -191.2228479  0.228589E-05  0.485E-03    0.98       1.9  T
   4   -191.2228506 -0.270785E-05  0.136E-03    0.98       6.8  T
   5   -191.2228507 -0.108652E-06  0.711E-04    0.98      13.0  T
   6   -191.2228507 -0.385998E-08  0.399E-04    0.98      23.2  T
   7   -191.2228507 -0.109645E-07  0.147E-04    0.98      62.8  T
   8   -191.2228507 -0.169618E-08  0.669E-05    0.98     138.2  T
     SCC iter.                  ...        0 min,  0.207 sec
     gradient                   ...        0 min,  0.314 sec
 * total energy  :  -188.2560686 Eh     change       -0.8415160E-04 Eh
   gradient norm :     0.0026047 Eh/α   predicted    -0.6896757E-04 ( -18.04%)
   displ. norm   :     0.6738260 α      lambda       -0.9959892E-04
   maximum displ.:     0.4090663 α      in ANC's #2, #3, #1, ...

........................................................................
.............................. CYCLE  211 ..............................
........................................................................

 iter      E             dE          RMSdq      gap      omega  full diag
   1   -191.2197985 -0.191220E+03  0.539E-02    0.98       0.0  T
   2   -191.2198004 -0.190503E-05  0.315E-02    0.98       1.0  T
   3   -191.2197970  0.341890E-05  0.573E-03    0.98       1.6  T
   4   -191.2198009 -0.392925E-05  0.161E-03    0.98       5.8  T
   5   -191.2198011 -0.190858E-06  0.775E-04    0.98      11.9  T
   6   -191.2198011 -0.103054E-08  0.457E-04    0.98      20.2  T
   7   -191.2198011 -0.149094E-07  0.156E-04    0.98      59.3  T
   8   -191.2198011 -0.167381E-08  0.736E-05    0.98     125.7  T
     SCC iter.                  ...        0 min,  0.255 sec
     gradient                   ...        0 min,  0.280 sec
 * total energy  :  -188.2561518 Eh     change       -0.8326006E-04 Eh
   gradient norm :     0.0030697 Eh/α   predicted    -0.7241640E-04 ( -13.02%)
   displ. norm   :     0.6216924 α      lambda       -0.1120516E-03
   maximum displ.:     0.3755134 α      in ANC's #2, #3, #1, ...

........................................................................
.............................. CYCLE  212 ..............................
........................................................................

 iter      E             dE          RMSdq      gap      omega  full diag
   1   -191.2228931 -0.191223E+03  0.526E-02    0.98       0.0  T
   2   -191.2228955 -0.239253E-05  0.308E-02    0.98       1.0  T
   3   -191.2228902  0.527513E-05  0.691E-03    0.98       1.3  T
   4   -191.2228961 -0.586431E-05  0.190E-03    0.98       4.9  T
   5   -191.2228964 -0.327843E-06  0.762E-04    0.98      12.1  T
   6   -191.2228964 -0.423049E-08  0.422E-04    0.98      21.9  T
   7   -191.2228964 -0.652864E-08  0.182E-04    0.98      50.8  T
   8   -191.2228964 -0.309913E-08  0.735E-05    0.98     125.7  T
     SCC iter.                  ...        0 min,  0.215 sec
     gradient                   ...        0 min,  0.316 sec
 * total energy  :  -188.2562413 Eh     change       -0.8950638E-04 Eh
   gradient norm :     0.0039537 Eh/α   predicted    -0.7768232E-04 ( -13.21%)
   displ. norm   :     0.6428441 α      lambda       -0.9950433E-04
   maximum displ.:     0.3920471 α      in ANC's #2, #3, #1, ...

........................................................................
.............................. CYCLE  213 ..............................
........................................................................

 iter      E             dE          RMSdq      gap      omega  full diag
   1   -191.2217899 -0.191222E+03  0.527E-02    0.98       0.0  T
   2   -191.2217913 -0.142968E-05  0.310E-02    0.98       1.0  T
   3   -191.2217879  0.349232E-05  0.562E-03    0.98       1.6  T
   4   -191.2217918 -0.391503E-05  0.157E-03    0.98       5.9  T
   5   -191.2217920 -0.207109E-06  0.672E-04    0.98      13.8  T
   6   -191.2217920  0.107926E-08  0.384E-04    0.98      24.1  T
   7   -191.2217920 -0.927790E-08  0.119E-04    0.98      77.7  T
   8   -191.2217920 -0.804988E-09  0.586E-05    0.98     157.9  T
     SCC iter.                  ...        0 min,  0.244 sec
     gradient                   ...        0 min,  0.280 sec
 * total energy  :  -188.2563333 Eh     change       -0.9197136E-04 Eh
   gradient norm :     0.0040879 Eh/α   predicted    -0.7031482E-04 ( -23.55%)
   displ. norm   :     0.6907496 α      lambda       -0.1388618E-03
   maximum displ.:     0.4167775 α      in ANC's #2, #3, #1, ...

........................................................................
.............................. CYCLE  214 ..............................
........................................................................

 iter      E             dE          RMSdq      gap      omega  full diag
   1   -191.2230525 -0.191223E+03  0.594E-02    0.99       0.0  T
   2   -191.2230544 -0.193191E-05  0.350E-02    0.99       1.0  T
   3   -191.2230523  0.210723E-05  0.467E-03    1.00       2.0  T
   4   -191.2230547 -0.245233E-05  0.164E-03    1.00       5.6  T
   5   -191.2230550 -0.236159E-06  0.688E-04    1.00      13.4  T
   6   -191.2230550  0.297007E-08  0.363E-04    1.00      25.4  T
   7   -191.2230550 -0.108231E-07  0.118E-04    1.00      78.0  T
   8   -191.2230550 -0.546436E-09  0.552E-05    1.00     167.3  T
     SCC iter.                  ...        0 min,  0.247 sec
     gradient                   ...        0 min,  0.326 sec
 * total energy  :  -188.2564558 Eh     change       -0.1224983E-03 Eh
   gradient norm :     0.0033698 Eh/α   predicted    -0.1025644E-03 ( -16.27%)
   displ. norm   :     0.6879051 α      lambda       -0.1386004E-03
   maximum displ.:     0.4120494 α      in ANC's #2, #1, #3, ...

........................................................................
.............................. CYCLE  215 ..............................
........................................................................

 iter      E             dE          RMSdq      gap      omega  full diag
   1   -191.2223054 -0.191222E+03  0.596E-02    1.00       0.0  T
   2   -191.2223075 -0.211564E-05  0.351E-02    1.01       1.0  T
   3   -191.2223047  0.276837E-05  0.519E-03    1.01       1.8  T
   4   -191.2223079 -0.314554E-05  0.170E-03    1.01       5.4  T
   5   -191.2223081 -0.269283E-06  0.733E-04    1.01      12.6  T
   6   -191.2223081 -0.337201E-08  0.390E-04    1.01      23.7  T
   7   -191.2223081 -0.119331E-07  0.143E-04    1.01      64.9  T
   8   -191.2223081 -0.120528E-08  0.705E-05    1.01     131.2  T
     SCC iter.                  ...        0 min,  0.261 sec
     gradient                   ...        0 min,  0.307 sec
 * total energy  :  -188.2565776 Eh     change       -0.1217998E-03 Eh
   gradient norm :     0.0032649 Eh/α   predicted    -0.1021007E-03 ( -16.17%)
   displ. norm   :     0.7115561 α      lambda       -0.1478488E-03
   maximum displ.:     0.4119435 α      in ANC's #2, #1, #3, ...

........................................................................
.............................. CYCLE  216 ..............................
........................................................................

 iter      E             dE          RMSdq      gap      omega  full diag
   1   -191.2234695 -0.191223E+03  0.634E-02    1.01       0.0  T
   2   -191.2234722 -0.269168E-05  0.375E-02    1.02       1.0  T
   3   -191.2234613  0.109438E-04  0.979E-03    1.02       1.0  T
   4   -191.2234735 -0.122501E-04  0.183E-03    1.02       5.1  T
   5   -191.2234738 -0.239827E-06  0.787E-04    1.02      11.7  T
   6   -191.2234738 -0.142603E-08  0.404E-04    1.02      22.9  T
   7   -191.2234738 -0.863679E-08  0.176E-04    1.02      52.5  T
   8   -191.2234738 -0.259968E-08  0.775E-05    1.02     119.3  T
     SCC iter.                  ...        0 min,  0.219 sec
     gradient                   ...        0 min,  0.331 sec
 * total energy  :  -188.2567043 Eh     change       -0.1266566E-03 Eh
   gradient norm :     0.0041356 Eh/α   predicted    -0.1113600E-03 ( -12.08%)
   displ. norm   :     0.7405312 α      lambda       -0.1521221E-03
   maximum displ.:     0.4286568 α      in ANC's #2, #1, #3, ...

........................................................................
.............................. CYCLE  217 ..............................
........................................................................

 iter      E             dE          RMSdq      gap      omega  full diag
   1   -191.2216612 -0.191222E+03  0.654E-02    1.02       0.0  T
   2   -191.2216636 -0.240116E-05  0.386E-02    1.03       1.0  T
   3   -191.2216523  0.113258E-04  0.954E-03    1.03       1.0  T
   4   -191.2216650 -0.127026E-04  0.169E-03    1.03       5.5  T
   5   -191.2216652 -0.180313E-06  0.817E-04    1.03      11.3  T
   6   -191.2216652 -0.443822E-08  0.365E-04    1.03      25.3  T
   7   -191.2216652 -0.642871E-08  0.161E-04    1.03      57.3  T
   8   -191.2216652 -0.216980E-08  0.749E-05    1.03     123.4  T
     SCC iter.                  ...        0 min,  0.293 sec
     gradient                   ...        0 min,  0.287 sec
 * total energy  :  -188.2568365 Eh     change       -0.1321977E-03 Eh
   gradient norm :     0.0048305 Eh/α   predicted    -0.1177760E-03 ( -10.91%)
   displ. norm   :     0.6653932 α      lambda       -0.1632682E-03
   maximum displ.:     0.3600643 α      in ANC's #2, #1, #3, ...

........................................................................
.............................. CYCLE  218 ..............................
........................................................................

 iter      E             dE          RMSdq      gap      omega  full diag
   1   -191.2232889 -0.191223E+03  0.625E-02    1.02       0.0  T
   2   -191.2232919 -0.298017E-05  0.369E-02    1.03       1.0  T
   3   -191.2232709  0.210021E-04  0.131E-02    1.03       1.0  T
   4   -191.2232946 -0.237046E-04  0.166E-03    1.03       5.6  T
   5   -191.2232947 -0.132728E-06  0.835E-04    1.03      11.1  T
   6   -191.2232947 -0.722005E-08  0.386E-04    1.03      24.0  T
   7   -191.2232947 -0.716611E-08  0.160E-04    1.03      57.9  T
   8   -191.2232947 -0.158394E-08  0.768E-05    1.03     120.4  T
     SCC iter.                  ...        0 min,  0.249 sec
     gradient                   ...        0 min,  0.325 sec
 * total energy  :  -188.2569725 Eh     change       -0.1360681E-03 Eh
   gradient norm :     0.0046681 Eh/α   predicted    -0.1177830E-03 ( -13.44%)
   displ. norm   :     0.6921007 α      lambda       -0.1477220E-03
   maximum displ.:     0.3901038 α      in ANC's #2, #1, #3, ...

........................................................................
.............................. CYCLE  219 ..............................
........................................................................

 iter      E             dE          RMSdq      gap      omega  full diag
   1   -191.2209436 -0.191221E+03  0.631E-02    1.03       0.0  T
   2   -191.2209459 -0.227028E-05  0.371E-02    1.03       1.0  T
   3   -191.2209322  0.136973E-04  0.103E-02    1.03       1.0  T
   4   -191.2209477 -0.154486E-04  0.161E-03    1.03       5.7  T
   5   -191.2209478 -0.113518E-06  0.855E-04    1.03      10.8  T
   6   -191.2209478 -0.546581E-08  0.404E-04    1.03      22.9  T
   7   -191.2209478 -0.131722E-07  0.134E-04    1.03      69.2  T
   8   -191.2209478 -0.601830E-09  0.729E-05    1.03     126.8  T
     SCC iter.                  ...        0 min,  0.344 sec
     gradient                   ...        0 min,  0.309 sec
 * total energy  :  -188.2570965 Eh     change       -0.1239921E-03 Eh
   gradient norm :     0.0044399 Eh/α   predicted    -0.1092459E-03 ( -11.89%)
   displ. norm   :     0.5888529 α      lambda       -0.1508740E-03
   maximum displ.:     0.3013760 α      in ANC's #2, #1, #9, ...
 * RMSD in coord.:     1.2350738 α      energy gain  -0.2684484E-02 Eh

generating ANC from exact Hessian ...
Using Lindh-Hessian (1995)
 Shifting diagonal of input Hessian by    1.0113864471419404E-002
 Lowest  eigenvalues of input Hessian
    0.010000    0.000000    0.000000    0.000000    0.000000    0.000000
    0.000000    0.010229    0.010270    0.010360    0.010370    0.010433
    0.010582    0.010631    0.010698    0.010865    0.010972    0.011034
 Highest eigenvalues
    2.147068    2.264936    2.324150    2.336680    2.449522    3.122895


........................................................................
.............................. CYCLE  220 ..............................
........................................................................

 iter      E             dE          RMSdq      gap      omega  full diag
   1   -191.2251995 -0.191225E+03  0.601E-02    1.02       0.0  T
   2   -191.2252024 -0.289451E-05  0.354E-02    1.03       1.0  T
   3   -191.2251928  0.956534E-05  0.853E-03    1.02       1.1  T
   4   -191.2252036 -0.107761E-04  0.184E-03    1.02       5.0  T
   5   -191.2252039 -0.288176E-06  0.899E-04    1.02      10.3  T
   6   -191.2252039 -0.171055E-07  0.470E-04    1.02      19.7  T
   7   -191.2252039 -0.131942E-07  0.184E-04    1.02      50.3  T
   8   -191.2252039 -0.232848E-08  0.857E-05    1.02     107.9  T
     SCC iter.                  ...        0 min,  0.261 sec
     gradient                   ...        0 min,  0.309 sec
 * total energy  :  -188.2572027 Eh     change       -0.1061564E-03 Eh
   gradient norm :     0.0038085 Eh/α   predicted     0.0000000E+00 (-100.00%)
   displ. norm   :     0.0413514 α      lambda       -0.2181201E-04
   maximum displ.:     0.0147444 α      in ANC's #35, #6, #1, ...

........................................................................
.............................. CYCLE  221 ..............................
........................................................................

 iter      E             dE          RMSdq      gap      omega  full diag
   1   -191.2248935 -0.191225E+03  0.963E-03    1.03       0.0  T
   2   -191.2248938 -0.296309E-06  0.585E-03    1.03       1.6  T
   3   -191.2248933  0.511273E-06  0.241E-03    1.03       3.8  T
   4   -191.2248939 -0.578310E-06  0.703E-04    1.03      13.1  T
   5   -191.2248939 -0.607036E-07  0.188E-04    1.03      49.2  T
   6   -191.2248939 -0.161259E-08  0.111E-04    1.03      83.1  T
     SCC iter.                  ...        0 min,  0.242 sec
     gradient                   ...        0 min,  0.377 sec
 * total energy  :  -188.2572385 Eh     change       -0.3585987E-04 Eh
   gradient norm :     0.0021055 Eh/α   predicted    -0.2186376E-04 ( -39.03%)
   displ. norm   :     0.1177061 α      lambda       -0.7457198E-04
   maximum displ.:     0.0416934 α      in ANC's #6, #35, #1, ...

........................................................................
.............................. CYCLE  222 ..............................
........................................................................

 iter      E             dE          RMSdq      gap      omega  full diag
   1   -191.2245878 -0.191225E+03  0.241E-02    1.03       0.0  T
   2   -191.2245890 -0.125688E-05  0.144E-02    1.03       1.0  T
   3   -191.2245863  0.267078E-05  0.521E-03    1.03       1.8  T
   4   -191.2245893 -0.296002E-05  0.144E-03    1.03       6.4  T
   5   -191.2245895 -0.246465E-06  0.401E-04    1.03      23.1  T
   6   -191.2245895 -0.523022E-08  0.249E-04    1.03      37.2  T
   7   -191.2245896 -0.279263E-08  0.107E-04    1.03      86.5  T
   8   -191.2245896 -0.607429E-09  0.464E-05    1.03     199.3  T
     SCC iter.                  ...        0 min,  0.295 sec
     gradient                   ...        0 min,  0.326 sec
 * total energy  :  -188.2572846 Eh     change       -0.4605934E-04 Eh
   gradient norm :     0.0018918 Eh/α   predicted    -0.3780284E-04 ( -17.93%)
   displ. norm   :     0.1148165 α      lambda       -0.2196699E-04
   maximum displ.:     0.0503574 α      in ANC's #6, #1, #27, ...

........................................................................
.............................. CYCLE  223 ..............................
........................................................................

 iter      E             dE          RMSdq      gap      omega  full diag
   1   -191.2247095 -0.191225E+03  0.193E-02    1.03       0.0  T
   2   -191.2247099 -0.384223E-06  0.114E-02    1.03       1.0  T
   3   -191.2247085  0.141987E-05  0.351E-03    1.03       2.6  T
   4   -191.2247100 -0.157401E-05  0.780E-04    1.03      11.8  T
   5   -191.2247101 -0.615486E-07  0.267E-04    1.03      34.6  T
   6   -191.2247101 -0.348678E-09  0.167E-04    1.03      55.5  T
   7   -191.2247101 -0.161583E-08  0.610E-05    1.03     151.5  T
     SCC iter.                  ...        0 min,  0.182 sec
     gradient                   ...        0 min,  0.343 sec
 * total energy  :  -188.2573094 Eh     change       -0.2481213E-04 Eh
   gradient norm :     0.0025881 Eh/α   predicted    -0.1141834E-04 ( -53.98%)
   displ. norm   :     0.1063219 α      lambda       -0.3185908E-04
   maximum displ.:     0.0500921 α      in ANC's #6, #1, #4, ...

........................................................................
.............................. CYCLE  224 ..............................
........................................................................

 iter      E             dE          RMSdq      gap      omega  full diag
   1   -191.2249200 -0.191225E+03  0.145E-02    1.03       0.0  T
   2   -191.2249202 -0.210412E-06  0.855E-03    1.03       1.1  T
   3   -191.2249192  0.105531E-05  0.282E-03    1.03       3.3  T
   4   -191.2249203 -0.118193E-05  0.499E-04    1.03      18.5  T
   5   -191.2249204 -0.198571E-07  0.216E-04    1.03      42.8  T
   6   -191.2249204 -0.664556E-09  0.109E-04    1.03      85.2  T
   7   -191.2249204 -0.620929E-09  0.345E-05    1.03     268.3  T
     SCC iter.                  ...        0 min,  0.240 sec
     gradient                   ...        0 min,  0.328 sec
 * total energy  :  -188.2573362 Eh     change       -0.2680443E-04 Eh
   gradient norm :     0.0020049 Eh/α   predicted    -0.1611276E-04 ( -39.89%)
   displ. norm   :     0.2059254 α      lambda       -0.5131185E-04
   maximum displ.:     0.0983784 α      in ANC's #6, #1, #4, ...

........................................................................
.............................. CYCLE  225 ..............................
........................................................................

 iter      E             dE          RMSdq      gap      omega  full diag
   1   -191.2249840 -0.191225E+03  0.251E-02    1.02       0.0  T
   2   -191.2249848 -0.788990E-06  0.148E-02    1.03       1.0  T
   3   -191.2249808  0.392482E-05  0.527E-03    1.02       1.8  T
   4   -191.2249852 -0.440650E-05  0.929E-04    1.03       9.9  T
   5   -191.2249853 -0.749809E-07  0.396E-04    1.03      23.3  T
   6   -191.2249853 -0.227649E-08  0.195E-04    1.03      47.5  T
   7   -191.2249853 -0.210565E-08  0.623E-05    1.03     148.4  T
     SCC iter.                  ...        0 min,  0.237 sec
     gradient                   ...        0 min,  0.332 sec
 * total energy  :  -188.2573725 Eh     change       -0.3623103E-04 Eh
   gradient norm :     0.0016511 Eh/α   predicted    -0.2676241E-04 ( -26.13%)
   displ. norm   :     0.2366856 α      lambda       -0.2636843E-04
   maximum displ.:     0.1155848 α      in ANC's #6, #1, #4, ...

........................................................................
.............................. CYCLE  226 ..............................
........................................................................

 iter      E             dE          RMSdq      gap      omega  full diag
   1   -191.2247505 -0.191225E+03  0.261E-02    1.02       0.0  T
   2   -191.2247515 -0.106124E-05  0.155E-02    1.02       1.0  T
   3   -191.2247459  0.567634E-05  0.623E-03    1.02       1.5  T
   4   -191.2247523 -0.641266E-05  0.990E-04    1.02       9.3  T
   5   -191.2247524 -0.896644E-07  0.423E-04    1.02      21.8  T
   6   -191.2247524 -0.191287E-08  0.215E-04    1.02      43.1  T
   7   -191.2247524 -0.297314E-08  0.741E-05    1.02     124.7  T
   8   -191.2247524 -0.332562E-09  0.395E-05    1.02     234.0  T
     SCC iter.                  ...        0 min,  0.306 sec
     gradient                   ...        0 min,  0.291 sec
 * total energy  :  -188.2573982 Eh     change       -0.2578766E-04 Eh
   gradient norm :     0.0020911 Eh/α   predicted    -0.1351330E-04 ( -47.60%)
   displ. norm   :     0.0827142 α      lambda       -0.1867033E-04
   maximum displ.:     0.0412105 α      in ANC's #6, #4, #1, ...

........................................................................
.............................. CYCLE  227 ..............................
........................................................................

 iter      E             dE          RMSdq      gap      omega  full diag
   1   -191.2249827 -0.191225E+03  0.915E-03    1.02       0.0  T
   2   -191.2249829 -0.191738E-06  0.555E-03    1.02       1.7  T
   3   -191.2249818  0.106967E-05  0.292E-03    1.02       3.2  T
   4   -191.2249831 -0.127092E-05  0.362E-04    1.02      25.5  T
   5   -191.2249831 -0.118903E-07  0.156E-04    1.02      59.2  T
   6   -191.2249831 -0.481180E-09  0.871E-05    1.02     106.1  T
     SCC iter.                  ...        0 min,  0.206 sec
     gradient                   ...        0 min,  0.334 sec
 * total energy  :  -188.2574147 Eh     change       -0.1641420E-04 Eh
   gradient norm :     0.0017119 Eh/α   predicted    -0.9399436E-05 ( -42.74%)
   displ. norm   :     0.2566085 α      lambda       -0.4227449E-04
   maximum displ.:     0.1319118 α      in ANC's #4, #6, #1, ...

........................................................................
.............................. CYCLE  228 ..............................
........................................................................

 iter      E             dE          RMSdq      gap      omega  full diag
   1   -191.2251939 -0.191225E+03  0.309E-02    1.02       0.0  T
   2   -191.2251959 -0.198114E-05  0.187E-02    1.03       1.0  T
   3   -191.2251843  0.116420E-04  0.961E-03    1.02       1.0  T
   4   -191.2251980 -0.137527E-04  0.119E-03    1.03       7.8  T
   5   -191.2251981 -0.134159E-06  0.505E-04    1.03      18.3  T
   6   -191.2251982 -0.601764E-08  0.283E-04    1.03      32.7  T
   7   -191.2251982 -0.377790E-08  0.131E-04    1.03      70.7  T
   8   -191.2251982 -0.121364E-08  0.589E-05    1.03     157.1  T
     SCC iter.                  ...        0 min,  0.218 sec
     gradient                   ...        0 min,  0.278 sec
 * total energy  :  -188.2574534 Eh     change       -0.3873235E-04 Eh
   gradient norm :     0.0020324 Eh/α   predicted    -0.2175686E-04 ( -43.83%)
   displ. norm   :     0.1711862 α      lambda        0.1750733E-04
   maximum displ.:     0.0880011 α      in ANC's #4, #6, #1, ...

........................................................................
.............................. CYCLE  229 ..............................
........................................................................

 iter      E             dE          RMSdq      gap      omega  full diag
   1   -191.2250723 -0.191225E+03  0.206E-02    1.02       0.0  T
   2   -191.2250732 -0.909812E-06  0.125E-02    1.03       1.0  T
   3   -191.2250680  0.518561E-05  0.645E-03    1.03       1.4  T
   4   -191.2250742 -0.614178E-05  0.803E-04    1.03      11.5  T
   5   -191.2250742 -0.620908E-07  0.338E-04    1.03      27.3  T
   6   -191.2250742 -0.273624E-08  0.190E-04    1.03      48.6  T
   7   -191.2250742 -0.172929E-08  0.881E-05    1.03     105.0  T
     SCC iter.                  ...        0 min,  0.194 sec
     gradient                   ...        0 min,  0.291 sec
 * total energy  :  -188.2574518 Eh     change        0.1590905E-05 Eh
   gradient norm :     0.0035968 Eh/α   predicted     0.9010214E-05 ( 466.36%)
   displ. norm   :     0.0307940 α      lambda       -0.2179135E-04
   maximum displ.:     0.0111147 α      in ANC's #4, #26, #6, ...

........................................................................
.............................. CYCLE  230 ..............................
........................................................................

 iter      E             dE          RMSdq      gap      omega  full diag
   1   -191.2249777 -0.191225E+03  0.946E-03    1.03       0.0  T
   2   -191.2249779 -0.179213E-06  0.562E-03    1.03       1.6  T
   3   -191.2249770  0.909197E-06  0.295E-03    1.03       3.1  T
   4   -191.2249781 -0.108900E-05  0.348E-04    1.03      26.6  T
   5   -191.2249781 -0.106198E-07  0.138E-04    1.03      66.8  T
   6   -191.2249781 -0.630394E-09  0.847E-05    1.03     109.1  T
     SCC iter.                  ...        0 min,  0.158 sec
     gradient                   ...        0 min,  0.305 sec
 * total energy  :  -188.2574687 Eh     change       -0.1689654E-04 Eh
   gradient norm :     0.0022265 Eh/α   predicted    -0.1090973E-04 ( -35.43%)
   displ. norm   :     0.0843572 α      lambda       -0.3397480E-04
   maximum displ.:     0.0436421 α      in ANC's #1, #4, #6, ...

........................................................................
.............................. CYCLE  231 ..............................
........................................................................

 iter      E             dE          RMSdq      gap      omega  full diag
   1   -191.2249068 -0.191225E+03  0.154E-02    1.03       0.0  T
   2   -191.2249072 -0.385343E-06  0.907E-03    1.03       1.0  T
   3   -191.2249055  0.160916E-05  0.397E-03    1.03       2.3  T
   4   -191.2249074 -0.186182E-05  0.627E-04    1.03      14.7  T
   5   -191.2249074 -0.327953E-07  0.228E-04    1.03      40.6  T
   6   -191.2249074 -0.971681E-09  0.144E-04    1.03      64.2  T
   7   -191.2249074 -0.131644E-08  0.659E-05    1.03     140.2  T
     SCC iter.                  ...        0 min,  0.220 sec
     gradient                   ...        0 min,  0.319 sec
 * total energy  :  -188.2574931 Eh     change       -0.2444864E-04 Eh
   gradient norm :     0.0008366 Eh/α   predicted    -0.1711117E-04 ( -30.01%)
   displ. norm   :     0.2464437 α      lambda       -0.2740385E-04
   maximum displ.:     0.1309201 α      in ANC's #1, #4, #6, ...

........................................................................
.............................. CYCLE  232 ..............................
........................................................................

 iter      E             dE          RMSdq      gap      omega  full diag
   1   -191.2247736 -0.191225E+03  0.257E-02    1.04       0.0  T
   2   -191.2247745 -0.851146E-06  0.153E-02    1.04       1.0  T
   3   -191.2247717  0.274290E-05  0.465E-03    1.04       2.0  T
   4   -191.2247747 -0.300689E-05  0.122E-03    1.04       7.6  T
   5   -191.2247749 -0.166074E-06  0.417E-04    1.04      22.2  T
   6   -191.2247749 -0.143856E-08  0.247E-04    1.04      37.4  T
   7   -191.2247749 -0.376323E-08  0.929E-05    1.04      99.5  T
   8   -191.2247749 -0.603734E-09  0.410E-05    1.04     225.6  T
     SCC iter.                  ...        0 min,  0.246 sec
     gradient                   ...        0 min,  0.281 sec
 * total energy  :  -188.2575209 Eh     change       -0.2773052E-04 Eh
   gradient norm :     0.0022920 Eh/α   predicted    -0.1407412E-04 ( -49.25%)
   displ. norm   :     0.1596418 α      lambda       -0.2068328E-04
   maximum displ.:     0.0854809 α      in ANC's #1, #4, #6, ...

........................................................................
.............................. CYCLE  233 ..............................
........................................................................

 iter      E             dE          RMSdq      gap      omega  full diag
   1   -191.2247399 -0.191225E+03  0.135E-02    1.04       0.0  T
   2   -191.2247402 -0.284006E-06  0.826E-03    1.04       1.1  T
   3   -191.2247385  0.163878E-05  0.333E-03    1.04       2.8  T
   4   -191.2247404 -0.184613E-05  0.606E-04    1.04      15.3  T
   5   -191.2247404 -0.447602E-07  0.240E-04    1.04      38.4  T
   6   -191.2247404 -0.935302E-09  0.128E-04    1.04      72.1  T
   7   -191.2247404 -0.916941E-09  0.379E-05    1.04     244.0  T
     SCC iter.                  ...        0 min,  0.181 sec
     gradient                   ...        0 min,  0.269 sec
 * total energy  :  -188.2575389 Eh     change       -0.1806154E-04 Eh
   gradient norm :     0.0020694 Eh/α   predicted    -0.1061028E-04 ( -41.25%)
   displ. norm   :     0.2365086 α      lambda       -0.2953879E-04
   maximum displ.:     0.1294279 α      in ANC's #1, #4, #6, ...

........................................................................
.............................. CYCLE  234 ..............................
........................................................................

 iter      E             dE          RMSdq      gap      omega  full diag
   1   -191.2247711 -0.191225E+03  0.197E-02    1.04       0.0  T
   2   -191.2247718 -0.634395E-06  0.121E-02    1.05       1.0  T
   3   -191.2247678  0.398139E-05  0.536E-03    1.05       1.7  T
   4   -191.2247724 -0.455741E-05  0.869E-04    1.05      10.6  T
   5   -191.2247724 -0.851047E-07  0.359E-04    1.05      25.7  T
   6   -191.2247724 -0.213120E-08  0.194E-04    1.05      47.8  T
   7   -191.2247724 -0.202587E-08  0.576E-05    1.05     160.6  T
     SCC iter.                  ...        0 min,  0.214 sec
     gradient                   ...        0 min,  0.342 sec
 * total energy  :  -188.2575623 Eh     change       -0.2331808E-04 Eh
   gradient norm :     0.0013724 Eh/α   predicted    -0.1559908E-04 ( -33.10%)
   displ. norm   :     0.3227273 α      lambda       -0.2073940E-04
   maximum displ.:     0.1839629 α      in ANC's #1, #4, #6, ...

........................................................................
.............................. CYCLE  235 ..............................
........................................................................

 iter      E             dE          RMSdq      gap      omega  full diag
   1   -191.2246647 -0.191225E+03  0.272E-02    1.05       0.0  T
   2   -191.2246658 -0.108987E-05  0.165E-02    1.05       1.0  T
   3   -191.2246586  0.720041E-05  0.716E-03    1.05       1.3  T
   4   -191.2246668 -0.820970E-05  0.119E-03    1.05       7.8  T
   5   -191.2246670 -0.155045E-06  0.509E-04    1.05      18.2  T
   6   -191.2246670 -0.393501E-08  0.272E-04    1.05      34.0  T
   7   -191.2246670 -0.418910E-08  0.805E-05    1.05     114.9  T
   8   -191.2246670 -0.250395E-09  0.463E-05    1.05     199.6  T
     SCC iter.                  ...        0 min,  0.325 sec
     gradient                   ...        0 min,  0.329 sec
 * total energy  :  -188.2575840 Eh     change       -0.2171496E-04 Eh
   gradient norm :     0.0010965 Eh/α   predicted    -0.1085023E-04 ( -50.03%)
   displ. norm   :     0.1537586 α      lambda       -0.1132885E-04
   maximum displ.:     0.0948940 α      in ANC's #1, #4, #6, ...

........................................................................
.............................. CYCLE  236 ..............................
........................................................................

 iter      E             dE          RMSdq      gap      omega  full diag
   1   -191.2250433 -0.191225E+03  0.146E-02    1.05       0.0  T
   2   -191.2250436 -0.246821E-06  0.869E-03    1.05       1.1  T
   3   -191.2250422  0.136315E-05  0.307E-03    1.05       3.0  T
   4   -191.2250437 -0.152026E-05  0.622E-04    1.05      14.9  T
   5   -191.2250438 -0.449932E-07  0.278E-04    1.05      33.3  T
   6   -191.2250438 -0.147853E-08  0.150E-04    1.05      61.6  T
   7   -191.2250438 -0.122574E-08  0.511E-05    1.05     180.9  T
     SCC iter.                  ...        0 min,  0.267 sec
     gradient                   ...        0 min,  0.305 sec
 * total energy  :  -188.2575986 Eh     change       -0.1467810E-04 Eh
   gradient norm :     0.0008599 Eh/α   predicted    -0.5726569E-05 ( -60.99%)
   displ. norm   :     0.1597659 α      lambda       -0.1649478E-04
   maximum displ.:     0.1010913 α      in ANC's #1, #4, #6, ...

........................................................................
.............................. CYCLE  237 ..............................
........................................................................

 iter      E             dE          RMSdq      gap      omega  full diag
   1   -191.2254264 -0.191225E+03  0.182E-02    1.05       0.0  T
   2   -191.2254269 -0.458379E-06  0.107E-02    1.05       1.0  T
   3   -191.2254253  0.159777E-05  0.353E-03    1.05       2.6  T
   4   -191.2254271 -0.179002E-05  0.763E-04    1.05      12.1  T
   5   -191.2254271 -0.605964E-07  0.334E-04    1.05      27.7  T
   6   -191.2254272 -0.294804E-08  0.176E-04    1.05      52.4  T
   7   -191.2254272 -0.151047E-08  0.691E-05    1.05     133.8  T
     SCC iter.                  ...        0 min,  0.304 sec
     gradient                   ...        0 min,  0.357 sec
 * total energy  :  -188.2576183 Eh     change       -0.1969933E-04 Eh
   gradient norm :     0.0008296 Eh/α   predicted    -0.8342703E-05 ( -57.65%)
   displ. norm   :     0.1828830 α      lambda       -0.1551098E-04
   maximum displ.:     0.1169412 α      in ANC's #1, #4, #15, ...

........................................................................
.............................. CYCLE  238 ..............................
........................................................................

 iter      E             dE          RMSdq      gap      omega  full diag
   1   -191.2254488 -0.191225E+03  0.204E-02    1.05       0.0  T
   2   -191.2254494 -0.597903E-06  0.120E-02    1.04       1.0  T
   3   -191.2254465  0.293759E-05  0.475E-03    1.04       1.9  T
   4   -191.2254498 -0.330870E-05  0.828E-04    1.04      11.2  T
   5   -191.2254498 -0.653359E-07  0.359E-04    1.04      25.7  T
   6   -191.2254498 -0.322541E-08  0.199E-04    1.04      46.5  T
   7   -191.2254498 -0.193509E-08  0.778E-05    1.04     118.9  T
     SCC iter.                  ...        0 min,  0.281 sec
     gradient                   ...        0 min,  0.410 sec
 * total energy  :  -188.2576356 Eh     change       -0.1726816E-04 Eh
   gradient norm :     0.0013044 Eh/α   predicted    -0.7873273E-05 ( -54.41%)
   displ. norm   :     0.1593164 α      lambda       -0.1179075E-04
   maximum displ.:     0.1028237 α      in ANC's #1, #4, #15, ...

........................................................................
.............................. CYCLE  239 ..............................
........................................................................

 iter      E             dE          RMSdq      gap      omega  full diag
   1   -191.2254824 -0.191225E+03  0.171E-02    1.04       0.0  T
   2   -191.2254829 -0.467727E-06  0.100E-02    1.04       1.0  T
   3   -191.2254809  0.197498E-05  0.396E-03    1.04       2.3  T
   4   -191.2254832 -0.223152E-05  0.673E-04    1.04      13.7  T
   5   -191.2254832 -0.425958E-07  0.272E-04    1.04      34.0  T
   6   -191.2254832 -0.141685E-08  0.145E-04    1.04      63.6  T
   7   -191.2254832 -0.973046E-09  0.591E-05    1.04     156.5  T
     SCC iter.                  ...        0 min,  0.244 sec
     gradient                   ...        0 min,  0.415 sec
 * total energy  :  -188.2576498 Eh     change       -0.1417641E-04 Eh
   gradient norm :     0.0013054 Eh/α   predicted    -0.5965145E-05 ( -57.92%)
   displ. norm   :     0.1464349 α      lambda       -0.1211452E-04
   maximum displ.:     0.0952880 α      in ANC's #1, #4, #5, ...

........................................................................
.............................. CYCLE  240 ..............................
........................................................................

 iter      E             dE          RMSdq      gap      omega  full diag
   1   -191.2253963 -0.191225E+03  0.155E-02    1.04       0.0  T
   2   -191.2253966 -0.296923E-06  0.906E-03    1.04       1.0  T
   3   -191.2253950  0.161301E-05  0.357E-03    1.04       2.6  T
   4   -191.2253968 -0.182123E-05  0.527E-04    1.04      17.5  T
   5   -191.2253969 -0.206255E-07  0.233E-04    1.04      39.7  T
   6   -191.2253969 -0.807148E-09  0.123E-04    1.04      75.4  T
   7   -191.2253969 -0.751413E-09  0.474E-05    1.04     195.1  T
     SCC iter.                  ...        0 min,  0.264 sec
     gradient                   ...        0 min,  0.276 sec
 * total energy  :  -188.2576658 Eh     change       -0.1601493E-04 Eh
   gradient norm :     0.0009794 Eh/α   predicted    -0.6119963E-05 ( -61.79%)
   displ. norm   :     0.1907860 α      lambda       -0.1735396E-04
   maximum displ.:     0.1226721 α      in ANC's #1, #4, #5, ...

........................................................................
.............................. CYCLE  241 ..............................
........................................................................

 iter      E             dE          RMSdq      gap      omega  full diag
   1   -191.2252219 -0.191225E+03  0.199E-02    1.04       0.0  T
   2   -191.2252224 -0.457556E-06  0.116E-02    1.04       1.0  T
   3   -191.2252202  0.216085E-05  0.421E-03    1.04       2.2  T
   4   -191.2252226 -0.244276E-05  0.681E-04    1.04      13.6  T
   5   -191.2252227 -0.318289E-07  0.298E-04    1.04      31.0  T
   6   -191.2252227 -0.143237E-08  0.152E-04    1.04      61.0  T
   7   -191.2252227 -0.120718E-08  0.544E-05    1.04     170.1  T
     SCC iter.                  ...        0 min,  0.225 sec
     gradient                   ...        0 min,  0.278 sec
 * total energy  :  -188.2576877 Eh     change       -0.2193254E-04 Eh
   gradient norm :     0.0005112 Eh/α   predicted    -0.8822328E-05 ( -59.78%)
   displ. norm   :     0.2190436 α      lambda       -0.1754188E-04
   maximum displ.:     0.1447517 α      in ANC's #1, #4, #5, ...

........................................................................
.............................. CYCLE  242 ..............................
........................................................................

 iter      E             dE          RMSdq      gap      omega  full diag
   1   -191.2248239 -0.191225E+03  0.213E-02    1.05       0.0  T
   2   -191.2248243 -0.450372E-06  0.125E-02    1.04       1.0  T
   3   -191.2248222  0.209309E-05  0.411E-03    1.04       2.2  T
   4   -191.2248246 -0.236046E-05  0.712E-04    1.04      13.0  T
   5   -191.2248246 -0.376611E-07  0.311E-04    1.04      29.7  T
   6   -191.2248246 -0.141881E-08  0.170E-04    1.04      54.4  T
   7   -191.2248246 -0.170812E-08  0.632E-05    1.04     146.3  T
     SCC iter.                  ...        0 min,  0.178 sec
     gradient                   ...        0 min,  0.264 sec
 * total energy  :  -188.2577088 Eh     change       -0.2101141E-04 Eh
   gradient norm :     0.0010583 Eh/α   predicted    -0.8958870E-05 ( -57.36%)
   displ. norm   :     0.1832025 α      lambda       -0.1290198E-04
   maximum displ.:     0.1235230 α      in ANC's #1, #4, #5, ...

........................................................................
.............................. CYCLE  243 ..............................
........................................................................

 iter      E             dE          RMSdq      gap      omega  full diag
   1   -191.2248573 -0.191225E+03  0.163E-02    1.05       0.0  T
   2   -191.2248576 -0.223030E-06  0.960E-03    1.04       1.0  T
   3   -191.2248565  0.102567E-05  0.279E-03    1.04       3.3  T
   4   -191.2248577 -0.114614E-05  0.527E-04    1.04      17.5  T
   5   -191.2248577 -0.246048E-07  0.223E-04    1.04      41.5  T
   6   -191.2248577 -0.844636E-09  0.130E-04    1.04      71.3  T
   7   -191.2248577 -0.110984E-08  0.452E-05    1.04     204.4  T
     SCC iter.                  ...        0 min,  0.225 sec
     gradient                   ...        0 min,  0.277 sec
 * total energy  :  -188.2577251 Eh     change       -0.1638452E-04 Eh
   gradient norm :     0.0012189 Eh/α   predicted    -0.6549397E-05 ( -60.03%)
   displ. norm   :     0.1633194 α      lambda       -0.1224698E-04
   maximum displ.:     0.1127326 α      in ANC's #1, #4, #5, ...

........................................................................
.............................. CYCLE  244 ..............................
........................................................................

 iter      E             dE          RMSdq      gap      omega  full diag
   1   -191.2249018 -0.191225E+03  0.140E-02    1.05       0.0  T
   2   -191.2249019 -0.114043E-06  0.831E-03    1.05       1.1  T
   3   -191.2249011  0.799659E-06  0.230E-03    1.05       4.0  T
   4   -191.2249020 -0.878927E-06  0.438E-04    1.05      21.1  T
   5   -191.2249020 -0.216955E-07  0.178E-04    1.05      51.8  T
   6   -191.2249020 -0.369965E-09  0.114E-04    1.05      81.1  T
     SCC iter.                  ...        0 min,  0.171 sec
     gradient                   ...        0 min,  0.272 sec
 * total energy  :  -188.2577414 Eh     change       -0.1631105E-04 Eh
   gradient norm :     0.0011715 Eh/α   predicted    -0.6198343E-05 ( -62.00%)
   displ. norm   :     0.1771682 α      lambda       -0.1431370E-04
   maximum displ.:     0.1235620 α      in ANC's #1, #4, #5, ...

........................................................................
.............................. CYCLE  245 ..............................
........................................................................

 iter      E             dE          RMSdq      gap      omega  full diag
   1   -191.2250768 -0.191225E+03  0.153E-02    1.05       0.0  T
   2   -191.2250770 -0.148578E-06  0.911E-03    1.05       1.0  T
   3   -191.2250760  0.102495E-05  0.263E-03    1.05       3.5  T
   4   -191.2250771 -0.112434E-05  0.542E-04    1.05      17.1  T
   5   -191.2250771 -0.319101E-07  0.219E-04    1.05      42.2  T
   6   -191.2250771  0.225981E-09  0.144E-04    1.05      64.0  T
   7   -191.2250771 -0.163485E-08  0.377E-05    1.05     245.2  T
     SCC iter.                  ...        0 min,  0.202 sec
     gradient                   ...        0 min,  0.267 sec
 * total energy  :  -188.2577601 Eh     change       -0.1867946E-04 Eh
   gradient norm :     0.0007671 Eh/α   predicted    -0.7259063E-05 ( -61.14%)
   displ. norm   :     0.1926410 α      lambda       -0.1427205E-04
   maximum displ.:     0.1354105 α      in ANC's #1, #4, #2, ...

........................................................................
.............................. CYCLE  246 ..............................
........................................................................

 iter      E             dE          RMSdq      gap      omega  full diag
   1   -191.2251041 -0.191225E+03  0.170E-02    1.05       0.0  T
   2   -191.2251043 -0.213378E-06  0.102E-02    1.05       1.0  T
   3   -191.2251027  0.158066E-05  0.329E-03    1.05       2.8  T
   4   -191.2251045 -0.174758E-05  0.636E-04    1.05      14.5  T
   5   -191.2251045 -0.419714E-07  0.264E-04    1.05      35.1  T
   6   -191.2251045  0.108176E-08  0.164E-04    1.05      56.2  T
   7   -191.2251045 -0.242164E-08  0.494E-05    1.05     187.3  T
     SCC iter.                  ...        0 min,  0.226 sec
     gradient                   ...        0 min,  0.267 sec
 * total energy  :  -188.2577784 Eh     change       -0.1825252E-04 Eh
   gradient norm :     0.0004666 Eh/α   predicted    -0.7257203E-05 ( -60.24%)
   displ. norm   :     0.1721403 α      lambda       -0.1126726E-04
   maximum displ.:     0.1228599 α      in ANC's #1, #4, #2, ...

........................................................................
.............................. CYCLE  247 ..............................
........................................................................

 iter      E             dE          RMSdq      gap      omega  full diag
   1   -191.2252695 -0.191225E+03  0.148E-02    1.05       0.0  T
   2   -191.2252697 -0.176525E-06  0.888E-03    1.05       1.0  T
   3   -191.2252685  0.124315E-05  0.297E-03    1.05       3.1  T
   4   -191.2252698 -0.138465E-05  0.556E-04    1.05      16.6  T
   5   -191.2252699 -0.296789E-07  0.243E-04    1.05      38.0  T
   6   -191.2252699  0.563432E-09  0.132E-04    1.05      70.2  T
   7   -191.2252699 -0.146167E-08  0.436E-05    1.05     212.2  T
     SCC iter.                  ...        0 min,  0.210 sec
     gradient                   ...        0 min,  0.293 sec
 * total energy  :  -188.2577930 Eh     change       -0.1464579E-04 Eh
   gradient norm :     0.0005390 Eh/α   predicted    -0.5710507E-05 ( -61.01%)
   displ. norm   :     0.1370921 α      lambda       -0.8777998E-05
   maximum displ.:     0.0987255 α      in ANC's #1, #4, #2, ...

........................................................................
.............................. CYCLE  248 ..............................
........................................................................

 iter      E             dE          RMSdq      gap      omega  full diag
   1   -191.2253461 -0.191225E+03  0.121E-02    1.05       0.0  T
   2   -191.2253462 -0.109586E-06  0.724E-03    1.05       1.3  T
   3   -191.2253453  0.834920E-06  0.242E-03    1.05       3.8  T
   4   -191.2253463 -0.930563E-06  0.425E-04    1.05      21.8  T
   5   -191.2253463 -0.168497E-07  0.196E-04    1.05      47.1  T
   6   -191.2253463  0.143956E-09  0.101E-04    1.05      91.2  T
     SCC iter.                  ...        0 min,  0.182 sec
     gradient                   ...        0 min,  0.280 sec
 * total energy  :  -188.2578049 Eh     change       -0.1186392E-04 Eh
   gradient norm :     0.0006625 Eh/α   predicted    -0.4429905E-05 ( -62.66%)
   displ. norm   :     0.1186511 α      lambda       -0.8157493E-05
   maximum displ.:     0.0852929 α      in ANC's #1, #4, #2, ...

........................................................................
.............................. CYCLE  249 ..............................
........................................................................

 iter      E             dE          RMSdq      gap      omega  full diag
   1   -191.2253955 -0.191225E+03  0.108E-02    1.05       0.0  T
   2   -191.2253956 -0.740658E-07  0.642E-03    1.05       1.4  T
   3   -191.2253950  0.596439E-06  0.202E-03    1.05       4.6  T
   4   -191.2253957 -0.663540E-06  0.340E-04    1.05      27.2  T
   5   -191.2253957 -0.968038E-08  0.168E-04    1.05      55.1  T
   6   -191.2253957  0.729301E-10  0.935E-05    1.05      98.8  T
     SCC iter.                  ...        0 min,  0.163 sec
     gradient                   ...        0 min,  0.273 sec
 * total energy  :  -188.2578161 Eh     change       -0.1117101E-04 Eh
   gradient norm :     0.0006518 Eh/α   predicted    -0.4107182E-05 ( -63.23%)
   displ. norm   :     0.1202876 α      lambda       -0.8540541E-05
   maximum displ.:     0.0857500 α      in ANC's #1, #4, #2, ...

........................................................................
.............................. CYCLE  250 ..............................
........................................................................

 iter      E             dE          RMSdq      gap      omega  full diag
   1   -191.2254372 -0.191225E+03  0.111E-02    1.05       0.0  T
   2   -191.2254373 -0.620191E-07  0.660E-03    1.05       1.4  T
   3   -191.2254368  0.443880E-06  0.172E-03    1.05       5.4  T
   4   -191.2254373 -0.491807E-06  0.309E-04    1.05      29.9  T
   5   -191.2254373 -0.751638E-08  0.158E-04    1.05      58.7  T
   6   -191.2254373 -0.888463E-10  0.908E-05    1.05     101.8  T
     SCC iter.                  ...        0 min,  0.195 sec
     gradient                   ...        0 min,  0.273 sec
 * total energy  :  -188.2578278 Eh     change       -0.1169452E-04 Eh
   gradient norm :     0.0005621 Eh/α   predicted    -0.4299728E-05 ( -63.23%)
   displ. norm   :     0.1263022 α      lambda       -0.8788035E-05
   maximum displ.:     0.0902696 α      in ANC's #1, #4, #2, ...

........................................................................
.............................. CYCLE  251 ..............................
........................................................................

 iter      E             dE          RMSdq      gap      omega  full diag
   1   -191.2253818 -0.191225E+03  0.114E-02    1.05       0.0  T
   2   -191.2253819 -0.657168E-07  0.671E-03    1.05       1.4  T
   3   -191.2253815  0.418771E-06  0.164E-03    1.05       5.6  T
   4   -191.2253819 -0.463591E-06  0.302E-04    1.05      30.7  T
   5   -191.2253819 -0.685179E-08  0.154E-04    1.05      60.2  T
   6   -191.2253819 -0.152568E-09  0.856E-05    1.05     108.0  T
     SCC iter.                  ...        0 min,  0.148 sec
     gradient                   ...        0 min,  0.272 sec
 * total energy  :  -188.2578398 Eh     change       -0.1208173E-04 Eh
   gradient norm :     0.0004063 Eh/α   predicted    -0.4426892E-05 ( -63.36%)
   displ. norm   :     0.1295144 α      lambda       -0.8797506E-05
   maximum displ.:     0.0930730 α      in ANC's #1, #2, #4, ...

........................................................................
.............................. CYCLE  252 ..............................
........................................................................

 iter      E             dE          RMSdq      gap      omega  full diag
   1   -191.2254225 -0.191225E+03  0.111E-02    1.05       0.0  T
   2   -191.2254225 -0.644902E-07  0.652E-03    1.05       1.4  T
   3   -191.2254222  0.292337E-06  0.141E-03    1.05       6.6  T
   4   -191.2254226 -0.326790E-06  0.274E-04    1.05      33.7  T
   5   -191.2254226 -0.498252E-08  0.142E-04    1.05      65.1  T
   6   -191.2254226 -0.326537E-09  0.737E-05    1.05     125.5  T
     SCC iter.                  ...        0 min,  0.195 sec
     gradient                   ...        0 min,  0.305 sec
 * total energy  :  -188.2578520 Eh     change       -0.1218873E-04 Eh
   gradient norm :     0.0003828 Eh/α   predicted    -0.4433197E-05 ( -63.63%)
   displ. norm   :     0.1342174 α      lambda       -0.9049503E-05
   maximum displ.:     0.0968377 α      in ANC's #1, #2, #4, ...

........................................................................
.............................. CYCLE  253 ..............................
........................................................................

 iter      E             dE          RMSdq      gap      omega  full diag
   1   -191.2253767 -0.191225E+03  0.112E-02    1.05       0.0  T
   2   -191.2253768 -0.763875E-07  0.655E-03    1.05       1.4  T
   3   -191.2253764  0.391936E-06  0.164E-03    1.05       5.6  T
   4   -191.2253768 -0.439309E-06  0.264E-04    1.05      35.0  T
   5   -191.2253768 -0.424021E-08  0.140E-04    1.05      66.0  T
   6   -191.2253768 -0.386081E-09  0.701E-05    1.05     131.9  T
     SCC iter.                  ...        0 min,  0.165 sec
     gradient                   ...        0 min,  0.296 sec
 * total energy  :  -188.2578647 Eh     change       -0.1264190E-04 Eh
   gradient norm :     0.0004327 Eh/α   predicted    -0.4565549E-05 ( -63.89%)
   displ. norm   :     0.1465160 α      lambda       -0.9878102E-05
   maximum displ.:     0.1059342 α      in ANC's #1, #2, #4, ...

........................................................................
.............................. CYCLE  254 ..............................
........................................................................

 iter      E             dE          RMSdq      gap      omega  full diag
   1   -191.2253922 -0.191225E+03  0.120E-02    1.05       0.0  T
   2   -191.2253923 -0.878868E-07  0.706E-03    1.05       1.3  T
   3   -191.2253918  0.495666E-06  0.189E-03    1.05       4.9  T
   4   -191.2253923 -0.558946E-06  0.256E-04    1.05      36.1  T
   5   -191.2253923 -0.322336E-08  0.142E-04    1.05      65.3  T
   6   -191.2253923 -0.465803E-09  0.677E-05    1.05     136.6  T
     SCC iter.                  ...        0 min,  0.189 sec
     gradient                   ...        0 min,  0.327 sec
 * total energy  :  -188.2578784 Eh     change       -0.1376747E-04 Eh
   gradient norm :     0.0005101 Eh/α   predicted    -0.4987172E-05 ( -63.78%)
   displ. norm   :     0.1652042 α      lambda       -0.1077778E-04
   maximum displ.:     0.1190327 α      in ANC's #1, #2, #4, ...

........................................................................
.............................. CYCLE  255 ..............................
........................................................................

 iter      E             dE          RMSdq      gap      omega  full diag
   1   -191.2253719 -0.191225E+03  0.138E-02    1.05       0.0  T
   2   -191.2253721 -0.109387E-06  0.810E-03    1.05       1.1  T
   3   -191.2253713  0.716609E-06  0.227E-03    1.05       4.1  T
   4   -191.2253721 -0.806815E-06  0.275E-04    1.05      33.6  T
   5   -191.2253722 -0.378844E-08  0.155E-04    1.05      59.7  T
   6   -191.2253722 -0.632241E-09  0.792E-05    1.05     116.7  T
     SCC iter.                  ...        0 min,  0.228 sec
     gradient                   ...        0 min,  0.360 sec
 * total energy  :  -188.2578934 Eh     change       -0.1499503E-04 Eh
   gradient norm :     0.0005318 Eh/α   predicted    -0.5458132E-05 ( -63.60%)
   displ. norm   :     0.1884011 α      lambda       -0.1165302E-04
   maximum displ.:     0.1354732 α      in ANC's #1, #2, #4, ...

........................................................................
.............................. CYCLE  256 ..............................
........................................................................

 iter      E             dE          RMSdq      gap      omega  full diag
   1   -191.2253262 -0.191225E+03  0.158E-02    1.05       0.0  T
   2   -191.2253264 -0.125278E-06  0.930E-03    1.05       1.0  T
   3   -191.2253254  0.944552E-06  0.258E-03    1.05       3.6  T
   4   -191.2253265 -0.106148E-05  0.304E-04    1.05      30.5  T
   5   -191.2253265 -0.437126E-08  0.176E-04    1.05      52.4  T
   6   -191.2253265 -0.871864E-09  0.948E-05    1.05      97.5  T
     SCC iter.                  ...        0 min,  0.244 sec
     gradient                   ...        0 min,  0.364 sec
 * total energy  :  -188.2579094 Eh     change       -0.1601462E-04 Eh
   gradient norm :     0.0004934 Eh/α   predicted    -0.5919840E-05 ( -63.03%)
   displ. norm   :     0.1991078 α      lambda       -0.1133685E-04
   maximum displ.:     0.1428552 α      in ANC's #1, #2, #4, ...

........................................................................
.............................. CYCLE  257 ..............................
........................................................................

 iter      E             dE          RMSdq      gap      omega  full diag
   1   -191.2253601 -0.191225E+03  0.167E-02    1.05       0.0  T
   2   -191.2253602 -0.117693E-06  0.980E-03    1.05       1.0  T
   3   -191.2253593  0.886183E-06  0.248E-03    1.05       3.7  T
   4   -191.2253603 -0.995236E-06  0.301E-04    1.05      30.8  T
   5   -191.2253603 -0.438035E-08  0.176E-04    1.05      52.5  T
   6   -191.2253603 -0.967702E-09  0.965E-05    1.05      95.8  T
     SCC iter.                  ...        0 min,  0.291 sec
     gradient                   ...        0 min,  0.296 sec
 * total energy  :  -188.2579251 Eh     change       -0.1562293E-04 Eh
   gradient norm :     0.0003775 Eh/α   predicted    -0.5771585E-05 ( -63.06%)
   displ. norm   :     0.2039424 α      lambda       -0.1082758E-04
   maximum displ.:     0.1460945 α      in ANC's #1, #2, #4, ...

........................................................................
.............................. CYCLE  258 ..............................
........................................................................

 iter      E             dE          RMSdq      gap      omega  full diag
   1   -191.2253201 -0.191225E+03  0.169E-02    1.05       0.0  T
   2   -191.2253202 -0.105525E-06  0.994E-03    1.05       1.0  T
   3   -191.2253194  0.851639E-06  0.237E-03    1.05       3.9  T
   4   -191.2253203 -0.953773E-06  0.312E-04    1.05      29.7  T
   5   -191.2253203 -0.490678E-08  0.181E-04    1.05      51.2  T
   6   -191.2253203 -0.864077E-09  0.988E-05    1.05      93.6  T
     SCC iter.                  ...        0 min,  0.239 sec
     gradient                   ...        0 min,  0.335 sec
 * total energy  :  -188.2579401 Eh     change       -0.1500852E-04 Eh
   gradient norm :     0.0003439 Eh/α   predicted    -0.5516439E-05 ( -63.24%)
   displ. norm   :     0.2018187 α      lambda       -0.1032823E-04
   maximum displ.:     0.1442985 α      in ANC's #1, #2, #4, ...
 * RMSD in coord.:     0.3505338 α      energy gain  -0.8435414E-03 Eh

generating ANC from exact Hessian ...
Using Lindh-Hessian (1995)
 Shifting diagonal of input Hessian by    1.0116186136021457E-002
 Lowest  eigenvalues of input Hessian
    0.010000    0.000000    0.000000    0.000000    0.000000    0.000000
    0.000000    0.010224    0.010286    0.010375    0.010416    0.010456
    0.010619    0.010643    0.010700    0.010923    0.011001    0.011092
 Highest eigenvalues
    2.145934    2.262469    2.327676    2.337253    2.448905    3.127875


........................................................................
.............................. CYCLE  259 ..............................
........................................................................

 iter      E             dE          RMSdq      gap      omega  full diag
   1   -191.2253722 -0.191225E+03  0.164E-02    1.05       0.0  T
   2   -191.2253723 -0.810965E-07  0.963E-03    1.05       1.0  T
   3   -191.2253718  0.548111E-06  0.190E-03    1.05       4.9  T
   4   -191.2253724 -0.617701E-06  0.284E-04    1.05      32.5  T
   5   -191.2253724 -0.389551E-08  0.168E-04    1.05      55.0  T
   6   -191.2253724 -0.797058E-09  0.887E-05    1.05     104.2  T
     SCC iter.                  ...        0 min,  0.203 sec
     gradient                   ...        0 min,  0.309 sec
 * total energy  :  -188.2579545 Eh     change       -0.1446776E-04 Eh
   gradient norm :     0.0003214 Eh/α   predicted     0.0000000E+00 (-100.00%)
   displ. norm   :     0.0182105 α      lambda       -0.1112209E-06
   maximum displ.:     0.0121005 α      in ANC's #1, #9, #13, ...

........................................................................
.............................. CYCLE  260 ..............................
........................................................................

 iter      E             dE          RMSdq      gap      omega  full diag
   1   -191.2254563 -0.191225E+03  0.246E-03    1.05       0.0  T
   2   -191.2254563 -0.777956E-08  0.144E-03    1.05       6.4  T
   3   -191.2254563  0.273785E-07  0.503E-04    1.05      18.4  T
   4   -191.2254563 -0.315587E-07  0.778E-05    1.05     118.8  T
   5   -191.2254563 -0.343448E-09  0.392E-05    1.05     235.9  T
     SCC iter.                  ...        0 min,  0.149 sec
     gradient                   ...        0 min,  0.352 sec
 * total energy  :  -188.2579572 Eh     change       -0.2634630E-05 Eh
   gradient norm :     0.0002184 Eh/α   predicted    -0.9534819E-06 ( -63.81%)
   displ. norm   :     0.0789844 α      lambda       -0.7177383E-05
   maximum displ.:     0.0464057 α      in ANC's #1, #13, #9, ...

........................................................................
.............................. CYCLE  261 ..............................
........................................................................

 iter      E             dE          RMSdq      gap      omega  full diag
   1   -191.2255107 -0.191226E+03  0.103E-02    1.05       0.0  T
   2   -191.2255108 -0.117812E-06  0.604E-03    1.05       1.5  T
   3   -191.2255102  0.535762E-06  0.214E-03    1.05       4.3  T
   4   -191.2255109 -0.617885E-06  0.286E-04    1.05      32.3  T
   5   -191.2255109 -0.300602E-08  0.160E-04    1.05      57.7  T
   6   -191.2255109 -0.810729E-09  0.845E-05    1.05     109.4  T
     SCC iter.                  ...        0 min,  0.212 sec
     gradient                   ...        0 min,  0.325 sec
 * total energy  :  -188.2579655 Eh     change       -0.8288545E-05 Eh
   gradient norm :     0.0003905 Eh/α   predicted    -0.3599213E-05 ( -56.58%)
   displ. norm   :     0.0910267 α      lambda       -0.5292658E-05
   maximum displ.:     0.0568439 α      in ANC's #1, #13, #9, ...

........................................................................
.............................. CYCLE  262 ..............................
........................................................................

 iter      E             dE          RMSdq      gap      omega  full diag
   1   -191.2254282 -0.191225E+03  0.111E-02    1.05       0.0  T
   2   -191.2254283 -0.122573E-06  0.652E-03    1.05       1.4  T
   3   -191.2254277  0.631157E-06  0.223E-03    1.05       4.1  T
   4   -191.2254284 -0.721914E-06  0.297E-04    1.05      31.1  T
   5   -191.2254284 -0.354254E-08  0.170E-04    1.05      54.3  T
   6   -191.2254284 -0.899206E-09  0.898E-05    1.05     103.0  T
     SCC iter.                  ...        0 min,  0.183 sec
     gradient                   ...        0 min,  0.344 sec
 * total energy  :  -188.2579711 Eh     change       -0.5600857E-05 Eh
   gradient norm :     0.0004439 Eh/α   predicted    -0.2663087E-05 ( -52.45%)
   displ. norm   :     0.0549776 α      lambda       -0.2555937E-05
   maximum displ.:     0.0377013 α      in ANC's #1, #13, #9, ...

........................................................................
.............................. CYCLE  263 ..............................
........................................................................

 iter      E             dE          RMSdq      gap      omega  full diag
   1   -191.2255097 -0.191226E+03  0.612E-03    1.05       0.0  T
   2   -191.2255097 -0.382001E-07  0.358E-03    1.05       2.6  T
   3   -191.2255096  0.137564E-06  0.101E-03    1.05       9.2  T
   4   -191.2255097 -0.155241E-06  0.187E-04    1.05      49.5  T
   5   -191.2255097 -0.314301E-08  0.829E-05    1.05     111.5  T
     SCC iter.                  ...        0 min,  0.149 sec
     gradient                   ...        0 min,  0.276 sec
 * total energy  :  -188.2579742 Eh     change       -0.3182881E-05 Eh
   gradient norm :     0.0004179 Eh/α   predicted    -0.1280053E-05 ( -59.78%)
   displ. norm   :     0.0464418 α      lambda       -0.2815943E-05
   maximum displ.:     0.0331159 α      in ANC's #1, #13, #7, ...

........................................................................
.............................. CYCLE  264 ..............................
........................................................................

 iter      E             dE          RMSdq      gap      omega  full diag
   1   -191.2255492 -0.191226E+03  0.599E-03    1.05       0.0  T
   2   -191.2255492 -0.298857E-07  0.349E-03    1.05       2.7  T
   3   -191.2255491  0.100289E-06  0.853E-04    1.05      10.8  T
   4   -191.2255492 -0.112105E-06  0.173E-04    1.05      53.5  T
   5   -191.2255492 -0.311530E-08  0.726E-05    1.05     127.4  T
     SCC iter.                  ...        0 min,  0.196 sec
     gradient                   ...        0 min,  0.301 sec
 * total energy  :  -188.2579780 Eh     change       -0.3785900E-05 Eh
   gradient norm :     0.0002980 Eh/α   predicted    -0.1427959E-05 ( -62.28%)
   displ. norm   :     0.0665235 α      lambda       -0.4316281E-05
   maximum displ.:     0.0470615 α      in ANC's #1, #7, #2, ...

........................................................................
.............................. CYCLE  265 ..............................
........................................................................

 iter      E             dE          RMSdq      gap      omega  full diag
   1   -191.2254628 -0.191225E+03  0.980E-03    1.05       0.0  T
   2   -191.2254629 -0.743745E-07  0.571E-03    1.05       1.6  T
   3   -191.2254626  0.323869E-06  0.155E-03    1.05       5.9  T
   4   -191.2254629 -0.363724E-06  0.260E-04    1.05      35.5  T
   5   -191.2254629 -0.630806E-08  0.116E-04    1.05      79.7  T
   6   -191.2254629 -0.443151E-09  0.617E-05    1.05     150.0  T
     SCC iter.                  ...        0 min,  0.197 sec
     gradient                   ...        0 min,  0.295 sec
 * total energy  :  -188.2579833 Eh     change       -0.5258134E-05 Eh
   gradient norm :     0.0003396 Eh/α   predicted    -0.2163083E-05 ( -58.86%)
   displ. norm   :     0.0712668 α      lambda       -0.3558050E-05
   maximum displ.:     0.0509423 α      in ANC's #1, #2, #7, ...

........................................................................
.............................. CYCLE  266 ..............................
........................................................................

 iter      E             dE          RMSdq      gap      omega  full diag
   1   -191.2254272 -0.191225E+03  0.102E-02    1.05       0.0  T
   2   -191.2254273 -0.676833E-07  0.599E-03    1.05       1.5  T
   3   -191.2254270  0.316717E-06  0.153E-03    1.05       6.0  T
   4   -191.2254273 -0.356405E-06  0.238E-04    1.05      38.8  T
   5   -191.2254273 -0.483658E-08  0.114E-04    1.05      81.1  T
   6   -191.2254273 -0.576847E-09  0.588E-05    1.05     157.3  T
     SCC iter.                  ...        0 min,  0.180 sec
     gradient                   ...        0 min,  0.299 sec
 * total energy  :  -188.2579876 Eh     change       -0.4285368E-05 Eh
   gradient norm :     0.0003492 Eh/α   predicted    -0.1783139E-05 ( -58.39%)
   displ. norm   :     0.0545228 α      lambda       -0.2278763E-05
   maximum displ.:     0.0397827 α      in ANC's #1, #2, #7, ...

........................................................................
.............................. CYCLE  267 ..............................
........................................................................

 iter      E             dE          RMSdq      gap      omega  full diag
   1   -191.2254151 -0.191225E+03  0.747E-03    1.05       0.0  T
   2   -191.2254151 -0.316358E-07  0.439E-03    1.05       2.1  T
   3   -191.2254150  0.145476E-06  0.104E-03    1.05       8.9  T
   4   -191.2254152 -0.163732E-06  0.156E-04    1.05      59.2  T
   5   -191.2254152 -0.219043E-08  0.719E-05    1.05     128.6  T
     SCC iter.                  ...        0 min,  0.136 sec
     gradient                   ...        0 min,  0.277 sec
 * total energy  :  -188.2579906 Eh     change       -0.3047699E-05 Eh
   gradient norm :     0.0003429 Eh/α   predicted    -0.1151306E-05 ( -62.22%)
   displ. norm   :     0.0462885 α      lambda       -0.2171828E-05
   maximum displ.:     0.0340680 α      in ANC's #1, #2, #7, ...

........................................................................
.............................. CYCLE  268 ..............................
........................................................................

 iter      E             dE          RMSdq      gap      omega  full diag
   1   -191.2254083 -0.191225E+03  0.628E-03    1.05       0.0  T
   2   -191.2254083 -0.175441E-07  0.368E-03    1.05       2.5  T
   3   -191.2254083  0.607192E-07  0.688E-04    1.05      13.4  T
   4   -191.2254083 -0.698092E-07  0.108E-04    1.05      85.4  T
   5   -191.2254083 -0.696929E-09  0.566E-05    1.05     163.5  T
     SCC iter.                  ...        0 min,  0.145 sec
     gradient                   ...        0 min,  0.312 sec
 * total energy  :  -188.2579936 Eh     change       -0.2979248E-05 Eh
   gradient norm :     0.0002921 Eh/α   predicted    -0.1089815E-05 ( -63.42%)
   displ. norm   :     0.0534727 α      lambda       -0.2667142E-05
   maximum displ.:     0.0392300 α      in ANC's #1, #2, #7, ...

........................................................................
.............................. CYCLE  269 ..............................
........................................................................

 iter      E             dE          RMSdq      gap      omega  full diag
   1   -191.2254244 -0.191225E+03  0.729E-03    1.05       0.0  T
   2   -191.2254244 -0.214384E-07  0.425E-03    1.05       2.2  T
   3   -191.2254243  0.586619E-07  0.680E-04    1.05      13.6  T
   4   -191.2254244 -0.684202E-07  0.128E-04    1.05      72.1  T
   5   -191.2254244 -0.820677E-09  0.686E-05    1.05     134.8  T
     SCC iter.                  ...        0 min,  0.129 sec
     gradient                   ...        0 min,  0.293 sec
 * total energy  :  -188.2579971 Eh     change       -0.3538907E-05 Eh
   gradient norm :     0.0002438 Eh/α   predicted    -0.1337355E-05 ( -62.21%)
   displ. norm   :     0.0615920 α      lambda       -0.2819933E-05
   maximum displ.:     0.0452472 α      in ANC's #1, #2, #7, ...

........................................................................
.............................. CYCLE  270 ..............................
........................................................................

 iter      E             dE          RMSdq      gap      omega  full diag
   1   -191.2254391 -0.191225E+03  0.790E-03    1.05       0.0  T
   2   -191.2254391 -0.246188E-07  0.461E-03    1.05       2.0  T
   3   -191.2254390  0.924188E-07  0.825E-04    1.05      11.2  T
   4   -191.2254391 -0.105365E-06  0.158E-04    1.05      58.5  T
   5   -191.2254391 -0.151738E-08  0.893E-05    1.05     103.6  T
     SCC iter.                  ...        0 min,  0.159 sec
     gradient                   ...        0 min,  0.284 sec
 * total energy  :  -188.2580008 Eh     change       -0.3690650E-05 Eh
   gradient norm :     0.0002495 Eh/α   predicted    -0.1416140E-05 ( -61.63%)
   displ. norm   :     0.0595559 α      lambda       -0.2437707E-05
   maximum displ.:     0.0439426 α      in ANC's #1, #2, #7, ...

........................................................................
.............................. CYCLE  271 ..............................
........................................................................

 iter      E             dE          RMSdq      gap      omega  full diag
   1   -191.2254326 -0.191225E+03  0.698E-03    1.05       0.0  T
   2   -191.2254326 -0.184081E-07  0.409E-03    1.05       2.3  T
   3   -191.2254325  0.107144E-06  0.877E-04    1.05      10.5  T
   4   -191.2254327 -0.120516E-06  0.144E-04    1.05      64.3  T
   5   -191.2254327 -0.133033E-08  0.772E-05    1.05     119.7  T
     SCC iter.                  ...        0 min,  0.162 sec
     gradient                   ...        0 min,  0.306 sec
 * total energy  :  -188.2580041 Eh     change       -0.3296752E-05 Eh
   gradient norm :     0.0002621 Eh/α   predicted    -0.1223996E-05 ( -62.87%)
   displ. norm   :     0.0539871 α      lambda       -0.2180381E-05
   maximum displ.:     0.0400167 α      in ANC's #1, #2, #7, ...

........................................................................
.............................. CYCLE  272 ..............................
........................................................................

 iter      E             dE          RMSdq      gap      omega  full diag
   1   -191.2254531 -0.191225E+03  0.563E-03    1.04       0.0  T
   2   -191.2254531 -0.127176E-07  0.330E-03    1.05       2.8  T
   3   -191.2254530  0.104875E-06  0.861E-04    1.05      10.7  T
   4   -191.2254531 -0.117184E-06  0.116E-04    1.05      79.8  T
   5   -191.2254531 -0.897387E-09  0.616E-05    1.05     150.2  T
     SCC iter.                  ...        0 min,  0.163 sec
     gradient                   ...        0 min,  0.261 sec
 * total energy  :  -188.2580072 Eh     change       -0.3049463E-05 Eh
   gradient norm :     0.0002584 Eh/α   predicted    -0.1094093E-05 ( -64.12%)
   displ. norm   :     0.0527835 α      lambda       -0.2222560E-05
   maximum displ.:     0.0391962 α      in ANC's #1, #2, #7, ...

........................................................................
.............................. CYCLE  273 ..............................
........................................................................

 iter      E             dE          RMSdq      gap      omega  full diag
   1   -191.2254569 -0.191225E+03  0.502E-03    1.04       0.0  T
   2   -191.2254569 -0.101667E-07  0.295E-03    1.05       3.1  T
   3   -191.2254568  0.983118E-07  0.832E-04    1.04      11.1  T
   4   -191.2254569 -0.109684E-06  0.103E-04    1.05      89.9  T
   5   -191.2254569 -0.606121E-09  0.577E-05    1.05     160.1  T
     SCC iter.                  ...        0 min,  0.176 sec
     gradient                   ...        0 min,  0.299 sec
 * total energy  :  -188.2580103 Eh     change       -0.3130661E-05 Eh
   gradient norm :     0.0002254 Eh/α   predicted    -0.1114624E-05 ( -64.40%)
   displ. norm   :     0.0563280 α      lambda       -0.2395125E-05
   maximum displ.:     0.0418255 α      in ANC's #1, #2, #6, ...

........................................................................
.............................. CYCLE  274 ..............................
........................................................................

 iter      E             dE          RMSdq      gap      omega  full diag
   1   -191.2254465 -0.191225E+03  0.512E-03    1.04       0.0  T
   2   -191.2254465 -0.119009E-07  0.300E-03    1.05       3.1  T
   3   -191.2254464  0.101813E-06  0.849E-04    1.05      10.9  T
   4   -191.2254465 -0.113617E-06  0.113E-04    1.05      81.7  T
   5   -191.2254465 -0.750703E-09  0.609E-05    1.05     151.8  T
     SCC iter.                  ...        0 min,  0.182 sec
     gradient                   ...        0 min,  0.286 sec
 * total energy  :  -188.2580137 Eh     change       -0.3340670E-05 Eh
   gradient norm :     0.0001907 Eh/α   predicted    -0.1200514E-05 ( -64.06%)
   displ. norm   :     0.0599978 α      lambda       -0.2452848E-05
   maximum displ.:     0.0444873 α      in ANC's #1, #2, #6, ...

........................................................................
.............................. CYCLE  275 ..............................
........................................................................

 iter      E             dE          RMSdq      gap      omega  full diag
   1   -191.2254515 -0.191225E+03  0.535E-03    1.05       0.0  T
   2   -191.2254515 -0.137643E-07  0.313E-03    1.05       2.9  T
   3   -191.2254514  0.895552E-07  0.806E-04    1.05      11.5  T
   4   -191.2254515 -0.100194E-06  0.127E-04    1.05      72.7  T
   5   -191.2254515 -0.106351E-08  0.641E-05    1.05     144.1  T
     SCC iter.                  ...        0 min,  0.180 sec
     gradient                   ...        0 min,  0.322 sec
 * total energy  :  -188.2580171 Eh     change       -0.3407141E-05 Eh
   gradient norm :     0.0001764 Eh/α   predicted    -0.1229842E-05 ( -63.90%)
   displ. norm   :     0.0607588 α      lambda       -0.2358613E-05
   maximum displ.:     0.0449705 α      in ANC's #1, #2, #6, ...

........................................................................
.............................. CYCLE  276 ..............................
........................................................................

 iter      E             dE          RMSdq      gap      omega  full diag
   1   -191.2254433 -0.191225E+03  0.545E-03    1.05       0.0  T
   2   -191.2254433 -0.144892E-07  0.320E-03    1.05       2.9  T
   3   -191.2254432  0.735290E-07  0.739E-04    1.05      12.5  T
   4   -191.2254433 -0.824613E-07  0.134E-04    1.05      68.9  T
   5   -191.2254433 -0.130751E-08  0.638E-05    1.05     144.9  T
     SCC iter.                  ...        0 min,  0.176 sec
     gradient                   ...        0 min,  0.329 sec
 * total energy  :  -188.2580204 Eh     change       -0.3294331E-05 Eh
   gradient norm :     0.0001800 Eh/α   predicted    -0.1182908E-05 ( -64.09%)
   displ. norm   :     0.0590783 α      lambda       -0.2213634E-05
   maximum displ.:     0.0436383 α      in ANC's #1, #2, #3, ...

........................................................................
.............................. CYCLE  277 ..............................
........................................................................

 iter      E             dE          RMSdq      gap      omega  full diag
   1   -191.2254521 -0.191225E+03  0.537E-03    1.05       0.0  T
   2   -191.2254521 -0.133211E-07  0.315E-03    1.05       2.9  T
   3   -191.2254521  0.592877E-07  0.670E-04    1.05      13.8  T
   4   -191.2254521 -0.669495E-07  0.123E-04    1.05      75.1  T
   5   -191.2254522 -0.102298E-08  0.598E-05    1.05     154.5  T
     SCC iter.                  ...        0 min,  0.140 sec
     gradient                   ...        0 min,  0.289 sec
 * total energy  :  -188.2580235 Eh     change       -0.3120647E-05 Eh
   gradient norm :     0.0001854 Eh/α   predicted    -0.1110102E-05 ( -64.43%)
   displ. norm   :     0.0573507 α      lambda       -0.2120931E-05
   maximum displ.:     0.0422761 α      in ANC's #1, #2, #4, ...

........................................................................
.............................. CYCLE  278 ..............................
........................................................................

 iter      E             dE          RMSdq      gap      omega  full diag
   1   -191.2254641 -0.191225E+03  0.533E-03    1.05       0.0  T
   2   -191.2254641 -0.111535E-07  0.313E-03    1.05       3.0  T
   3   -191.2254641  0.495634E-07  0.611E-04    1.05      15.1  T
   4   -191.2254642 -0.562720E-07  0.105E-04    1.05      87.7  T
   5   -191.2254642 -0.648043E-09  0.545E-05    1.05     169.5  T
     SCC iter.                  ...        0 min,  0.116 sec
     gradient                   ...        0 min,  0.275 sec
 * total energy  :  -188.2580265 Eh     change       -0.3005318E-05 Eh
   gradient norm :     0.0001799 Eh/α   predicted    -0.1063237E-05 ( -64.62%)
   displ. norm   :     0.0573085 α      lambda       -0.2107191E-05
   maximum displ.:     0.0421442 α      in ANC's #1, #2, #4, ...

........................................................................
.............................. CYCLE  279 ..............................
........................................................................

 iter      E             dE          RMSdq      gap      omega  full diag
   1   -191.2254726 -0.191225E+03  0.534E-03    1.05       0.0  T
   2   -191.2254726 -0.103910E-07  0.313E-03    1.05       2.9  T
   3   -191.2254725  0.489968E-07  0.589E-04    1.05      15.7  T
   4   -191.2254726 -0.555067E-07  0.974E-05    1.05      94.9  T
   5   -191.2254726 -0.542599E-09  0.518E-05    1.05     178.5  T
     SCC iter.                  ...        0 min,  0.166 sec
     gradient                   ...        0 min,  0.328 sec
 * total energy  :  -188.2580295 Eh     change       -0.2992579E-05 Eh
   gradient norm :     0.0001634 Eh/α   predicted    -0.1056063E-05 ( -64.71%)
   displ. norm   :     0.0596380 α      lambda       -0.2180013E-05
   maximum displ.:     0.0437177 α      in ANC's #1, #2, #4, ...

........................................................................
.............................. CYCLE  280 ..............................
........................................................................

 iter      E             dE          RMSdq      gap      omega  full diag
   1   -191.2254898 -0.191225E+03  0.550E-03    1.05       0.0  T
   2   -191.2254898 -0.101589E-07  0.323E-03    1.05       2.9  T
   3   -191.2254897  0.611939E-07  0.638E-04    1.05      14.5  T
   4   -191.2254898 -0.687993E-07  0.909E-05    1.05     101.7  T
   5   -191.2254898 -0.401883E-09  0.506E-05    1.05     182.6  T
     SCC iter.                  ...        0 min,  0.180 sec
     gradient                   ...        0 min,  0.334 sec
 * total energy  :  -188.2580326 Eh     change       -0.3109247E-05 Eh
   gradient norm :     0.0001447 Eh/α   predicted    -0.1092438E-05 ( -64.86%)
   displ. norm   :     0.0646163 α      lambda       -0.2347650E-05
   maximum displ.:     0.0470770 α      in ANC's #1, #2, #4, ...

........................................................................
.............................. CYCLE  281 ..............................
........................................................................

 iter      E             dE          RMSdq      gap      omega  full diag
   1   -191.2255007 -0.191226E+03  0.577E-03    1.05       0.0  T
   2   -191.2255007 -0.111611E-07  0.339E-03    1.05       2.7  T
   3   -191.2255006  0.790703E-07  0.706E-04    1.05      13.1  T
   4   -191.2255007 -0.883268E-07  0.968E-05    1.05      95.5  T
   5   -191.2255007 -0.478991E-09  0.533E-05    1.05     173.4  T
     SCC iter.                  ...        0 min,  0.150 sec
     gradient                   ...        0 min,  0.337 sec
 * total energy  :  -188.2580360 Eh     change       -0.3367646E-05 Eh
   gradient norm :     0.0001382 Eh/α   predicted    -0.1176933E-05 ( -65.05%)
   displ. norm   :     0.0736482 α      lambda       -0.2664790E-05
   maximum displ.:     0.0531917 α      in ANC's #1, #2, #4, ...

........................................................................
.............................. CYCLE  282 ..............................
........................................................................

 iter      E             dE          RMSdq      gap      omega  full diag
   1   -191.2255078 -0.191226E+03  0.642E-03    1.05       0.0  T
   2   -191.2255078 -0.143044E-07  0.378E-03    1.05       2.4  T
   3   -191.2255077  0.119648E-06  0.858E-04    1.05      10.8  T
   4   -191.2255079 -0.133112E-06  0.110E-04    1.05      83.7  T
   5   -191.2255079 -0.614250E-09  0.610E-05    1.05     151.6  T
     SCC iter.                  ...        0 min,  0.192 sec
     gradient                   ...        0 min,  0.342 sec
 * total energy  :  -188.2580398 Eh     change       -0.3832563E-05 Eh
   gradient norm :     0.0001473 Eh/α   predicted    -0.1336908E-05 ( -65.12%)
   displ. norm   :     0.0884498 α      lambda       -0.3174709E-05
   maximum displ.:     0.0633032 α      in ANC's #1, #2, #4, ...

........................................................................
.............................. CYCLE  283 ..............................
........................................................................

 iter      E             dE          RMSdq      gap      omega  full diag
   1   -191.2255134 -0.191226E+03  0.757E-03    1.05       0.0  T
   2   -191.2255134 -0.196844E-07  0.445E-03    1.05       2.1  T
   3   -191.2255133  0.184771E-06  0.106E-03    1.05       8.7  T
   4   -191.2255135 -0.205242E-06  0.134E-04    1.05      68.9  T
   5   -191.2255135 -0.877094E-09  0.750E-05    1.05     123.3  T
   6   -191.2255135 -0.540865E-10  0.373E-05    1.05     247.6  T
     SCC iter.                  ...        0 min,  0.185 sec
     gradient                   ...        0 min,  0.297 sec
 * total energy  :  -188.2580443 Eh     change       -0.4534688E-05 Eh
   gradient norm :     0.0001655 Eh/α   predicted    -0.1594789E-05 ( -64.83%)
   displ. norm   :     0.1072992 α      lambda       -0.3738419E-05
   maximum displ.:     0.0762315 α      in ANC's #1, #2, #4, ...

........................................................................
.............................. CYCLE  284 ..............................
........................................................................

 iter      E             dE          RMSdq      gap      omega  full diag
   1   -191.2255082 -0.191226E+03  0.913E-03    1.05       0.0  T
   2   -191.2255082 -0.286088E-07  0.537E-03    1.05       1.7  T
   3   -191.2255079  0.288090E-06  0.133E-03    1.05       6.9  T
   4   -191.2255083 -0.319479E-06  0.170E-04    1.05      54.4  T
   5   -191.2255083 -0.142794E-08  0.951E-05    1.05      97.2  T
   6   -191.2255083 -0.708269E-10  0.505E-05    1.05     183.0  T
     SCC iter.                  ...        0 min,  0.221 sec
     gradient                   ...        0 min,  0.322 sec
 * total energy  :  -188.2580496 Eh     change       -0.5285161E-05 Eh
   gradient norm :     0.0001797 Eh/α   predicted    -0.1881019E-05 ( -64.41%)
   displ. norm   :     0.1256977 α      lambda       -0.4152392E-05
   maximum displ.:     0.0889146 α      in ANC's #1, #2, #4, ...

........................................................................
.............................. CYCLE  285 ..............................
........................................................................

 iter      E             dE          RMSdq      gap      omega  full diag
   1   -191.2255026 -0.191226E+03  0.106E-02    1.05       0.0  T
   2   -191.2255027 -0.368310E-07  0.626E-03    1.05       1.5  T
   3   -191.2255023  0.397454E-06  0.156E-03    1.05       5.9  T
   4   -191.2255027 -0.440618E-06  0.203E-04    1.05      45.5  T
   5   -191.2255027 -0.189871E-08  0.115E-04    1.05      80.1  T
   6   -191.2255027 -0.111243E-09  0.612E-05    1.05     151.0  T
     SCC iter.                  ...        0 min,  0.217 sec
     gradient                   ...        0 min,  0.294 sec
 * total energy  :  -188.2580554 Eh     change       -0.5824511E-05 Eh
   gradient norm :     0.0001777 Eh/α   predicted    -0.2092715E-05 ( -64.07%)
   displ. norm   :     0.1380138 α      lambda       -0.4258049E-05
   maximum displ.:     0.0974041 α      in ANC's #1, #2, #4, ...

........................................................................
.............................. CYCLE  286 ..............................
........................................................................

 iter      E             dE          RMSdq      gap      omega  full diag
   1   -191.2254948 -0.191225E+03  0.116E-02    1.05       0.0  T
   2   -191.2254949 -0.439655E-07  0.685E-03    1.05       1.4  T
   3   -191.2254944  0.466084E-06  0.170E-03    1.05       5.4  T
   4   -191.2254949 -0.516445E-06  0.233E-04    1.05      39.7  T
   5   -191.2254949 -0.272203E-08  0.131E-04    1.05      70.4  T
   6   -191.2254949 -0.122782E-09  0.721E-05    1.05     128.2  T
     SCC iter.                  ...        0 min,  0.195 sec
     gradient                   ...        0 min,  0.272 sec
 * total energy  :  -188.2580614 Eh     change       -0.5955782E-05 Eh
   gradient norm :     0.0001626 Eh/α   predicted    -0.2148131E-05 ( -63.93%)
   displ. norm   :     0.1407587 α      lambda       -0.4068992E-05
   maximum displ.:     0.0993218 α      in ANC's #1, #2, #4, ...

........................................................................
.............................. CYCLE  287 ..............................
........................................................................

 iter      E             dE          RMSdq      gap      omega  full diag
   1   -191.2254952 -0.191225E+03  0.118E-02    1.05       0.0  T
   2   -191.2254953 -0.438695E-07  0.694E-03    1.05       1.3  T
   3   -191.2254948  0.461258E-06  0.170E-03    1.05       5.4  T
   4   -191.2254953 -0.510923E-06  0.243E-04    1.05      38.0  T
   5   -191.2254953 -0.317479E-08  0.136E-04    1.05      67.9  T
   6   -191.2254953 -0.100698E-09  0.757E-05    1.05     122.1  T
     SCC iter.                  ...        0 min,  0.198 sec
     gradient                   ...        0 min,  0.323 sec
 * total energy  :  -188.2580671 Eh     change       -0.5719205E-05 Eh
   gradient norm :     0.0001441 Eh/α   predicted    -0.2052965E-05 ( -64.10%)
   displ. norm   :     0.1371679 α      lambda       -0.3813255E-05
   maximum displ.:     0.0968664 α      in ANC's #1, #2, #4, ...

........................................................................
.............................. CYCLE  288 ..............................
........................................................................

 iter      E             dE          RMSdq      gap      omega  full diag
   1   -191.2255051 -0.191226E+03  0.113E-02    1.05       0.0  T
   2   -191.2255051 -0.419384E-07  0.668E-03    1.05       1.4  T
   3   -191.2255047  0.408547E-06  0.161E-03    1.05       5.7  T
   4   -191.2255052 -0.452021E-06  0.250E-04    1.05      37.0  T
   5   -191.2255052 -0.387294E-08  0.135E-04    1.05      68.4  T
   6   -191.2255052 -0.506475E-10  0.770E-05    1.05     120.0  T
     SCC iter.                  ...        0 min,  0.161 sec
     gradient                   ...        0 min,  0.307 sec
 * total energy  :  -188.2580725 Eh     change       -0.5418222E-05 Eh
   gradient norm :     0.0001306 Eh/α   predicted    -0.1922955E-05 ( -64.51%)
   displ. norm   :     0.1346105 α      lambda       -0.3726964E-05
   maximum displ.:     0.0951272 α      in ANC's #1, #2, #4, ...

........................................................................
.............................. CYCLE  289 ..............................
........................................................................

 iter      E             dE          RMSdq      gap      omega  full diag
   1   -191.2255153 -0.191226E+03  0.110E-02    1.05       0.0  T
   2   -191.2255154 -0.409580E-07  0.648E-03    1.05       1.4  T
   3   -191.2255150  0.366898E-06  0.155E-03    1.05       6.0  T
   4   -191.2255154 -0.405399E-06  0.256E-04    1.05      36.1  T
   5   -191.2255154 -0.468589E-08  0.133E-04    1.05      69.3  T
   6   -191.2255154 -0.585487E-11  0.773E-05    1.05     119.6  T
     SCC iter.                  ...        0 min,  0.239 sec
     gradient                   ...        0 min,  0.317 sec
 * total energy  :  -188.2580779 Eh     change       -0.5338895E-05 Eh
   gradient norm :     0.0001269 Eh/α   predicted    -0.1879228E-05 ( -64.80%)
   displ. norm   :     0.1387666 α      lambda       -0.3887112E-05
   maximum displ.:     0.0980976 α      in ANC's #1, #2, #4, ...

........................................................................
.............................. CYCLE  290 ..............................
........................................................................

 iter      E             dE          RMSdq      gap      omega  full diag
   1   -191.2255201 -0.191226E+03  0.112E-02    1.05       0.0  T
   2   -191.2255201 -0.472844E-07  0.657E-03    1.05       1.4  T
   3   -191.2255197  0.363986E-06  0.155E-03    1.05       5.9  T
   4   -191.2255201 -0.401192E-06  0.283E-04    1.05      32.6  T
   5   -191.2255201 -0.668462E-08  0.140E-04    1.05      66.2  T
   6   -191.2255201  0.391935E-10  0.809E-05    1.05     114.3  T
     SCC iter.                  ...        0 min,  0.199 sec
     gradient                   ...        0 min,  0.293 sec
 * total energy  :  -188.2580834 Eh     change       -0.5577559E-05 Eh
   gradient norm :     0.0001314 Eh/α   predicted    -0.1961320E-05 ( -64.84%)
   displ. norm   :     0.1489927 α      lambda       -0.4181883E-05
   maximum displ.:     0.1053730 α      in ANC's #1, #2, #4, ...

........................................................................
.............................. CYCLE  291 ..............................
........................................................................

 iter      E             dE          RMSdq      gap      omega  full diag
   1   -191.2255220 -0.191226E+03  0.119E-02    1.05       0.0  T
   2   -191.2255220 -0.578626E-07  0.698E-03    1.05       1.3  T
   3   -191.2255216  0.399344E-06  0.165E-03    1.05       5.6  T
   4   -191.2255221 -0.438884E-06  0.322E-04    1.05      28.7  T
   5   -191.2255221 -0.948069E-08  0.150E-04    1.05      61.5  T
   6   -191.2255221  0.759144E-10  0.874E-05    1.05     105.8  T
     SCC iter.                  ...        0 min,  0.199 sec
     gradient                   ...        0 min,  0.305 sec
 * total energy  :  -188.2580894 Eh     change       -0.5972842E-05 Eh
   gradient norm :     0.0001374 Eh/α   predicted    -0.2113120E-05 ( -64.62%)
   displ. norm   :     0.1591492 α      lambda       -0.4373997E-05
   maximum displ.:     0.1126943 α      in ANC's #1, #2, #4, ...

........................................................................
.............................. CYCLE  292 ..............................
........................................................................

 iter      E             dE          RMSdq      gap      omega  full diag
   1   -191.2255166 -0.191226E+03  0.125E-02    1.05       0.0  T
   2   -191.2255167 -0.717380E-07  0.738E-03    1.05       1.3  T
   3   -191.2255162  0.429614E-06  0.172E-03    1.05       5.4  T
   4   -191.2255167 -0.470861E-06  0.363E-04    1.05      25.4  T
   5   -191.2255167 -0.130020E-07  0.163E-04    1.05      56.7  T
   6   -191.2255167  0.109651E-09  0.932E-05    1.05      99.2  T
     SCC iter.                  ...        0 min,  0.156 sec
     gradient                   ...        0 min,  0.297 sec
 * total energy  :  -188.2580956 Eh     change       -0.6184451E-05 Eh
   gradient norm :     0.0001449 Eh/α   predicted    -0.2213370E-05 ( -64.21%)
   displ. norm   :     0.1577531 α      lambda       -0.4148560E-05
   maximum displ.:     0.1120584 α      in ANC's #1, #2, #4, ...

........................................................................
.............................. CYCLE  293 ..............................
........................................................................

 iter      E             dE          RMSdq      gap      omega  full diag
   1   -191.2255254 -0.191226E+03  0.123E-02    1.05       0.0  T
   2   -191.2255255 -0.754956E-07  0.727E-03    1.05       1.3  T
   3   -191.2255251  0.396703E-06  0.168E-03    1.05       5.5  T
   4   -191.2255255 -0.433349E-06  0.377E-04    1.05      24.5  T
   5   -191.2255256 -0.146966E-07  0.162E-04    1.05      57.2  T
   6   -191.2255256  0.106354E-09  0.909E-05    1.05     101.7  T
     SCC iter.                  ...        0 min,  0.209 sec
     gradient                   ...        0 min,  0.287 sec
 * total energy  :  -188.2581014 Eh     change       -0.5822435E-05 Eh
   gradient norm :     0.0001426 Eh/α   predicted    -0.2099153E-05 ( -63.95%)
   displ. norm   :     0.1403990 α      lambda       -0.3518325E-05
   maximum displ.:     0.1002003 α      in ANC's #1, #2, #4, ...

........................................................................
.............................. CYCLE  294 ..............................
........................................................................

 iter      E             dE          RMSdq      gap      omega  full diag
   1   -191.2255582 -0.191226E+03  0.109E-02    1.05       0.0  T
   2   -191.2255582 -0.618471E-07  0.644E-03    1.05       1.4  T
   3   -191.2255579  0.295584E-06  0.146E-03    1.05       6.3  T
   4   -191.2255583 -0.322608E-06  0.344E-04    1.05      26.9  T
   5   -191.2255583 -0.124053E-07  0.146E-04    1.05      63.3  T
   6   -191.2255583  0.843556E-10  0.804E-05    1.05     114.9  T
     SCC iter.                  ...        0 min,  0.179 sec
     gradient                   ...        0 min,  0.281 sec
 * total energy  :  -188.2581064 Eh     change       -0.4960646E-05 Eh
   gradient norm :     0.0001219 Eh/α   predicted    -0.1775545E-05 ( -64.21%)
   displ. norm   :     0.1158220 α      lambda       -0.2822759E-05
   maximum displ.:     0.0831537 α      in ANC's #1, #2, #4, ...

........................................................................
.............................. CYCLE  295 ..............................
........................................................................

 iter      E             dE          RMSdq      gap      omega  full diag
   1   -191.2255869 -0.191226E+03  0.899E-03    1.05       0.0  T
   2   -191.2255869 -0.464601E-07  0.530E-03    1.05       1.7  T
   3   -191.2255867  0.179522E-06  0.115E-03    1.05       8.0  T
   4   -191.2255869 -0.195302E-06  0.295E-04    1.05      31.4  T
   5   -191.2255869 -0.946184E-08  0.120E-04    1.05      77.1  T
   6   -191.2255869  0.252669E-10  0.637E-05    1.05     145.0  T
     SCC iter.                  ...        0 min,  0.156 sec
     gradient                   ...        0 min,  0.270 sec
 * total energy  :  -188.2581104 Eh     change       -0.4022921E-05 Eh
   gradient norm :     0.0001039 Eh/α   predicted    -0.1421199E-05 ( -64.67%)
   displ. norm   :     0.0956937 α      lambda       -0.2353831E-05
   maximum displ.:     0.0691700 α      in ANC's #1, #2, #4, ...

........................................................................
.............................. CYCLE  296 ..............................
........................................................................

 iter      E             dE          RMSdq      gap      omega  full diag
   1   -191.2256239 -0.191226E+03  0.743E-03    1.05       0.0  T
   2   -191.2256239 -0.334858E-07  0.439E-03    1.05       2.1  T
   3   -191.2256238  0.119827E-06  0.953E-04    1.05       9.7  T
   4   -191.2256239 -0.131039E-06  0.244E-04    1.05      37.9  T
   5   -191.2256239 -0.622606E-08  0.994E-05    1.05      93.0  T
   6   -191.2256239  0.781597E-11  0.508E-05    1.05     182.1  T
     SCC iter.                  ...        0 min,  0.192 sec
     gradient                   ...        0 min,  0.280 sec
 * total energy  :  -188.2581138 Eh     change       -0.3388046E-05 Eh
   gradient norm :     0.0000946 Eh/α   predicted    -0.1182849E-05 ( -65.09%)
   displ. norm   :     0.0818928 α      lambda       -0.2086827E-05
   maximum displ.:     0.0595292 α      in ANC's #1, #2, #4, ...

........................................................................
.............................. CYCLE  297 ..............................
........................................................................

 iter      E             dE          RMSdq      gap      omega  full diag
   1   -191.2256420 -0.191226E+03  0.644E-03    1.05       0.0  T
   2   -191.2256421 -0.267631E-07  0.380E-03    1.05       2.4  T
   3   -191.2256420  0.824682E-07  0.804E-04    1.05      11.5  T
   4   -191.2256421 -0.907988E-07  0.209E-04    1.05      44.3  T
   5   -191.2256421 -0.434110E-08  0.848E-05    1.05     109.0  T
   6   -191.2256421 -0.136993E-10  0.413E-05    1.05     223.9  T
     SCC iter.                  ...        0 min,  0.171 sec
     gradient                   ...        0 min,  0.311 sec
 * total energy  :  -188.2581168 Eh     change       -0.3007160E-05 Eh
   gradient norm :     0.0000871 Eh/α   predicted    -0.1047164E-05 ( -65.18%)
   displ. norm   :     0.0748561 α      lambda       -0.1965140E-05
   maximum displ.:     0.0546692 α      in ANC's #1, #2, #4, ...

........................................................................
.............................. CYCLE  298 ..............................
........................................................................

 iter      E             dE          RMSdq      gap      omega  full diag
   1   -191.2256602 -0.191226E+03  0.593E-03    1.05       0.0  T
   2   -191.2256602 -0.252968E-07  0.350E-03    1.05       2.6  T
   3   -191.2256601  0.791642E-07  0.790E-04    1.05      11.7  T
   4   -191.2256602 -0.879044E-07  0.192E-04    1.05      48.1  T
   5   -191.2256602 -0.340466E-08  0.787E-05    1.05     117.4  T
     SCC iter.                  ...        0 min,  0.236 sec
     gradient                   ...        0 min,  0.350 sec
 * total energy  :  -188.2581196 Eh     change       -0.2826718E-05 Eh
   gradient norm :     0.0000837 Eh/α   predicted    -0.9856328E-06 ( -65.13%)
   displ. norm   :     0.0687947 α      lambda       -0.1825620E-05
   maximum displ.:     0.0503822 α      in ANC's #1, #2, #4, ...
 * RMSD in coord.:     0.1574107 α      energy gain  -0.1795468E-03 Eh

generating ANC from exact Hessian ...
Using Lindh-Hessian (1995)
 Shifting diagonal of input Hessian by    1.0116267045590039E-002
 Lowest  eigenvalues of input Hessian
    0.010000    0.000000    0.000000    0.000000    0.000000    0.000000
    0.000000    0.010222    0.010284    0.010376    0.010417    0.010458
    0.010620    0.010651    0.010704    0.010936    0.011007    0.011089
 Highest eigenvalues
    2.145926    2.262693    2.327638    2.337656    2.448814    3.125903


........................................................................
.............................. CYCLE  299 ..............................
........................................................................

 iter      E             dE          RMSdq      gap      omega  full diag
   1   -191.2256670 -0.191226E+03  0.554E-03    1.05       0.0  T
   2   -191.2256670 -0.233745E-07  0.327E-03    1.05       2.8  T
   3   -191.2256669  0.820559E-07  0.799E-04    1.05      11.6  T
   4   -191.2256670 -0.920749E-07  0.171E-04    1.05      54.2  T
   5   -191.2256670 -0.236739E-08  0.738E-05    1.05     125.3  T
     SCC iter.                  ...        0 min,  0.202 sec
     gradient                   ...        0 min,  0.386 sec
 * total energy  :  -188.2581222 Eh     change       -0.2607243E-05 Eh
   gradient norm :     0.0000814 Eh/α   predicted     0.0000000E+00 (-100.00%)
   displ. norm   :     0.0087877 α      lambda       -0.1075491E-07
   maximum displ.:     0.0074152 α      in ANC's #1, #3, #2, ...

........................................................................
.............................. CYCLE  300 ..............................
........................................................................

 iter      E             dE          RMSdq      gap      omega  full diag
   1   -191.2256377 -0.191226E+03  0.591E-04    1.05       0.0  T
   2   -191.2256377 -0.665892E-09  0.351E-04    1.05      26.4  T
   3   -191.2256377  0.299329E-08  0.162E-04    1.05      57.2  T
   4   -191.2256377 -0.355718E-08  0.213E-05    1.05     434.7  T
     SCC iter.                  ...        0 min,  0.135 sec
     gradient                   ...        0 min,  0.322 sec
 * total energy  :  -188.2581228 Eh     change       -0.5418698E-06 Eh
   gradient norm :     0.0000705 Eh/α   predicted    -0.1873063E-06 ( -65.43%)
   displ. norm   :     0.0208434 α      lambda       -0.7733187E-06
   maximum displ.:     0.0147658 α      in ANC's #1, #3, #2, ...

........................................................................
.............................. CYCLE  301 ..............................
........................................................................

 iter      E             dE          RMSdq      gap      omega  full diag
   1   -191.2256092 -0.191226E+03  0.155E-03    1.05       0.0  T
   2   -191.2256092 -0.325889E-08  0.917E-04    1.05      10.1  T
   3   -191.2256092  0.223303E-07  0.417E-04    1.05      22.2  T
   4   -191.2256092 -0.254811E-07  0.626E-05    1.05     147.7  T
   5   -191.2256092 -0.413678E-09  0.267E-05    1.05     346.4  T
     SCC iter.                  ...        0 min,  0.223 sec
     gradient                   ...        0 min,  0.376 sec
 * total energy  :  -188.2581240 Eh     change       -0.1185872E-05 Eh
   gradient norm :     0.0000836 Eh/α   predicted    -0.4164561E-06 ( -64.88%)
   displ. norm   :     0.0436063 α      lambda       -0.1555030E-05
   maximum displ.:     0.0293089 α      in ANC's #1, #3, #2, ...

........................................................................
.............................. CYCLE  302 ..............................
........................................................................

 iter      E             dE          RMSdq      gap      omega  full diag
   1   -191.2256309 -0.191226E+03  0.338E-03    1.05       0.0  T
   2   -191.2256309 -0.159559E-07  0.200E-03    1.05       4.6  T
   3   -191.2256308  0.109803E-06  0.935E-04    1.05       9.9  T
   4   -191.2256309 -0.126284E-06  0.132E-04    1.05      69.9  T
   5   -191.2256309 -0.175058E-08  0.581E-05    1.05     159.2  T
     SCC iter.                  ...        0 min,  0.228 sec
     gradient                   ...        0 min,  0.416 sec
 * total energy  :  -188.2581260 Eh     change       -0.2062625E-05 Eh
   gradient norm :     0.0000723 Eh/α   predicted    -0.7794830E-06 ( -62.21%)
   displ. norm   :     0.0597475 α      lambda       -0.1689565E-05
   maximum displ.:     0.0400946 α      in ANC's #1, #3, #2, ...

........................................................................
.............................. CYCLE  303 ..............................
........................................................................

 iter      E             dE          RMSdq      gap      omega  full diag
   1   -191.2256013 -0.191226E+03  0.456E-03    1.05       0.0  T
   2   -191.2256013 -0.284155E-07  0.269E-03    1.05       3.4  T
   3   -191.2256011  0.198522E-06  0.125E-03    1.05       7.4  T
   4   -191.2256013 -0.228451E-06  0.177E-04    1.05      52.3  T
   5   -191.2256013 -0.311667E-08  0.788E-05    1.05     117.3  T
   6   -191.2256013 -0.464212E-09  0.364E-05    1.05     254.3  T
     SCC iter.                  ...        0 min,  0.204 sec
     gradient                   ...        0 min,  0.327 sec
 * total energy  :  -188.2581281 Eh     change       -0.2092798E-05 Eh
   gradient norm :     0.0000978 Eh/α   predicted    -0.8472837E-06 ( -59.51%)
   displ. norm   :     0.0502703 α      lambda       -0.1075874E-05
   maximum displ.:     0.0343845 α      in ANC's #1, #3, #2, ...

........................................................................
.............................. CYCLE  304 ..............................
........................................................................

 iter      E             dE          RMSdq      gap      omega  full diag
   1   -191.2256068 -0.191226E+03  0.370E-03    1.05       0.0  T
   2   -191.2256068 -0.192079E-07  0.218E-03    1.05       4.2  T
   3   -191.2256066  0.137236E-06  0.104E-03    1.05       8.9  T
   4   -191.2256068 -0.157953E-06  0.151E-04    1.05      61.4  T
   5   -191.2256068 -0.224486E-08  0.666E-05    1.05     138.8  T
     SCC iter.                  ...        0 min,  0.195 sec
     gradient                   ...        0 min,  0.346 sec
 * total energy  :  -188.2581295 Eh     change       -0.1339421E-05 Eh
   gradient norm :     0.0001240 Eh/α   predicted    -0.5389498E-06 ( -59.76%)
   displ. norm   :     0.0356769 α      lambda       -0.7258741E-06
   maximum displ.:     0.0248769 α      in ANC's #1, #3, #2, ...

........................................................................
.............................. CYCLE  305 ..............................
........................................................................

 iter      E             dE          RMSdq      gap      omega  full diag
   1   -191.2256113 -0.191226E+03  0.249E-03    1.05       0.0  T
   2   -191.2256113 -0.818855E-08  0.147E-03    1.05       6.3  T
   3   -191.2256112  0.572630E-07  0.674E-04    1.05      13.7  T
   4   -191.2256113 -0.661146E-07  0.930E-05    1.05      99.4  T
   5   -191.2256113 -0.812321E-09  0.438E-05    1.05     211.1  T
     SCC iter.                  ...        0 min,  0.188 sec
     gradient                   ...        0 min,  0.373 sec
 * total energy  :  -188.2581304 Eh     change       -0.9505981E-06 Eh
   gradient norm :     0.0001284 Eh/α   predicted    -0.3668378E-06 ( -61.41%)
   displ. norm   :     0.0313246 α      lambda       -0.7377323E-06
   maximum displ.:     0.0219544 α      in ANC's #1, #3, #2, ...

........................................................................
.............................. CYCLE  306 ..............................
........................................................................

 iter      E             dE          RMSdq      gap      omega  full diag
   1   -191.2256062 -0.191226E+03  0.215E-03    1.05       0.0  T
   2   -191.2256062 -0.560988E-08  0.126E-03    1.05       7.3  T
   3   -191.2256062  0.389767E-07  0.544E-04    1.05      17.0  T
   4   -191.2256062 -0.446310E-07  0.785E-05    1.05     117.7  T
   5   -191.2256062 -0.561528E-09  0.379E-05    1.05     243.9  T
     SCC iter.                  ...        0 min,  0.149 sec
     gradient                   ...        0 min,  0.317 sec
 * total energy  :  -188.2581314 Eh     change       -0.1037278E-05 Eh
   gradient norm :     0.0000960 Eh/α   predicted    -0.3708808E-06 ( -64.24%)
   displ. norm   :     0.0448060 α      lambda       -0.1176033E-05
   maximum displ.:     0.0307821 α      in ANC's #1, #3, #2, ...

........................................................................
.............................. CYCLE  307 ..............................
........................................................................

 iter      E             dE          RMSdq      gap      omega  full diag
   1   -191.2256081 -0.191226E+03  0.331E-03    1.05       0.0  T
   2   -191.2256081 -0.100486E-07  0.194E-03    1.05       4.8  T
   3   -191.2256081  0.666869E-07  0.702E-04    1.05      13.2  T
   4   -191.2256081 -0.755985E-07  0.103E-04    1.05      89.8  T
   5   -191.2256081 -0.814339E-09  0.544E-05    1.05     170.0  T
     SCC iter.                  ...        0 min,  0.146 sec
     gradient                   ...        0 min,  0.413 sec
 * total energy  :  -188.2581330 Eh     change       -0.1608405E-05 Eh
   gradient norm :     0.0000791 Eh/α   predicted    -0.5904337E-06 ( -63.29%)
   displ. norm   :     0.0719893 α      lambda       -0.1769160E-05
   maximum displ.:     0.0489332 α      in ANC's #1, #3, #2, ...

........................................................................
.............................. CYCLE  308 ..............................
........................................................................

 iter      E             dE          RMSdq      gap      omega  full diag
   1   -191.2256079 -0.191226E+03  0.562E-03    1.05       0.0  T
   2   -191.2256079 -0.264577E-07  0.330E-03    1.05       2.8  T
   3   -191.2256077  0.160300E-06  0.109E-03    1.05       8.5  T
   4   -191.2256079 -0.181290E-06  0.163E-04    1.05      56.6  T
   5   -191.2256079 -0.204403E-08  0.858E-05    1.05     107.8  T
     SCC iter.                  ...        0 min,  0.159 sec
     gradient                   ...        0 min,  0.346 sec
 * total energy  :  -188.2581353 Eh     change       -0.2237974E-05 Eh
   gradient norm :     0.0000963 Eh/α   predicted    -0.8911205E-06 ( -60.18%)
   displ. norm   :     0.0802711 α      lambda       -0.1531562E-05
   maximum displ.:     0.0549706 α      in ANC's #1, #3, #2, ...

........................................................................
.............................. CYCLE  309 ..............................
........................................................................

 iter      E             dE          RMSdq      gap      omega  full diag
   1   -191.2255809 -0.191226E+03  0.649E-03    1.05       0.0  T
   2   -191.2255809 -0.313169E-07  0.382E-03    1.05       2.4  T
   3   -191.2255807  0.177755E-06  0.114E-03    1.05       8.1  T
   4   -191.2255809 -0.201228E-06  0.169E-04    1.05      54.6  T
   5   -191.2255809 -0.196044E-08  0.918E-05    1.05     100.7  T
   6   -191.2255809 -0.387615E-09  0.459E-05    1.05     201.2  T
     SCC iter.                  ...        0 min,  0.173 sec
     gradient                   ...        0 min,  0.374 sec
 * total energy  :  -188.2581371 Eh     change       -0.1810416E-05 Eh
   gradient norm :     0.0001395 Eh/α   predicted    -0.7700151E-06 ( -57.47%)
   displ. norm   :     0.0549316 α      lambda       -0.8555013E-06
   maximum displ.:     0.0382785 α      in ANC's #1, #3, #2, ...

........................................................................
.............................. CYCLE  310 ..............................
........................................................................

 iter      E             dE          RMSdq      gap      omega  full diag
   1   -191.2255930 -0.191226E+03  0.464E-03    1.05       0.0  T
   2   -191.2255930 -0.146674E-07  0.273E-03    1.05       3.4  T
   3   -191.2255930  0.866496E-07  0.786E-04    1.05      11.8  T
   4   -191.2255931 -0.972303E-07  0.124E-04    1.05      74.7  T
   5   -191.2255931 -0.125502E-08  0.629E-05    1.05     146.9  T
     SCC iter.                  ...        0 min,  0.126 sec
     gradient                   ...        0 min,  0.355 sec
 * total energy  :  -188.2581381 Eh     change       -0.1023776E-05 Eh
   gradient norm :     0.0001446 Eh/α   predicted    -0.4286390E-06 ( -58.13%)
   displ. norm   :     0.0335110 α      lambda       -0.5644872E-06
   maximum displ.:     0.0237919 α      in ANC's #1, #3, #2, ...

........................................................................
.............................. CYCLE  311 ..............................
........................................................................

 iter      E             dE          RMSdq      gap      omega  full diag
   1   -191.2256082 -0.191226E+03  0.313E-03    1.05       0.0  T
   2   -191.2256082 -0.547359E-08  0.184E-03    1.05       5.0  T
   3   -191.2256082  0.305646E-07  0.465E-04    1.05      19.9  T
   4   -191.2256082 -0.346411E-07  0.606E-05    1.05     152.5  T
   5   -191.2256082 -0.245734E-09  0.323E-05    1.05     285.9  T
     SCC iter.                  ...        0 min,  0.178 sec
     gradient                   ...        0 min,  0.355 sec
 * total energy  :  -188.2581389 Eh     change       -0.7656506E-06 Eh
   gradient norm :     0.0001019 Eh/α   predicted    -0.2831850E-06 ( -63.01%)
   displ. norm   :     0.0325645 α      lambda       -0.6672115E-06
   maximum displ.:     0.0228885 α      in ANC's #1, #3, #2, ...

........................................................................
.............................. CYCLE  312 ..............................
........................................................................

 iter      E             dE          RMSdq      gap      omega  full diag
   1   -191.2255923 -0.191226E+03  0.351E-03    1.05       0.0  T
   2   -191.2255923 -0.624607E-08  0.207E-03    1.05       4.5  T
   3   -191.2255923  0.320881E-07  0.481E-04    1.05      19.2  T
   4   -191.2255923 -0.363943E-07  0.642E-05    1.05     143.9  T
   5   -191.2255923 -0.273957E-09  0.342E-05    1.05     270.4  T
     SCC iter.                  ...        0 min,  0.145 sec
     gradient                   ...        0 min,  0.324 sec
 * total energy  :  -188.2581398 Eh     change       -0.9150727E-06 Eh
   gradient norm :     0.0000787 Eh/α   predicted    -0.3353579E-06 ( -63.35%)
   displ. norm   :     0.0458829 α      lambda       -0.9295446E-06
   maximum displ.:     0.0315674 α      in ANC's #1, #3, #2, ...

........................................................................
.............................. CYCLE  313 ..............................
........................................................................

 iter      E             dE          RMSdq      gap      omega  full diag
   1   -191.2255724 -0.191226E+03  0.534E-03    1.05       0.0  T
   2   -191.2255725 -0.147534E-07  0.315E-03    1.05       2.9  T
   3   -191.2255724  0.856656E-07  0.796E-04    1.05      11.6  T
   4   -191.2255725 -0.969293E-07  0.986E-05    1.05      93.8  T
   5   -191.2255725 -0.635168E-09  0.511E-05    1.05     180.9  T
     SCC iter.                  ...        0 min,  0.144 sec
     gradient                   ...        0 min,  0.412 sec
 * total energy  :  -188.2581410 Eh     change       -0.1192012E-05 Eh
   gradient norm :     0.0000703 Eh/α   predicted    -0.4675416E-06 ( -60.78%)
   displ. norm   :     0.0496337 α      lambda       -0.7975555E-06
   maximum displ.:     0.0341981 α      in ANC's #1, #3, #2, ...

........................................................................
.............................. CYCLE  314 ..............................
........................................................................

 iter      E             dE          RMSdq      gap      omega  full diag
   1   -191.2255562 -0.191226E+03  0.575E-03    1.05       0.0  T
   2   -191.2255562 -0.182484E-07  0.338E-03    1.05       2.7  T
   3   -191.2255561  0.105260E-06  0.884E-04    1.05      10.5  T
   4   -191.2255562 -0.119137E-06  0.111E-04    1.05      83.5  T
   5   -191.2255562 -0.827839E-09  0.569E-05    1.05     162.4  T
     SCC iter.                  ...        0 min,  0.182 sec
     gradient                   ...        0 min,  0.364 sec
 * total energy  :  -188.2581420 Eh     change       -0.9749563E-06 Eh
   gradient norm :     0.0000800 Eh/α   predicted    -0.4005531E-06 ( -58.92%)
   displ. norm   :     0.0351900 α      lambda       -0.4644360E-06
   maximum displ.:     0.0246083 α      in ANC's #1, #4, #2, ...

........................................................................
.............................. CYCLE  315 ..............................
........................................................................

 iter      E             dE          RMSdq      gap      omega  full diag
   1   -191.2255362 -0.191226E+03  0.391E-03    1.05       0.0  T
   2   -191.2255362 -0.892049E-08  0.231E-03    1.05       4.0  T
   3   -191.2255362  0.564679E-07  0.646E-04    1.05      14.3  T
   4   -191.2255362 -0.637994E-07  0.778E-05    1.05     118.8  T
   5   -191.2255362 -0.432493E-09  0.390E-05    1.05     237.3  T
     SCC iter.                  ...        0 min,  0.156 sec
     gradient                   ...        0 min,  0.324 sec
 * total energy  :  -188.2581426 Eh     change       -0.6128517E-06 Eh
   gradient norm :     0.0000888 Eh/α   predicted    -0.2342624E-06 ( -61.78%)
   displ. norm   :     0.0260112 α      lambda       -0.3886755E-06
   maximum displ.:     0.0183318 α      in ANC's #1, #4, #2, ...

........................................................................
.............................. CYCLE  316 ..............................
........................................................................

 iter      E             dE          RMSdq      gap      omega  full diag
   1   -191.2255424 -0.191226E+03  0.265E-03    1.05       0.0  T
   2   -191.2255424 -0.452292E-08  0.156E-03    1.05       5.9  T
   3   -191.2255424  0.296125E-07  0.467E-04    1.05      19.8  T
   4   -191.2255424 -0.334141E-07  0.581E-05    1.05     159.1  T
   5   -191.2255424 -0.255909E-09  0.283E-05    1.05     326.9  T
     SCC iter.                  ...        0 min,  0.182 sec
     gradient                   ...        0 min,  0.351 sec
 * total energy  :  -188.2581431 Eh     change       -0.5538074E-06 Eh
   gradient norm :     0.0000822 Eh/α   predicted    -0.1956865E-06 ( -64.67%)
   displ. norm   :     0.0306795 α      lambda       -0.5534930E-06
   maximum displ.:     0.0213168 α      in ANC's #1, #4, #2, ...

........................................................................
.............................. CYCLE  317 ..............................
........................................................................

 iter      E             dE          RMSdq      gap      omega  full diag
   1   -191.2255445 -0.191226E+03  0.289E-03    1.05       0.0  T
   2   -191.2255445 -0.552484E-08  0.170E-03    1.05       5.4  T
   3   -191.2255445  0.355222E-07  0.506E-04    1.05      18.3  T
   4   -191.2255445 -0.399756E-07  0.698E-05    1.05     132.5  T
   5   -191.2255445 -0.411234E-09  0.326E-05    1.05     283.6  T
     SCC iter.                  ...        0 min,  0.168 sec
     gradient                   ...        0 min,  0.355 sec
 * total energy  :  -188.2581439 Eh     change       -0.7779363E-06 Eh
   gradient norm :     0.0000648 Eh/α   predicted    -0.2776704E-06 ( -64.31%)
   displ. norm   :     0.0467108 α      lambda       -0.8475940E-06
   maximum displ.:     0.0320048 α      in ANC's #1, #4, #2, ...

........................................................................
.............................. CYCLE  318 ..............................
........................................................................

 iter      E             dE          RMSdq      gap      omega  full diag
   1   -191.2255416 -0.191226E+03  0.420E-03    1.05       0.0  T
   2   -191.2255416 -0.107750E-07  0.248E-03    1.05       3.7  T
   3   -191.2255415  0.720070E-07  0.713E-04    1.05      13.0  T
   4   -191.2255416 -0.807066E-07  0.103E-04    1.05      89.5  T
   5   -191.2255416 -0.971113E-09  0.475E-05    1.05     194.7  T
     SCC iter.                  ...        0 min,  0.170 sec
     gradient                   ...        0 min,  0.337 sec
 * total energy  :  -188.2581450 Eh     change       -0.1118597E-05 Eh
   gradient norm :     0.0000546 Eh/α   predicted    -0.4255784E-06 ( -61.95%)
   displ. norm   :     0.0573993 α      lambda       -0.8736096E-06
   maximum displ.:     0.0391857 α      in ANC's #1, #4, #2, ...

........................................................................
.............................. CYCLE  319 ..............................
........................................................................

 iter      E             dE          RMSdq      gap      omega  full diag
   1   -191.2255492 -0.191226E+03  0.506E-03    1.05       0.0  T
   2   -191.2255492 -0.142907E-07  0.298E-03    1.05       3.1  T
   3   -191.2255491  0.972660E-07  0.821E-04    1.05      11.3  T
   4   -191.2255492 -0.108798E-06  0.123E-04    1.05      75.4  T
   5   -191.2255492 -0.147330E-08  0.543E-05    1.05     170.3  T
     SCC iter.                  ...        0 min,  0.173 sec
     gradient                   ...        0 min,  0.302 sec
 * total energy  :  -188.2581461 Eh     change       -0.1114255E-05 Eh
   gradient norm :     0.0000823 Eh/α   predicted    -0.4390176E-06 ( -60.60%)
   displ. norm   :     0.0510109 α      lambda       -0.6460731E-06
   maximum displ.:     0.0349090 α      in ANC's #1, #4, #6, ...

........................................................................
.............................. CYCLE  320 ..............................
........................................................................

 iter      E             dE          RMSdq      gap      omega  full diag
   1   -191.2255425 -0.191226E+03  0.453E-03    1.05       0.0  T
   2   -191.2255425 -0.999455E-08  0.267E-03    1.05       3.5  T
   3   -191.2255424  0.763291E-07  0.728E-04    1.05      12.7  T
   4   -191.2255425 -0.852822E-07  0.102E-04    1.05      90.5  T
   5   -191.2255425 -0.101684E-08  0.457E-05    1.05     202.2  T
     SCC iter.                  ...        0 min,  0.165 sec
     gradient                   ...        0 min,  0.280 sec
 * total energy  :  -188.2581470 Eh     change       -0.8482396E-06 Eh
   gradient norm :     0.0000992 Eh/α   predicted    -0.3242999E-06 ( -61.77%)
   displ. norm   :     0.0389347 α      lambda       -0.4957996E-06
   maximum displ.:     0.0265740 α      in ANC's #1, #4, #6, ...

........................................................................
.............................. CYCLE  321 ..............................
........................................................................

 iter      E             dE          RMSdq      gap      omega  full diag
   1   -191.2255536 -0.191226E+03  0.359E-03    1.05       0.0  T
   2   -191.2255537 -0.580883E-08  0.212E-03    1.05       4.4  T
   3   -191.2255536  0.479089E-07  0.585E-04    1.05      15.8  T
   4   -191.2255537 -0.535838E-07  0.785E-05    1.05     117.7  T
   5   -191.2255537 -0.534584E-09  0.371E-05    1.05     249.4  T
     SCC iter.                  ...        0 min,  0.147 sec
     gradient                   ...        0 min,  0.316 sec
 * total energy  :  -188.2581477 Eh     change       -0.6814789E-06 Eh
   gradient norm :     0.0000986 Eh/α   predicted    -0.2497789E-06 ( -63.35%)
   displ. norm   :     0.0370037 α      lambda       -0.5255028E-06
   maximum displ.:     0.0250672 α      in ANC's #1, #4, #6, ...

........................................................................
.............................. CYCLE  322 ..............................
........................................................................

 iter      E             dE          RMSdq      gap      omega  full diag
   1   -191.2255599 -0.191226E+03  0.368E-03    1.05       0.0  T
   2   -191.2255599 -0.617541E-08  0.217E-03    1.05       4.3  T
   3   -191.2255598  0.543596E-07  0.639E-04    1.05      14.5  T
   4   -191.2255599 -0.609194E-07  0.777E-05    1.05     119.0  T
   5   -191.2255599 -0.411518E-09  0.398E-05    1.05     232.4  T
     SCC iter.                  ...        0 min,  0.146 sec
     gradient                   ...        0 min,  0.303 sec
 * total energy  :  -188.2581484 Eh     change       -0.7214319E-06 Eh
   gradient norm :     0.0000790 Eh/α   predicted    -0.2639441E-06 ( -63.41%)
   displ. norm   :     0.0380810 α      lambda       -0.5505067E-06
   maximum displ.:     0.0255773 α      in ANC's #1, #4, #6, ...

........................................................................
.............................. CYCLE  323 ..............................
........................................................................

 iter      E             dE          RMSdq      gap      omega  full diag
   1   -191.2255581 -0.191226E+03  0.404E-03    1.05       0.0  T
   2   -191.2255581 -0.751251E-08  0.238E-03    1.05       3.9  T
   3   -191.2255581  0.626612E-07  0.695E-04    1.05      13.3  T
   4   -191.2255581 -0.703027E-07  0.848E-05    1.05     109.0  T
   5   -191.2255581 -0.412314E-09  0.453E-05    1.05     204.0  T
     SCC iter.                  ...        0 min,  0.143 sec
     gradient                   ...        0 min,  0.309 sec
 * total energy  :  -188.2581491 Eh     change       -0.7270247E-06 Eh
   gradient norm :     0.0000571 Eh/α   predicted    -0.2763041E-06 ( -62.00%)
   displ. norm   :     0.0354753 α      lambda       -0.4550986E-06
   maximum displ.:     0.0238594 α      in ANC's #1, #4, #6, ...

........................................................................
.............................. CYCLE  324 ..............................
........................................................................

 iter      E             dE          RMSdq      gap      omega  full diag
   1   -191.2255665 -0.191226E+03  0.383E-03    1.05       0.0  T
   2   -191.2255665 -0.646185E-08  0.225E-03    1.05       4.1  T
   3   -191.2255664  0.502294E-07  0.628E-04    1.05      14.7  T
   4   -191.2255665 -0.563674E-07  0.774E-05    1.05     119.5  T
   5   -191.2255665 -0.321990E-09  0.419E-05    1.05     220.7  T
     SCC iter.                  ...        0 min,  0.179 sec
     gradient                   ...        0 min,  0.301 sec
 * total energy  :  -188.2581497 Eh     change       -0.5866500E-06 Eh
   gradient norm :     0.0000537 Eh/α   predicted    -0.2286001E-06 ( -61.03%)
   displ. norm   :     0.0262584 α      lambda       -0.2984596E-06
   maximum displ.:     0.0178257 α      in ANC's #1, #4, #6, ...

........................................................................
.............................. CYCLE  325 ..............................
........................................................................

 iter      E             dE          RMSdq      gap      omega  full diag
   1   -191.2255697 -0.191226E+03  0.279E-03    1.05       0.0  T
   2   -191.2255697 -0.305585E-08  0.164E-03    1.05       5.6  T
   3   -191.2255696  0.198600E-07  0.396E-04    1.05      23.3  T
   4   -191.2255697 -0.223353E-07  0.537E-05    1.05     172.2  T
   5   -191.2255697 -0.146628E-09  0.291E-05    1.05     318.2  T
     SCC iter.                  ...        0 min,  0.172 sec
     gradient                   ...        0 min,  0.341 sec
 * total energy  :  -188.2581501 Eh     change       -0.3963976E-06 Eh
   gradient norm :     0.0000597 Eh/α   predicted    -0.1515226E-06 ( -61.78%)
   displ. norm   :     0.0197790 α      lambda       -0.2321482E-06
   maximum displ.:     0.0135268 α      in ANC's #1, #4, #6, ...

........................................................................
.............................. CYCLE  326 ..............................
........................................................................

 iter      E             dE          RMSdq      gap      omega  full diag
   1   -191.2255783 -0.191226E+03  0.201E-03    1.05       0.0  T
   2   -191.2255783 -0.139198E-08  0.118E-03    1.05       7.8  T
   3   -191.2255783  0.662254E-08  0.227E-04    1.05      40.7  T
   4   -191.2255783 -0.748304E-08  0.356E-05    1.05     259.5  T
   5   -191.2255783 -0.730722E-10  0.189E-05    1.05     488.0  T
     SCC iter.                  ...        0 min,  0.172 sec
     gradient                   ...        0 min,  0.395 sec
 * total energy  :  -188.2581504 Eh     change       -0.3260318E-06 Eh
   gradient norm :     0.0000572 Eh/α   predicted    -0.1184487E-06 ( -63.67%)
   displ. norm   :     0.0182135 α      lambda       -0.2404821E-06
   maximum displ.:     0.0123777 α      in ANC's #1, #4, #6, ...

........................................................................
.............................. CYCLE  327 ..............................
........................................................................

 iter      E             dE          RMSdq      gap      omega  full diag
   1   -191.2255883 -0.191226E+03  0.176E-03    1.05       0.0  T
   2   -191.2255883 -0.121361E-08  0.104E-03    1.05       8.9  T
   3   -191.2255883  0.496064E-08  0.195E-04    1.05      47.4  T
   4   -191.2255883 -0.564035E-08  0.307E-05    1.05     300.8  T
     SCC iter.                  ...        0 min,  0.113 sec
     gradient                   ...        0 min,  0.293 sec
 * total energy  :  -188.2581508 Eh     change       -0.3410719E-06 Eh
   gradient norm :     0.0000513 Eh/α   predicted    -0.1251102E-06 ( -63.32%)
   displ. norm   :     0.0214809 α      lambda       -0.3002376E-06
   maximum displ.:     0.0142418 α      in ANC's #1, #4, #6, ...

........................................................................
.............................. CYCLE  328 ..............................
........................................................................

 iter      E             dE          RMSdq      gap      omega  full diag
   1   -191.2255924 -0.191226E+03  0.210E-03    1.05       0.0  T
   2   -191.2255924 -0.215340E-08  0.123E-03    1.05       7.5  T
   3   -191.2255924  0.126407E-07  0.308E-04    1.05      30.0  T
   4   -191.2255924 -0.142157E-07  0.385E-05    1.05     240.0  T
   5   -191.2255924 -0.761986E-10  0.222E-05    1.05     417.2  T
     SCC iter.                  ...        0 min,  0.148 sec
     gradient                   ...        0 min,  0.405 sec
 * total energy  :  -188.2581512 Eh     change       -0.4072415E-06 Eh
   gradient norm :     0.0000406 Eh/α   predicted    -0.1510960E-06 ( -62.90%)
   displ. norm   :     0.0246413 α      lambda       -0.3096143E-06
   maximum displ.:     0.0162276 α      in ANC's #1, #2, #4, ...

........................................................................
.............................. CYCLE  329 ..............................
........................................................................

 iter      E             dE          RMSdq      gap      omega  full diag
   1   -191.2256015 -0.191226E+03  0.240E-03    1.05       0.0  T
   2   -191.2256015 -0.312735E-08  0.141E-03    1.05       6.5  T
   3   -191.2256015  0.164587E-07  0.357E-04    1.05      25.9  T
   4   -191.2256015 -0.186229E-07  0.446E-05    1.05     207.5  T
   5   -191.2256015 -0.954117E-10  0.254E-05    1.05     363.3  T
     SCC iter.                  ...        0 min,  0.120 sec
     gradient                   ...        0 min,  0.314 sec
 * total energy  :  -188.2581516 Eh     change       -0.4108792E-06 Eh
   gradient norm :     0.0000380 Eh/α   predicted    -0.1588465E-06 ( -61.34%)
   displ. norm   :     0.0217138 α      lambda       -0.2445070E-06
   maximum displ.:     0.0143915 α      in ANC's #1, #2, #3, ...

........................................................................
.............................. CYCLE  330 ..............................
........................................................................

 iter      E             dE          RMSdq      gap      omega  full diag
   1   -191.2256043 -0.191226E+03  0.209E-03    1.05       0.0  T
   2   -191.2256043 -0.239316E-08  0.123E-03    1.05       7.5  T
   3   -191.2256043  0.117878E-07  0.302E-04    1.05      30.6  T
   4   -191.2256043 -0.133489E-07  0.389E-05    1.05     237.5  T
   5   -191.2256043 -0.778186E-10  0.220E-05    1.05     419.6  T
     SCC iter.                  ...        0 min,  0.157 sec
     gradient                   ...        0 min,  0.325 sec
 * total energy  :  -188.2581519 Eh     change       -0.3268131E-06 Eh
   gradient norm :     0.0000410 Eh/α   predicted    -0.1246891E-06 ( -61.85%)
   displ. norm   :     0.0171157 α      lambda       -0.1880601E-06
   maximum displ.:     0.0115758 α      in ANC's #1, #2, #3, ...

........................................................................
.............................. CYCLE  331 ..............................
........................................................................

 iter      E             dE          RMSdq      gap      omega  full diag
   1   -191.2256044 -0.191226E+03  0.159E-03    1.05       0.0  T
   2   -191.2256044 -0.129191E-08  0.937E-04    1.05       9.9  T
   3   -191.2256044  0.568693E-08  0.211E-04    1.05      43.9  T
   4   -191.2256044 -0.644803E-08  0.310E-05    1.05     298.7  T
   5   -191.2256044 -0.563602E-10  0.169E-05    1.05     545.4  T
     SCC iter.                  ...        0 min,  0.140 sec
     gradient                   ...        0 min,  0.294 sec
 * total energy  :  -188.2581522 Eh     change       -0.2772639E-06 Eh
   gradient norm :     0.0000437 Eh/α   predicted    -0.9784514E-07 ( -64.71%)
   displ. norm   :     0.0146286 α      lambda       -0.1903099E-06
   maximum displ.:     0.0097646 α      in ANC's #1, #2, #3, ...

........................................................................
.............................. CYCLE  332 ..............................
........................................................................

 iter      E             dE          RMSdq      gap      omega  full diag
   1   -191.2256044 -0.191226E+03  0.134E-03    1.05       0.0  T
   2   -191.2256044 -0.846143E-09  0.789E-04    1.05      11.7  T
   3   -191.2256044  0.364889E-08  0.168E-04    1.05      55.2  T
   4   -191.2256044 -0.411944E-08  0.294E-05    1.05     314.1  T
     SCC iter.                  ...        0 min,  0.117 sec
     gradient                   ...        0 min,  0.262 sec
 * total energy  :  -188.2581525 Eh     change       -0.2851137E-06 Eh
   gradient norm :     0.0000432 Eh/α   predicted    -0.9855933E-07 ( -65.43%)
   displ. norm   :     0.0195500 α      lambda       -0.2878741E-06
   maximum displ.:     0.0125603 α      in ANC's #1, #2, #3, ...

........................................................................
.............................. CYCLE  333 ..............................
........................................................................

 iter      E             dE          RMSdq      gap      omega  full diag
   1   -191.2255969 -0.191226E+03  0.181E-03    1.05       0.0  T
   2   -191.2255969 -0.136706E-08  0.106E-03    1.05       8.7  T
   3   -191.2255969  0.783623E-08  0.244E-04    1.05      37.9  T
   4   -191.2255969 -0.875147E-08  0.443E-05    1.05     208.5  T
   5   -191.2255969 -0.129546E-09  0.231E-05    1.05     399.7  T
     SCC iter.                  ...        0 min,  0.155 sec
     gradient                   ...        0 min,  0.280 sec
 * total energy  :  -188.2581529 Eh     change       -0.4210613E-06 Eh
   gradient norm :     0.0000404 Eh/α   predicted    -0.1474099E-06 ( -64.99%)
   displ. norm   :     0.0326984 α      lambda       -0.4921998E-06
   maximum displ.:     0.0205245 α      in ANC's #1, #2, #3, ...

........................................................................
.............................. CYCLE  334 ..............................
........................................................................

 iter      E             dE          RMSdq      gap      omega  full diag
   1   -191.2255860 -0.191226E+03  0.305E-03    1.05       0.0  T
   2   -191.2255860 -0.382335E-08  0.179E-03    1.05       5.2  T
   3   -191.2255860  0.194705E-07  0.387E-04    1.05      23.9  T
   4   -191.2255860 -0.219151E-07  0.750E-05    1.05     123.2  T
   5   -191.2255860 -0.376019E-09  0.393E-05    1.05     235.5  T
     SCC iter.                  ...        0 min,  0.172 sec
     gradient                   ...        0 min,  0.282 sec
 * total energy  :  -188.2581536 Eh     change       -0.6866797E-06 Eh
   gradient norm :     0.0000390 Eh/α   predicted    -0.2473563E-06 ( -63.98%)
   displ. norm   :     0.0511953 α      lambda       -0.7002502E-06
   maximum displ.:     0.0318992 α      in ANC's #1, #2, #3, ...

........................................................................
.............................. CYCLE  335 ..............................
........................................................................

 iter      E             dE          RMSdq      gap      omega  full diag
   1   -191.2255698 -0.191226E+03  0.468E-03    1.05       0.0  T
   2   -191.2255698 -0.872316E-08  0.275E-03    1.05       3.4  T
   3   -191.2255698  0.414252E-07  0.572E-04    1.05      16.2  T
   4   -191.2255698 -0.469356E-07  0.113E-04    1.05      82.2  T
   5   -191.2255698 -0.835882E-09  0.588E-05    1.05     157.1  T
     SCC iter.                  ...        0 min,  0.148 sec
     gradient                   ...        0 min,  0.290 sec
 * total energy  :  -188.2581545 Eh     change       -0.9412709E-06 Eh
   gradient norm :     0.0000503 Eh/α   predicted    -0.3518200E-06 ( -62.62%)
   displ. norm   :     0.0596408 α      lambda       -0.7049193E-06
   maximum displ.:     0.0371996 α      in ANC's #1, #2, #3, ...

........................................................................
.............................. CYCLE  336 ..............................
........................................................................

 iter      E             dE          RMSdq      gap      omega  full diag
   1   -191.2255526 -0.191226E+03  0.529E-03    1.05       0.0  T
   2   -191.2255526 -0.110422E-07  0.310E-03    1.05       3.0  T
   3   -191.2255526  0.493131E-07  0.625E-04    1.05      14.8  T
   4   -191.2255526 -0.561334E-07  0.124E-04    1.05      74.4  T
   5   -191.2255526 -0.105788E-08  0.635E-05    1.05     145.5  T
     SCC iter.                  ...        0 min,  0.136 sec
     gradient                   ...        0 min,  0.279 sec
 * total energy  :  -188.2581555 Eh     change       -0.9278985E-06 Eh
   gradient norm :     0.0000665 Eh/α   predicted    -0.3564292E-06 ( -61.59%)
   displ. norm   :     0.0557231 α      lambda       -0.5880110E-06
   maximum displ.:     0.0351356 α      in ANC's #1, #2, #3, ...

........................................................................
.............................. CYCLE  337 ..............................
........................................................................

 iter      E             dE          RMSdq      gap      omega  full diag
   1   -191.2255528 -0.191226E+03  0.476E-03    1.05       0.0  T
   2   -191.2255528 -0.881661E-08  0.279E-03    1.05       3.3  T
   3   -191.2255527  0.383354E-07  0.554E-04    1.05      16.7  T
   4   -191.2255528 -0.439351E-07  0.106E-04    1.05      87.5  T
   5   -191.2255528 -0.755534E-09  0.514E-05    1.05     179.7  T
     SCC iter.                  ...        0 min,  0.124 sec
     gradient                   ...        0 min,  0.299 sec
 * total energy  :  -188.2581562 Eh     change       -0.7867187E-06 Eh
   gradient norm :     0.0000707 Eh/α   predicted    -0.2962812E-06 ( -62.34%)
   displ. norm   :     0.0481044 α      lambda       -0.5011387E-06
   maximum displ.:     0.0307969 α      in ANC's #2, #1, #3, ...

........................................................................
.............................. CYCLE  338 ..............................
........................................................................

 iter      E             dE          RMSdq      gap      omega  full diag
   1   -191.2255600 -0.191226E+03  0.396E-03    1.05       0.0  T
   2   -191.2255600 -0.632514E-08  0.232E-03    1.05       4.0  T
   3   -191.2255599  0.292080E-07  0.480E-04    1.05      19.3  T
   4   -191.2255600 -0.333728E-07  0.871E-05    1.05     106.2  T
   5   -191.2255600 -0.539757E-09  0.402E-05    1.05     230.2  T
     SCC iter.                  ...        0 min,  0.129 sec
     gradient                   ...        0 min,  0.266 sec
 * total energy  :  -188.2581569 Eh     change       -0.6906517E-06 Eh
   gradient norm :     0.0000657 Eh/α   predicted    -0.2529499E-06 ( -63.38%)
   displ. norm   :     0.0487878 α      lambda       -0.5305141E-06
   maximum displ.:     0.0317194 α      in ANC's #2, #1, #3, ...
 * RMSD in coord.:     0.0668403 α      energy gain  -0.3731333E-04 Eh

generating ANC from exact Hessian ...
Using Lindh-Hessian (1995)
 Shifting diagonal of input Hessian by    1.0115563847757759E-002
 Lowest  eigenvalues of input Hessian
    0.010000    0.000000    0.000000    0.000000    0.000000    0.000000
    0.000000    0.010220    0.010282    0.010373    0.010414    0.010458
    0.010623    0.010650    0.010708    0.010940    0.011011    0.011097
 Highest eigenvalues
    2.145862    2.262895    2.327474    2.337557    2.448344    3.124563


........................................................................
.............................. CYCLE  339 ..............................
........................................................................

 iter      E             dE          RMSdq      gap      omega  full diag
   1   -191.2255717 -0.191226E+03  0.393E-03    1.05       0.0  T
   2   -191.2255717 -0.643519E-08  0.230E-03    1.05       4.0  T
   3   -191.2255717  0.317667E-07  0.497E-04    1.05      18.6  T
   4   -191.2255717 -0.362017E-07  0.848E-05    1.05     109.0  T
   5   -191.2255717 -0.496954E-09  0.391E-05    1.05     236.7  T
     SCC iter.                  ...        0 min,  0.124 sec
     gradient                   ...        0 min,  0.309 sec
 * total energy  :  -188.2581577 Eh     change       -0.7395850E-06 Eh
   gradient norm :     0.0000546 Eh/α   predicted     0.0000000E+00 (-100.00%)
   displ. norm   :     0.0000819 α      lambda        0.0000000E+00
   maximum displ.:     0.0000243 α      in ANC's #1, #41, #13, ...

........................................................................
.............................. CYCLE  340 ..............................
........................................................................

 iter      E             dE          RMSdq      gap      omega  full diag
   1   -191.2255722 -0.191226E+03  0.560E-05    1.05       0.0  T
   2   -191.2255722 -0.484022E-10  0.350E-05    1.05     264.0  T
   3   -191.2255722 -0.136140E-10  0.224E-05    1.05     412.0  T
     SCC iter.                  ...        0 min,  0.094 sec
     gradient                   ...        0 min,  0.313 sec
 * total energy  :  -188.2581577 Eh     change       -0.3850829E-08 Eh
   gradient norm :     0.0000473 Eh/α   predicted    -0.2303706E-08 ( -40.18%)
   displ. norm   :     0.0000819 α      lambda        0.0000000E+00
   maximum displ.:     0.0000243 α      in ANC's #1, #41, #13, ...

   *** GEOMETRY OPTIMIZATION CONVERGED AFTER 340 ITERATIONS ***

------------------------------------------------------------------------
 total energy gain   :        -0.3268926 Eh     -205.1282 kcal/mol
 total RMSD          :         3.8062571 a0        2.0142 Å
 total power (kW/mol):        -2.5242835 (step)   -4.2897 (real)
------------------------------------------------------------------------

 ANCopt (total)                0 d,  0 h,  3 min, 20.075 sec
 optimizer setup                ...        0 min,  0.002 sec (  0.001%)
 model hessian                  ...        0 min,  1.462 sec (  0.731%)
 ANC generation                 ...        0 min,  0.309 sec (  0.154%)
 coordinate transformation      ...        0 min,  0.066 sec (  0.033%)
 single point calculation       ...        3 min, 17.744 sec ( 98.835%)
 optimization log               ...        0 min,  0.279 sec (  0.140%)
 hessian update                 ...        0 min,  0.053 sec (  0.027%)
 rational function              ...        0 min,  0.116 sec (  0.058%)

================
 final structure:
================
117
 xtb: 6.7.1 (edcfbbe)
O            0.86505886128546        3.16542731914544       -1.65661013904191
P            0.00795506446681        2.78395022542827       -0.51458590707912
O           -0.76496061647315        3.83625228747514        0.21919904670548
O           -0.99714967222829        1.58918955662258       -1.01810392532167
C           -1.66229289656229        0.91123779244382       -0.03101061150191
C           -3.02522562708059        1.19674875249040        0.24645812304025
C           -3.65546645347752        0.45759618440190        1.22094196251813
C           -2.97833258569757       -0.50871809619054        1.98543740323287
C           -3.62842916653616       -1.21535015442506        3.02011568498267
C           -2.94290333771199       -2.10393461683635        3.79928756370986
C           -1.57220345421839       -2.31306190430997        3.58299062258366
C           -0.91815828855893       -1.65703267390447        2.57667581160015
C           -1.60397057174888       -0.75624918494091        1.73325923374477
C           -0.97022725895679       -0.05334712425738        0.67241814979308
C            0.45065720925014       -0.29541576111597        0.34422249957567
C            1.34153412481148        0.75870694430169        0.41066043513862
O            0.87606242870785        2.01812175875667        0.68724422028174
C            2.73901125815416        0.53773941706633        0.30317392400951
C            3.19020176917376       -0.73103528834203        0.03751271250377
C            2.30437268136337       -1.80338936903712       -0.18064328974445
C            2.76791418200529       -3.08559019926973       -0.54368298120012
C            1.89087742704252       -4.11017638619883       -0.76474147463660
C            0.51051792138912       -3.89167295139782       -0.63916579247123
C            0.03091293871483       -2.66361747229551       -0.27524868193262
C            0.91078250128534       -1.58933805313620       -0.02191514371629
C           -3.75791177142265        2.25994569874288       -0.45983365958798
C           -4.67551118374375        3.04313767562596        0.24296203201623
C           -5.39394973420657        4.03732503683497       -0.39336587882735
C           -5.19474946579496        4.28781220438812       -1.74087613955833
C           -4.28780233858060        3.51823438565189       -2.44860979832101
C           -3.58482844560663        2.50543046207209       -1.82037251217015
C            3.71068828998734        1.62194316951065        0.54772991402678
C            3.67654887532739        2.81427895923550       -0.16902951054229
C            4.61005171068571        3.80644667457383        0.08617301462199
C            5.58195242984690        3.62454530320791        1.05675997129420
C            5.62318857106512        2.43779990834445        1.77073544788843
C            4.69722806205052        1.44215332858536        1.51582166675177
H           -2.07731992885583        4.53082841490610        0.88948308193744
H           -4.70625044543168        0.61779413649585        1.41659509775324
H           -4.67952599518105       -1.02893890821255        3.18948844250436
H           -3.44490841862287       -2.64066332687523        4.59105096134021
H           -1.03205013302593       -2.99761123708449        4.22077745549929
H            0.13867125833498       -1.82017632684735        2.42650738781967
H            4.25390050260292       -0.90903035461392       -0.04166900185422
H            3.83260773864477       -3.23719063780641       -0.65359370810974
H            2.25174784734857       -5.08847467900123       -1.04708689410824
H           -0.17534525560308       -4.70257731618840       -0.83755659155364
H           -1.03389733026635       -2.50102754654046       -0.19363668165413
H           -4.81825994361302        2.87162775806439        1.30107501789105
H           -6.11564488158561        4.61898375825529        0.16198290289996
H           -5.74581404341297        5.07376548886226       -2.23557393219221
H           -4.13174101184469        3.69924553236767       -3.50218805913033
H           -2.90364709088441        1.89558851623062       -2.39279468554775
H            2.92727058272059        2.95510653791075       -0.93222856930561
H            4.58416821279898        4.72206310956800       -0.48792199050389
H            6.30705265468726        4.40124728600812        1.25167149505048
H            6.38030019717094        2.28636712982137        2.52670231562167
H            4.72606822476146        0.51929094236859        2.07798936175796
C           -3.90442472934609        6.17317579736858        3.21718493337345
C           -3.15365794013890        5.10226937773380        2.50357113132821
N           -2.76482099494943        5.22615072438683        1.26747345509036
C           -3.04692854491248        6.21317414791483        0.31268898449639
C           -4.20858723680941        6.98395699380112        0.29701513640475
C           -4.42266331479312        7.89094786834850       -0.72633703409654
C           -3.49580795565092        8.04205301155861       -1.74331351063502
C           -2.35063851973488        7.25888080347808       -1.74523091723052
C           -2.13009838473941        6.34739498445307       -0.73269353513173
C           -2.85564850138382        3.87501117812504        3.23525556573087
C           -3.73342418760458        3.44465439386876        4.24214954307446
C           -3.49530139792959        2.27136364826375        4.92883602480698
C           -2.36274179683761        1.51628645587382        4.65828266963642
C           -1.48266519110667        1.93573836642811        3.67589166588637
C           -1.72882421909183        3.09205437688211        2.96064643660282
H           -4.98171643404800        6.06306454797069        3.09193567297339
H           -3.68292105861370        6.12645929395656        4.28156654468607
H           -3.59867627598230        7.14799165426435        2.83757859246301
H           -4.97285656853078        6.86237810590611        1.04337529684276
H           -5.32686802797275        8.48094186295468       -0.72786825259289
H           -3.66845706874713        8.75552954845909       -2.53501014177947
H           -1.62699263558317        7.35368952706858       -2.54072807640574
H           -1.25077351901815        5.72455035150294       -0.74138225791046
H           -4.62615291736402        4.00859859717755        4.46487169643478
H           -4.19257248295742        1.94591569600893        5.68680675516764
H           -2.16726043384933        0.60948116111057        5.20977227088140
H           -0.59422725942440        1.36194930367889        3.46459184503706
H           -1.02509706026124        3.39573309118388        2.20669510023792
C           -1.52091766269490        4.74798178866442        6.92597340556739
O           -0.98332876137767        5.18134390740978        5.68633512519925
C            0.04931119070739        4.44894434226018        5.19690390260699
O            0.46777579211221        3.47815479651017        5.80081263346742
C            0.52466061074024        4.98810577701075        3.93030037471010
C            1.47027351360723        4.38822766086807        3.16355094545096
C            2.20848430060978        3.13604421056423        3.49565986838930
N            1.81887012534991        4.93092926629016        1.95598471988205
C            1.18392393951281        5.99769242641626        1.36613582080395
C            1.62215641214355        6.23070678975677       -0.04034750623990
C            0.25585078714533        6.68830503939724        2.06789805045779
C           -0.52032539877146        7.83564266875605        1.60520956262416
O           -1.57435318130788        8.17399061322929        2.11746440067061
O            0.02437000155054        8.54239168133494        0.59592169589062
C           -0.67895796012768        9.71188512879518        0.19863359848820
C           -0.10279010150082        6.28766151917424        3.48555174059119
H           -2.30179560641057        5.46048097282779        7.18021764123955
H           -1.93108023823731        3.73975823560461        6.83113234663900
H           -0.74594682455996        4.73922844951514        7.69573695794510
H            1.94138908937994        2.78189054926827        4.48448409570842
H            1.96583457197158        2.37268614331354        2.75814209815451
H            3.28210829006309        3.31701126135582        3.44772133404771
H            2.41962544753171        4.37249087830641        1.36070976973807
H            1.09224953900209        7.05686561481382       -0.49574537802965
H            2.69048074178459        6.44304138231043       -0.05947658257051
H            1.44309855489586        5.32409893948416       -0.62111727558629
H           -0.74254550291962       10.41447144421645        1.03262183031755
H           -0.10647432275823       10.14108463203331       -0.61961489703116
H           -1.68990405382378        9.45863769217458       -0.12775325989577
H           -1.19123746873808        6.21877859688470        3.56888390561383
H            0.19572213567272        7.09079240975431        4.17301045365133

 Bond Distances (Angstroems)
 ---------------------------
O1-P2=1.4780         P2-O1=1.4780         P2-O3=1.4977         P2-O4=1.6405         P2-O17=1.6687        O3-P2=1.4977         
O4-P2=1.6405         O4-C5=1.3698         C5-O4=1.3698         C5-C6=1.4199         C5-C14=1.3799        C6-C5=1.4199         
C6-C7=1.3759         C6-C26=1.4718        C7-C6=1.3759         C7-C8=1.4060         C7-H39=1.0808        C8-C7=1.4060         
C8-C9=1.4116         C8-C13=1.4191        C9-C8=1.4116         C9-C10=1.3662        C9-H40=1.0809        C10-C9=1.3662        
C10-C11=1.4033       C10-H41=1.0803       C11-C10=1.4033       C11-C12=1.3678       C11-H42=1.0803       C12-C11=1.3678       
C12-C13=1.4118       C12-H43=1.0798       C13-C8=1.4191        C13-C12=1.4118       C13-C14=1.4216       C14-C5=1.3799        
C14-C13=1.4216       C14-C15=1.4782       C15-C14=1.4782       C15-C16=1.3818       C15-C25=1.4213       C16-C15=1.3818       
C16-O17=1.3709       C16-C18=1.4189       O17-P2=1.6687        O17-C16=1.3709       C18-C16=1.4189       C18-C19=1.3726       
C18-C32=1.4763       C19-C18=1.3726       C19-C20=1.4079       C19-H44=1.0814       C20-C19=1.4079       C20-C21=1.4109       
C20-C25=1.4188       C21-C20=1.4109       C21-C22=1.3667       C21-H45=1.0810       C22-C21=1.3667       C22-C23=1.4032       
C22-H46=1.0803       C23-C22=1.4032       C23-C24=1.3677       C23-H47=1.0804       C24-C23=1.3677       C24-C25=1.4115       
C24-H48=1.0802       C25-C15=1.4213       C25-C20=1.4188       C25-C24=1.4115       C26-C6=1.4718        C26-C27=1.3962       
C26-C31=1.3933       C27-C26=1.3962       C27-C28=1.3818       C27-H49=1.0814       C28-C27=1.3818       C28-C29=1.3850       
C28-H50=1.0805       C29-C28=1.3850       C29-C30=1.3841       C29-H51=1.0799       C30-C29=1.3841       C30-C31=1.3837       
C30-H52=1.0803       C31-C26=1.3933       C31-C30=1.3837       C31-H53=1.0787       C32-C18=1.4763       C32-C33=1.3916       
C32-C37=1.3938       C33-C32=1.3916       C33-C34=1.3860       C33-H54=1.0788       C34-C33=1.3860       C34-C35=1.3855       
C34-H55=1.0810       C35-C34=1.3855       C35-C36=1.3856       C35-H56=1.0803       C36-C35=1.3856       C36-C37=1.3834       
C36-H57=1.0806       C37-C32=1.3938       C37-C36=1.3834       C37-H58=1.0810       H38-N61=1.0483       H39-C7=1.0808        
H40-C9=1.0809        H41-C10=1.0803       H42-C11=1.0803       H43-C12=1.0798       H44-C19=1.0814       H45-C21=1.0810       
H46-C22=1.0803       H47-C23=1.0804       H48-C24=1.0802       H49-C27=1.0814       H50-C28=1.0805       H51-C29=1.0799       
H52-C30=1.0803       H53-C31=1.0787       H54-C33=1.0788       H55-C34=1.0810       H56-C35=1.0803       H57-C36=1.0806       
H58-C37=1.0810       C59-C60=1.4899       C59-H74=1.0901       C59-H75=1.0882       C59-H76=1.0899       C60-C59=1.4899       
C60-N61=1.3017       C60-C68=1.4596       N61-H38=1.0483       N61-C60=1.3017       N61-C62=1.4019       C62-N61=1.4019       
C62-C63=1.3942       C62-C67=1.3969       C63-C62=1.3942       C63-C64=1.3841       C63-H77=1.0751       C64-C63=1.3841       
C64-C65=1.3842       C64-H78=1.0797       C65-C64=1.3842       C65-C66=1.3874       C65-H79=1.0796       C66-C65=1.3874       
C66-C67=1.3801       C66-H80=1.0796       C67-C62=1.3969       C67-C66=1.3801       C67-H81=1.0776       C68-C60=1.4596       
C68-C69=1.4034       C68-C73=1.3993       C69-C68=1.4034       C69-C70=1.3802       C69-H82=1.0792       C70-C69=1.3802       
C70-C71=1.3878       C70-H83=1.0801       C71-C70=1.3878       C71-C72=1.3840       C71-H84=1.0792       C72-C71=1.3840       
C72-C73=1.3818       C72-H85=1.0785       C73-C68=1.3993       C73-C72=1.3818       C73-H86=1.0751       H74-C59=1.0901       
H75-C59=1.0882       H76-C59=1.0899       H77-C63=1.0751       H78-C64=1.0797       H79-C65=1.0796       H80-C66=1.0796       
H81-C67=1.0776       H82-C69=1.0792       H83-C70=1.0801       H84-C71=1.0792       H85-C72=1.0785       H86-C73=1.0751       
C87-O88=1.4190       C87-H103=1.0872      C87-H104=1.0926      C87-H105=1.0923      O88-C87=1.4190       O88-C89=1.3573       
C89-O88=1.3573       C89-O90=1.2175       C89-C91=1.4563       O90-C89=1.2175       C91-C89=1.4563       C91-C92=1.3572       
C91-C102=1.5101      C92-C91=1.3572       C92-C93=1.4910       C92-N94=1.3690       C93-C92=1.4910       C93-H106=1.0838      
C93-H107=1.0888      C93-H108=1.0898      N94-C92=1.3690       N94-C95=1.3744       N94-H109=1.0135      C95-N94=1.3744       
C95-C96=1.4915       C95-C97=1.3530       C96-C95=1.4915       C96-H110=1.0820      C96-H111=1.0894      C96-H112=1.0915      
C97-C95=1.3530       C97-C98=1.4604       C97-C102=1.5162      C98-C97=1.4604       C98-O99=1.2198       C98-O100=1.3472      
O99-C98=1.2198       O100-C98=1.3472      O100-C101=1.4213     C101-O100=1.4213     C101-H113=1.0923     C101-H114=1.0870     
C101-H115=1.0921     C102-C91=1.5101      C102-C97=1.5162      C102-H116=1.0938     C102-H117=1.0985     H103-C87=1.0872      
H104-C87=1.0926      H105-C87=1.0923      H106-C93=1.0838      H107-C93=1.0888      H108-C93=1.0898      H109-N94=1.0135      
H110-C96=1.0820      H111-C96=1.0894      H112-C96=1.0915      H113-C101=1.0923     H114-C101=1.0870     H115-C101=1.0921     
H116-C102=1.0938     H117-C102=1.0985     
 C  H  Rav=1.0834 sigma=0.0055  Rmin=1.0751  Rmax=1.0985    47
 C  C  Rav=1.4083 sigma=0.0394  Rmin=1.3530  Rmax=1.5162    59
 N  H  Rav=1.0309 sigma=0.0174  Rmin=1.0135  Rmax=1.0483     2
 N  C  Rav=1.3618 sigma=0.0369  Rmin=1.3017  Rmax=1.4019     4
 O  C  Rav=1.3403 sigma=0.0746  Rmin=1.2175  Rmax=1.4213     8
 P  O  Rav=1.5712 sigma=0.0843  Rmin=1.4780  Rmax=1.6687     4

 selected bond angles (degree)
 --------------------
O3-P2-O1=119.77                O4-P2-O1=107.83                O4-P2-O3=110.24                O17-P2-O1=111.92               
O17-P2-O3=103.77               O17-P2-O4=101.86               C5-O4-P2=115.90                C6-C5-O4=120.49                
C14-C5-O4=118.02               C14-C5-C6=121.49               C7-C6-C5=118.04                C26-C6-C5=121.96               
C26-C6-C7=120.00               C8-C7-C6=122.26                H39-C7-C6=119.60               H39-C7-C8=118.14               
C9-C8-C7=121.39                C13-C8-C7=119.32               C13-C8-C9=119.27               C10-C9-C8=120.83               
H40-C9-C8=118.45               H40-C9-C10=120.71              C11-C10-C9=119.94              H41-C10-C9=120.53              
H41-C10-C11=119.53             

 selected dihedral angles (degree)
 ---------------------------------
C5-O4-P2-O1=166.42            C5-O4-P2-O3=298.83            C5-O4-P2-O17= 48.50           C6-C5-O4-P2=101.92            
C14-C5-O4-P2=281.61           C7-C6-C5-O4=178.07            C7-C6-C5-C14=358.38           C26-C6-C5-O4=357.18           
C26-C6-C5-C14=177.49          C8-C7-C6-C5=  3.37            C8-C7-C6-C26=184.24           H39-C7-C6-C5=183.21           
H39-C7-C6-C26=  4.08          C9-C8-C7-C6=177.20            C9-C8-C7-H39=357.35           C13-C8-C7-C6=358.73           
C13-C8-C7-H39=178.89          C10-C9-C8-C7=183.26           C10-C9-C8-C13=  1.73          H40-C9-C8-C7=  2.58           
H40-C9-C8-C13=181.04          C11-C10-C9-C8=  0.61          C11-C10-C9-H40=181.32         H41-C10-C9-C8=179.88          
H41-C10-C9-H40=  0.58         

 CMA Distance (Angstroems)
 ---------------------------
R(CMA):  5.2612
           -------------------------------------------------
          |                Final Singlepoint                |
           -------------------------------------------------

          ...................................................
          :                      SETUP                      :
          :.................................................:
          :  # basis functions                 327          :
          :  # atomic orbitals                 326          :
          :  # shells                          186          :
          :  # electrons                       340          :
          :  max. iterations                   250          :
          :  Hamiltonian                  GFN2-xTB          :
          :  restarted?                      false          :
          :  GBSA solvation                   true          :
          :  PC potential                    false          :
          :  electronic temp.          300.0000000     K    :
          :  accuracy                    0.2000000          :
          :  -> integral cutoff          0.3198970E+02      :
          :  -> integral neglect         0.2000000E-08      :
          :  -> SCF convergence          0.2000000E-06 Eh   :
          :  -> wf. convergence          0.2000000E-04 e    :
          :  Broyden damping             0.4000000          :
          :  net charge                          0          :
          :  unpaired electrons                  0          :
          ...................................................

 iter      E             dE          RMSdq      gap      omega  full diag
   1   -191.2255722 -0.191226E+03  0.591E-06    1.05       0.0  T
   2   -191.2255722  0.540012E-12  0.409E-06    1.05    2261.4  T
   3   -191.2255722 -0.230216E-11  0.218E-06    1.05    4250.1  T

   *** convergence criteria satisfied after 3 iterations ***

         #    Occupation            Energy/Eh            Energy/eV
      -------------------------------------------------------------
         1        2.0000           -0.7369338             -20.0530
       ...           ...                  ...                  ...
       164        2.0000           -0.4025558             -10.9541
       165        2.0000           -0.3981996             -10.8356
       166        2.0000           -0.3871852             -10.5358
       167        2.0000           -0.3845636             -10.4645
       168        2.0000           -0.3798879             -10.3373
       169        2.0000           -0.3678952             -10.0109
       170        2.0000           -0.3585473              -9.7566 (HOMO)
       171                         -0.3200801              -8.7098 (LUMO)
       172                         -0.2735700              -7.4442
       173                         -0.2713089              -7.3827
       174                         -0.2596637              -7.0658
       175                         -0.2447220              -6.6592
       ...                                ...                  ...
       326                          1.3135728              35.7441
      -------------------------------------------------------------
                  HL-Gap            0.0384673 Eh            1.0467 eV
             Fermi-level           -0.3393137 Eh           -9.2332 eV

 SCC (total)                   0 d,  0 h,  0 min,  0.568 sec
 SCC setup                      ...        0 min,  0.011 sec (  2.010%)
 Dispersion                     ...        0 min,  0.006 sec (  1.054%)
 classical contributions        ...        0 min,  0.002 sec (  0.310%)
 integral evaluation            ...        0 min,  0.106 sec ( 18.678%)
 iterations                     ...        0 min,  0.087 sec ( 15.367%)
 molecular gradient             ...        0 min,  0.349 sec ( 61.482%)
 printout                       ...        0 min,  0.006 sec (  1.091%)

         :::::::::::::::::::::::::::::::::::::::::::::::::::::
         ::                     SUMMARY                     ::
         :::::::::::::::::::::::::::::::::::::::::::::::::::::
         :: total energy            -188.258157678734 Eh    ::
         :: total w/o Gsasa/hb      -188.182457508788 Eh    ::
         :: gradient norm              0.000065349654 Eh/a0 ::
         :: HOMO-LUMO gap              1.046747157129 eV    ::
         ::.................................................::
         :: SCC energy              -191.210836041175 Eh    ::
         :: -> isotropic ES            0.281732213100 Eh    ::
         :: -> anisotropic ES         -0.036571633221 Eh    ::
         :: -> anisotropic XC          0.083068984851 Eh    ::
         :: -> dispersion             -0.201794016725 Eh    ::
         :: -> Gsolv                  -0.090998315007 Eh    ::
         ::    -> Gelec               -0.015298145061 Eh    ::
         ::    -> Gsasa               -0.077908313085 Eh    ::
         ::    -> Ghb                  0.000000000000 Eh    ::
         ::    -> Gshift               0.002208143139 Eh    ::
         :: repulsion energy           2.952678362440 Eh    ::
         :: add. restraining           0.000000000000 Eh    ::
         :: total charge               0.000000000000 e     ::
         :::::::::::::::::::::::::::::::::::::::::::::::::::::

           -------------------------------------------------
          |                Property Printout                |
           -------------------------------------------------

    * Orbital Energies and Occupations

         #    Occupation            Energy/Eh            Energy/eV
      -------------------------------------------------------------
         1        2.0000           -0.7369338             -20.0530
       ...           ...                  ...                  ...
       158        2.0000           -0.4101279             -11.1601
       159        2.0000           -0.4086418             -11.1197
       160        2.0000           -0.4076244             -11.0920
       161        2.0000           -0.4074122             -11.0862
       162        2.0000           -0.4059135             -11.0455
       163        2.0000           -0.4027667             -10.9598
       164        2.0000           -0.4025558             -10.9541
       165        2.0000           -0.3981996             -10.8356
       166        2.0000           -0.3871852             -10.5358
       167        2.0000           -0.3845636             -10.4645
       168        2.0000           -0.3798879             -10.3373
       169        2.0000           -0.3678952             -10.0109
       170        2.0000           -0.3585473              -9.7566 (HOMO)
       171                         -0.3200801              -8.7098 (LUMO)
       172                         -0.2735700              -7.4442
       173                         -0.2713089              -7.3827
       174                         -0.2596637              -7.0658
       175                         -0.2447220              -6.6592
       176                         -0.2437588              -6.6330
       177                         -0.2431367              -6.6161
       178                         -0.2420102              -6.5854
       179                         -0.2369854              -6.4487
       180                         -0.2343477              -6.3769
       181                         -0.2273581              -6.1867
       ...                                ...                  ...
       326                          1.3135728              35.7441
      -------------------------------------------------------------
                  HL-Gap            0.0384673 Eh            1.0467 eV
             Fermi-level           -0.3393137 Eh           -9.2332 eV

     #   Z          covCN         q      C6AA      α(0)
     1   8 O        0.808    -0.565    25.298     6.742
     2  15 P        3.827     0.632   135.101    20.879
     3   8 O        0.809    -0.592    25.941     6.827
     4   8 O        1.662    -0.316    19.285     5.928
     5   6 C        3.177     0.151    24.360     8.059
     6   6 C        2.967    -0.013    28.343     8.733
     7   6 C        2.927    -0.054    29.349     8.884
     8   6 C        2.984     0.002    27.966     8.675
     9   6 C        2.920    -0.037    28.912     8.818
    10   6 C        2.915    -0.032    28.791     8.799
    11   6 C        2.916    -0.031    28.772     8.796
    12   6 C        2.917    -0.035    28.863     8.810
    13   6 C        2.986     0.008    27.828     8.653
    14   6 C        2.973    -0.012    28.306     8.727
    15   6 C        2.973    -0.012    28.318     8.729
    16   6 C        3.119     0.149    24.606     8.124
    17   8 O        1.661    -0.338    19.690     5.990
    18   6 C        2.970    -0.011    28.296     8.725
    19   6 C        2.926    -0.050    29.249     8.869
    20   6 C        2.984     0.006    27.892     8.663
    21   6 C        2.919    -0.036    28.888     8.814
    22   6 C        2.915    -0.032    28.793     8.799
    23   6 C        2.916    -0.031    28.780     8.797
    24   6 C        2.917    -0.034    28.853     8.808
    25   6 C        2.987     0.010    27.790     8.647
    26   6 C        2.975     0.019    27.570     8.613
    27   6 C        2.926    -0.044    29.096     8.846
    28   6 C        2.918    -0.037    28.913     8.818
    29   6 C        2.919    -0.034    28.844     8.807
    30   6 C        2.919    -0.030    28.747     8.792
    31   6 C        2.923    -0.026    28.652     8.778
    32   6 C        2.977     0.019    27.575     8.614
    33   6 C        2.922    -0.041    29.018     8.834
    34   6 C        2.919    -0.036    28.885     8.813
    35   6 C        2.918    -0.035    28.860     8.809
    36   6 C        2.918    -0.032    28.798     8.800
    37   6 C        2.925    -0.037    28.926     8.820
    38   1 H        0.858     0.272     0.803     1.404
    39   1 H        0.926     0.041     2.441     2.443
    40   1 H        0.926     0.035     2.510     2.477
    41   1 H        0.926     0.036     2.497     2.471
    42   1 H        0.926     0.034     2.524     2.484
    43   1 H        0.926     0.031     2.578     2.511
    44   1 H        0.925     0.039     2.456     2.451
    45   1 H        0.926     0.034     2.532     2.489
    46   1 H        0.926     0.033     2.538     2.491
    47   1 H        0.926     0.032     2.559     2.502
    48   1 H        0.926     0.029     2.602     2.522
    49   1 H        0.925     0.024     2.671     2.556
    50   1 H        0.926     0.033     2.549     2.497
    51   1 H        0.926     0.035     2.521     2.483
    52   1 H        0.926     0.033     2.548     2.496
    53   1 H        0.926     0.040     2.444     2.445
    54   1 H        0.926     0.059     2.209     2.324
    55   1 H        0.926     0.029     2.598     2.521
    56   1 H        0.926     0.032     2.551     2.498
    57   1 H        0.926     0.033     2.541     2.493
    58   1 H        0.926     0.031     2.566     2.505
    59   6 C        3.757    -0.133    23.115     6.855
    60   6 C        2.884     0.116    25.446     8.270
    61   7 N        2.697    -0.059    22.377     7.026
    62   6 C        2.907     0.070    26.439     8.431
    63   6 C        2.919    -0.037    28.908     8.817
    64   6 C        2.920    -0.026    28.659     8.779
    65   6 C        2.918    -0.026    28.654     8.778
    66   6 C        2.919    -0.022    28.565     8.764
    67   6 C        2.927    -0.041    29.031     8.836
    68   6 C        2.975    -0.000    28.033     8.685
    69   6 C        2.924    -0.029    28.725     8.789
    70   6 C        2.917    -0.026    28.662     8.779
    71   6 C        2.919    -0.013    28.345     8.731
    72   6 C        2.918    -0.014    28.363     8.733
    73   6 C        2.922    -0.032    28.795     8.800
    74   1 H        0.925     0.095     1.832     2.117
    75   1 H        0.925     0.089     1.887     2.148
    76   1 H        0.925     0.109     1.708     2.044
    77   1 H        0.926     0.061     2.191     2.315
    78   1 H        0.926     0.057     2.238     2.339
    79   1 H        0.926     0.054     2.271     2.357
    80   1 H        0.926     0.051     2.311     2.377
    81   1 H        0.926     0.075     2.032     2.229
    82   1 H        0.926     0.058     2.217     2.329
    83   1 H        0.926     0.055     2.260     2.351
    84   1 H        0.926     0.051     2.307     2.375
    85   1 H        0.926     0.044     2.390     2.418
    86   1 H        0.926     0.083     1.950     2.184
    87   6 C        3.652     0.036    20.270     6.466
    88   8 O        1.705    -0.285    18.729     5.843
    89   6 C        2.725     0.341    21.204     7.538
    90   8 O        0.856    -0.466    23.045     6.436
    91   6 C        2.954    -0.069    29.708     8.940
    92   6 C        2.889     0.091    25.976     8.356
    93   6 C        3.760    -0.135    23.144     6.858
    94   7 N        2.716    -0.102    23.245     7.161
    95   6 C        2.886     0.091    25.978     8.356
    96   6 C        3.761    -0.135    23.148     6.859
    97   6 C        2.953    -0.068    29.704     8.939
    98   6 C        2.728     0.343    21.174     7.533
    99   8 O        0.857    -0.471    23.147     6.450
   100   8 O        1.704    -0.277    18.601     5.823
   101   6 C        3.653     0.034    20.301     6.470
   102   6 C        3.818    -0.054    21.522     6.602
   103   1 H        0.925     0.070     2.090     2.261
   104   1 H        0.924     0.055     2.260     2.351
   105   1 H        0.924     0.060     2.196     2.318
   106   1 H        0.925     0.092     1.860     2.132
   107   1 H        0.925     0.070     2.091     2.261
   108   1 H        0.925     0.064     2.157     2.297
   109   1 H        0.860     0.193     1.141     1.673
   110   1 H        0.925     0.079     1.987     2.205
   111   1 H        0.925     0.067     2.115     2.274
   112   1 H        0.924     0.082     1.962     2.190
   113   1 H        0.924     0.064     2.158     2.297
   114   1 H        0.925     0.072     2.061     2.245
   115   1 H        0.924     0.059     2.216     2.328
   116   1 H        0.924     0.062     2.176     2.307
   117   1 H        0.923     0.048     2.342     2.393

 Mol. C6AA /au·bohr⁶  :     183413.697658
 Mol. C8AA /au·bohr⁸  :    4619429.804916
 Mol. α(0) /au        :        681.520683


Wiberg/Mayer (AO) data.
largest (>0.10) Wiberg bond orders for each atom

 ---------------------------------------------------------------------------
     #   Z sym  total        # sym  WBO       # sym  WBO       # sym  WBO
 ---------------------------------------------------------------------------
     1   8 O    2.003 --     2 P    1.763
     2  15 P    5.548 --     1 O    1.763     3 O    1.627     4 O    1.047
                            17 O    1.007
     3   8 O    1.986 --     2 P    1.627
     4   8 O    2.303 --     2 P    1.047     5 C    1.002
     5   6 C    3.924 --    14 C    1.451     6 C    1.237     4 O    1.002
     6   6 C    3.986 --     7 C    1.493     5 C    1.237    26 C    1.052
     7   6 C    3.984 --     6 C    1.493     8 C    1.286    39 H    0.964
     8   6 C    3.988 --     7 C    1.286     9 C    1.276    13 C    1.248
     9   6 C    3.985 --    10 C    1.556     8 C    1.276    40 H    0.968
                            12 C    0.116
    10   6 C    3.987 --     9 C    1.556    11 C    1.321    41 H    0.971
    11   6 C    3.985 --    12 C    1.551    10 C    1.321    42 H    0.971
    12   6 C    3.990 --    11 C    1.551    13 C    1.286    43 H    0.966
                             9 C    0.116
    13   6 C    3.985 --    12 C    1.286     8 C    1.248    14 C    1.237
    14   6 C    3.984 --     5 C    1.451    13 C    1.237    15 C    1.034
    15   6 C    3.984 --    16 C    1.448    25 C    1.237    14 C    1.034
                            19 C    0.101
    16   6 C    3.927 --    15 C    1.448    18 C    1.239    17 O    1.006
    17   8 O    2.274 --     2 P    1.007    16 C    1.006
    18   6 C    3.986 --    19 C    1.509    16 C    1.239    32 C    1.030
    19   6 C    3.984 --    18 C    1.509    20 C    1.278    44 H    0.966
                            15 C    0.101
    20   6 C    3.987 --    21 C    1.279    19 C    1.278    25 C    1.251
    21   6 C    3.985 --    22 C    1.554    20 C    1.279    45 H    0.968
                            24 C    0.117
    22   6 C    3.987 --    21 C    1.554    23 C    1.323    46 H    0.971
    23   6 C    3.985 --    24 C    1.551    22 C    1.323    47 H    0.971
    24   6 C    3.990 --    23 C    1.551    25 C    1.286    48 H    0.967
                            21 C    0.117
    25   6 C    3.986 --    24 C    1.286    20 C    1.251    15 C    1.237
    26   6 C    3.988 --    31 C    1.390    27 C    1.380     6 C    1.052
                            29 C    0.105
    27   6 C    3.989 --    28 C    1.456    26 C    1.380    49 H    0.967
                            30 C    0.108
    28   6 C    3.991 --    27 C    1.456    29 C    1.429    50 H    0.970
                            31 C    0.108
    29   6 C    3.986 --    30 C    1.439    28 C    1.429    51 H    0.971
                            26 C    0.105
    30   6 C    3.991 --    31 C    1.447    29 C    1.439    52 H    0.971
                            27 C    0.108
    31   6 C    3.986 --    30 C    1.447    26 C    1.390    53 H    0.968
                            28 C    0.108
    32   6 C    3.988 --    33 C    1.395    37 C    1.392    18 C    1.030
                            35 C    0.107
    33   6 C    3.985 --    34 C    1.440    32 C    1.395    54 H    0.958
                            36 C    0.109
    34   6 C    3.992 --    33 C    1.440    35 C    1.437    55 H    0.970
                            37 C    0.109
    35   6 C    3.988 --    34 C    1.437    36 C    1.434    56 H    0.971
                            32 C    0.107
    36   6 C    3.991 --    37 C    1.449    35 C    1.434    57 H    0.970
                            33 C    0.109
    37   6 C    3.987 --    36 C    1.449    32 C    1.392    58 H    0.970
                            34 C    0.109
    38   1 H    0.926 --    61 N    0.799
    39   1 H    0.997 --     7 C    0.964
    40   1 H    0.998 --     9 C    0.968
    41   1 H    0.998 --    10 C    0.971
    42   1 H    0.998 --    11 C    0.971
    43   1 H    0.999 --    12 C    0.966
    44   1 H    0.997 --    19 C    0.966
    45   1 H    0.998 --    21 C    0.968
    46   1 H    0.998 --    22 C    0.971
    47   1 H    0.998 --    23 C    0.971
    48   1 H    0.999 --    24 C    0.967
    49   1 H    0.999 --    27 C    0.967
    50   1 H    0.998 --    28 C    0.970
    51   1 H    0.998 --    29 C    0.971
    52   1 H    0.998 --    30 C    0.971
    53   1 H    0.998 --    31 C    0.968
    54   1 H    0.996 --    33 C    0.958
    55   1 H    0.998 --    34 C    0.970
    56   1 H    0.998 --    35 C    0.971
    57   1 H    0.998 --    36 C    0.970
    58   1 H    0.999 --    37 C    0.970
    59   6 C    3.978 --    60 C    1.046    75 H    0.966    76 H    0.952
                            74 H    0.937
    60   6 C    3.937 --    61 N    1.544    68 C    1.103    59 C    1.046
    61   7 N    3.660 --    60 C    1.544    62 C    1.061    38 H    0.799
    62   6 C    3.953 --    63 C    1.368    67 C    1.355    61 N    1.061
    63   6 C    3.976 --    64 C    1.447    62 C    1.368    77 H    0.962
                            66 C    0.103
    64   6 C    3.990 --    63 C    1.447    65 C    1.436    78 H    0.969
                            67 C    0.106
    65   6 C    3.976 --    64 C    1.436    66 C    1.420    79 H    0.969
    66   6 C    3.990 --    67 C    1.464    65 C    1.420    80 H    0.969
                            63 C    0.103
    67   6 C    3.977 --    66 C    1.464    62 C    1.355    81 H    0.954
                            64 C    0.106
    68   6 C    3.983 --    73 C    1.355    69 C    1.345    60 C    1.103
    69   6 C    3.976 --    70 C    1.472    68 C    1.345    82 H    0.966
                            72 C    0.105
    70   6 C    3.989 --    69 C    1.472    71 C    1.415    83 H    0.968
    71   6 C    3.976 --    72 C    1.434    70 C    1.415    84 H    0.969
    72   6 C    3.991 --    73 C    1.452    71 C    1.434    85 H    0.968
                            69 C    0.105
    73   6 C    3.974 --    72 C    1.452    68 C    1.355    86 H    0.945
    74   1 H    0.987 --    59 C    0.937
    75   1 H    0.991 --    59 C    0.966
    76   1 H    0.987 --    59 C    0.952
    77   1 H    0.996 --    63 C    0.962
    78   1 H    0.996 --    64 C    0.969
    79   1 H    0.997 --    65 C    0.969
    80   1 H    0.997 --    66 C    0.969
    81   1 H    0.994 --    67 C    0.954
    82   1 H    0.997 --    69 C    0.966
    83   1 H    0.996 --    70 C    0.968
    84   1 H    0.997 --    71 C    0.969
    85   1 H    0.997 --    72 C    0.968
    86   1 H    0.993 --    73 C    0.945
    87   6 C    3.929 --   103 H    0.981   105 H    0.977   104 H    0.976
                            88 O    0.963
    88   8 O    2.266 --    89 C    1.082    87 C    0.963    90 O    0.148
    89   6 C    3.923 --    90 O    1.651    91 C    1.086    88 O    1.082
    90   8 O    1.985 --    89 C    1.651    88 O    0.148
    91   6 C    3.967 --    92 C    1.593    89 C    1.086   102 C    1.003
    92   6 C    3.965 --    91 C    1.593    94 N    1.175    93 C    1.032
    93   6 C    3.985 --    92 C    1.032   106 H    0.968   108 H    0.963
                           107 H    0.955
    94   7 N    3.539 --    92 C    1.175    95 C    1.156   109 H    0.916
    95   6 C    3.964 --    97 C    1.619    94 N    1.156    96 C    1.032
    96   6 C    3.986 --    95 C    1.032   110 H    0.972   111 H    0.961
                           112 H    0.953
    97   6 C    3.966 --    95 C    1.619    98 C    1.074   102 C    0.995
    98   6 C    3.921 --    99 O    1.649   100 O    1.099    97 C    1.074
    99   8 O    1.968 --    98 C    1.649   100 O    0.149
   100   8 O    2.284 --    98 C    1.099   101 C    0.957    99 O    0.149
   101   6 C    3.924 --   114 H    0.981   113 H    0.976   115 H    0.974
                           100 O    0.957
   102   6 C    3.994 --    91 C    1.003    97 C    0.995   117 H    0.956
                           116 H    0.946
   103   1 H    0.995 --    87 C    0.981
   104   1 H    0.996 --    87 C    0.976
   105   1 H    0.996 --    87 C    0.977
   106   1 H    0.991 --    93 C    0.968
   107   1 H    0.995 --    93 C    0.955
   108   1 H    0.996 --    93 C    0.963
   109   1 H    0.962 --    94 N    0.916
   110   1 H    0.993 --    96 C    0.972
   111   1 H    0.995 --    96 C    0.961
   112   1 H    0.993 --    96 C    0.953
   113   1 H    0.995 --   101 C    0.976
   114   1 H    0.994 --   101 C    0.981
   115   1 H    0.996 --   101 C    0.974
   116   1 H    0.996 --   102 C    0.946
   117   1 H    0.997 --   102 C    0.956
 ---------------------------------------------------------------------------

Topologies differ in total number of bonds
Writing topology from bond orders to xtbtopo.mol

molecular dipole:
                 x           y           z       tot (Debye)
 q only:       -3.135       2.119       2.185
   full:       -2.787       1.663       1.821       9.458
molecular quadrupole (traceless):
                xx          xy          yy          xz          yz          zz
 q only:        9.538     -48.731      29.670     -24.503       7.576     -39.209
  q+dip:       18.736     -47.601      22.158     -25.623       0.344     -40.894
   full:       15.015     -41.717      22.715     -21.028       5.704     -37.731

           -------------------------------------------------
          |                Geometry Summary                 |
           -------------------------------------------------

      molecular mass/u    :      920.9834508
   center of mass at/Å    :       -0.6649184       2.9775696       1.2739927
  moments of inertia/u·Å² :        0.1004940E+05   0.1458975E+05   0.1625699E+05
rotational constants/cm⁻¹ :        0.1677477E-02   0.1155443E-02   0.1036947E-02

 * 113 selected distances

     #   Z          #   Z                                           value/Å
     1   8 O        2  15 P                                       1.4779619
     2  15 P        3   8 O                                       1.4977246
     2  15 P        4   8 O                                       1.6404937
     4   8 O        5   6 C                                       1.3698130
     5   6 C        6   6 C                                       1.4198913
     6   6 C        7   6 C                                       1.3759248
     7   6 C        8   6 C                                       1.4059613
     8   6 C        9   6 C                                       1.4115644
     9   6 C       10   6 C                                       1.3662493
    10   6 C       11   6 C                                       1.4033307
    11   6 C       12   6 C                                       1.3677790
     8   6 C       13   6 C                                       1.4190619
    12   6 C       13   6 C                                       1.4117724
     5   6 C       14   6 C                                       1.3799244
    13   6 C       14   6 C                                       1.4216491
    15   6 C       16   6 C                                       1.3817564
     2  15 P       17   8 O                                       1.6686821 (max)
    16   6 C       17   8 O                                       1.3708714
    16   6 C       18   6 C                                       1.4189160
    18   6 C       19   6 C                                       1.3725663
    19   6 C       20   6 C                                       1.4079165
    20   6 C       21   6 C                                       1.4109245
    21   6 C       22   6 C                                       1.3666885
    22   6 C       23   6 C                                       1.4031770
    23   6 C       24   6 C                                       1.3676905
    15   6 C       25   6 C                                       1.4212696
    20   6 C       25   6 C                                       1.4188399
    24   6 C       25   6 C                                       1.4115328
    26   6 C       27   6 C                                       1.3961735
    27   6 C       28   6 C                                       1.3818379
    28   6 C       29   6 C                                       1.3849942
    29   6 C       30   6 C                                       1.3840847
    26   6 C       31   6 C                                       1.3933007
    30   6 C       31   6 C                                       1.3837003
    32   6 C       33   6 C                                       1.3916086
    33   6 C       34   6 C                                       1.3859845
    34   6 C       35   6 C                                       1.3855391
    35   6 C       36   6 C                                       1.3855780
    32   6 C       37   6 C                                       1.3938390
    36   6 C       37   6 C                                       1.3833641
     7   6 C       39   1 H                                       1.0807825
     9   6 C       40   1 H                                       1.0808520
    10   6 C       41   1 H                                       1.0802668
    11   6 C       42   1 H                                       1.0803452
    12   6 C       43   1 H                                       1.0798404
    19   6 C       44   1 H                                       1.0813913
    21   6 C       45   1 H                                       1.0810345
    22   6 C       46   1 H                                       1.0802843
    23   6 C       47   1 H                                       1.0804320
    24   6 C       48   1 H                                       1.0802394
    27   6 C       49   1 H                                       1.0813862
    28   6 C       50   1 H                                       1.0805477
    29   6 C       51   1 H                                       1.0798708
    30   6 C       52   1 H                                       1.0803460
    31   6 C       53   1 H                                       1.0786949
    33   6 C       54   1 H                                       1.0787601
    34   6 C       55   1 H                                       1.0810221
    35   6 C       56   1 H                                       1.0802903
    36   6 C       57   1 H                                       1.0805721
    37   6 C       58   1 H                                       1.0809900
    38   1 H       61   7 N                                       1.0483357
    60   6 C       61   7 N                                       1.3017214
    61   7 N       62   6 C                                       1.4019321
    62   6 C       63   6 C                                       1.3942034
    63   6 C       64   6 C                                       1.3840921
    64   6 C       65   6 C                                       1.3842453
    65   6 C       66   6 C                                       1.3873629
    62   6 C       67   6 C                                       1.3969315
    66   6 C       67   6 C                                       1.3801002
    68   6 C       69   6 C                                       1.4034005
    69   6 C       70   6 C                                       1.3801639
    70   6 C       71   6 C                                       1.3878157
    71   6 C       72   6 C                                       1.3840402
    68   6 C       73   6 C                                       1.3993444
    72   6 C       73   6 C                                       1.3817515
    59   6 C       74   1 H                                       1.0901236
    59   6 C       75   1 H                                       1.0881887
    59   6 C       76   1 H                                       1.0898850
    63   6 C       77   1 H                                       1.0751478
    64   6 C       78   1 H                                       1.0796674
    65   6 C       79   1 H                                       1.0796482
    66   6 C       80   1 H                                       1.0795684
    67   6 C       81   1 H                                       1.0776007
    69   6 C       82   1 H                                       1.0791677
    70   6 C       83   1 H                                       1.0801033
    71   6 C       84   1 H                                       1.0791894
    72   6 C       85   1 H                                       1.0785192
    73   6 C       86   1 H                                       1.0751258
    87   6 C       88   8 O                                       1.4189813
    88   8 O       89   6 C                                       1.3573127
    89   6 C       90   8 O                                       1.2174773
    91   6 C       92   6 C                                       1.3571818
    92   6 C       94   7 N                                       1.3690366
    94   7 N       95   6 C                                       1.3744317
    95   6 C       97   6 C                                       1.3530470
    98   6 C       99   8 O                                       1.2197783
    98   6 C      100   8 O                                       1.3471635
   100   8 O      101   6 C                                       1.4213456
    87   6 C      103   1 H                                       1.0872285
    87   6 C      104   1 H                                       1.0925855
    87   6 C      105   1 H                                       1.0923335
    93   6 C      106   1 H                                       1.0837612
    93   6 C      107   1 H                                       1.0888191
    93   6 C      108   1 H                                       1.0898238
    94   7 N      109   1 H                                       1.0134658 (min)
    96   6 C      110   1 H                                       1.0820014
    96   6 C      111   1 H                                       1.0893893
    96   6 C      112   1 H                                       1.0914638
   101   6 C      113   1 H                                       1.0923404
   101   6 C      114   1 H                                       1.0869593
   101   6 C      115   1 H                                       1.0920965
   102   6 C      116   1 H                                       1.0938039
   102   6 C      117   1 H                                       1.0985119

 * 6 distinct bonds (by element types)

   Z      Z             #   av. dist./Å        max./Å        min./Å
   1 H    6 C          47     1.0834256     1.0985119     1.0751258
Note: The following floating-point exceptions are signalling: IEEE_DIVIDE_BY_ZERO IEEE_UNDERFLOW_FLAG IEEE_DENORMAL
normal termination of xtb
   6 C    6 C          48     1.3914182     1.4216491     1.3530470
   1 H    7 N           2     1.0309007     1.0483357     1.0134658
   6 C    7 N           4     1.3617804     1.4019321     1.3017214
   6 C    8 O           8     1.3403429     1.4213456     1.2174773
   8 O   15 P           4     1.5712156     1.6686821     1.4779619


optimized geometry written to: xtbopt.xyz


           -------------------------------------------------
          | TOTAL ENERGY             -188.258157678734 Eh   |
          | GRADIENT NORM               0.000065349654 Eh/α |
          | HOMO-LUMO GAP               1.046747157129 eV   |
           -------------------------------------------------

------------------------------------------------------------------------
 * finished run on 2026/09/10 at 23:01:36.413     
------------------------------------------------------------------------
 total:
 * wall-time:     0 d,  0 h,  3 min, 21.408 sec
 *  cpu-time:     0 d,  0 h,  0 min, 28.312 sec
 * ratio c/w:     0.141 speedup
 SCF:
 * wall-time:     0 d,  0 h,  0 min,  0.608 sec
 *  cpu-time:     0 d,  0 h,  0 min,  0.094 sec
 * ratio c/w:     0.154 speedup
 ANC optimizer:
 * wall-time:     0 d,  0 h,  3 min, 20.653 sec
 *  cpu-time:     0 d,  0 h,  0 min, 28.172 sec
 * ratio c/w:     0.140 speedup

