 Entering Gaussian System
 *********************************************
 Gaussian 98:
 frequency output generated by the xtb code
 *********************************************
                         Standard orientation:
 --------------------------------------------------------------------
  Center     Atomic     Atomic              Coordinates (Angstroms)
  Number     Number      Type              X           Y           Z
 --------------------------------------------------------------------
    1          6             0       -0.552803   -1.389348   -1.618624
    2          6             0       -0.202827   -0.370151   -0.565753
    3          7             0       -1.059194    0.210116    0.168149
    4          6             0       -2.410418   -0.023843    0.233790
    5          6             0       -2.919104   -1.214833    0.761309
    6          6             0       -4.279672   -1.373996    0.938044
    7          6             0       -5.157427   -0.362519    0.583650
    8          6             0       -4.660138    0.821553    0.061049
    9          6             0       -3.301371    0.999070   -0.103717
   10          6             0        1.207231    0.005579   -0.392061
   11          6             0        2.245405   -0.661825   -1.042341
   12          6             0        3.558897   -0.279077   -0.847507
   13          6             0        3.883678    0.778154   -0.005411
   14          6             0        5.311456    1.173047    0.214945
   15          6             0        2.848657    1.443404    0.645156
   16          6             0        1.536106    1.064756    0.458012
   17          1             0       -0.128129   -1.100870   -2.578622
   18          1             0       -1.633881   -1.470005   -1.717810
   19          1             0       -0.154311   -2.365010   -1.342478
   20          1             0       -2.231033   -1.999951    1.043123
   21          1             0       -4.658611   -2.299443    1.349317
   22          1             0       -6.221313   -0.494195    0.716650
   23          1             0       -5.339036    1.615866   -0.216407
   24          1             0       -2.908708    1.919963   -0.510076
   25          1             0        2.039632   -1.491404   -1.701369
   26          1             0        4.348580   -0.811015   -1.360126
   27          1             0        5.388155    2.227998    0.468690
   28          1             0        5.911218    0.975745   -0.671064
   29          1             0        5.731281    0.596515    1.040636
   30          1             0        3.078775    2.268638    1.304600
   31          1             0        0.736082    1.584055    0.962759
 --------------------------------------------------------------------
     1 basis functions        1 primitive gaussians
     1 alpha electrons        1 beta electrons

 Harmonic frequencies (cm**-1), IR intensities (km*mol⁻¹),
 Raman scattering activities (A**4/amu), Raman depolarization ratios,
 reduced masses (AMU), force constants (mDyne/A) and normal coordinates:
                      1                      2                      3
                        a                      a                      a 
 Frequencies --    23.3271                29.3572                41.5658
 Red. masses --     5.5175                 5.2291                10.0273
 Frc consts  --     0.0000                 0.0000                 0.0000
 IR Inten    --     0.3241                 0.3238                 0.1555
 Raman Activ --     0.0000                 0.0000                 0.0000
 Depolar     --     0.0000                 0.0000                 0.0000
 Atom AN      X      Y      Z        X      Y      Z        X      Y      Z
   1   6    -0.02   0.12  -0.12    -0.00  -0.05   0.04    -0.07   0.25  -0.19
   2   6    -0.01   0.04  -0.04     0.00  -0.03   0.01    -0.03   0.19  -0.14
   3   7     0.00  -0.01   0.01     0.01  -0.02   0.01    -0.02   0.13  -0.08
   4   6     0.00  -0.01   0.01     0.00  -0.00   0.00    -0.01   0.05  -0.02
   5   6     0.01  -0.08  -0.15    -0.01   0.06   0.14     0.13   0.10   0.22
   6   6     0.01  -0.10  -0.14    -0.01   0.08   0.13     0.16  -0.01   0.30
   7   6     0.01  -0.04   0.04    -0.01   0.04  -0.02     0.04  -0.17   0.13
   8   6     0.01   0.03   0.20     0.01  -0.03  -0.15    -0.10  -0.23  -0.13
   9   6     0.00   0.05   0.19     0.01  -0.05  -0.15    -0.12  -0.12  -0.21
  10   6    -0.00   0.02  -0.02     0.01  -0.02   0.00    -0.02   0.14  -0.12
  11   6     0.00  -0.15   0.17    -0.02   0.15  -0.20    -0.04   0.04  -0.04
  12   6     0.01  -0.17   0.18    -0.01   0.16  -0.21    -0.02  -0.08   0.06
  13   6     0.00  -0.03   0.00     0.00  -0.01  -0.02     0.02  -0.11   0.09
  14   6    -0.01  -0.01   0.05    -0.02   0.06   0.01     0.04  -0.28   0.23
  15   6    -0.01   0.14  -0.19     0.02  -0.18   0.19     0.03   0.01  -0.02
  16   6    -0.01   0.16  -0.20     0.02  -0.18   0.20     0.01   0.13  -0.12
  17   1     0.04   0.03  -0.02    -0.04   0.01  -0.00    -0.01   0.08  -0.05
  18   1    -0.01   0.08  -0.07    -0.00  -0.05   0.05    -0.02   0.09  -0.06
  19   1    -0.05   0.02  -0.03     0.04  -0.00  -0.01    -0.04   0.06  -0.07
  20   1     0.00  -0.04  -0.08    -0.00   0.03   0.07     0.07   0.06   0.10
  21   1     0.00  -0.04  -0.08    -0.01   0.04   0.07     0.08   0.01   0.14
  22   1     0.00  -0.01   0.01    -0.00   0.02  -0.01     0.02  -0.07   0.05
  23   1     0.00   0.02   0.10     0.00  -0.02  -0.08    -0.05  -0.10  -0.08
  24   1    -0.00   0.03   0.09     0.01  -0.03  -0.07    -0.07  -0.04  -0.12
  25   1     0.00  -0.08   0.09    -0.01   0.08  -0.11    -0.02   0.02  -0.01
  26   1     0.01  -0.09   0.10    -0.01   0.08  -0.11    -0.01  -0.05   0.04
  27   1     0.02   0.09  -0.36     0.01   0.11  -0.39     0.04  -0.09   0.09
  28   1     0.09  -0.36   0.16     0.09  -0.34   0.15     0.03  -0.08   0.08
  29   1    -0.13   0.28   0.28    -0.13   0.32   0.28    -0.03  -0.11   0.07
  30   1    -0.00   0.07  -0.10     0.01  -0.09   0.10     0.02  -0.00  -0.00
  31   1    -0.01   0.08  -0.10     0.01  -0.09   0.10     0.00   0.06  -0.05
                      4                      5                      6
                        a                      a                      a 
 Frequencies --    46.6048                62.0270               107.5150
 Red. masses --    10.5316                10.3970                 9.9959
 Frc consts  --     0.0000                 0.0000                 0.0000
 IR Inten    --     1.5733                 1.4997                 0.5364
 Raman Activ --     0.0000                 0.0000                 0.0000
 Depolar     --     0.0000                 0.0000                 0.0000
 Atom AN      X      Y      Z        X      Y      Z        X      Y      Z
   1   6    -0.10   0.36  -0.09     0.06   0.09  -0.38     0.03   0.17  -0.18
   2   6    -0.01   0.07   0.16     0.04  -0.14  -0.16     0.00   0.04  -0.04
   3   7     0.04  -0.14   0.40     0.05  -0.36  -0.01    -0.06   0.13  -0.18
   4   6     0.01  -0.08   0.21     0.03  -0.19  -0.01    -0.05   0.10  -0.19
   5   6    -0.09  -0.04   0.20    -0.12  -0.07   0.12     0.07   0.08  -0.12
   6   6    -0.13  -0.02  -0.06    -0.13   0.16   0.22     0.11   0.01   0.07
   7   6    -0.05  -0.04  -0.30    -0.00   0.26   0.19     0.01  -0.04   0.17
   8   6     0.05  -0.08  -0.27     0.14   0.13   0.03    -0.12  -0.04   0.04
   9   6     0.09  -0.10  -0.02     0.16  -0.10  -0.08    -0.15   0.03  -0.15
  10   6     0.01   0.01   0.13     0.02  -0.10  -0.08     0.02  -0.13   0.17
  11   6    -0.05  -0.05   0.11     0.10  -0.05   0.00     0.02  -0.19   0.23
  12   6    -0.03  -0.06  -0.00     0.06   0.03   0.08     0.02  -0.14   0.16
  13   6     0.04  -0.00  -0.10    -0.06   0.08   0.07     0.01  -0.03   0.03
  14   6     0.06   0.02  -0.26    -0.10   0.18   0.14    -0.01   0.25  -0.33
  15   6     0.10   0.04  -0.05    -0.14   0.04  -0.02     0.03  -0.14   0.17
  16   6     0.08   0.04   0.06    -0.10  -0.05  -0.09     0.03  -0.19   0.24
  17   1    -0.01   0.15  -0.00     0.03   0.08  -0.09     0.07   0.06  -0.02
  18   1    -0.03   0.15  -0.04     0.02   0.04  -0.12     0.01   0.10  -0.11
  19   1    -0.07   0.07  -0.09     0.01   0.01  -0.16    -0.04   0.03  -0.06
  20   1    -0.04  -0.01   0.10    -0.06  -0.04   0.04     0.05   0.04  -0.05
  21   1    -0.06   0.00  -0.02    -0.07   0.07   0.10     0.06   0.00   0.04
  22   1    -0.02  -0.01  -0.15    -0.00   0.13   0.09     0.01  -0.02   0.10
  23   1     0.03  -0.03  -0.13     0.07   0.06  -0.00    -0.06  -0.03   0.03
  24   1     0.05  -0.04  -0.00     0.08  -0.06  -0.06    -0.07   0.01  -0.07
  25   1    -0.03  -0.03   0.05     0.05  -0.02   0.00     0.01  -0.06   0.08
  26   1    -0.02  -0.03  -0.01     0.04   0.02   0.04     0.00  -0.04   0.04
  27   1     0.02   0.01  -0.08    -0.06   0.05   0.08    -0.05   0.09  -0.13
  28   1    -0.01   0.00  -0.09    -0.02   0.10   0.04    -0.06   0.08  -0.13
  29   1     0.05   0.01  -0.09    -0.02   0.03   0.02     0.09   0.12  -0.11
  30   1     0.04   0.02  -0.03    -0.07   0.02  -0.01     0.01  -0.04   0.05
  31   1     0.03   0.02   0.03    -0.05  -0.03  -0.04     0.01  -0.06   0.08
                      7                      8                      9
                        a                      a                      a 
 Frequencies --   155.9990               202.7036               239.6528
 Red. masses --    10.3573                 1.7415                10.1585
 Frc consts  --     0.0000                 0.0000                 0.0000
 IR Inten    --     1.7669                 0.8277                 0.5650
 Raman Activ --     0.0000                 0.0000                 0.0000
 Depolar     --     0.0000                 0.0000                 0.0000
 Atom AN      X      Y      Z        X      Y      Z        X      Y      Z
   1   6    -0.29  -0.01  -0.03    -0.08  -0.01   0.07     0.19  -0.12  -0.13
   2   6    -0.05  -0.05  -0.08     0.00   0.04  -0.01    -0.00   0.06  -0.21
   3   7     0.15   0.11   0.02     0.01  -0.03   0.05    -0.07  -0.04  -0.22
   4   6     0.15   0.17   0.16     0.01  -0.06  -0.02    -0.08   0.02   0.13
   5   6     0.23   0.15   0.16    -0.01  -0.06  -0.06    -0.14   0.11   0.31
   6   6     0.23   0.00  -0.04    -0.01  -0.00   0.01    -0.17   0.03   0.07
   7   6     0.19  -0.10  -0.22     0.02   0.04   0.06    -0.22  -0.12  -0.24
   8   6     0.13  -0.00  -0.05     0.03  -0.00  -0.02    -0.15  -0.01   0.06
   9   6     0.13   0.15   0.16     0.03  -0.06  -0.07    -0.12   0.07   0.32
  10   6    -0.03  -0.17  -0.12     0.00   0.04  -0.02     0.04   0.09  -0.18
  11   6     0.01  -0.14  -0.06    -0.01   0.05  -0.04     0.11   0.04  -0.05
  12   6    -0.02  -0.06   0.03    -0.01   0.07  -0.07     0.13  -0.06   0.10
  13   6    -0.15  -0.02   0.04     0.00   0.03  -0.02     0.14  -0.07   0.10
  14   6    -0.22   0.19   0.09     0.01  -0.02   0.03     0.12   0.13  -0.05
  15   6    -0.21  -0.10   0.02     0.01  -0.02   0.04     0.10  -0.11   0.08
  16   6    -0.15  -0.17  -0.07     0.01   0.01   0.02     0.08  -0.01  -0.08
  17   1    -0.07  -0.04  -0.01     0.41  -0.35   0.11     0.14  -0.11  -0.02
  18   1    -0.09   0.06  -0.01    -0.02   0.39  -0.32     0.06  -0.02  -0.11
  19   1    -0.14  -0.02  -0.00    -0.50  -0.11   0.33     0.01  -0.02   0.06
  20   1     0.08   0.07   0.07    -0.01  -0.03  -0.03    -0.05   0.04   0.14
  21   1     0.07  -0.01  -0.03    -0.01   0.01   0.01    -0.05   0.01   0.02
  22   1     0.05  -0.07  -0.13     0.01   0.03   0.04    -0.07  -0.07  -0.18
  23   1     0.02  -0.02  -0.03     0.02   0.00  -0.01    -0.03   0.00   0.01
  24   1     0.03   0.06   0.07     0.02  -0.02  -0.03    -0.04   0.04   0.14
  25   1     0.02  -0.04  -0.02    -0.00   0.00   0.00     0.05   0.01  -0.02
  26   1     0.01   0.00   0.02    -0.00   0.03  -0.03     0.04  -0.03   0.04
  27   1    -0.12   0.06   0.04     0.01  -0.01   0.01    -0.00   0.04  -0.04
  28   1    -0.05   0.10   0.03     0.01  -0.01   0.01     0.01   0.05  -0.04
  29   1    -0.04   0.06   0.02    -0.01  -0.01   0.01     0.09   0.07  -0.02
  30   1    -0.08  -0.03   0.01     0.01  -0.02   0.03     0.02  -0.05   0.04
  31   1    -0.07  -0.07  -0.03     0.00  -0.00   0.01     0.03   0.01  -0.03
                     10                     11                     12
                        a                      a                      a 
 Frequencies --   253.6965               271.6221               336.0578
 Red. masses --    10.1122                 9.5182                 9.1050
 Frc consts  --     0.0000                 0.0000                 0.0000
 IR Inten    --     0.1172                 0.5835                 0.1126
 Raman Activ --     0.0000                 0.0000                 0.0000
 Depolar     --     0.0000                 0.0000                 0.0000
 Atom AN      X      Y      Z        X      Y      Z        X      Y      Z
   1   6    -0.07   0.09  -0.04    -0.42   0.04   0.19    -0.41  -0.11  -0.08
   2   6     0.01  -0.16   0.17    -0.04   0.13  -0.03    -0.03  -0.16  -0.11
   3   7    -0.03   0.01   0.03     0.01   0.07   0.13    -0.01  -0.08  -0.16
   4   6    -0.08   0.14  -0.03    -0.02  -0.06   0.01    -0.00  -0.02  -0.05
   5   6    -0.07   0.14   0.00    -0.10  -0.09  -0.12     0.00   0.01   0.03
   6   6    -0.05   0.01   0.01    -0.11  -0.03  -0.06     0.01   0.00   0.02
   7   6    -0.15  -0.08   0.00    -0.08   0.06   0.14    -0.00  -0.03  -0.05
   8   6    -0.20  -0.04   0.04    -0.04  -0.02  -0.01     0.00   0.01   0.03
   9   6    -0.20   0.07   0.02    -0.04  -0.12  -0.12     0.00   0.01   0.03
  10   6     0.11  -0.32   0.15     0.05   0.06  -0.23    -0.00  -0.08   0.02
  11   6     0.18  -0.13   0.01     0.13   0.02  -0.11     0.13   0.07   0.09
  12   6     0.16   0.12  -0.22     0.18  -0.12   0.10     0.06   0.25   0.19
  13   6     0.14   0.14  -0.21     0.20  -0.12   0.12     0.06   0.27   0.16
  14   6     0.09   0.06   0.30     0.11   0.29   0.08     0.28  -0.23  -0.19
  15   6     0.07   0.07  -0.26     0.13  -0.15   0.03    -0.04   0.19   0.10
  16   6     0.11  -0.19  -0.03     0.13  -0.02  -0.16    -0.01  -0.05   0.04
  17   1     0.02   0.07   0.02    -0.23  -0.02  -0.00    -0.19  -0.04  -0.06
  18   1    -0.02   0.08  -0.04    -0.13   0.00   0.18    -0.13   0.03   0.07
  19   1    -0.07  -0.01  -0.07    -0.08   0.02   0.04    -0.15  -0.06  -0.07
  20   1    -0.01   0.05   0.00    -0.04  -0.05  -0.05     0.00   0.01   0.02
  21   1     0.02  -0.01   0.01    -0.04  -0.01  -0.03     0.00   0.00   0.01
  22   1    -0.04  -0.05  -0.01    -0.02   0.05   0.09    -0.00  -0.01  -0.03
  23   1    -0.07  -0.02   0.01    -0.00   0.00  -0.00     0.00   0.01   0.02
  24   1    -0.09   0.04   0.01    -0.01  -0.05  -0.06     0.00   0.01   0.02
  25   1     0.07  -0.06   0.02     0.04   0.02  -0.06     0.08   0.02   0.02
  26   1     0.05   0.06  -0.09     0.05  -0.05   0.05     0.03   0.09   0.06
  27   1     0.01   0.00   0.16    -0.08   0.09   0.02     0.25  -0.07  -0.10
  28   1     0.12   0.05   0.15     0.04   0.15   0.01    -0.02  -0.19  -0.10
  29   1    -0.08  -0.04   0.10     0.11   0.13   0.02     0.07  -0.10  -0.07
  30   1    -0.00   0.05  -0.10     0.02  -0.05   0.02    -0.07   0.07   0.03
  31   1     0.03  -0.07   0.01     0.04   0.01  -0.06    -0.02  -0.03   0.01
                     13                     14                     15
                        a                      a                      a 
 Frequencies --   368.3910               369.7673               390.3783
 Red. masses --     8.9216                 9.0585                 9.9251
 Frc consts  --     0.0000                 0.0000                 0.0000
 IR Inten    --     0.1158                 1.4457                 2.0422
 Raman Activ --     0.0000                 0.0000                 0.0000
 Depolar     --     0.0000                 0.0000                 0.0000
 Atom AN      X      Y      Z        X      Y      Z        X      Y      Z
   1   6    -0.01  -0.00   0.01     0.03   0.00  -0.00     0.21   0.06   0.04
   2   6    -0.00   0.02  -0.02     0.01   0.01  -0.01     0.03  -0.07   0.18
   3   7    -0.02   0.02  -0.04     0.02  -0.01   0.01     0.13  -0.04   0.32
   4   6    -0.00  -0.03  -0.01     0.01   0.01   0.01     0.02   0.20   0.11
   5   6    -0.01  -0.07  -0.10     0.03   0.17   0.38    -0.04   0.12  -0.13
   6   6     0.01   0.05   0.12    -0.03  -0.15  -0.37    -0.01   0.01  -0.05
   7   6     0.01   0.00  -0.02    -0.01  -0.00   0.00    -0.09  -0.01   0.14
   8   6     0.01  -0.04  -0.11     0.02   0.15   0.38    -0.13  -0.09  -0.07
   9   6     0.03   0.04   0.13    -0.03  -0.15  -0.37    -0.11   0.06  -0.04
  10   6    -0.01   0.02   0.02     0.01  -0.00  -0.00     0.08  -0.16  -0.15
  11   6    -0.05   0.25  -0.28    -0.01   0.07  -0.10     0.14   0.03  -0.29
  12   6     0.02  -0.27   0.29     0.01  -0.08   0.09     0.06   0.05   0.13
  13   6     0.00  -0.00  -0.04    -0.02   0.01  -0.01    -0.09  -0.04   0.30
  14   6    -0.01   0.01   0.02    -0.02  -0.01  -0.01    -0.01  -0.11  -0.16
  15   6    -0.01   0.25  -0.32    -0.02   0.08  -0.09    -0.17   0.05   0.06
  16   6     0.04  -0.25   0.34     0.00  -0.09   0.10    -0.09  -0.08  -0.22
  17   1     0.01  -0.02  -0.00     0.03  -0.02   0.00     0.14   0.06   0.06
  18   1    -0.00   0.02  -0.01     0.01   0.01  -0.01     0.07   0.00  -0.08
  19   1    -0.02  -0.00   0.02    -0.00   0.00   0.02     0.06   0.01   0.01
  20   1    -0.01  -0.04  -0.06     0.02   0.09   0.22    -0.00   0.02  -0.08
  21   1    -0.00   0.03   0.08    -0.01  -0.10  -0.24     0.03  -0.02  -0.04
  22   1     0.00   0.00  -0.01    -0.00  -0.00  -0.00    -0.02  -0.00   0.08
  23   1     0.00  -0.02  -0.07     0.01   0.09   0.23    -0.05  -0.05  -0.06
  24   1     0.02   0.02   0.08    -0.02  -0.09  -0.22    -0.08   0.02  -0.04
  25   1    -0.03   0.16  -0.19    -0.00   0.05  -0.06     0.09   0.05  -0.15
  26   1     0.01  -0.16   0.18     0.01  -0.05   0.06     0.06   0.06   0.06
  27   1    -0.02   0.00   0.02    -0.00  -0.00  -0.00     0.05  -0.02  -0.11
  28   1     0.01   0.01   0.02    -0.00  -0.01  -0.00    -0.11  -0.09  -0.11
  29   1    -0.01   0.00   0.01    -0.01  -0.01  -0.00     0.09  -0.00  -0.07
  30   1    -0.01   0.15  -0.19    -0.01   0.05  -0.06    -0.10   0.05  -0.01
  31   1     0.03  -0.16   0.21     0.00  -0.06   0.06    -0.07  -0.04  -0.12
                     16                     17                     18
                        a                      a                      a 
 Frequencies --   423.5540               463.3239               493.5062
 Red. masses --     9.8885                10.1456                10.9035
 Frc consts  --     0.0000                 0.0000                 0.0000
 IR Inten    --     2.4922                 5.6687                 1.8253
 Raman Activ --     0.0000                 0.0000                 0.0000
 Depolar     --     0.0000                 0.0000                 0.0000
 Atom AN      X      Y      Z        X      Y      Z        X      Y      Z
   1   6     0.09   0.11   0.12    -0.01   0.22   0.19     0.08   0.03  -0.03
   2   6     0.02   0.35  -0.16     0.18   0.05   0.19    -0.23   0.01   0.08
   3   7     0.06   0.26  -0.01    -0.03   0.24  -0.20    -0.25   0.38  -0.21
   4   6     0.07  -0.07   0.13     0.03  -0.26  -0.32    -0.10  -0.09   0.28
   5   6    -0.06  -0.09   0.01    -0.01  -0.11   0.05     0.07  -0.24   0.14
   6   6    -0.11   0.01  -0.04    -0.05   0.09   0.15     0.01  -0.08  -0.10
   7   6    -0.10   0.05   0.06    -0.07  -0.05  -0.23     0.17   0.14   0.08
   8   6    -0.00  -0.04  -0.04     0.04   0.07   0.16     0.06   0.09  -0.14
   9   6     0.02  -0.15   0.05     0.03  -0.15   0.05     0.05  -0.07   0.04
  10   6     0.10   0.00  -0.24     0.18  -0.14   0.10    -0.16  -0.22   0.08
  11   6     0.15  -0.26   0.06     0.10  -0.06  -0.15    -0.04   0.01   0.00
  12   6     0.06   0.03   0.04     0.04   0.01  -0.07    -0.04   0.13  -0.00
  13   6    -0.13   0.31  -0.24    -0.12  -0.14   0.18     0.14  -0.05   0.17
  14   6    -0.07  -0.12  -0.03    -0.16  -0.05  -0.05     0.20   0.04   0.03
  15   6    -0.11   0.02   0.07    -0.07   0.08   0.02    -0.03  -0.03  -0.12
  16   6    -0.01  -0.24   0.06    -0.01   0.04  -0.07    -0.02  -0.13  -0.12
  17   1     0.00  -0.03   0.00    -0.02   0.09   0.05     0.11   0.08   0.05
  18   1     0.03  -0.05   0.06    -0.01   0.13   0.08     0.04  -0.04  -0.12
  19   1     0.09   0.08   0.12    -0.05   0.02  -0.01     0.05   0.02  -0.02
  20   1    -0.05  -0.06  -0.00    -0.03  -0.02   0.12     0.01  -0.09  -0.00
  21   1    -0.04  -0.00  -0.03    -0.03   0.07   0.14    -0.07  -0.02  -0.10
  22   1    -0.03   0.03   0.03    -0.02  -0.02  -0.09     0.05   0.05   0.03
  23   1     0.03  -0.00  -0.05     0.04   0.08   0.14     0.02   0.00  -0.10
  24   1     0.01  -0.05   0.00     0.04  -0.01   0.11     0.09  -0.08  -0.04
  25   1     0.08  -0.15   0.10     0.01   0.03  -0.10     0.04   0.03  -0.06
  26   1     0.06  -0.00   0.09     0.04   0.08  -0.05    -0.03   0.07  -0.07
  27   1     0.09  -0.05   0.03    -0.05  -0.01  -0.05     0.04   0.02  -0.02
  28   1     0.01  -0.09   0.02    -0.09  -0.02  -0.05     0.02   0.01  -0.02
  29   1    -0.14  -0.11   0.00     0.02   0.02  -0.03     0.11   0.04  -0.00
  30   1    -0.05  -0.04   0.09    -0.02   0.06  -0.05    -0.07   0.04  -0.08
  31   1    -0.04  -0.17   0.07    -0.04   0.02  -0.10     0.00   0.02  -0.07
                     19                     20                     21
                        a                      a                      a 
 Frequencies --   506.8304               548.3104               588.2942
 Red. masses --    10.5560                 9.0921                11.2353
 Frc consts  --     0.0000                 0.0000                 0.0000
 IR Inten    --     0.4712                 5.3833                 2.9208
 Raman Activ --     0.0000                 0.0000                 0.0000
 Depolar     --     0.0000                 0.0000                 0.0000
 Atom AN      X      Y      Z        X      Y      Z        X      Y      Z
   1   6    -0.07  -0.08  -0.10     0.01   0.01   0.02    -0.00   0.07   0.07
   2   6     0.22  -0.13  -0.07     0.06  -0.42   0.42     0.04   0.01   0.06
   3   7     0.22   0.16  -0.30    -0.05   0.16  -0.16    -0.17   0.01  -0.19
   4   6     0.23   0.08   0.29     0.00  -0.03   0.03    -0.14   0.12  -0.01
   5   6    -0.04   0.06   0.03     0.04  -0.05   0.03    -0.32   0.13   0.06
   6   6    -0.11   0.05  -0.19     0.02   0.03  -0.03    -0.25  -0.42   0.10
   7   6    -0.23   0.08   0.22     0.00   0.04   0.00     0.15  -0.09   0.13
   8   6    -0.05  -0.16  -0.11    -0.04   0.04  -0.02     0.34  -0.19  -0.03
   9   6     0.00  -0.17   0.14    -0.03  -0.05   0.02     0.23   0.36  -0.08
  10   6     0.14   0.02   0.20    -0.03   0.22  -0.26     0.09   0.01  -0.01
  11   6     0.01   0.03   0.03    -0.00   0.09  -0.09     0.08  -0.03  -0.05
  12   6     0.02  -0.03  -0.10     0.03  -0.12   0.14     0.07  -0.03  -0.02
  13   6    -0.09  -0.15   0.06    -0.02   0.17  -0.22    -0.06  -0.00  -0.01
  14   6    -0.17  -0.04  -0.02    -0.00   0.01  -0.02    -0.09  -0.02  -0.02
  15   6     0.03   0.10   0.01     0.01  -0.12   0.13     0.02   0.04   0.05
  16   6     0.01   0.16   0.12    -0.01   0.07  -0.08     0.04   0.02  -0.00
  17   1    -0.07  -0.02  -0.05     0.06   0.21   0.09    -0.01   0.03   0.02
  18   1    -0.04   0.07   0.04     0.00   0.12  -0.07    -0.01   0.06   0.04
  19   1    -0.09  -0.07  -0.10    -0.09  -0.10  -0.23    -0.03   0.00  -0.01
  20   1    -0.07  -0.06  -0.06     0.00  -0.02   0.01    -0.03   0.07  -0.04
  21   1    -0.01  -0.04  -0.15    -0.01   0.01  -0.02    -0.06  -0.14  -0.01
  22   1    -0.07   0.03   0.06     0.00  -0.00   0.01     0.02   0.10  -0.02
  23   1     0.03  -0.05  -0.16    -0.00   0.01  -0.01     0.03  -0.12  -0.03
  24   1    -0.04  -0.07  -0.06     0.01  -0.03  -0.00     0.04   0.09  -0.06
  25   1    -0.06   0.05  -0.02     0.01  -0.06   0.08     0.02  -0.01  -0.01
  26   1     0.01   0.03  -0.07     0.02  -0.14   0.17     0.04   0.01   0.01
  27   1    -0.08  -0.01  -0.01     0.03  -0.01   0.02    -0.02  -0.01  -0.00
  28   1    -0.05   0.01  -0.01     0.04  -0.01   0.02    -0.03  -0.01  -0.00
  29   1    -0.01   0.01  -0.01    -0.07  -0.03   0.00    -0.03  -0.01  -0.01
  30   1     0.06   0.06  -0.05     0.02  -0.14   0.17     0.02   0.01   0.02
  31   1    -0.00   0.08  -0.01     0.01  -0.06   0.08    -0.00  -0.01  -0.01
                     22                     23                     24
                        a                      a                      a 
 Frequencies --   598.8938               609.8412               657.8620
 Red. masses --    11.2662                11.2919                10.0734
 Frc consts  --     0.0000                 0.0000                 0.0000
 IR Inten    --     7.0388                 0.3862                 0.2212
 Raman Activ --     0.0000                 0.0000                 0.0000
 Depolar     --     0.0000                 0.0000                 0.0000
 Atom AN      X      Y      Z        X      Y      Z        X      Y      Z
   1   6     0.03  -0.06  -0.06     0.00  -0.04  -0.04    -0.02  -0.07  -0.07
   2   6    -0.07  -0.07   0.01     0.02  -0.02   0.00    -0.04  -0.02  -0.01
   3   7     0.24   0.31   0.07    -0.00  -0.05  -0.03    -0.04   0.05  -0.03
   4   6     0.25   0.05  -0.06    -0.01  -0.00  -0.00    -0.05   0.17   0.45
   5   6    -0.17   0.17  -0.18     0.02  -0.00   0.02    -0.04  -0.17  -0.24
   6   6    -0.17   0.04   0.13     0.02   0.01  -0.02     0.00   0.06   0.35
   7   6    -0.24  -0.15  -0.08     0.01   0.01   0.02     0.06  -0.10  -0.28
   8   6     0.24  -0.22   0.21    -0.02   0.01  -0.02     0.00   0.19   0.30
   9   6     0.19  -0.12  -0.10    -0.02   0.00   0.02    -0.04  -0.04  -0.28
  10   6    -0.19  -0.03  -0.03     0.05  -0.08  -0.07     0.06   0.02  -0.00
  11   6    -0.20   0.02   0.06    -0.27  -0.30  -0.23     0.08  -0.01   0.00
  12   6    -0.20   0.08   0.06    -0.43   0.09   0.12     0.08  -0.01  -0.04
  13   6     0.12   0.03   0.02    -0.05   0.09   0.07    -0.05  -0.03   0.01
  14   6     0.21   0.06   0.04    -0.05   0.06   0.05    -0.12  -0.03  -0.02
  15   6    -0.04  -0.08  -0.08     0.29   0.31   0.24     0.06   0.08   0.04
  16   6    -0.06  -0.08  -0.04     0.45  -0.08  -0.12     0.07   0.03   0.04
  17   1     0.06   0.04   0.02    -0.01  -0.01  -0.01     0.00  -0.01  -0.01
  18   1     0.02  -0.04  -0.08    -0.00   0.00   0.00    -0.01  -0.02  -0.03
  19   1     0.03  -0.01  -0.04    -0.01  -0.02  -0.02    -0.01  -0.02  -0.03
  20   1    -0.08   0.04   0.01     0.01  -0.00  -0.00    -0.01  -0.10  -0.22
  21   1     0.03   0.01   0.10     0.00  -0.00  -0.01    -0.03  -0.01  -0.00
  22   1    -0.08   0.04  -0.03     0.00  -0.01   0.00     0.01  -0.08  -0.21
  23   1     0.11  -0.01   0.10    -0.01  -0.00  -0.01    -0.03  -0.00  -0.01
  24   1    -0.01   0.01   0.01    -0.00  -0.00  -0.00    -0.01  -0.08  -0.23
  25   1    -0.03  -0.00   0.02    -0.03  -0.09  -0.07     0.01   0.00  -0.00
  26   1    -0.09  -0.01  -0.01    -0.09   0.05   0.05     0.04   0.02  -0.01
  27   1     0.05   0.02   0.01    -0.05   0.02   0.03    -0.03  -0.01  -0.01
  28   1     0.06   0.02   0.01     0.01   0.04   0.03    -0.03  -0.01  -0.01
  29   1     0.07   0.02   0.01    -0.02   0.02   0.02    -0.03  -0.01  -0.01
  30   1    -0.05  -0.02  -0.01     0.04   0.09   0.07     0.04   0.02   0.00
  31   1     0.01  -0.00   0.01     0.10  -0.05  -0.05     0.02   0.01   0.00
                     25                     26                     27
                        a                      a                      a 
 Frequencies --   673.4941               715.8443               768.4577
 Red. masses --    10.3944                 7.6983                 6.9451
 Frc consts  --     0.0000                 0.0000                 0.0000
 IR Inten    --     1.1195                25.0787                23.4789
 Raman Activ --     0.0000                 0.0000                 0.0000
 Depolar     --     0.0000                 0.0000                 0.0000
 Atom AN      X      Y      Z        X      Y      Z        X      Y      Z
   1   6    -0.01   0.00  -0.03    -0.10  -0.24  -0.24     0.09   0.09   0.08
   2   6    -0.03   0.09  -0.09    -0.24  -0.04  -0.00     0.22   0.00  -0.05
   3   7     0.00   0.02  -0.00     0.05   0.28   0.21     0.05  -0.12  -0.17
   4   6     0.02   0.01   0.02    -0.04  -0.01   0.01     0.00   0.15   0.35
   5   6    -0.00  -0.01  -0.01    -0.03  -0.06  -0.03    -0.04  -0.12  -0.11
   6   6    -0.01   0.01   0.01    -0.05  -0.10  -0.07    -0.03  -0.12  -0.04
   7   6    -0.02  -0.00  -0.01     0.04  -0.01  -0.05     0.07  -0.05  -0.15
   8   6     0.02  -0.01   0.02    -0.01  -0.02  -0.11    -0.09   0.05  -0.11
   9   6     0.02  -0.02  -0.00    -0.01  -0.02  -0.07    -0.07   0.02  -0.16
  10   6     0.02  -0.34   0.41     0.00  -0.00   0.01     0.08   0.01   0.03
  11   6    -0.03   0.19  -0.21     0.16   0.07   0.06    -0.10  -0.10  -0.08
  12   6     0.02  -0.20   0.26     0.19  -0.02  -0.03    -0.12  -0.03  -0.00
  13   6    -0.02   0.26  -0.31    -0.08  -0.03  -0.00     0.03   0.02  -0.01
  14   6    -0.00   0.03  -0.04    -0.26  -0.07  -0.05     0.21   0.05   0.03
  15   6     0.03  -0.22   0.25     0.14   0.11   0.08    -0.11  -0.04  -0.01
  16   6    -0.02   0.18  -0.22     0.17   0.04   0.03    -0.15   0.03   0.04
  17   1    -0.01  -0.06  -0.03     0.06  -0.00  -0.01    -0.06  -0.03  -0.03
  18   1    -0.00  -0.03   0.00    -0.01  -0.16  -0.19     0.00   0.13   0.14
  19   1     0.02   0.03   0.07     0.03  -0.04  -0.06    -0.05  -0.01  -0.00
  20   1    -0.01  -0.01  -0.01     0.02   0.09   0.23     0.02   0.08   0.20
  21   1    -0.00  -0.00  -0.01    -0.01   0.08   0.21    -0.02   0.09   0.26
  22   1    -0.01  -0.00  -0.02     0.03   0.12   0.25     0.05   0.15   0.37
  23   1     0.01  -0.00  -0.01     0.01   0.09   0.21    -0.04   0.11   0.25
  24   1     0.00  -0.01  -0.01     0.03   0.09   0.23     0.00   0.10   0.18
  25   1    -0.01   0.13  -0.16     0.05   0.03  -0.01    -0.06  -0.02  -0.02
  26   1    -0.00  -0.03   0.04     0.07   0.03  -0.01    -0.04  -0.01  -0.01
  27   1     0.07  -0.01   0.05    -0.07  -0.02  -0.01     0.06   0.02   0.01
  28   1     0.08  -0.01   0.05    -0.07  -0.02  -0.01     0.06   0.02   0.01
  29   1    -0.15  -0.07   0.01    -0.08  -0.02  -0.01     0.06   0.02   0.01
  30   1     0.00  -0.03   0.03     0.08   0.04  -0.00    -0.04  -0.01  -0.00
  31   1    -0.01   0.14  -0.16     0.06   0.04   0.00    -0.07  -0.01  -0.01
                     28                     29                     30
                        a                      a                      a 
 Frequencies --   803.7853               815.9906               852.4119
 Red. masses --     4.3917                10.9848                10.7179
 Frc consts  --     0.0000                 0.0000                 0.0000
 IR Inten    --    15.7883                29.0545                 0.5843
 Raman Activ --     0.0000                 0.0000                 0.0000
 Depolar     --     0.0000                 0.0000                 0.0000
 Atom AN      X      Y      Z        X      Y      Z        X      Y      Z
   1   6     0.02  -0.01   0.05     0.01   0.18   0.17    -0.08  -0.07  -0.06
   2   6     0.03  -0.06   0.05    -0.11  -0.01   0.02    -0.17   0.04   0.08
   3   7     0.01  -0.02   0.00    -0.33  -0.28  -0.20    -0.27  -0.03   0.03
   4   6    -0.00  -0.01  -0.01     0.01   0.08   0.19    -0.07  -0.00   0.03
   5   6    -0.00   0.01   0.00     0.10   0.09  -0.11     0.08   0.05  -0.03
   6   6     0.00  -0.01   0.00     0.14   0.27  -0.15     0.10   0.19  -0.09
   7   6     0.01   0.00   0.00    -0.23  -0.06  -0.05    -0.15  -0.03   0.00
   8   6    -0.02   0.01  -0.00     0.20  -0.23   0.05     0.16  -0.16   0.06
   9   6    -0.01   0.01   0.00     0.12  -0.07  -0.01     0.09  -0.02   0.02
  10   6    -0.04   0.20  -0.25    -0.13  -0.03  -0.03     0.12   0.05  -0.00
  11   6     0.01  -0.15   0.22     0.06   0.15   0.12     0.03  -0.31  -0.22
  12   6    -0.00  -0.10   0.16     0.05   0.09   0.06     0.12  -0.23  -0.17
  13   6     0.01   0.08  -0.09     0.01  -0.00   0.02    -0.07  -0.01  -0.03
  14   6    -0.01   0.03  -0.04    -0.22  -0.06  -0.04     0.29   0.08   0.05
  15   6     0.01  -0.13   0.12     0.10  -0.05  -0.06    -0.08   0.22   0.20
  16   6     0.02  -0.15   0.13     0.16  -0.13  -0.12    -0.19   0.22   0.20
  17   1     0.02   0.06   0.03     0.02   0.04   0.05     0.05   0.03   0.03
  18   1     0.00   0.05  -0.01     0.01   0.02   0.04    -0.01  -0.11  -0.13
  19   1    -0.03  -0.03  -0.06     0.03   0.07   0.08     0.03   0.01   0.01
  20   1     0.00   0.00  -0.00     0.02   0.05   0.04     0.02   0.02   0.00
  21   1    -0.00  -0.00  -0.01     0.13   0.08   0.05     0.08   0.04  -0.01
  22   1     0.00  -0.01  -0.01    -0.04   0.05   0.18    -0.04   0.01   0.03
  23   1    -0.01  -0.00  -0.00     0.12   0.02   0.07     0.09  -0.01  -0.00
  24   1    -0.01   0.00  -0.01     0.01  -0.01   0.01     0.02  -0.02  -0.03
  25   1    -0.03   0.28  -0.33     0.07   0.03   0.03    -0.07  -0.04  -0.10
  26   1    -0.04   0.28  -0.34     0.01   0.01   0.02     0.08   0.01  -0.06
  27   1     0.06  -0.01   0.05    -0.06  -0.02  -0.01     0.10   0.02   0.01
  28   1     0.07  -0.02   0.04    -0.07  -0.02  -0.01     0.09   0.03   0.02
  29   1    -0.14  -0.07   0.01    -0.07  -0.02  -0.01     0.08   0.02   0.01
  30   1    -0.04   0.25  -0.31     0.00  -0.01  -0.01     0.05   0.06   0.04
  31   1    -0.01   0.21  -0.25     0.08  -0.01  -0.01    -0.12   0.00   0.02
                     31                     32                     33
                        a                      a                      a 
 Frequencies --   867.2626               869.9989               879.4055
 Red. masses --     3.2987                 3.3792                 3.9236
 Frc consts  --     0.0000                 0.0000                 0.0000
 IR Inten    --     1.9566                 1.1089                 1.4759
 Raman Activ --     0.0000                 0.0000                 0.0000
 Depolar     --     0.0000                 0.0000                 0.0000
 Atom AN      X      Y      Z        X      Y      Z        X      Y      Z
   1   6     0.00  -0.00  -0.01     0.01   0.01  -0.00     0.01   0.02   0.01
   2   6     0.01  -0.00  -0.00     0.01   0.00  -0.01     0.00  -0.01  -0.01
   3   7     0.01   0.01   0.01     0.01   0.00   0.00    -0.04  -0.04  -0.04
   4   6     0.02   0.00  -0.01     0.00   0.00  -0.00    -0.00   0.04   0.11
   5   6    -0.02  -0.11  -0.24    -0.01  -0.02  -0.03    -0.00  -0.09  -0.22
   6   6    -0.02  -0.09  -0.16    -0.01  -0.02  -0.02     0.01   0.04   0.01
   7   6     0.02   0.01   0.01     0.01   0.00   0.00    -0.00   0.12   0.32
   8   6     0.00   0.08   0.16    -0.01   0.02   0.02     0.02  -0.02   0.01
   9   6     0.01   0.10   0.23    -0.00   0.01   0.03    -0.01  -0.08  -0.24
  10   6    -0.00   0.00  -0.00     0.00  -0.02   0.03    -0.00  -0.00   0.00
  11   6    -0.00   0.02  -0.02     0.01  -0.14   0.20     0.00  -0.00  -0.00
  12   6    -0.00   0.02  -0.02     0.00  -0.09   0.14     0.00  -0.00  -0.00
  13   6     0.00   0.00  -0.00     0.00  -0.00   0.00    -0.00   0.00   0.00
  14   6    -0.00  -0.00  -0.00    -0.01  -0.01   0.01     0.00   0.00   0.00
  15   6     0.00  -0.02   0.02    -0.01   0.14  -0.20     0.00   0.00   0.00
  16   6     0.00  -0.02   0.03    -0.01   0.15  -0.20     0.00  -0.00  -0.00
  17   1    -0.00  -0.00  -0.00    -0.00  -0.01  -0.01    -0.01  -0.00  -0.00
  18   1     0.00  -0.00   0.00     0.00   0.01  -0.00     0.00   0.02   0.02
  19   1    -0.00  -0.00   0.00    -0.00   0.00   0.01    -0.01   0.00   0.01
  20   1     0.04   0.21   0.49     0.00   0.03   0.07     0.03   0.17   0.41
  21   1     0.01   0.13   0.32    -0.00   0.02   0.04     0.00  -0.04  -0.11
  22   1     0.00  -0.01  -0.03     0.00  -0.00  -0.01    -0.04  -0.21  -0.50
  23   1    -0.03  -0.14  -0.33    -0.01  -0.02  -0.05     0.00  -0.03  -0.07
  24   1    -0.04  -0.18  -0.46    -0.00  -0.02  -0.06     0.04   0.18   0.44
  25   1     0.00  -0.04   0.05    -0.03   0.30  -0.36    -0.00  -0.00   0.00
  26   1     0.00  -0.03   0.03    -0.03   0.21  -0.25     0.00  -0.00   0.00
  27   1    -0.00  -0.00   0.00    -0.01   0.00  -0.01     0.00   0.00  -0.00
  28   1     0.00   0.00   0.00    -0.01  -0.00  -0.01    -0.00  -0.00  -0.00
  29   1    -0.00  -0.00   0.00     0.01   0.00  -0.00     0.00  -0.00  -0.00
  30   1    -0.01   0.04  -0.05     0.04  -0.32   0.38    -0.00   0.00  -0.00
  31   1    -0.00   0.04  -0.05     0.04  -0.29   0.34    -0.00  -0.00  -0.00
                     34                     35                     36
                        a                      a                      a 
 Frequencies --   917.8111               921.5874               923.9157
 Red. masses --     2.9991                 3.9577                 2.7554
 Frc consts  --     0.0000                 0.0000                 0.0000
 IR Inten    --     0.0126                 0.4096                 0.0220
 Raman Activ --     0.0000                 0.0000                 0.0000
 Depolar     --     0.0000                 0.0000                 0.0000
 Atom AN      X      Y      Z        X      Y      Z        X      Y      Z
   1   6    -0.01   0.01  -0.01     0.00   0.00   0.00    -0.00   0.00   0.01
   2   6     0.00   0.00  -0.00     0.00  -0.00   0.00    -0.00   0.00  -0.00
   3   7     0.00   0.00  -0.00    -0.00  -0.00  -0.01    -0.00  -0.00  -0.01
   4   6     0.00   0.00   0.00    -0.01   0.00   0.00     0.00   0.03   0.08
   5   6    -0.00   0.00   0.00     0.02   0.08   0.19     0.01   0.02   0.06
   6   6    -0.00  -0.00  -0.00    -0.01  -0.10  -0.27    -0.01  -0.08  -0.22
   7   6     0.00  -0.00  -0.00    -0.01  -0.01  -0.01     0.01   0.09   0.21
   8   6    -0.00   0.00   0.01     0.03   0.11   0.29    -0.01  -0.08  -0.18
   9   6    -0.00  -0.00  -0.00    -0.01  -0.08  -0.21     0.01   0.02   0.04
  10   6     0.00   0.01  -0.01     0.00   0.00  -0.00    -0.00  -0.00   0.00
  11   6    -0.02   0.17  -0.20     0.00  -0.00   0.01     0.00   0.00  -0.00
  12   6     0.03  -0.20   0.24    -0.00   0.01  -0.01     0.00  -0.00   0.00
  13   6     0.00  -0.01   0.02     0.00   0.00   0.00    -0.00  -0.00  -0.00
  14   6    -0.00   0.00  -0.00    -0.00   0.00  -0.00     0.00  -0.00   0.00
  15   6     0.00  -0.03   0.04     0.00  -0.00   0.00     0.00   0.00  -0.00
  16   6    -0.01   0.07  -0.08     0.00   0.00  -0.00     0.00   0.00   0.00
  17   1    -0.00  -0.01  -0.01    -0.00  -0.00  -0.00     0.00   0.00   0.00
  18   1    -0.00  -0.02   0.01    -0.00   0.00   0.00     0.00   0.00  -0.00
  19   1     0.01   0.01   0.01     0.00   0.00   0.00     0.00   0.00   0.00
  20   1    -0.00  -0.00  -0.00    -0.02  -0.13  -0.30    -0.02  -0.10  -0.23
  21   1    -0.00   0.00   0.01     0.04   0.18   0.43     0.03   0.20   0.49
  22   1     0.00   0.00   0.00    -0.00   0.01   0.02    -0.03  -0.18  -0.44
  23   1    -0.00  -0.00  -0.01    -0.03  -0.20  -0.48     0.03   0.18   0.44
  24   1     0.00   0.00   0.01     0.03   0.14   0.33    -0.02  -0.08  -0.20
  25   1     0.03  -0.34   0.41    -0.00   0.01  -0.01     0.00  -0.00   0.00
  26   1    -0.05   0.40  -0.49     0.00  -0.01   0.01    -0.00   0.00  -0.00
  27   1     0.00  -0.00   0.01     0.00  -0.00   0.00    -0.00  -0.00   0.00
  28   1     0.01  -0.00   0.01    -0.00  -0.00   0.00     0.00   0.00   0.00
  29   1    -0.01  -0.01   0.00    -0.00  -0.00   0.00     0.00   0.00   0.00
  30   1    -0.02   0.13  -0.15    -0.00   0.01  -0.01     0.00  -0.00   0.00
  31   1     0.02  -0.20   0.23    -0.00  -0.00   0.00    -0.00  -0.00   0.00
                     37                     38                     39
                        a                      a                      a 
 Frequencies --   931.0562               971.3873               992.0344
 Red. masses --     3.9182                 9.7377                 5.5886
 Frc consts  --     0.0000                 0.0000                 0.0000
 IR Inten    --     0.3280                 6.3003                 9.1250
 Raman Activ --     0.0000                 0.0000                 0.0000
 Depolar     --     0.0000                 0.0000                 0.0000
 Atom AN      X      Y      Z        X      Y      Z        X      Y      Z
   1   6    -0.00  -0.00   0.01     0.13  -0.22  -0.15    -0.07   0.29  -0.27
   2   6    -0.00  -0.00  -0.00     0.12   0.19   0.07     0.05  -0.31   0.26
   3   7    -0.00  -0.00   0.00    -0.04   0.11   0.14     0.04   0.09  -0.05
   4   6     0.00  -0.00  -0.00    -0.17  -0.03  -0.01     0.00   0.01  -0.01
   5   6    -0.00   0.00   0.00     0.20  -0.34   0.13     0.07  -0.15   0.06
   6   6     0.00  -0.00  -0.00     0.03   0.17  -0.06    -0.02   0.01   0.00
   7   6     0.00  -0.00  -0.00    -0.31  -0.04   0.03    -0.09  -0.01   0.01
   8   6     0.00   0.00   0.01     0.10  -0.15   0.06     0.00  -0.03   0.00
   9   6    -0.00  -0.00  -0.01     0.08   0.38  -0.14     0.02   0.13  -0.05
  10   6    -0.00   0.00  -0.01     0.09   0.03   0.03     0.01   0.05  -0.07
  11   6    -0.01   0.09  -0.12     0.01  -0.02  -0.02     0.00  -0.01   0.02
  12   6     0.02  -0.11   0.14    -0.07   0.08   0.07    -0.02   0.01   0.03
  13   6    -0.00   0.01  -0.01     0.03   0.03   0.02     0.01  -0.01  -0.01
  14   6     0.00  -0.00  -0.01    -0.05   0.01   0.01     0.01  -0.02  -0.02
  15   6    -0.03   0.21  -0.24    -0.02  -0.14  -0.11     0.00  -0.00   0.01
  16   6     0.02  -0.20   0.25     0.00  -0.02  -0.02    -0.01   0.01   0.03
  17   1     0.00   0.01   0.01    -0.12  -0.07  -0.11    -0.06  -0.39  -0.22
  18   1    -0.00   0.00   0.00    -0.00   0.15   0.12    -0.01  -0.20   0.07
  19   1    -0.00  -0.01  -0.01    -0.14  -0.17  -0.19     0.15   0.28   0.46
  20   1    -0.00  -0.00  -0.01     0.03  -0.12   0.04    -0.01  -0.07   0.02
  21   1     0.00   0.00   0.00    -0.04   0.06  -0.03    -0.04   0.01  -0.01
  22   1     0.00   0.00   0.00    -0.08  -0.01   0.01    -0.03   0.01   0.00
  23   1    -0.00  -0.00  -0.01    -0.02  -0.07   0.03    -0.02  -0.02   0.02
  24   1    -0.00   0.00   0.01    -0.02   0.11  -0.06    -0.02   0.04  -0.02
  25   1     0.02  -0.12   0.14    -0.01  -0.01   0.01     0.01   0.01  -0.02
  26   1    -0.02   0.15  -0.18    -0.01   0.03   0.02    -0.01   0.01  -0.00
  27   1    -0.01  -0.00  -0.00     0.02   0.00  -0.00    -0.04  -0.00   0.00
  28   1     0.01   0.00   0.00    -0.05  -0.03  -0.01     0.03   0.02   0.01
  29   1    -0.00  -0.00   0.00    -0.01  -0.01  -0.01    -0.01   0.01   0.01
  30   1     0.05  -0.35   0.43    -0.02  -0.04  -0.03     0.01   0.00  -0.01
  31   1    -0.04   0.37  -0.44     0.02   0.00   0.01    -0.00   0.03  -0.02
                     40                     41                     42
                        a                      a                      a 
 Frequencies --  1002.4138              1009.5245              1013.5239
 Red. masses --     7.8805                 7.6789                 5.5288
 Frc consts  --     0.0000                 0.0000                 0.0000
 IR Inten    --     5.2564                 7.8822                11.3820
 Raman Activ --     0.0000                 0.0000                 0.0000
 Depolar     --     0.0000                 0.0000                 0.0000
 Atom AN      X      Y      Z        X      Y      Z        X      Y      Z
   1   6     0.10  -0.09  -0.24     0.13   0.04  -0.01    -0.19   0.08   0.16
   2   6     0.05   0.10   0.22    -0.02  -0.04  -0.01    -0.03  -0.09  -0.13
   3   7    -0.22   0.06   0.07     0.04   0.03   0.02     0.14  -0.07  -0.09
   4   6    -0.06  -0.00   0.02     0.01  -0.00  -0.02     0.07   0.01  -0.01
   5   6    -0.13   0.27  -0.10     0.02  -0.04   0.02     0.07  -0.14   0.05
   6   6     0.04   0.00  -0.01    -0.01  -0.00   0.00    -0.03  -0.02   0.01
   7   6     0.18   0.02  -0.02    -0.03  -0.00   0.00    -0.09  -0.01   0.01
   8   6     0.05   0.01  -0.00    -0.01   0.00   0.00    -0.04   0.02  -0.01
   9   6    -0.04  -0.29   0.12     0.01   0.04  -0.01     0.02   0.16  -0.06
  10   6     0.08   0.08   0.03    -0.18  -0.02  -0.01     0.04   0.02   0.03
  11   6     0.01  -0.12  -0.10    -0.09   0.18   0.16    -0.02  -0.13  -0.11
  12   6    -0.05   0.05   0.05     0.18  -0.31  -0.27    -0.06   0.01   0.02
  13   6     0.03   0.07   0.06    -0.13   0.01   0.02     0.02   0.05   0.05
  14   6    -0.11   0.14   0.12     0.04   0.20   0.15    -0.12   0.21   0.18
  15   6     0.03  -0.21  -0.18    -0.02   0.23   0.19     0.09  -0.16  -0.14
  16   6     0.01   0.03   0.03     0.15  -0.21  -0.18    -0.01   0.11   0.09
  17   1    -0.15  -0.22  -0.19    -0.07  -0.07  -0.07     0.16   0.18   0.18
  18   1    -0.00   0.06   0.14     0.01   0.10   0.13    -0.01  -0.16  -0.21
  19   1    -0.08  -0.05   0.00    -0.05  -0.02   0.00     0.13   0.10   0.06
  20   1     0.01   0.11  -0.05    -0.00  -0.02   0.00    -0.01  -0.06   0.03
  21   1     0.08  -0.02   0.01    -0.02   0.00  -0.00    -0.05   0.01   0.00
  22   1     0.05   0.01  -0.01    -0.01   0.00   0.00    -0.03  -0.01   0.01
  23   1     0.07   0.04  -0.02    -0.01  -0.01   0.00    -0.05  -0.02   0.01
  24   1     0.05  -0.11   0.04    -0.01   0.01  -0.01    -0.03   0.06  -0.02
  25   1    -0.00  -0.03  -0.02    -0.21   0.07   0.08     0.03  -0.05  -0.03
  26   1     0.02   0.04   0.03    -0.05  -0.18  -0.14    -0.01   0.01   0.01
  27   1     0.27   0.02  -0.02     0.34   0.04  -0.02     0.39   0.04  -0.03
  28   1    -0.24  -0.15  -0.08    -0.20  -0.14  -0.06    -0.33  -0.20  -0.10
  29   1    -0.00  -0.08  -0.07     0.05  -0.07  -0.06     0.01  -0.11  -0.09
  30   1     0.05  -0.06  -0.06    -0.11   0.07   0.08     0.14  -0.06  -0.06
  31   1     0.07   0.08   0.04    -0.03  -0.11  -0.10     0.09   0.11   0.09
                     43                     44                     45
                        a                      a                      a 
 Frequencies --  1029.1449              1079.0950              1096.0878
 Red. masses --     4.7084                 6.6501                 7.4439
 Frc consts  --     0.0000                 0.0000                 0.0000
 IR Inten    --    17.2711                 0.2452                18.5175
 Raman Activ --     0.0000                 0.0000                 0.0000
 Depolar     --     0.0000                 0.0000                 0.0000
 Atom AN      X      Y      Z        X      Y      Z        X      Y      Z
   1   6    -0.00  -0.00  -0.00     0.01   0.00  -0.01    -0.28  -0.13  -0.10
   2   6    -0.00  -0.00   0.00    -0.01   0.00   0.01     0.27   0.21   0.19
   3   7    -0.00  -0.00   0.00    -0.02  -0.00  -0.00    -0.08  -0.05  -0.05
   4   6    -0.00  -0.00   0.00    -0.01  -0.01   0.01    -0.05  -0.01   0.04
   5   6    -0.00   0.00  -0.00     0.15   0.02  -0.02    -0.02   0.03  -0.02
   6   6     0.00   0.00  -0.00     0.00  -0.32   0.13     0.02   0.02  -0.01
   7   6     0.00   0.00  -0.00    -0.44  -0.07   0.06     0.01  -0.01   0.00
   8   6     0.00  -0.00   0.00    -0.12   0.32  -0.13     0.01  -0.00  -0.00
   9   6    -0.00  -0.00   0.00     0.16   0.03  -0.02    -0.00  -0.02   0.00
  10   6     0.01   0.01  -0.01    -0.01   0.00   0.00     0.40   0.12   0.06
  11   6     0.01  -0.01   0.03     0.00  -0.01  -0.01    -0.02   0.17   0.14
  12   6     0.01  -0.04   0.05     0.00   0.00   0.00    -0.14   0.00   0.01
  13   6    -0.04   0.24  -0.29    -0.00   0.00   0.00     0.01  -0.01  -0.00
  14   6     0.00  -0.27   0.33     0.00  -0.00  -0.00     0.01   0.02   0.00
  15   6     0.01  -0.04   0.04     0.00  -0.00  -0.00    -0.09  -0.07  -0.05
  16   6     0.02  -0.03   0.02    -0.00   0.00   0.00     0.09  -0.14  -0.12
  17   1     0.00   0.00   0.00    -0.01  -0.01  -0.01     0.11   0.06   0.08
  18   1    -0.00  -0.00  -0.00     0.00   0.01   0.01    -0.03  -0.26  -0.29
  19   1     0.00   0.00   0.00    -0.00  -0.00   0.00     0.10   0.05   0.02
  20   1     0.00   0.00  -0.00     0.26   0.16  -0.09     0.01   0.03  -0.00
  21   1     0.00  -0.00  -0.00     0.28  -0.20   0.07     0.03  -0.00   0.00
  22   1     0.00   0.00  -0.00    -0.13  -0.04   0.02     0.00  -0.01   0.01
  23   1     0.00   0.00  -0.00     0.18   0.25  -0.11     0.01   0.00  -0.00
  24   1     0.00  -0.00   0.00     0.35  -0.11   0.01     0.03  -0.01   0.01
  25   1    -0.01   0.03  -0.03     0.00  -0.00  -0.00    -0.18   0.07   0.07
  26   1    -0.01   0.04  -0.06     0.01   0.00   0.00    -0.17  -0.11  -0.07
  27   1    -0.25   0.03  -0.22    -0.00  -0.00   0.00     0.01   0.00   0.01
  28   1    -0.33   0.07  -0.17     0.00   0.00   0.00    -0.00  -0.01  -0.00
  29   1     0.58   0.24  -0.01    -0.00   0.00   0.00    -0.01  -0.01  -0.00
  30   1    -0.01   0.04  -0.05     0.00  -0.00   0.00    -0.17  -0.01   0.02
  31   1     0.00   0.04  -0.05     0.00   0.01   0.00    -0.17  -0.22  -0.18
                     46                     47                     48
                        a                      a                      a 
 Frequencies --  1113.8010              1144.5940              1177.8813
 Red. masses --     4.0455                 2.8902                 1.3787
 Frc consts  --     0.0000                 0.0000                 0.0000
 IR Inten    --     0.5962                 9.1786                 0.3970
 Raman Activ --     0.0000                 0.0000                 0.0000
 Depolar     --     0.0000                 0.0000                 0.0000
 Atom AN      X      Y      Z        X      Y      Z        X      Y      Z
   1   6     0.01   0.00  -0.01     0.05   0.01   0.01    -0.00   0.00   0.01
   2   6    -0.00  -0.00  -0.00    -0.04  -0.04  -0.04     0.00  -0.01  -0.01
   3   7     0.01   0.04  -0.01     0.01   0.03   0.03     0.01  -0.00   0.00
   4   6     0.02  -0.16   0.06    -0.07  -0.01   0.00    -0.01  -0.06   0.03
   5   6    -0.23   0.11  -0.03    -0.01   0.01  -0.00     0.09   0.02  -0.02
   6   6     0.08   0.17  -0.08     0.01   0.02  -0.01     0.03  -0.01   0.00
   7   6     0.06  -0.20   0.08     0.00  -0.00   0.00    -0.01   0.08  -0.03
   8   6    -0.12   0.11  -0.04     0.01  -0.02   0.01    -0.03  -0.04   0.02
   9   6     0.16   0.17  -0.07    -0.00  -0.01   0.01    -0.09  -0.01   0.01
  10   6    -0.01  -0.01   0.00     0.04  -0.11  -0.10     0.01   0.00   0.00
  11   6    -0.00  -0.00  -0.00     0.06   0.10   0.08    -0.00   0.00   0.00
  12   6     0.01  -0.00  -0.00    -0.13   0.07   0.07    -0.00  -0.00  -0.00
  13   6    -0.00   0.00   0.00     0.07  -0.10  -0.09    -0.00   0.00   0.00
  14   6     0.00  -0.00  -0.00    -0.04   0.04   0.04     0.00   0.00  -0.00
  15   6    -0.00   0.00   0.00     0.13   0.08   0.06    -0.00  -0.00  -0.00
  16   6    -0.00   0.00   0.00    -0.15   0.06   0.07     0.00   0.00   0.00
  17   1    -0.00  -0.00  -0.00    -0.02  -0.03  -0.02     0.00   0.00   0.00
  18   1     0.00   0.00   0.01     0.00   0.06   0.07     0.00   0.00   0.00
  19   1    -0.00   0.00   0.00    -0.02  -0.01  -0.02     0.00   0.00   0.00
  20   1    -0.38  -0.20   0.12     0.01   0.02  -0.01    -0.08  -0.07   0.04
  21   1     0.25  -0.03  -0.00     0.01   0.00  -0.00     0.39  -0.14   0.03
  22   1     0.08  -0.41   0.16     0.00  -0.00   0.00    -0.11   0.66  -0.26
  23   1    -0.25  -0.13   0.07     0.00  -0.00   0.00    -0.36  -0.27   0.14
  24   1     0.42  -0.10  -0.00     0.03  -0.02   0.00     0.17  -0.08   0.02
  25   1     0.00  -0.00  -0.00     0.34  -0.01  -0.03    -0.01   0.00   0.00
  26   1     0.01   0.00   0.00    -0.27  -0.18  -0.12     0.00   0.00   0.00
  27   1    -0.00  -0.00  -0.00     0.06   0.01  -0.01     0.00  -0.00   0.00
  28   1     0.00   0.00   0.00    -0.06  -0.03  -0.01     0.00   0.00   0.00
  29   1     0.00   0.00   0.00     0.00  -0.02  -0.02    -0.00  -0.00   0.00
  30   1    -0.00   0.00   0.00     0.52  -0.03  -0.08    -0.01   0.00   0.00
  31   1     0.01   0.01   0.01    -0.40  -0.30  -0.22     0.00   0.00   0.00
                     49                     50                     51
                        a                      a                      a 
 Frequencies --  1187.7753              1201.3304              1236.1486
 Red. masses --     2.1711                 2.0999                 7.8325
 Frc consts  --     0.0000                 0.0000                 0.0000
 IR Inten    --    21.6711                47.2534                26.4313
 Raman Activ --     0.0000                 0.0000                 0.0000
 Depolar     --     0.0000                 0.0000                 0.0000
 Atom AN      X      Y      Z        X      Y      Z        X      Y      Z
   1   6    -0.01  -0.03  -0.03    -0.04  -0.03  -0.03     0.08   0.08   0.07
   2   6     0.00   0.07   0.07     0.10   0.07   0.06    -0.20  -0.21  -0.19
   3   7    -0.09  -0.03  -0.00    -0.03  -0.01  -0.00     0.11   0.07   0.04
   4   6     0.15   0.00  -0.01     0.02  -0.00   0.01    -0.20  -0.01  -0.00
   5   6    -0.06  -0.07   0.03     0.00   0.00  -0.00    -0.04  -0.02   0.01
   6   6     0.08  -0.11   0.04    -0.00   0.00  -0.00     0.04   0.04  -0.02
   7   6     0.01   0.01  -0.00    -0.00  -0.00   0.00     0.02   0.00  -0.00
   8   6     0.04   0.14  -0.06    -0.00   0.00  -0.00     0.05  -0.04   0.02
   9   6    -0.07   0.05  -0.02     0.00   0.00  -0.00    -0.05  -0.01   0.01
  10   6    -0.03  -0.01  -0.00    -0.03  -0.06  -0.05     0.14   0.06   0.04
  11   6     0.01  -0.00  -0.00     0.11  -0.02  -0.03    -0.04  -0.13  -0.10
  12   6     0.00  -0.00  -0.00    -0.05  -0.07  -0.05     0.08   0.04   0.02
  13   6     0.00  -0.00  -0.00     0.10   0.01  -0.00     0.48   0.12   0.06
  14   6    -0.00  -0.00   0.00    -0.04  -0.00  -0.01    -0.22  -0.05  -0.04
  15   6     0.00   0.01   0.01    -0.08   0.09   0.08     0.12  -0.01  -0.02
  16   6    -0.01  -0.00  -0.00    -0.01   0.08   0.07    -0.07   0.11   0.10
  17   1    -0.01  -0.01  -0.01     0.01  -0.02   0.00    -0.01   0.02   0.00
  18   1    -0.00  -0.01  -0.01    -0.01  -0.01  -0.01     0.01   0.06   0.07
  19   1    -0.01  -0.01  -0.02     0.01  -0.00  -0.02    -0.02   0.01   0.04
  20   1    -0.39  -0.29   0.15     0.02   0.01  -0.01    -0.02  -0.01   0.01
  21   1     0.44  -0.19   0.05    -0.02   0.01  -0.00     0.09  -0.02  -0.00
  22   1    -0.01   0.04  -0.01    -0.00   0.00   0.00     0.01   0.00  -0.00
  23   1     0.28   0.23  -0.12    -0.02  -0.01   0.01     0.11   0.06  -0.03
  24   1    -0.46   0.19  -0.03     0.01  -0.00   0.00     0.02  -0.02  -0.00
  25   1     0.04  -0.01  -0.01     0.48  -0.06  -0.09    -0.28  -0.01   0.02
  26   1    -0.01  -0.01  -0.01    -0.41  -0.37  -0.26    -0.11  -0.12  -0.08
  27   1    -0.00  -0.00  -0.00    -0.03  -0.00   0.01    -0.11  -0.02   0.01
  28   1    -0.00  -0.00  -0.00    -0.03  -0.03  -0.01    -0.11  -0.07  -0.03
  29   1     0.00   0.00  -0.00    -0.02  -0.01  -0.00    -0.08  -0.04  -0.01
  30   1     0.03  -0.00  -0.00    -0.35   0.06   0.09    -0.35   0.05   0.08
  31   1    -0.02  -0.01  -0.01     0.24   0.24   0.18    -0.20  -0.13  -0.09
                     52                     53                     54
                        a                      a                      a 
 Frequencies --  1250.4612              1276.7613              1279.2578
 Red. masses --     9.5458                 4.0304                 3.6451
 Frc consts  --     0.0000                 0.0000                 0.0000
 IR Inten    --   194.8304                 3.0157                14.8483
 Raman Activ --     0.0000                 0.0000                 0.0000
 Depolar     --     0.0000                 0.0000                 0.0000
 Atom AN      X      Y      Z        X      Y      Z        X      Y      Z
   1   6     0.01   0.07   0.06    -0.00  -0.02  -0.01     0.02   0.00   0.00
   2   6    -0.00  -0.20  -0.20    -0.01   0.02   0.02     0.02   0.06   0.05
   3   7     0.23   0.11   0.05    -0.03  -0.06   0.01    -0.06  -0.02  -0.00
   4   6    -0.52  -0.03   0.03     0.01   0.38  -0.15     0.06   0.04  -0.02
   5   6    -0.12  -0.03   0.02     0.12   0.01  -0.01     0.03   0.01  -0.01
   6   6     0.09   0.12  -0.05     0.14  -0.13   0.04     0.01  -0.03   0.01
   7   6     0.07   0.01  -0.01     0.01  -0.08   0.03    -0.01  -0.01   0.01
   8   6     0.12  -0.12   0.04    -0.11  -0.12   0.06    -0.02   0.00  -0.00
   9   6    -0.15  -0.01   0.02    -0.09  -0.02   0.01     0.00  -0.00  -0.00
  10   6     0.22  -0.02  -0.03    -0.00   0.04   0.02     0.06  -0.22  -0.19
  11   6     0.08   0.10   0.08     0.00   0.00   0.00     0.08  -0.03  -0.03
  12   6    -0.13   0.01   0.02    -0.02  -0.01  -0.01     0.10   0.10   0.07
  13   6    -0.31  -0.07  -0.03    -0.02  -0.01  -0.01     0.07   0.18   0.14
  14   6     0.14   0.04   0.02     0.01   0.01   0.00    -0.03  -0.06  -0.05
  15   6    -0.12  -0.04  -0.02     0.01  -0.01  -0.01    -0.08   0.06   0.06
  16   6     0.09  -0.03  -0.03     0.01  -0.00  -0.00    -0.14  -0.07  -0.04
  17   1     0.03   0.02   0.03     0.00   0.01   0.00    -0.03   0.01  -0.01
  18   1     0.00   0.03   0.03    -0.00   0.00   0.00     0.01  -0.04  -0.04
  19   1     0.03   0.03   0.03    -0.00  -0.01  -0.01    -0.03  -0.01   0.01
  20   1     0.00   0.03  -0.00    -0.36  -0.29   0.15    -0.04  -0.04   0.02
  21   1     0.21  -0.03  -0.00    -0.34   0.11  -0.02    -0.06   0.02  -0.00
  22   1     0.02   0.01  -0.01    -0.04   0.21  -0.08    -0.01   0.02  -0.01
  23   1     0.25   0.12  -0.07     0.26   0.17  -0.09     0.00   0.01  -0.00
  24   1     0.08  -0.06   0.01     0.41  -0.17   0.04     0.03  -0.01   0.00
  25   1     0.01   0.03   0.03     0.07  -0.01  -0.01    -0.52   0.05   0.09
  26   1    -0.06  -0.01  -0.01     0.02   0.02   0.01    -0.27  -0.24  -0.17
  27   1     0.07   0.01   0.00     0.01   0.00  -0.00    -0.09  -0.01   0.02
  28   1     0.07   0.03   0.02     0.00  -0.00   0.00     0.02   0.03   0.00
  29   1     0.05   0.02   0.01     0.00  -0.00  -0.00    -0.03   0.02   0.02
  30   1     0.07  -0.03  -0.03    -0.04   0.00   0.01     0.42  -0.03  -0.07
  31   1     0.19   0.14   0.09    -0.03  -0.03  -0.02     0.21   0.21   0.15
                     55                     56                     57
                        a                      a                      a 
 Frequencies --  1304.8388              1316.2039              1330.4044
 Red. masses --    10.6100                11.3701                11.5594
 Frc consts  --     0.0000                 0.0000                 0.0000
 IR Inten    --    53.2804                 4.6955                 4.6505
 Raman Activ --     0.0000                 0.0000                 0.0000
 Depolar     --     0.0000                 0.0000                 0.0000
 Atom AN      X      Y      Z        X      Y      Z        X      Y      Z
   1   6     0.11   0.04   0.03    -0.01  -0.01   0.00    -0.06  -0.02  -0.02
   2   6    -0.46  -0.16  -0.10     0.02   0.02   0.02     0.16   0.03   0.01
   3   7    -0.14   0.00   0.04     0.01  -0.01  -0.01     0.09   0.01  -0.01
   4   6     0.26   0.03  -0.05    -0.07   0.38  -0.15    -0.10  -0.01   0.01
   5   6     0.07   0.02  -0.01    -0.32  -0.27   0.13    -0.04  -0.03   0.01
   6   6    -0.02  -0.09   0.04     0.29  -0.11   0.03     0.01   0.04  -0.02
   7   6    -0.06   0.02  -0.00    -0.07   0.41  -0.17     0.03   0.00  -0.00
   8   6    -0.05   0.08  -0.03    -0.24  -0.19   0.09     0.02  -0.04   0.01
   9   6     0.14  -0.03   0.00     0.38  -0.17   0.04    -0.05   0.02  -0.00
  10   6     0.37   0.22   0.14    -0.02  -0.01  -0.01    -0.27   0.25   0.24
  11   6     0.29   0.02  -0.01    -0.02  -0.00   0.00     0.29  -0.07  -0.08
  12   6    -0.22  -0.02   0.00     0.02   0.00   0.00    -0.18  -0.23  -0.18
  13   6    -0.27   0.05   0.07     0.01  -0.00  -0.00    -0.04   0.33   0.28
  14   6     0.10   0.01  -0.00    -0.01  -0.00  -0.00    -0.01  -0.06  -0.05
  15   6     0.03  -0.12  -0.10    -0.01   0.01   0.01     0.36  -0.01  -0.04
  16   6     0.06  -0.06  -0.05    -0.00   0.00   0.00    -0.29  -0.23  -0.16
  17   1    -0.05   0.00  -0.03    -0.00   0.00   0.00     0.03   0.01   0.02
  18   1     0.01   0.08   0.11    -0.00  -0.00  -0.01    -0.01  -0.02  -0.03
  19   1    -0.06  -0.02   0.01     0.01  -0.00  -0.01     0.03   0.02   0.01
  20   1    -0.04  -0.05   0.02     0.05   0.03  -0.01     0.03   0.03  -0.01
  21   1    -0.09   0.00   0.00     0.14  -0.05   0.01     0.05  -0.01  -0.00
  22   1    -0.01  -0.03   0.01     0.02  -0.11   0.04     0.01   0.00  -0.00
  23   1    -0.14  -0.07   0.04    -0.10  -0.08   0.04     0.05   0.02  -0.01
  24   1    -0.10   0.05  -0.01    -0.02   0.00   0.00     0.04  -0.02   0.00
  25   1    -0.04   0.02   0.02     0.00  -0.00  -0.00     0.04  -0.02  -0.02
  26   1    -0.16  -0.09  -0.06     0.01   0.00   0.00     0.01  -0.02  -0.02
  27   1     0.01   0.00   0.01    -0.00  -0.00  -0.00    -0.08  -0.01   0.02
  28   1     0.06   0.04   0.02    -0.00  -0.00  -0.00     0.03   0.04   0.01
  29   1     0.02   0.03   0.02    -0.00  -0.00  -0.00    -0.03   0.05   0.05
  30   1    -0.08  -0.03  -0.01     0.01   0.00  -0.00     0.09  -0.00  -0.01
  31   1     0.01  -0.02  -0.02     0.00   0.00   0.00    -0.02  -0.01  -0.00
                     58                     59                     60
                        a                      a                      a 
 Frequencies --  1377.2400              1402.5983              1408.0782
 Red. masses --     3.2735                 3.1851                 9.6678
 Frc consts  --     0.0000                 0.0000                 0.0000
 IR Inten    --    19.3622                 4.3975                 7.2742
 Raman Activ --     0.0000                 0.0000                 0.0000
 Depolar     --     0.0000                 0.0000                 0.0000
 Atom AN      X      Y      Z        X      Y      Z        X      Y      Z
   1   6     0.05   0.31   0.30     0.00  -0.00  -0.00     0.02  -0.04  -0.03
   2   6    -0.01  -0.03  -0.03     0.00   0.00   0.00     0.03   0.04   0.03
   3   7     0.00   0.01   0.00     0.00  -0.00  -0.00    -0.06   0.01   0.02
   4   6    -0.01  -0.00   0.00    -0.00  -0.00   0.00     0.02   0.01   0.00
   5   6    -0.00   0.00  -0.00    -0.00  -0.00   0.00     0.01   0.01  -0.00
   6   6     0.01  -0.00   0.00     0.00   0.00  -0.00     0.01  -0.01   0.00
   7   6    -0.00  -0.00   0.00     0.00  -0.00  -0.00    -0.01   0.00   0.00
   8   6    -0.00  -0.00   0.00    -0.00  -0.00   0.00     0.00   0.01  -0.01
   9   6     0.00   0.00  -0.00    -0.00   0.00  -0.00     0.01  -0.01   0.00
  10   6     0.01  -0.02  -0.01    -0.01   0.00   0.01     0.08  -0.25  -0.22
  11   6     0.04   0.02   0.01    -0.01  -0.02  -0.01     0.30   0.17   0.11
  12   6    -0.05  -0.01  -0.01     0.01   0.01   0.01    -0.37  -0.05  -0.00
  13   6     0.00  -0.02  -0.02     0.04   0.02   0.01     0.11  -0.24  -0.21
  14   6    -0.00   0.01   0.01    -0.42  -0.08  -0.11    -0.04   0.08   0.07
  15   6     0.05   0.01   0.00     0.01  -0.01  -0.01     0.32   0.15   0.09
  16   6    -0.04   0.00   0.01    -0.00   0.01   0.01    -0.34  -0.00   0.03
  17   1    -0.10  -0.49  -0.17    -0.00   0.00   0.00    -0.02   0.07   0.01
  18   1     0.07  -0.36  -0.32     0.00  -0.00  -0.00    -0.00   0.03   0.02
  19   1    -0.13  -0.17  -0.49    -0.00   0.00   0.00    -0.01   0.01   0.07
  20   1    -0.01  -0.00   0.00     0.00   0.00  -0.00    -0.01  -0.01   0.00
  21   1    -0.00   0.00  -0.00     0.00  -0.00  -0.00    -0.01   0.00   0.00
  22   1    -0.00   0.01  -0.00     0.00   0.00  -0.00    -0.00  -0.00   0.00
  23   1     0.00   0.00  -0.00     0.00   0.00  -0.00    -0.01  -0.01   0.00
  24   1    -0.00   0.00  -0.00     0.00  -0.00   0.00    -0.01   0.00   0.00
  25   1    -0.00   0.01   0.01    -0.01  -0.00  -0.00    -0.16   0.08   0.08
  26   1     0.01   0.02   0.02    -0.02  -0.02  -0.01     0.10   0.17   0.13
  27   1     0.01   0.00  -0.00     0.46  -0.08   0.15     0.05   0.02  -0.05
  28   1    -0.00  -0.01   0.00     0.41   0.06   0.28    -0.02  -0.07   0.02
  29   1     0.01  -0.00  -0.01     0.48   0.27  -0.08     0.04  -0.08  -0.08
  30   1    -0.04   0.01   0.01    -0.02  -0.00   0.00    -0.20   0.08   0.09
  31   1    -0.00   0.01   0.01    -0.01  -0.01  -0.01     0.04   0.12   0.10
                     61                     62                     63
                        a                      a                      a 
 Frequencies --  1432.6004              1464.4686              1475.8973
 Red. masses --     9.0241                 8.7128                 1.7789
 Frc consts  --     0.0000                 0.0000                 0.0000
 IR Inten    --     6.3613                19.4785                 8.3337
 Raman Activ --     0.0000                 0.0000                 0.0000
 Depolar     --     0.0000                 0.0000                 0.0000
 Atom AN      X      Y      Z        X      Y      Z        X      Y      Z
   1   6     0.00  -0.00  -0.00    -0.05  -0.01   0.01     0.08   0.14  -0.15
   2   6    -0.02  -0.01  -0.00     0.09  -0.04  -0.05     0.04   0.03  -0.01
   3   7     0.01   0.05  -0.02     0.06   0.04   0.02     0.04  -0.00  -0.01
   4   6     0.05  -0.34   0.13    -0.42  -0.04   0.05    -0.08  -0.01   0.01
   5   6    -0.31   0.09  -0.02     0.16   0.25  -0.12     0.01   0.03  -0.01
   6   6     0.40   0.05  -0.05     0.24  -0.20   0.07     0.05  -0.02   0.01
   7   6     0.03  -0.23   0.09    -0.24  -0.02   0.02    -0.03  -0.00   0.00
   8   6    -0.39  -0.03   0.04     0.18   0.24  -0.11     0.02   0.03  -0.01
   9   6     0.28   0.15  -0.08     0.23  -0.21   0.07     0.04  -0.02   0.01
  10   6     0.00  -0.00   0.01     0.04   0.01   0.01    -0.03  -0.00   0.01
  11   6     0.01  -0.00  -0.00    -0.08   0.02   0.02     0.00  -0.00  -0.00
  12   6    -0.00   0.00   0.00    -0.00  -0.05  -0.04     0.01   0.01   0.00
  13   6    -0.01  -0.00   0.00     0.08   0.04   0.02    -0.01  -0.00  -0.00
  14   6     0.00   0.00   0.00    -0.02  -0.01  -0.01     0.00  -0.00   0.01
  15   6     0.00  -0.00  -0.00    -0.03   0.03   0.03     0.01  -0.00  -0.00
  16   6     0.00   0.00   0.00    -0.05  -0.05  -0.04     0.01   0.00   0.00
  17   1    -0.02   0.00  -0.01     0.05  -0.06   0.01     0.19   0.22   0.13
  18   1     0.00   0.02  -0.01    -0.01   0.08   0.01     0.02  -0.58   0.35
  19   1     0.01   0.01   0.02     0.11   0.04  -0.05    -0.57  -0.19   0.11
  20   1     0.04   0.13  -0.05    -0.22  -0.12   0.08    -0.02  -0.01   0.00
  21   1    -0.18   0.13  -0.04    -0.23   0.05  -0.01    -0.03   0.01  -0.00
  22   1    -0.06   0.32  -0.13    -0.07  -0.02   0.01    -0.01   0.01  -0.00
  23   1     0.12   0.16  -0.08    -0.21  -0.12   0.06    -0.02  -0.01   0.01
  24   1    -0.10   0.12  -0.04    -0.25   0.06  -0.01    -0.04   0.01  -0.00
  25   1    -0.00  -0.00   0.00     0.05  -0.00  -0.01     0.03   0.00  -0.01
  26   1    -0.00  -0.00  -0.00     0.04   0.02   0.02    -0.01  -0.01  -0.00
  27   1     0.00   0.00  -0.00    -0.01  -0.01   0.03     0.01   0.00  -0.02
  28   1     0.00   0.00  -0.00    -0.02  -0.02  -0.01     0.01   0.02  -0.00
  29   1    -0.00   0.00   0.00    -0.00   0.02   0.01    -0.01  -0.01  -0.00
  30   1    -0.00  -0.00   0.00     0.05   0.00  -0.00    -0.01  -0.00   0.00
  31   1    -0.00  -0.00  -0.00     0.04   0.03   0.02    -0.01  -0.01  -0.00
                     64                     65                     66
                        a                      a                      a 
 Frequencies --  1477.1586              1478.5784              1479.8479
 Red. masses --     2.4232                 1.9175                 1.7616
 Frc consts  --     0.0000                 0.0000                 0.0000
 IR Inten    --    13.7302                 5.7032                 2.7801
 Raman Activ --     0.0000                 0.0000                 0.0000
 Depolar     --     0.0000                 0.0000                 0.0000
 Atom AN      X      Y      Z        X      Y      Z        X      Y      Z
   1   6    -0.16   0.04  -0.08     0.07  -0.02   0.04     0.08  -0.01   0.03
   2   6    -0.05  -0.01  -0.02     0.01  -0.01   0.00    -0.02  -0.01   0.00
   3   7    -0.06   0.01   0.03     0.05  -0.01  -0.02     0.02  -0.01  -0.01
   4   6     0.09   0.00  -0.01    -0.05  -0.00   0.01    -0.01  -0.00   0.00
   5   6    -0.03  -0.03   0.02     0.02   0.02  -0.01     0.00  -0.00   0.00
   6   6    -0.03   0.03  -0.01     0.01  -0.01   0.01    -0.01   0.00  -0.00
   7   6     0.03  -0.01   0.00    -0.02   0.00   0.00     0.00   0.00  -0.00
   8   6    -0.04  -0.03   0.02     0.02   0.02  -0.01    -0.00  -0.00   0.00
   9   6    -0.02   0.03  -0.01     0.01  -0.02   0.01    -0.00   0.00  -0.00
  10   6     0.11   0.05   0.04    -0.06   0.09   0.08     0.03   0.03   0.02
  11   6    -0.06   0.01   0.01     0.01  -0.05  -0.04    -0.02   0.02   0.02
  12   6    -0.02  -0.04  -0.03     0.05   0.04   0.02    -0.02  -0.04  -0.02
  13   6     0.11   0.03   0.00    -0.02   0.01   0.02     0.02   0.02  -0.03
  14   6    -0.04   0.10   0.02    -0.07   0.10   0.15     0.06   0.16  -0.13
  15   6    -0.09   0.04   0.05    -0.04  -0.00   0.00    -0.07   0.01   0.02
  16   6    -0.05  -0.09  -0.07     0.02  -0.04  -0.03     0.01  -0.03  -0.03
  17   1     0.50  -0.25   0.14    -0.24   0.11  -0.07    -0.22   0.12  -0.06
  18   1    -0.05   0.03   0.40     0.02  -0.01  -0.20     0.02  -0.04  -0.16
  19   1     0.20   0.01  -0.29    -0.09  -0.00   0.13    -0.12  -0.02   0.13
  20   1     0.03   0.02  -0.01    -0.02  -0.01   0.01     0.00   0.00  -0.00
  21   1     0.03  -0.00   0.00    -0.01   0.00  -0.00     0.00  -0.00   0.00
  22   1     0.01   0.01  -0.01    -0.00  -0.00   0.00     0.00  -0.00   0.00
  23   1     0.03   0.02  -0.01    -0.01  -0.01   0.00     0.00   0.00  -0.00
  24   1     0.03  -0.00   0.00    -0.02   0.00  -0.00     0.00  -0.00  -0.00
  25   1     0.01   0.01  -0.00     0.02  -0.02  -0.01     0.06  -0.00  -0.01
  26   1     0.04   0.03   0.02    -0.04  -0.04  -0.02     0.04   0.03   0.02
  27   1    -0.20   0.02  -0.02    -0.17   0.13  -0.45    -0.31  -0.09   0.50
  28   1     0.10  -0.27   0.13     0.29  -0.06   0.23    -0.07  -0.61   0.08
  29   1     0.14  -0.18  -0.21     0.14  -0.47  -0.39     0.21   0.08  -0.06
  30   1     0.09   0.00  -0.01     0.03  -0.00  -0.01     0.06  -0.00  -0.01
  31   1     0.06   0.04   0.02     0.00  -0.01  -0.01     0.02   0.01   0.00
                     67                     68                     69
                        a                      a                      a 
 Frequencies --  1493.0348              1566.9916              1570.4889
 Red. masses --     8.8842                11.4226                11.4184
 Frc consts  --     0.0000                 0.0000                 0.0000
 IR Inten    --     0.6316                 2.5917                 3.2210
 Raman Activ --     0.0000                 0.0000                 0.0000
 Depolar     --     0.0000                 0.0000                 0.0000
 Atom AN      X      Y      Z        X      Y      Z        X      Y      Z
   1   6    -0.06   0.00  -0.01    -0.00   0.00  -0.00     0.02  -0.00  -0.00
   2   6     0.14   0.03   0.01    -0.00  -0.00  -0.00     0.00   0.00  -0.00
   3   7     0.01   0.01   0.01    -0.00   0.02  -0.00    -0.06   0.01   0.02
   4   6    -0.07  -0.00   0.01     0.06  -0.40   0.15     0.03   0.00  -0.00
   5   6     0.01   0.03  -0.01     0.15   0.27  -0.12     0.01   0.00  -0.00
   6   6     0.05  -0.03   0.01     0.12  -0.27   0.11    -0.01   0.00   0.00
   7   6    -0.04   0.00   0.00    -0.08   0.54  -0.22     0.01   0.00  -0.00
   8   6     0.04   0.04  -0.02    -0.08  -0.31   0.14    -0.01  -0.01   0.00
   9   6     0.01  -0.03   0.01    -0.18   0.22  -0.08     0.00   0.00  -0.00
  10   6    -0.37  -0.12  -0.07     0.00   0.00   0.01     0.18  -0.34  -0.30
  11   6     0.28  -0.09  -0.10     0.00  -0.00  -0.00    -0.25   0.17   0.16
  12   6     0.08   0.17   0.14    -0.00   0.00   0.00    -0.05  -0.27  -0.22
  13   6    -0.38  -0.05  -0.02     0.00  -0.00  -0.00    -0.13   0.39   0.34
  14   6     0.12   0.07  -0.01    -0.00   0.00   0.00     0.00  -0.02  -0.02
  15   6     0.20  -0.14  -0.13    -0.00   0.00   0.00     0.17  -0.17  -0.16
  16   6     0.18   0.24   0.18    -0.00  -0.00  -0.00     0.07   0.23   0.19
  17   1     0.13  -0.07   0.04     0.00  -0.00  -0.00    -0.01   0.01  -0.00
  18   1    -0.01   0.02   0.07    -0.00   0.00   0.01     0.00   0.00   0.01
  19   1     0.09   0.02  -0.08     0.00   0.00   0.00    -0.01  -0.00   0.01
  20   1    -0.03  -0.01   0.01    -0.09  -0.03   0.02     0.00  -0.00  -0.00
  21   1    -0.03   0.01  -0.00    -0.06  -0.04   0.02     0.00  -0.00   0.00
  22   1    -0.01  -0.00   0.00     0.03  -0.14   0.06     0.00  -0.00   0.00
  23   1    -0.03  -0.02   0.01     0.08  -0.01  -0.00     0.00   0.00  -0.00
  24   1    -0.03   0.00   0.00     0.08   0.00  -0.01     0.00   0.00   0.00
  25   1    -0.24   0.01   0.02    -0.00  -0.00   0.00     0.11   0.02   0.01
  26   1    -0.16  -0.10  -0.07    -0.00   0.00   0.00     0.09   0.02   0.01
  27   1    -0.08  -0.00   0.08     0.00  -0.00   0.00    -0.09   0.01  -0.05
  28   1     0.04  -0.15   0.05    -0.00   0.00  -0.00     0.08  -0.00   0.05
  29   1     0.09  -0.02  -0.05    -0.00   0.00   0.00     0.02  -0.05  -0.04
  30   1    -0.19  -0.01   0.01     0.00   0.00   0.00    -0.05  -0.03  -0.02
  31   1    -0.16  -0.12  -0.08     0.00   0.00   0.00    -0.06  -0.01  -0.01
                     70                     71                     72
                        a                      a                      a 
 Frequencies --  1592.4664              1599.7384              1699.8631
 Red. masses --    11.4759                11.4925                12.7807
 Frc consts  --     0.0000                 0.0000                 0.0000
 IR Inten    --   194.0240                19.4112               262.4479
 Raman Activ --     0.0000                 0.0000                 0.0000
 Depolar     --     0.0000                 0.0000                 0.0000
 Atom AN      X      Y      Z        X      Y      Z        X      Y      Z
   1   6    -0.00  -0.00  -0.01    -0.01   0.01   0.01    -0.01   0.03   0.04
   2   6    -0.04   0.05   0.06     0.06  -0.03  -0.04     0.46  -0.33  -0.42
   3   7     0.08  -0.03  -0.06    -0.03   0.02   0.02    -0.52   0.24   0.35
   4   6    -0.22  -0.00   0.02    -0.11   0.00   0.01     0.11   0.03  -0.01
   5   6     0.35   0.11  -0.08     0.19   0.06  -0.04     0.04   0.01  -0.00
   6   6    -0.41   0.08  -0.00    -0.22   0.04  -0.00    -0.05   0.01   0.00
   7   6     0.19  -0.01  -0.01     0.10  -0.00  -0.01     0.02   0.00  -0.00
   8   6    -0.37  -0.15   0.09    -0.20  -0.08   0.05    -0.05  -0.02   0.01
   9   6     0.40  -0.05  -0.01     0.22  -0.03  -0.00     0.06  -0.01  -0.00
  10   6     0.08   0.01   0.00    -0.19  -0.03  -0.01     0.01   0.04   0.04
  11   6    -0.18  -0.02   0.00     0.37   0.03  -0.01    -0.08  -0.01  -0.00
  12   6     0.17   0.11   0.07    -0.33  -0.19  -0.13     0.06   0.04   0.02
  13   6    -0.14  -0.04  -0.02     0.26   0.07   0.03    -0.03  -0.02  -0.01
  14   6     0.02   0.01   0.00    -0.04  -0.02  -0.00     0.01   0.00   0.00
  15   6     0.23   0.01  -0.01    -0.43  -0.02   0.03     0.05   0.01   0.00
  16   6    -0.17  -0.08  -0.05     0.33   0.16   0.10    -0.04  -0.05  -0.04
  17   1     0.01  -0.01   0.00     0.00   0.01   0.00    -0.01   0.06   0.01
  18   1    -0.00   0.01   0.01     0.00  -0.01  -0.00     0.01  -0.03  -0.04
  19   1     0.00  -0.00  -0.01     0.00   0.00   0.01    -0.01   0.01   0.05
  20   1    -0.04  -0.07   0.03    -0.02  -0.04   0.02    -0.00  -0.01  -0.00
  21   1     0.09  -0.05   0.02     0.05  -0.03   0.01     0.01  -0.01   0.00
  22   1     0.05   0.01  -0.01     0.02   0.01  -0.00     0.00   0.00  -0.00
  23   1     0.06   0.07  -0.04     0.03   0.04  -0.02     0.00   0.01  -0.00
  24   1    -0.07   0.05  -0.02    -0.04   0.03  -0.01    -0.01   0.01  -0.00
  25   1     0.03  -0.01  -0.01    -0.07   0.02   0.03     0.01  -0.01  -0.01
  26   1    -0.03  -0.04  -0.03     0.05   0.07   0.05    -0.01  -0.01  -0.01
  27   1    -0.00  -0.00   0.01     0.00   0.00  -0.02     0.00  -0.00   0.00
  28   1     0.00  -0.01   0.00    -0.01   0.02  -0.01    -0.00  -0.00  -0.00
  29   1     0.01   0.01  -0.00    -0.02  -0.01   0.00     0.00   0.00  -0.00
  30   1    -0.06   0.02   0.02     0.10  -0.03  -0.03    -0.00   0.00   0.00
  31   1     0.01   0.03   0.03    -0.02  -0.06  -0.05     0.02   0.01   0.01
                     73                     74                     75
                        a                      a                      a 
 Frequencies --  2991.6751              3007.5336              3020.8240
 Red. masses --     1.8013                 1.8600                 1.6716
 Frc consts  --     0.0000                 0.0000                 0.0000
 IR Inten    --    26.0106                15.7244                20.8286
 Raman Activ --     0.0000                 0.0000                 0.0000
 Depolar     --     0.0000                 0.0000                 0.0000
 Atom AN      X      Y      Z        X      Y      Z        X      Y      Z
   1   6    -0.00  -0.00  -0.00    -0.09   0.23  -0.13    -0.15  -0.01   0.19
   2   6     0.00   0.00  -0.00    -0.00   0.01  -0.00    -0.01   0.00   0.01
   3   7    -0.00  -0.00   0.00     0.00  -0.00  -0.00     0.00  -0.00  -0.00
   4   6     0.00   0.00  -0.00     0.00   0.00  -0.00     0.00   0.00   0.00
   5   6     0.00  -0.00   0.00     0.00  -0.00   0.00    -0.00   0.00  -0.00
   6   6    -0.00  -0.00   0.00    -0.00  -0.00   0.00    -0.00  -0.00   0.00
   7   6    -0.00  -0.00   0.00    -0.00  -0.00   0.00    -0.00  -0.00   0.00
   8   6    -0.00   0.00  -0.00     0.00   0.00  -0.00    -0.00   0.00  -0.00
   9   6    -0.00   0.00  -0.00    -0.00  -0.00   0.00     0.00   0.00  -0.00
  10   6     0.00   0.00   0.00    -0.00  -0.00   0.00    -0.00   0.00  -0.00
  11   6    -0.00   0.00   0.00    -0.00  -0.00  -0.00    -0.00  -0.01  -0.00
  12   6     0.00   0.00   0.00    -0.00   0.00   0.00    -0.00   0.00   0.00
  13   6    -0.01   0.00  -0.01    -0.00  -0.00  -0.00    -0.00  -0.00  -0.00
  14   6    -0.07   0.15  -0.21     0.00   0.00  -0.00     0.00   0.00  -0.00
  15   6     0.00   0.00   0.00    -0.00  -0.00  -0.00    -0.00  -0.00  -0.00
  16   6     0.00  -0.00  -0.00     0.00  -0.00  -0.00     0.00  -0.00  -0.00
  17   1    -0.00  -0.00   0.00    -0.12  -0.04   0.21     0.36   0.26  -0.81
  18   1     0.00   0.00   0.00     0.07   0.04  -0.01     0.10   0.00   0.04
  19   1    -0.00   0.00  -0.00     0.35  -0.82   0.23     0.07  -0.23   0.09
  20   1    -0.00   0.00  -0.00    -0.01   0.01  -0.00     0.01  -0.01   0.00
  21   1     0.00   0.00  -0.00     0.00   0.00  -0.00     0.00   0.00  -0.00
  22   1     0.00   0.00  -0.00     0.00  -0.00   0.00     0.00   0.00  -0.00
  23   1     0.00  -0.00   0.00     0.00  -0.00   0.00     0.00  -0.00   0.00
  24   1    -0.00  -0.00   0.00     0.00   0.00  -0.00    -0.00  -0.00   0.00
  25   1     0.00  -0.00  -0.00     0.00   0.01   0.01     0.01   0.02   0.01
  26   1    -0.00   0.00   0.00     0.00  -0.00  -0.00     0.00  -0.00  -0.00
  27   1    -0.02  -0.08  -0.06    -0.00  -0.00  -0.00    -0.00  -0.00  -0.00
  28   1    -0.07   0.05   0.07    -0.00   0.00   0.00    -0.00   0.00   0.01
  29   1     0.36  -0.51   0.72     0.00  -0.00   0.00     0.00  -0.00   0.00
  30   1    -0.00  -0.00  -0.00    -0.00   0.00   0.00    -0.00   0.00   0.00
  31   1    -0.00   0.00   0.00    -0.00   0.00   0.00    -0.00   0.00   0.00
                     76                     77                     78
                        a                      a                      a 
 Frequencies --  3032.4325              3033.0365              3036.2946
 Red. masses --     1.6109                 1.7356                 1.6029
 Frc consts  --     0.0000                 0.0000                 0.0000
 IR Inten    --    26.3032                23.0839                23.3817
 Raman Activ --     0.0000                 0.0000                 0.0000
 Depolar     --     0.0000                 0.0000                 0.0000
 Atom AN      X      Y      Z        X      Y      Z        X      Y      Z
   1   6    -0.23  -0.04  -0.03    -0.03  -0.00  -0.01     0.01   0.00   0.00
   2   6    -0.01  -0.00  -0.00    -0.00  -0.00  -0.00     0.00   0.00   0.00
   3   7     0.00   0.00   0.00     0.00   0.00   0.00    -0.00  -0.00  -0.00
   4   6     0.00   0.00  -0.00    -0.00  -0.00  -0.00     0.00   0.00  -0.00
   5   6    -0.00   0.00  -0.00    -0.00   0.00  -0.00     0.00  -0.00   0.00
   6   6    -0.00  -0.00   0.00    -0.00   0.00   0.00    -0.00  -0.00   0.00
   7   6    -0.00  -0.00   0.00     0.00   0.00  -0.00    -0.00  -0.00   0.00
   8   6    -0.00   0.00  -0.00     0.00  -0.00   0.00    -0.00   0.00  -0.00
   9   6    -0.00  -0.00   0.00    -0.00  -0.00   0.00     0.00   0.00  -0.00
  10   6     0.00   0.00  -0.00    -0.00   0.00   0.00     0.00   0.00   0.00
  11   6    -0.00  -0.00  -0.00     0.00  -0.00  -0.00    -0.00  -0.00  -0.00
  12   6     0.00  -0.00  -0.00    -0.01   0.01   0.01    -0.00   0.00   0.00
  13   6    -0.00   0.00   0.00     0.01  -0.00  -0.01    -0.00  -0.01  -0.00
  14   6    -0.02   0.00   0.02     0.14  -0.09  -0.19    -0.04  -0.22  -0.06
  15   6    -0.00  -0.00  -0.00     0.00   0.01   0.00     0.00   0.01   0.01
  16   6     0.00  -0.00  -0.00     0.00  -0.00  -0.00     0.00  -0.00  -0.00
  17   1    -0.07  -0.03   0.08    -0.01  -0.01   0.02     0.00   0.00  -0.01
  18   1     0.94   0.06   0.08     0.12   0.01   0.01    -0.03  -0.00  -0.00
  19   1    -0.07   0.10  -0.03    -0.01   0.02  -0.01     0.00  -0.00   0.00
  20   1     0.02  -0.02   0.01     0.00  -0.00   0.00    -0.00   0.00  -0.00
  21   1     0.00   0.01  -0.00     0.00   0.00  -0.00     0.00   0.00  -0.00
  22   1     0.00   0.00  -0.00    -0.00  -0.00   0.00     0.00   0.00  -0.00
  23   1     0.00  -0.00   0.00    -0.00   0.00  -0.00     0.00  -0.00   0.00
  24   1     0.00   0.00  -0.00     0.00   0.00  -0.00    -0.00  -0.00   0.00
  25   1     0.00   0.00   0.00     0.00   0.00   0.00     0.00   0.00   0.00
  26   1    -0.00   0.00   0.00     0.04  -0.03  -0.03     0.01  -0.01  -0.01
  27   1    -0.00   0.02   0.01     0.02   0.11   0.00     0.05   0.93   0.22
  28   1     0.07  -0.02  -0.10    -0.51   0.17   0.78     0.06  -0.05  -0.10
  29   1     0.00  -0.01   0.02    -0.02   0.04  -0.11     0.04  -0.09   0.08
  30   1     0.00   0.00   0.00    -0.01  -0.02  -0.01    -0.01  -0.04  -0.03
  31   1    -0.00   0.00   0.00    -0.00   0.00   0.00    -0.00   0.00   0.00
                     79                     80                     81
                        a                      a                      a 
 Frequencies --  3059.8108              3063.4929              3067.5518
 Red. masses --     1.7571                 1.7721                 1.8043
 Frc consts  --     0.0000                 0.0000                 0.0000
 IR Inten    --    17.7120                14.8541                50.4607
 Raman Activ --     0.0000                 0.0000                 0.0000
 Depolar     --     0.0000                 0.0000                 0.0000
 Atom AN      X      Y      Z        X      Y      Z        X      Y      Z
   1   6     0.00   0.00  -0.00     0.00   0.00  -0.00    -0.00   0.00   0.00
   2   6     0.00   0.00  -0.00    -0.00   0.00   0.00    -0.00  -0.00  -0.00
   3   7    -0.00  -0.00   0.00     0.00  -0.00   0.00     0.00   0.00  -0.00
   4   6    -0.01   0.00  -0.00     0.00   0.00  -0.00    -0.00  -0.00   0.00
   5   6    -0.09   0.10  -0.03    -0.03   0.04  -0.01    -0.00   0.00  -0.00
   6   6    -0.07  -0.18   0.08    -0.01  -0.02   0.01     0.00   0.00  -0.00
   7   6     0.07   0.01  -0.01    -0.08  -0.01   0.01     0.00   0.00  -0.00
   8   6    -0.01   0.02  -0.01     0.14  -0.17   0.06    -0.00   0.00  -0.00
   9   6     0.00   0.00  -0.00     0.03   0.07  -0.03    -0.00  -0.00   0.00
  10   6    -0.00  -0.00  -0.00     0.00   0.00  -0.00     0.00   0.00   0.00
  11   6     0.00  -0.00  -0.00    -0.00   0.00   0.00     0.01   0.04   0.03
  12   6    -0.00   0.00   0.00     0.00  -0.00  -0.00     0.18  -0.12  -0.12
  13   6    -0.00  -0.00  -0.00     0.00   0.00  -0.00     0.01  -0.00  -0.00
  14   6     0.00   0.00  -0.00    -0.00  -0.00  -0.00     0.01  -0.01  -0.01
  15   6    -0.00  -0.00  -0.00     0.00   0.00   0.00    -0.02  -0.06  -0.05
  16   6    -0.00   0.00   0.00     0.00  -0.00  -0.00    -0.01   0.01   0.01
  17   1    -0.00  -0.00   0.01    -0.00  -0.00   0.00     0.00   0.00  -0.01
  18   1    -0.02  -0.00  -0.00    -0.00   0.00  -0.00     0.00   0.00   0.00
  19   1     0.00  -0.01   0.00     0.00  -0.00   0.00     0.00  -0.01   0.00
  20   1     0.32  -0.37   0.13     0.11  -0.13   0.05     0.00  -0.01   0.00
  21   1     0.27   0.66  -0.29     0.03   0.06  -0.03    -0.00  -0.00   0.00
  22   1    -0.26  -0.03   0.03     0.32   0.04  -0.04    -0.00  -0.00   0.00
  23   1     0.05  -0.06   0.02    -0.52   0.61  -0.21     0.00  -0.00   0.00
  24   1    -0.00  -0.01   0.00    -0.11  -0.26   0.11     0.00   0.00  -0.00
  25   1     0.00   0.00   0.00    -0.00  -0.00  -0.00    -0.04  -0.16  -0.13
  26   1     0.00  -0.00  -0.00    -0.01   0.00   0.00    -0.65   0.44   0.42
  27   1     0.00  -0.00  -0.00     0.00   0.00   0.00     0.00   0.04   0.01
  28   1    -0.00   0.00   0.00     0.00  -0.00  -0.00    -0.03   0.01   0.05
  29   1    -0.00   0.00  -0.00     0.00  -0.00   0.00    -0.00   0.00  -0.01
  30   1     0.00   0.00   0.00    -0.00  -0.00  -0.00     0.06   0.23   0.18
  31   1     0.00  -0.00  -0.00    -0.00   0.00   0.00     0.04  -0.02  -0.02
                     82                     83                     84
                        a                      a                      a 
 Frequencies --  3070.6681              3071.4554              3078.9073
 Red. masses --     1.8079                 1.8498                 1.8541
 Frc consts  --     0.0000                 0.0000                 0.0000
 IR Inten    --    44.1904                97.6970               124.1916
 Raman Activ --     0.0000                 0.0000                 0.0000
 Depolar     --     0.0000                 0.0000                 0.0000
 Atom AN      X      Y      Z        X      Y      Z        X      Y      Z
   1   6    -0.00   0.00   0.00     0.00   0.00  -0.00     0.00  -0.00   0.00
   2   6    -0.00   0.00   0.00     0.00   0.00   0.00     0.00  -0.00  -0.00
   3   7     0.00   0.00   0.00     0.00  -0.00  -0.00     0.00   0.00  -0.00
   4   6    -0.00  -0.00   0.00    -0.01  -0.00   0.00    -0.00  -0.00   0.00
   5   6    -0.01   0.01  -0.00    -0.14   0.16  -0.06     0.04  -0.04   0.01
   6   6     0.00   0.00  -0.00     0.04   0.10  -0.04    -0.03  -0.08   0.04
   7   6     0.00   0.00  -0.00    -0.10  -0.01   0.01    -0.15  -0.02   0.02
   8   6    -0.00   0.00  -0.00    -0.04   0.05  -0.02     0.01  -0.02   0.01
   9   6    -0.00  -0.00   0.00    -0.01  -0.03   0.01    -0.07  -0.18   0.08
  10   6     0.00  -0.00  -0.00    -0.00  -0.00   0.00    -0.00   0.00  -0.00
  11   6     0.00   0.02   0.01    -0.00  -0.00  -0.00     0.00   0.00   0.00
  12   6     0.06  -0.04  -0.04    -0.00   0.00   0.00     0.00  -0.00  -0.00
  13   6     0.01   0.01   0.00    -0.00  -0.00  -0.00     0.00   0.00   0.00
  14   6     0.00   0.01   0.00    -0.00  -0.00  -0.00     0.00  -0.00  -0.00
  15   6     0.05   0.19   0.15    -0.00  -0.01  -0.00     0.00   0.00   0.00
  16   6     0.03  -0.02  -0.02    -0.00   0.00   0.00     0.00  -0.00  -0.00
  17   1     0.00   0.00  -0.00    -0.00  -0.00   0.01     0.00   0.00  -0.00
  18   1     0.01   0.00   0.00    -0.02  -0.00  -0.00    -0.00  -0.00   0.00
  19   1     0.00  -0.00   0.00     0.01  -0.01   0.00    -0.00   0.00  -0.00
  20   1     0.02  -0.02   0.01     0.48  -0.55   0.20    -0.11   0.13  -0.05
  21   1    -0.00  -0.01   0.00    -0.14  -0.34   0.15     0.11   0.26  -0.12
  22   1    -0.00  -0.00   0.00     0.36   0.05  -0.05     0.51   0.06  -0.06
  23   1     0.01  -0.01   0.00     0.14  -0.17   0.06    -0.04   0.05  -0.02
  24   1     0.00   0.01  -0.00     0.04   0.10  -0.04     0.26   0.62  -0.27
  25   1    -0.02  -0.06  -0.05     0.00   0.01   0.00    -0.00  -0.00  -0.00
  26   1    -0.21   0.15   0.14     0.01  -0.01  -0.01    -0.00   0.00   0.00
  27   1    -0.00  -0.04  -0.01     0.00   0.00   0.00     0.00  -0.00  -0.00
  28   1     0.00   0.00  -0.00     0.00  -0.00  -0.00    -0.00   0.00   0.00
  29   1    -0.00   0.01  -0.01     0.00  -0.00   0.00    -0.00   0.00  -0.00
  30   1    -0.19  -0.68  -0.55     0.01   0.02   0.02    -0.00  -0.00  -0.00
  31   1    -0.12   0.08   0.08     0.01  -0.00  -0.00    -0.00   0.00   0.00
                     85                     86                     87
                        a                      a                      a 
 Frequencies --  3086.0624              3094.5410              3100.7126
 Red. masses --     1.9101                 1.8464                 1.8483
 Frc consts  --     0.0000                 0.0000                 0.0000
 IR Inten    --    73.1567                46.8619                15.2172
 Raman Activ --     0.0000                 0.0000                 0.0000
 Depolar     --     0.0000                 0.0000                 0.0000
 Atom AN      X      Y      Z        X      Y      Z        X      Y      Z
   1   6    -0.00   0.00  -0.00     0.00  -0.00  -0.00    -0.00   0.00  -0.00
   2   6     0.00  -0.00  -0.00    -0.00  -0.00  -0.00    -0.00   0.00   0.00
   3   7    -0.00   0.00   0.00     0.00   0.00   0.00     0.00  -0.00  -0.00
   4   6     0.01   0.00  -0.00    -0.00  -0.00   0.00     0.00   0.00  -0.00
   5   6     0.04  -0.04   0.01     0.00  -0.00   0.00     0.00  -0.00   0.00
   6   6    -0.03  -0.07   0.03    -0.00  -0.00   0.00    -0.00  -0.00   0.00
   7   6    -0.17  -0.02   0.02    -0.00  -0.00   0.00    -0.00  -0.00   0.00
   8   6    -0.08   0.09  -0.03    -0.00   0.00  -0.00    -0.00   0.00  -0.00
   9   6     0.06   0.14  -0.06     0.00   0.00  -0.00     0.00   0.00  -0.00
  10   6     0.00   0.00   0.00    -0.01  -0.00  -0.00    -0.01  -0.00  -0.00
  11   6     0.00   0.00   0.00    -0.05  -0.20  -0.16    -0.00  -0.02  -0.01
  12   6     0.00  -0.00  -0.00     0.05  -0.04  -0.03     0.00  -0.00  -0.00
  13   6     0.00   0.00   0.00     0.00   0.00   0.00     0.00  -0.00  -0.00
  14   6     0.00   0.00   0.00     0.00  -0.00  -0.00    -0.00   0.00   0.00
  15   6     0.00   0.00   0.00    -0.00  -0.00  -0.00     0.01   0.04   0.03
  16   6     0.00  -0.00  -0.00     0.02  -0.01  -0.01    -0.20   0.13   0.13
  17   1    -0.00  -0.00   0.00    -0.01  -0.00   0.02    -0.00   0.00  -0.00
  18   1     0.00   0.00  -0.00    -0.01  -0.00  -0.00     0.00   0.00   0.00
  19   1    -0.00   0.00  -0.00    -0.01   0.02  -0.00    -0.00  -0.00   0.00
  20   1    -0.12   0.13  -0.05    -0.00   0.00  -0.00    -0.00   0.01  -0.00
  21   1     0.10   0.23  -0.10     0.00   0.01  -0.00     0.00   0.00  -0.00
  22   1     0.58   0.07  -0.07     0.01   0.00  -0.00     0.01   0.00  -0.00
  23   1     0.26  -0.30   0.11     0.01  -0.01   0.00     0.00  -0.00   0.00
  24   1    -0.20  -0.47   0.20    -0.00  -0.01   0.00    -0.00  -0.00   0.00
  25   1    -0.00  -0.02  -0.01     0.19   0.72   0.57     0.01   0.06   0.05
  26   1    -0.00   0.00   0.00    -0.16   0.11   0.10    -0.02   0.01   0.01
  27   1    -0.00  -0.00  -0.00    -0.00   0.00   0.00    -0.00  -0.00  -0.00
  28   1    -0.00   0.00   0.00    -0.00   0.00   0.01     0.00  -0.00  -0.00
  29   1    -0.00   0.00  -0.00    -0.00   0.00  -0.00    -0.00   0.00   0.00
  30   1    -0.00  -0.01  -0.01     0.00   0.00   0.00    -0.03  -0.13  -0.10
  31   1    -0.01   0.00   0.00    -0.06   0.04   0.04     0.70  -0.46  -0.44
