      -----------------------------------------------------------      
     |                   =====================                   |     
     |                           x T B                           |     
     |                   =====================                   |     
     |                         S. Grimme                         |     
     |          Mulliken Center for Theoretical Chemistry        |     
     |                    University of Bonn                     |     
      -----------------------------------------------------------      

   * xtb version 6.7.1 (edcfbbe) compiled by 'VssAdministrator@runnervm171ch' on 2026-06-10

   xtb is free software: you can redistribute it and/or modify it under
   the terms of the GNU Lesser General Public License as published by
   the Free Software Foundation, either version 3 of the License, or
   (at your option) any later version.
   
   xtb is distributed in the hope that it will be useful,
   but WITHOUT ANY WARRANTY; without even the implied warranty of
   MERCHANTABILITY or FITNESS FOR A PARTICULAR PURPOSE.  See the
   GNU Lesser General Public License for more details.
   
   Cite this work as:
   * C. Bannwarth, E. Caldeweyher, S. Ehlert, A. Hansen, P. Pracht,
     J. Seibert, S. Spicher, S. Grimme, WIREs Comput. Mol. Sci., 2020, 11,
     e01493. DOI: 10.1002/wcms.1493
   
   for GFN2-xTB:
   * C. Bannwarth, S. Ehlert and S. Grimme., J. Chem. Theory Comput., 2019,
     15, 1652-1671. DOI: 10.1021/acs.jctc.8b01176
   for GFN1-xTB:
   * S. Grimme, C. Bannwarth, P. Shushkov, J. Chem. Theory Comput., 2017,
     13, 1989-2009. DOI: 10.1021/acs.jctc.7b00118
   for GFN0-xTB:
   * P. Pracht, E. Caldeweyher, S. Ehlert, S. Grimme, ChemRxiv, 2019, preprint.
     DOI: 10.26434/chemrxiv.8326202.v1
   for GFN-FF:
   * S. Spicher and S. Grimme, Angew. Chem. Int. Ed., 2020, 59, 15665-15673.
     DOI: 10.1002/anie.202004239
   
   for ALPB and GBSA implicit solvation:
   * S. Ehlert, M. Stahn, S. Spicher, S. Grimme, J. Chem. Theory Comput.,
     2021, 17, 4250-4261. DOI: 10.1021/acs.jctc.1c00471
   
   for ddCOSMO and CPCM-X implicit solvation:
   * M. Stahn, S. Ehlert, S. Grimme, J. Phys. Chem. A,
     2023, XX, XXXX-XXXX. DOI: 10.1021/acs.jpca.3c04382
   
   for DFT-D4:
   * E. Caldeweyher, C. Bannwarth and S. Grimme, J. Chem. Phys., 2017,
     147, 034112. DOI: 10.1063/1.4993215
   * E. Caldeweyher, S. Ehlert, A. Hansen, H. Neugebauer, S. Spicher,
     C. Bannwarth and S. Grimme, J. Chem. Phys., 2019, 150, 154122.
     DOI: 10.1063/1.5090222
   * E. Caldeweyher, J.-M. Mewes, S. Ehlert and S. Grimme, Phys. Chem. Chem. Phys.
     2020, 22, 8499-8512. DOI: 10.1039/D0CP00502A
   
   for sTDA-xTB:
   * S. Grimme and C. Bannwarth, J. Chem. Phys., 2016, 145, 054103.
     DOI: 10.1063/1.4959605
   
   in the mass-spec context:
   * V. Asgeirsson, C. Bauer and S. Grimme, Chem. Sci., 2017, 8, 4879.
     DOI: 10.1039/c7sc00601b
   * J. Koopman and S. Grimme, ACS Omega 2019, 4, 12, 15120-15133.
     DOI: 10.1021/acsomega.9b02011
   
   for metadynamics refer to:
   * S. Grimme, J. Chem. Theory Comput., 2019, 155, 2847-2862
     DOI: 10.1021/acs.jctc.9b00143
   
   for SPH calculations refer to:
   * S. Spicher and S. Grimme, J. Chem. Theory Comput., 2021, 17, 1701-1714
     DOI: 10.1021/acs.jctc.0c01306
   
   for ONIOM refer to:
   * C. Plett, A. Katbashev, S. Ehlert, S. Grimme, M. Bursch,
     Phys. Chem. Chem. Phys., 2023, 25, 17860-17868. DOI: 10.1039/D3CP02178E
   
   for DIPRO refer to:
   * J. Kohn, N. Gildemeister, S. Grimme, D. Fazzi, A. Hansen,
     J. Chem. Phys., 2023, just accepted.
   
   for PTB refer to:
   * S. Grimme, M. Mueller, A. Hansen, J. Chem. Phys., 2023, 158, 124111.
     DOI: 10.1063/5.0137838
   
   with help from (in alphabetical order)
   P. Atkinson, C. Bannwarth, F. Bohle, G. Brandenburg, E. Caldeweyher
   M. Checinski, S. Dohm, S. Ehlert, S. Ehrlich, I. Gerasimov, C. Hölzer
   A. Katbashev, J. Kohn, J. Koopman, C. Lavigne, S. Lehtola, F. März, M. Müller,
   F. Musil, H. Neugebauer, J. Pisarek, C. Plett, P. Pracht, F. Pultar,
   J. Seibert, P. Shushkov, S. Spicher, M. Stahn, M. Steiner, T. Strunk,
   J. Stückrath, T. Rose, and J. Unsleber
   
 * started run on 2026/09/10 at 23:01:19.437     
   ID    Z sym.   atoms
    1    6 C      1, 2, 4-16
    2    7 N      3
    3    1 H      17-31

           -------------------------------------------------
          |                Calculation Setup                |
           -------------------------------------------------

          program call               : C:\Users\HUIWEI\miniconda3\envs\phase2ff\Library\bin\xtb.exe xtbopt.xyz --gfn 2 --chrg 0 --uhf 0 --alpb toluene --acc 0.2 --hess --strict
          coordinate file            : xtbopt.xyz
          omp threads                :                     1


           -------------------------------------------------
          |                 G F N 2 - x T B                 |
           -------------------------------------------------

        Reference                      10.1021/acs.jctc.8b01176
      * Hamiltonian:
        H0-scaling (s, p, d)           1.850000    2.230000    2.230000
        zeta-weighting                 0.500000
      * Dispersion:
        s8                             2.700000
        a1                             0.520000
        a2                             5.000000
        s9                             5.000000
      * Repulsion:
        kExp                           1.500000    1.000000
        rExp                           1.000000
      * Coulomb:
        alpha                          2.000000
        third order                    shell-resolved
        anisotropic                    true
        a3                             3.000000
        a5                             4.000000
        cn-shift                       1.200000
        cn-exp                         4.000000
        max-rad                        5.000000

      * Solvation model:               ALPB
        Solvent                        toluene
        Parameter file                 internal GFN2-xTB/ALPB
        Dielectric constant                7.0000E+00
        Reference state                gsolv [1 M gas/solution]
        Free energy shift                  2.2081E-03 Eh       1.3856E+00 kcal/mol
        Temperature                        2.9815E+02 K
        Density                            8.6700E-01 kg/L
        Solvent mass                       7.8110E+01 g/mol
        Interaction kernel             P16
        Born radius scaling (c1)           1.7172E+00
        Born radii integrator          GBOBC
        Born offset                        0.0000E+00 a0       0.0000E+00 AA
        H-bond correction              false
        Ion screening                  false
        Surface tension                    1.0000E-05 Eh       1.5569E+01 dyn/cm
        Grid points                               230 per atom
q/qsh data taken from xtbrestart
CAMM data taken from xtbrestart

          ...................................................
          :                      SETUP                      :
          :.................................................:
          :  # basis functions                  79          :
          :  # atomic orbitals                  79          :
          :  # shells                           47          :
          :  # electrons                        80          :
          :  max. iterations                   250          :
          :  Hamiltonian                  GFN2-xTB          :
          :  restarted?                       true          :
          :  GBSA solvation                   true          :
          :  PC potential                    false          :
          :  electronic temp.          300.0000000     K    :
          :  accuracy                    0.2000000          :
          :  -> integral cutoff          0.3198970E+02      :
          :  -> integral neglect         0.2000000E-08      :
          :  -> SCF convergence          0.2000000E-06 Eh   :
          :  -> wf. convergence          0.2000000E-04 e    :
          :  Broyden damping             0.4000000          :
          :  net charge                          0          :
          :  unpaired electrons                  0          :
          ...................................................

 iter      E             dE          RMSdq      gap      omega  full diag
   1    -43.4729677 -0.434730E+02  0.574E-07    2.43       0.0  T
   2    -43.4729677  0.156319E-12  0.411E-07    2.43   43673.6  T
   3    -43.4729677 -0.994760E-13  0.132E-07    2.43  100000.0  T

   *** convergence criteria satisfied after 3 iterations ***

         #    Occupation            Energy/Eh            Energy/eV
      -------------------------------------------------------------
         1        2.0000           -0.6498497             -17.6833
       ...           ...                  ...                  ...
        34        2.0000           -0.4174475             -11.3593
        35        2.0000           -0.4129631             -11.2373
        36        2.0000           -0.4066145             -11.0645
        37        2.0000           -0.4040596             -10.9950
        38        2.0000           -0.3950909             -10.7510
        39        2.0000           -0.3859250             -10.5016
        40        2.0000           -0.3524744              -9.5913 (HOMO)
        41                         -0.2632038              -7.1621 (LUMO)
        42                         -0.2210569              -6.0153
        43                         -0.2127611              -5.7895
        44                         -0.2055083              -5.5922
        45                         -0.1793168              -4.8795
       ...                                ...                  ...
        79                          0.7038017              19.1514
      -------------------------------------------------------------
                  HL-Gap            0.0892706 Eh            2.4292 eV
             Fermi-level           -0.3078391 Eh           -8.3767 eV

 SCC (total)                   0 d,  0 h,  0 min,  0.031 sec
 SCC setup                      ...        0 min,  0.001 sec (  3.346%)
 Dispersion                     ...        0 min,  0.000 sec (  1.099%)
 classical contributions        ...        0 min,  0.000 sec (  0.268%)
 integral evaluation            ...        0 min,  0.005 sec ( 16.989%)
 iterations                     ...        0 min,  0.007 sec ( 21.151%)
 molecular gradient             ...        0 min,  0.018 sec ( 56.135%)
 printout                       ...        0 min,  0.000 sec (  0.944%)

         :::::::::::::::::::::::::::::::::::::::::::::::::::::
         ::                     SUMMARY                     ::
         :::::::::::::::::::::::::::::::::::::::::::::::::::::
         :: total energy             -42.686276537160 Eh    ::
         :: total w/o Gsasa/hb       -42.667816201576 Eh    ::
         :: gradient norm              0.000021489643 Eh/a0 ::
         :: HOMO-LUMO gap              2.429176084283 eV    ::
         ::.................................................::
         :: SCC energy               -43.473123150562 Eh    ::
         :: -> isotropic ES            0.011341720492 Eh    ::
         :: -> anisotropic ES          0.006343597171 Eh    ::
         :: -> anisotropic XC          0.031001627671 Eh    ::
         :: -> dispersion             -0.029877024057 Eh    ::
         :: -> Gsolv                  -0.018838921379 Eh    ::
         ::    -> Gelec               -0.000378585795 Eh    ::
         ::    -> Gsasa               -0.020668478722 Eh    ::
         ::    -> Ghb                  0.000000000000 Eh    ::
         ::    -> Gshift               0.002208143139 Eh    ::
         :: repulsion energy           0.786846613403 Eh    ::
         :: add. restraining           0.000000000000 Eh    ::
         :: total charge              -0.000000000000 e     ::
         :::::::::::::::::::::::::::::::::::::::::::::::::::::

           ------------------------------------------------- 
          |                Numerical Hessian                |
           ------------------------------------------------- 
step length          :   0.00500
SCC accuracy         :   0.30000
Hessian scale factor :   1.00000
frozen atoms in %    :   0.00000    0
RMS gradient         :   0.00002
estimated CPU  time      0.02 min
estimated wall time      0.10 min

writing file <hessian>.

 projected vibrational frequencies (cm⁻¹)
eigval :       -0.00    -0.00    -0.00    -0.00     0.00     0.00
eigval :       23.33    29.36    41.57    46.60    62.03   107.52
eigval :      156.00   202.70   239.65   253.70   271.62   336.06
eigval :      368.39   369.77   390.38   423.55   463.32   493.51
eigval :      506.83   548.31   588.29   598.89   609.84   657.86
eigval :      673.49   715.84   768.46   803.79   815.99   852.41
eigval :      867.26   870.00   879.41   917.81   921.59   923.92
eigval :      931.06   971.39   992.03  1002.41  1009.52  1013.52
eigval :     1029.14  1079.10  1096.09  1113.80  1144.59  1177.88
eigval :     1187.78  1201.33  1236.15  1250.46  1276.76  1279.26
eigval :     1304.84  1316.20  1330.40  1377.24  1402.60  1408.08
eigval :     1432.60  1464.47  1475.90  1477.16  1478.58  1479.85
eigval :     1493.03  1566.99  1570.49  1592.47  1599.74  1699.86
eigval :     2991.68  3007.53  3020.82  3032.43  3033.04  3036.29
eigval :     3059.81  3063.49  3067.55  3070.67  3071.46  3078.91
eigval :     3086.06  3094.54  3100.71
           -------------------------------------------------
          |                Property Printout                |
           -------------------------------------------------

    * Orbital Energies and Occupations

         #    Occupation            Energy/Eh            Energy/eV
      -------------------------------------------------------------
         1        2.0000           -0.6498497             -17.6833
       ...           ...                  ...                  ...
        28        2.0000           -0.4647815             -12.6473
        29        2.0000           -0.4598984             -12.5145
        30        2.0000           -0.4573333             -12.4447
        31        2.0000           -0.4401193             -11.9763
        32        2.0000           -0.4305171             -11.7150
        33        2.0000           -0.4280921             -11.6490
        34        2.0000           -0.4174475             -11.3593
        35        2.0000           -0.4129631             -11.2373
        36        2.0000           -0.4066145             -11.0645
        37        2.0000           -0.4040596             -10.9950
        38        2.0000           -0.3950909             -10.7510
        39        2.0000           -0.3859250             -10.5016
        40        2.0000           -0.3524744              -9.5913 (HOMO)
        41                         -0.2632038              -7.1621 (LUMO)
        42                         -0.2210569              -6.0153
        43                         -0.2127611              -5.7895
        44                         -0.2055083              -5.5922
        45                         -0.1793168              -4.8795
        46                         -0.0830881              -2.2609
        47                         -0.0779497              -2.1211
        48                          0.0782717               2.1299
        49                          0.1054846               2.8704
        50                          0.1135497               3.0898
        51                          0.1326170               3.6087
       ...                                ...                  ...
        79                          0.7038017              19.1514
      -------------------------------------------------------------
                  HL-Gap            0.0892706 Eh            2.4292 eV
             Fermi-level           -0.3078391 Eh           -8.3767 eV

     #   Z          covCN         q      C6AA      α(0)
     1   6 C        3.755    -0.116    22.768     6.804
     2   6 C        2.898     0.112    25.538     8.286
     3   7 N        1.848    -0.217    26.567     7.639
     4   6 C        2.922     0.085    26.116     8.381
     5   6 C        2.922    -0.051    29.278     8.873
     6   6 C        2.918    -0.032    28.799     8.800
     7   6 C        2.919    -0.043    29.065     8.841
     8   6 C        2.919    -0.032    28.787     8.798
     9   6 C        2.924    -0.049    29.215     8.864
    10   6 C        2.982    -0.002    28.074     8.691
    11   6 C        2.921    -0.034    28.845     8.807
    12   6 C        2.923    -0.041    29.007     8.832
    13   6 C        2.966     0.023    27.499     8.602
    14   6 C        3.757    -0.111    22.673     6.789
    15   6 C        2.922    -0.038    28.942     8.822
    16   6 C        2.924    -0.028    28.691     8.784
    17   1 H        0.925     0.052     2.300     2.371
    18   1 H        0.925     0.043     2.408     2.427
    19   1 H        0.925     0.054     2.274     2.358
    20   1 H        0.925     0.022     2.702     2.570
    21   1 H        0.925     0.023     2.682     2.561
    22   1 H        0.926     0.022     2.708     2.573
    23   1 H        0.926     0.025     2.665     2.553
    24   1 H        0.926     0.028     2.614     2.528
    25   1 H        0.926     0.038     2.482     2.464
    26   1 H        0.925     0.034     2.537     2.491
    27   1 H        0.925     0.047     2.360     2.403
    28   1 H        0.925     0.047     2.360     2.403
    29   1 H        0.924     0.053     2.287     2.365
    30   1 H        0.926     0.035     2.511     2.478
    31   1 H        0.926     0.053     2.285     2.364

 Mol. C6AA /au·bohr⁶  :      11522.439433
 Mol. C8AA /au·bohr⁸  :     279790.314936
 Mol. α(0) /au        :        171.522521


Wiberg/Mayer (AO) data.
largest (>0.10) Wiberg bond orders for each atom

 ---------------------------------------------------------------------------
     #   Z sym  total        # sym  WBO       # sym  WBO       # sym  WBO
 ---------------------------------------------------------------------------
     1   6 C    3.996 --     2 C    1.006    18 H    0.982    17 H    0.970
                            19 H    0.964
     2   6 C    3.965 --     3 N    1.760    10 C    1.063     1 C    1.006
     3   7 N    3.226 --     2 C    1.760     4 C    1.140
     4   6 C    3.976 --     9 C    1.341     5 C    1.338     3 N    1.140
     5   6 C    3.984 --     6 C    1.457     4 C    1.338    20 H    0.971
                             8 C    0.103
     6   6 C    3.992 --     5 C    1.457     7 C    1.431    21 H    0.970
                             9 C    0.105
     7   6 C    3.989 --     6 C    1.431     8 C    1.424    22 H    0.972
     8   6 C    3.992 --     9 C    1.465     7 C    1.424    23 H    0.971
                             5 C    0.103
     9   6 C    3.986 --     8 C    1.465     4 C    1.341    24 H    0.971
                             6 C    0.105
    10   6 C    3.988 --    11 C    1.380    16 C    1.367     2 C    1.063
    11   6 C    3.986 --    12 C    1.460    10 C    1.380    25 H    0.967
                            15 C    0.101
    12   6 C    3.991 --    11 C    1.460    13 C    1.403    26 H    0.969
                            16 C    0.103
    13   6 C    3.984 --    12 C    1.403    15 C    1.395    14 C    1.029
    14   6 C    3.995 --    13 C    1.029    27 H    0.981    28 H    0.981
                            29 H    0.964
    15   6 C    3.992 --    16 C    1.472    13 C    1.395    30 H    0.969
                            11 C    0.101
    16   6 C    3.989 --    15 C    1.472    10 C    1.367    31 H    0.966
                            12 C    0.103
    17   1 H    0.997 --     1 C    0.970
    18   1 H    0.998 --     1 C    0.982
    19   1 H    0.997 --     1 C    0.964
    20   1 H    0.999 --     5 C    0.971
    21   1 H    0.999 --     6 C    0.970
    22   1 H    0.999 --     7 C    0.972
    23   1 H    0.998 --     8 C    0.971
    24   1 H    0.999 --     9 C    0.971
    25   1 H    0.998 --    11 C    0.967
    26   1 H    0.998 --    12 C    0.969
    27   1 H    0.997 --    14 C    0.981
    28   1 H    0.997 --    14 C    0.981
    29   1 H    0.995 --    14 C    0.964
    30   1 H    0.998 --    15 C    0.969
    31   1 H    0.997 --    16 C    0.966
 ---------------------------------------------------------------------------

Topologies differ in total number of bonds
Writing topology from bond orders to xtbtopo.mol

molecular dipole:
                 x           y           z       tot (Debye)
 q only:        1.169      -0.083      -0.322
   full:        1.087      -0.329      -0.501       3.156
molecular quadrupole (traceless):
                xx          xy          yy          xz          yz          zz
 q only:        2.317       1.799      -0.427       1.463       2.028      -1.890
  q+dip:        5.440       1.709       0.470       0.833       2.732      -5.910
   full:        3.028       1.807       0.013       1.522       1.633      -3.041

           -------------------------------------------------
          |               Frequency Printout                |
           -------------------------------------------------
 projected vibrational frequencies (cm⁻¹)
eigval :       -0.00    -0.00    -0.00    -0.00     0.00     0.00
eigval :       23.33    29.36    41.57    46.60    62.03   107.52
eigval :      156.00   202.70   239.65   253.70   271.62   336.06
eigval :      368.39   369.77   390.38   423.55   463.32   493.51
eigval :      506.83   548.31   588.29   598.89   609.84   657.86
eigval :      673.49   715.84   768.46   803.79   815.99   852.41
eigval :      867.26   870.00   879.41   917.81   921.59   923.92
eigval :      931.06   971.39   992.03  1002.41  1009.52  1013.52
eigval :     1029.14  1079.10  1096.09  1113.80  1144.59  1177.88
eigval :     1187.78  1201.33  1236.15  1250.46  1276.76  1279.26
eigval :     1304.84  1316.20  1330.40  1377.24  1402.60  1408.08
eigval :     1432.60  1464.47  1475.90  1477.16  1478.58  1479.85
eigval :     1493.03  1566.99  1570.49  1592.47  1599.74  1699.86
eigval :     2991.68  3007.53  3020.82  3032.43  3033.04  3036.29
eigval :     3059.81  3063.49  3067.55  3070.67  3071.46  3078.91
eigval :     3086.06  3094.54  3100.71
 reduced masses (amu)
   1: 10.19   2: 10.73   3: 10.70   4: 11.24   5: 11.20   6: 11.04   7:  5.52   8:  5.23
   9: 10.03  10: 10.53  11: 10.40  12: 10.00  13: 10.36  14:  1.74  15: 10.16  16: 10.11
  17:  9.52  18:  9.10  19:  8.92  20:  9.06  21:  9.93  22:  9.89  23: 10.15  24: 10.90
  25: 10.56  26:  9.09  27: 11.24  28: 11.27  29: 11.29  30: 10.07  31: 10.39  32:  7.70
  33:  6.95  34:  4.39  35: 10.98  36: 10.72  37:  3.30  38:  3.38  39:  3.92  40:  3.00
  41:  3.96  42:  2.76  43:  3.92  44:  9.74  45:  5.59  46:  7.88  47:  7.68  48:  5.53
  49:  4.71  50:  6.65  51:  7.44  52:  4.05  53:  2.89  54:  1.38  55:  2.17  56:  2.10
  57:  7.83  58:  9.55  59:  4.03  60:  3.65  61: 10.61  62: 11.37  63: 11.56  64:  3.27
  65:  3.19  66:  9.67  67:  9.02  68:  8.71  69:  1.78  70:  2.42  71:  1.92  72:  1.76
  73:  8.88  74: 11.42  75: 11.42  76: 11.48  77: 11.49  78: 12.78  79:  1.80  80:  1.86
  81:  1.67  82:  1.61  83:  1.74  84:  1.60  85:  1.76  86:  1.77  87:  1.80  88:  1.81
  89:  1.85  90:  1.85  91:  1.91  92:  1.85  93:  1.85
 IR intensities (km·mol⁻¹)
   1:  0.19   2:  0.10   3:  0.23   4:  0.02   5:  0.04   6:  0.15   7:  0.32   8:  0.32
   9:  0.16  10:  1.57  11:  1.50  12:  0.54  13:  1.77  14:  0.83  15:  0.57  16:  0.12
  17:  0.58  18:  0.11  19:  0.12  20:  1.45  21:  2.04  22:  2.49  23:  5.67  24:  1.83
  25:  0.47  26:  5.38  27:  2.92  28:  7.04  29:  0.39  30:  0.22  31:  1.12  32: 25.08
  33: 23.48  34: 15.79  35: 29.05  36:  0.58  37:  1.96  38:  1.11  39:  1.48  40:  0.01
  41:  0.41  42:  0.02  43:  0.33  44:  6.30  45:  9.12  46:  5.26  47:  7.88  48: 11.38
  49: 17.27  50:  0.25  51: 18.52  52:  0.60  53:  9.18  54:  0.40  55: 21.67  56: 47.25
Molecule has no symmetry elements
It seems to be the C1 point group
  57: 26.43  58:194.83  59:  3.02  60: 14.85  61: 53.28  62:  4.70  63:  4.65  64: 19.36
  65:  4.40  66:  7.27  67:  6.36  68: 19.48  69:  8.33  70: 13.73  71:  5.70  72:  2.78
  73:  0.63  74:  2.59  75:  3.22  76:194.02  77: 19.41  78:262.45  79: 26.01  80: 15.72
  81: 20.83  82: 26.30  83: 23.08  84: 23.38  85: 17.71  86: 14.85  87: 50.46  88: 44.19
  89: 97.70  90:124.19  91: 73.16  92: 46.86  93: 15.22
 Raman intensities (Ä⁴*amu⁻¹)
   1:  0.00   2:  0.00   3:  0.00   4:  0.00   5:  0.00   6:  0.00   7:  0.00   8:  0.00
   9:  0.00  10:  0.00  11:  0.00  12:  0.00  13:  0.00  14:  0.00  15:  0.00  16:  0.00
  17:  0.00  18:  0.00  19:  0.00  20:  0.00  21:  0.00  22:  0.00  23:  0.00  24:  0.00
  25:  0.00  26:  0.00  27:  0.00  28:  0.00  29:  0.00  30:  0.00  31:  0.00  32:  0.00
  33:  0.00  34:  0.00  35:  0.00  36:  0.00  37:  0.00  38:  0.00  39:  0.00  40:  0.00
  41:  0.00  42:  0.00  43:  0.00  44:  0.00  45:  0.00  46:  0.00  47:  0.00  48:  0.00
  49:  0.00  50:  0.00  51:  0.00  52:  0.00  53:  0.00  54:  0.00  55:  0.00  56:  0.00
  57:  0.00  58:  0.00  59:  0.00  60:  0.00  61:  0.00  62:  0.00  63:  0.00  64:  0.00
  65:  0.00  66:  0.00  67:  0.00  68:  0.00  69:  0.00  70:  0.00  71:  0.00  72:  0.00
  73:  0.00  74:  0.00  75:  0.00  76:  0.00  77:  0.00  78:  0.00  79:  0.00  80:  0.00
  81:  0.00  82:  0.00  83:  0.00  84:  0.00  85:  0.00  86:  0.00  87:  0.00  88:  0.00
  89:  0.00  90:  0.00  91:  0.00  92:  0.00  93:  0.00
 output can be read by thermo (or use thermo option).
 writing <g98.out> molden fake output.
 recommended (thermochemical) frequency scaling factor: 1.0
           -------------------------------------------------
          |             Thermodynamic Functions             |
           -------------------------------------------------

c1  symmetry found (for desy threshold:  0.10E+00) used in thermo

          ...................................................
          :                      SETUP                      :
          :.................................................:
          :  # frequencies                          87      :
          :  # imaginary freq.                       0      :
          :  linear?                             false      :
          :  only rotor calc.                    false      :
          :  symmetry                               c1      :
          :  rotational number                       1      :
          :  scaling factor                  1.0000000      :
          :  rotor cutoff                   50.0000000 cm⁻¹ :
          :  imag. cutoff                  -20.0000000 cm⁻¹ :
          :.................................................:

    mode    ω/cm⁻¹     T·S(HO)/kcal·mol⁻¹    T·S(FR)/kcal·mol⁻¹   T·S(vib)
   ------------------------------------------------------------------------
       1     23.33    -1.88689 (  4.52%)    -1.28228 ( 95.48%)    -1.30963
       2     29.36    -1.75085 ( 10.62%)    -1.21420 ( 89.38%)    -1.27120
       3     41.57    -1.54532 ( 32.32%)    -1.11121 ( 67.68%)    -1.25152
       4     46.60    -1.47778 ( 43.01%)    -1.07732 ( 56.99%)    -1.24957
       5     62.03    -1.30937 ( 70.31%)    -0.99265 ( 29.69%)    -1.21534
       6    107.52    -0.98786 ( 95.53%)    -0.82972 (  4.47%)    -0.98079
       7    156.00    -0.77452 ( 98.96%)    -0.71946 (  1.04%)    -0.77394
       8    202.70    -0.62862 ( 99.63%)    -0.64188 (  0.37%)    -0.62867
       9    239.65    -0.53830 ( 99.81%)    -0.59228 (  0.19%)    -0.53840
      10    253.70    -0.50827 ( 99.85%)    -0.57541 (  0.15%)    -0.50837
      11    271.62    -0.47282 ( 99.89%)    -0.55518 (  0.11%)    -0.47292
   ------------------------------------------------------------------------

   temp. (K)  partition function   enthalpy   heat capacity  entropy
                                   cal/mol     cal/K/mol   cal/K/mol   J/K/mol
 298.15  VIB  0.990E+06             7677.468     47.952     47.552
         ROT  0.304E+07              888.752      2.981     32.644
Note: The following floating-point exceptions are signalling: IEEE_DIVIDE_BY_ZERO IEEE_UNDERFLOW_FLAG IEEE_DENORMAL
normal termination of xtb
         INT  0.301E+13             8566.220     50.932     80.196
         TR   0.293E+28             1481.254      4.968     41.900
         TOT                       10047.4743    55.9006   122.0961   510.8499

       T/K    H(0)-H(T)+PV         H(T)/Eh          T*S/Eh         G(T)/Eh
   ------------------------------------------------------------------------
    298.15    0.160117E-01    0.266785E+00    0.580118E-01    0.208773E+00
   ------------------------------------------------------------------------

         :::::::::::::::::::::::::::::::::::::::::::::::::::::
         ::                  THERMODYNAMIC                  ::
         :::::::::::::::::::::::::::::::::::::::::::::::::::::
         :: total free energy         -42.477503188611 Eh   ::
         ::.................................................::
         :: total energy              -42.686276537027 Eh   ::
         :: zero point energy           0.250773452852 Eh   ::
         :: G(RRHO) w/o ZPVE           -0.042000104436 Eh   ::
         :: G(RRHO) contrib.            0.208773348416 Eh   ::
         :::::::::::::::::::::::::::::::::::::::::::::::::::::

           -------------------------------------------------
          | TOTAL ENERGY              -42.686276537027 Eh   |
          | TOTAL ENTHALPY            -42.419491414706 Eh   |
          | TOTAL FREE ENERGY         -42.477503188611 Eh   |
          | GRADIENT NORM               0.000021494525 Eh/α |
          | HOMO-LUMO GAP               2.429175584061 eV   |
           -------------------------------------------------

------------------------------------------------------------------------
 * finished run on 2026/09/10 at 23:01:25.032     
------------------------------------------------------------------------
 total:
 * wall-time:     0 d,  0 h,  0 min,  5.595 sec
 *  cpu-time:     0 d,  0 h,  0 min,  1.047 sec
 * ratio c/w:     0.187 speedup
 SCF:
 * wall-time:     0 d,  0 h,  0 min,  0.032 sec
 *  cpu-time:     0 d,  0 h,  0 min,  0.000 sec
 * ratio c/w:     0.000 speedup
 analytical hessian:
 * wall-time:     0 d,  0 h,  0 min,  5.515 sec
 *  cpu-time:     0 d,  0 h,  0 min,  1.047 sec
 * ratio c/w:     0.190 speedup

