31
Imaginary-mode displacement from audited xTB minimum candidate
C -0.548617754438 -1.402481883641 -1.612164900137
C -0.202497458632 -0.371640948481 -0.569316069272
N -1.061014841611 0.215532488967 0.156637406231
C -2.411232088283 -0.020879162738 0.227350046261
C -2.916758494485 -1.212931161322 0.755808959801
C -4.276357197782 -1.373256932116 0.938750747681
C -5.156459333851 -0.362046153677 0.589470150773
C -4.662423902037 0.823025065952 0.065888439891
C -3.304602473026 1.001750216256 -0.104895872170
C 1.206641815275 0.007654596520 -0.395746566722
C 2.248166154971 -0.665026059602 -1.037225221573
C 3.559564517101 -0.280222450759 -0.840213445053
C 3.881043337878 0.785102794566 -0.004485496221
C 5.313235085358 1.162621883807 0.218387664676
C 2.844341462134 1.455282450867 0.634904484757
C 1.531778099062 1.073841725290 0.445556955654
H -0.122930081591 -1.111049782913 -2.579173510517
H -1.632219539509 -1.472994447563 -1.721516139340
H -0.155593799764 -2.368927938586 -1.336809047915
H -2.228347975953 -2.001304260970 1.030420127940
H -4.654595045779 -2.302026091761 1.344719588970
H -6.219734528285 -0.494130358384 0.725656852941
H -5.341050166232 1.619668876125 -0.202290675098
H -2.911907113551 1.924951273022 -0.504257451036
H 2.041662134436 -1.494807042969 -1.698918413304
H 4.350196370508 -0.814165977169 -1.354434072476
H 5.383322605683 2.230415768971 0.500876805663
H 5.909439835222 0.993535712234 -0.683895809209
H 5.735342976115 0.567810640027 1.037053110314
H 3.075430560363 2.274352461413 1.297524542363
H 0.733364208641 1.589324630159 0.952854422286
