      -----------------------------------------------------------      
     |                   =====================                   |     
     |                           x T B                           |     
     |                   =====================                   |     
     |                         S. Grimme                         |     
     |          Mulliken Center for Theoretical Chemistry        |     
     |                    University of Bonn                     |     
      -----------------------------------------------------------      

   * xtb version 6.7.1 (edcfbbe) compiled by 'VssAdministrator@runnervm171ch' on 2026-06-10

   xtb is free software: you can redistribute it and/or modify it under
   the terms of the GNU Lesser General Public License as published by
   the Free Software Foundation, either version 3 of the License, or
   (at your option) any later version.
   
   xtb is distributed in the hope that it will be useful,
   but WITHOUT ANY WARRANTY; without even the implied warranty of
   MERCHANTABILITY or FITNESS FOR A PARTICULAR PURPOSE.  See the
   GNU Lesser General Public License for more details.
   
   Cite this work as:
   * C. Bannwarth, E. Caldeweyher, S. Ehlert, A. Hansen, P. Pracht,
     J. Seibert, S. Spicher, S. Grimme, WIREs Comput. Mol. Sci., 2020, 11,
     e01493. DOI: 10.1002/wcms.1493
   
   for GFN2-xTB:
   * C. Bannwarth, S. Ehlert and S. Grimme., J. Chem. Theory Comput., 2019,
     15, 1652-1671. DOI: 10.1021/acs.jctc.8b01176
   for GFN1-xTB:
   * S. Grimme, C. Bannwarth, P. Shushkov, J. Chem. Theory Comput., 2017,
     13, 1989-2009. DOI: 10.1021/acs.jctc.7b00118
   for GFN0-xTB:
   * P. Pracht, E. Caldeweyher, S. Ehlert, S. Grimme, ChemRxiv, 2019, preprint.
     DOI: 10.26434/chemrxiv.8326202.v1
   for GFN-FF:
   * S. Spicher and S. Grimme, Angew. Chem. Int. Ed., 2020, 59, 15665-15673.
     DOI: 10.1002/anie.202004239
   
   for ALPB and GBSA implicit solvation:
   * S. Ehlert, M. Stahn, S. Spicher, S. Grimme, J. Chem. Theory Comput.,
     2021, 17, 4250-4261. DOI: 10.1021/acs.jctc.1c00471
   
   for ddCOSMO and CPCM-X implicit solvation:
   * M. Stahn, S. Ehlert, S. Grimme, J. Phys. Chem. A,
     2023, XX, XXXX-XXXX. DOI: 10.1021/acs.jpca.3c04382
   
   for DFT-D4:
   * E. Caldeweyher, C. Bannwarth and S. Grimme, J. Chem. Phys., 2017,
     147, 034112. DOI: 10.1063/1.4993215
   * E. Caldeweyher, S. Ehlert, A. Hansen, H. Neugebauer, S. Spicher,
     C. Bannwarth and S. Grimme, J. Chem. Phys., 2019, 150, 154122.
     DOI: 10.1063/1.5090222
   * E. Caldeweyher, J.-M. Mewes, S. Ehlert and S. Grimme, Phys. Chem. Chem. Phys.
     2020, 22, 8499-8512. DOI: 10.1039/D0CP00502A
   
   for sTDA-xTB:
   * S. Grimme and C. Bannwarth, J. Chem. Phys., 2016, 145, 054103.
     DOI: 10.1063/1.4959605
   
   in the mass-spec context:
   * V. Asgeirsson, C. Bauer and S. Grimme, Chem. Sci., 2017, 8, 4879.
     DOI: 10.1039/c7sc00601b
   * J. Koopman and S. Grimme, ACS Omega 2019, 4, 12, 15120-15133.
     DOI: 10.1021/acsomega.9b02011
   
   for metadynamics refer to:
   * S. Grimme, J. Chem. Theory Comput., 2019, 155, 2847-2862
     DOI: 10.1021/acs.jctc.9b00143
   
   for SPH calculations refer to:
   * S. Spicher and S. Grimme, J. Chem. Theory Comput., 2021, 17, 1701-1714
     DOI: 10.1021/acs.jctc.0c01306
   
   for ONIOM refer to:
   * C. Plett, A. Katbashev, S. Ehlert, S. Grimme, M. Bursch,
     Phys. Chem. Chem. Phys., 2023, 25, 17860-17868. DOI: 10.1039/D3CP02178E
   
   for DIPRO refer to:
   * J. Kohn, N. Gildemeister, S. Grimme, D. Fazzi, A. Hansen,
     J. Chem. Phys., 2023, just accepted.
   
   for PTB refer to:
   * S. Grimme, M. Mueller, A. Hansen, J. Chem. Phys., 2023, 158, 124111.
     DOI: 10.1063/5.0137838
   
   with help from (in alphabetical order)
   P. Atkinson, C. Bannwarth, F. Bohle, G. Brandenburg, E. Caldeweyher
   M. Checinski, S. Dohm, S. Ehlert, S. Ehrlich, I. Gerasimov, C. Hölzer
   A. Katbashev, J. Kohn, J. Koopman, C. Lavigne, S. Lehtola, F. März, M. Müller,
   F. Musil, H. Neugebauer, J. Pisarek, C. Plett, P. Pracht, F. Pultar,
   J. Seibert, P. Shushkov, S. Spicher, M. Stahn, M. Steiner, T. Strunk,
   J. Stückrath, T. Rose, and J. Unsleber
   
 * started run on 2026/09/10 at 23:01:18.674     
   ID    Z sym.   atoms
    1    6 C      1, 2, 4-16
    2    7 N      3
    3    1 H      17-31

           -------------------------------------------------
          |                Calculation Setup                |
           -------------------------------------------------

          program call               : C:\Users\HUIWEI\miniconda3\envs\phase2ff\Library\bin\xtb.exe input.xyz --gfn 2 --chrg 0 --uhf 0 --alpb toluene --acc 0.2 --opt extreme
          coordinate file            : input.xyz
          omp threads                :                     1


           -------------------------------------------------
          |                 G F N 2 - x T B                 |
           -------------------------------------------------

        Reference                      10.1021/acs.jctc.8b01176
      * Hamiltonian:
        H0-scaling (s, p, d)           1.850000    2.230000    2.230000
        zeta-weighting                 0.500000
      * Dispersion:
        s8                             2.700000
        a1                             0.520000
        a2                             5.000000
        s9                             5.000000
      * Repulsion:
        kExp                           1.500000    1.000000
        rExp                           1.000000
      * Coulomb:
        alpha                          2.000000
        third order                    shell-resolved
        anisotropic                    true
        a3                             3.000000
        a5                             4.000000
        cn-shift                       1.200000
        cn-exp                         4.000000
        max-rad                        5.000000

      * Solvation model:               ALPB
        Solvent                        toluene
        Parameter file                 internal GFN2-xTB/ALPB
        Dielectric constant                7.0000E+00
        Reference state                gsolv [1 M gas/solution]
        Free energy shift                  2.2081E-03 Eh       1.3856E+00 kcal/mol
        Temperature                        2.9815E+02 K
        Density                            8.6700E-01 kg/L
        Solvent mass                       7.8110E+01 g/mol
        Interaction kernel             P16
        Born radius scaling (c1)           1.7172E+00
        Born radii integrator          GBOBC
        Born offset                        0.0000E+00 a0       0.0000E+00 AA
        H-bond correction              false
        Ion screening                  false
        Surface tension                    1.0000E-05 Eh       1.5569E+01 dyn/cm
        Grid points                               230 per atom

          ...................................................
          :                      SETUP                      :
          :.................................................:
          :  # basis functions                  79          :
          :  # atomic orbitals                  79          :
          :  # shells                           47          :
          :  # electrons                        80          :
          :  max. iterations                   250          :
          :  Hamiltonian                  GFN2-xTB          :
          :  restarted?                      false          :
          :  GBSA solvation                   true          :
          :  PC potential                    false          :
          :  electronic temp.          300.0000000     K    :
          :  accuracy                    0.2000000          :
          :  -> integral cutoff          0.3198970E+02      :
          :  -> integral neglect         0.2000000E-08      :
          :  -> SCF convergence          0.2000000E-06 Eh   :
          :  -> wf. convergence          0.2000000E-04 e    :
          :  Broyden damping             0.4000000          :
          :  net charge                          0          :
          :  unpaired electrons                  0          :
          ...................................................

 iter      E             dE          RMSdq      gap      omega  full diag
   1    -43.4338923 -0.434339E+02  0.379E+00    2.73       0.0  T
   2    -43.4636298 -0.297375E-01  0.227E+00    2.61       1.0  T
   3    -43.4558884  0.774144E-02  0.858E-01    2.43       1.0  T
   4    -43.4673312 -0.114428E-01  0.267E-01    2.42       1.0  T
   5    -43.4686689 -0.133767E-02  0.614E-02    2.42       1.0  T
   6    -43.4687184 -0.494936E-04  0.303E-02    2.42       1.0  T
   7    -43.4687230 -0.465281E-05  0.146E-02    2.42       1.2  T
   8    -43.4687250 -0.197108E-05  0.307E-03    2.42       5.9  T
   9    -43.4687251 -0.157737E-06  0.118E-03    2.42      15.2  T
  10    -43.4687251 -0.889428E-08  0.524E-04    2.42      34.3  T
  11    -43.4687252 -0.119358E-08  0.217E-04    2.42      82.8  T
  12    -43.4687252 -0.703665E-09  0.899E-05    2.42     199.8  T
  13    -43.4687252 -0.331895E-10  0.421E-05    2.42     426.3  T

   *** convergence criteria satisfied after 13 iterations ***

         #    Occupation            Energy/Eh            Energy/eV
      -------------------------------------------------------------
         1        2.0000           -0.6498609             -17.6836
       ...           ...                  ...                  ...
        34        2.0000           -0.4175046             -11.3609
        35        2.0000           -0.4129676             -11.2374
        36        2.0000           -0.4066700             -11.0661
        37        2.0000           -0.4041252             -10.9968
        38        2.0000           -0.3951238             -10.7519
        39        2.0000           -0.3858707             -10.5001
        40        2.0000           -0.3524618              -9.5910 (HOMO)
        41                         -0.2634098              -7.1677 (LUMO)
        42                         -0.2211343              -6.0174
        43                         -0.2127749              -5.7899
        44                         -0.2055661              -5.5937
        45                         -0.1792531              -4.8777
       ...                                ...                  ...
        79                          0.7039680              19.1559
      -------------------------------------------------------------
                  HL-Gap            0.0890520 Eh            2.4232 eV
             Fermi-level           -0.3079358 Eh           -8.3794 eV

 SCC (total)                   0 d,  0 h,  0 min,  0.045 sec
 SCC setup                      ...        0 min,  0.001 sec (  2.488%)
 Dispersion                     ...        0 min,  0.001 sec (  1.338%)
 classical contributions        ...        0 min,  0.000 sec (  0.300%)
 integral evaluation            ...        0 min,  0.005 sec ( 10.448%)
 iterations                     ...        0 min,  0.022 sec ( 48.891%)
 molecular gradient             ...        0 min,  0.016 sec ( 35.623%)
 printout                       ...        0 min,  0.000 sec (  0.815%)

         :::::::::::::::::::::::::::::::::::::::::::::::::::::
         ::                     SUMMARY                     ::
         :::::::::::::::::::::::::::::::::::::::::::::::::::::
         :: total energy             -42.685809582567 Eh    ::
         :: total w/o Gsasa/hb       -42.667334565473 Eh    ::
         :: gradient norm              0.021522190577 Eh/a0 ::
         :: HOMO-LUMO gap              2.423227173615 eV    ::
         ::.................................................::
         :: SCC energy               -43.468880484146 Eh    ::
         :: -> isotropic ES            0.011287045057 Eh    ::
         :: -> anisotropic ES          0.006404434021 Eh    ::
         :: -> anisotropic XC          0.031178191055 Eh    ::
         :: -> dispersion             -0.029875315082 Eh    ::
         :: -> Gsolv                  -0.018846501786 Eh    ::
         ::    -> Gelec               -0.000371484692 Eh    ::
         ::    -> Gsasa               -0.020683160232 Eh    ::
         ::    -> Ghb                  0.000000000000 Eh    ::
         ::    -> Gshift               0.002208143139 Eh    ::
         :: repulsion energy           0.783070901579 Eh    ::
         :: add. restraining           0.000000000000 Eh    ::
         :: total charge               0.000000000000 e     ::
         :::::::::::::::::::::::::::::::::::::::::::::::::::::

      ----------------------------------------------------------- 
     |                   =====================                   |
     |                        A N C O P T                        |
     |                   =====================                   |
     |               Approximate Normal Coordinate               |
     |                Rational Function Optimizer                |
      ----------------------------------------------------------- 
      ----------------------------------------------------------- 
     |                   =====================                   |
     |                        A N C O P T                        |
     |                   =====================                   |
     |               Approximate Normal Coordinate               |
     |                Rational Function Optimizer                |
      ----------------------------------------------------------- 

          ...................................................
          :                      SETUP                      :
          :.................................................:
          :   optimization level           extreme          :
          :   max. optcycles                   620          :
          :   ANC micro-cycles                  20          :
          :   degrees of freedom                87          :
          :.................................................:
          :   RF solver                   davidson          :
          :   write xtbopt.log                true          :
          :   linear?                        false          :
          :   energy convergence         0.5000000E-07 Eh   :
          :   grad. convergence          0.5000000E-04 Eh/α :
          :   maxmium RF displ.          1.0000000          :
          :   Hlow (freq-cutoff)         0.1000000E-01      :
          :   Hmax (freq-cutoff)         5.0000000          :
          :   S6 in model hess.         20.0000000          :
          ...................................................

generating ANC from exact Hessian ...
Using Lindh-Hessian (1995)
 Shifting diagonal of input Hessian by    9.3936188791385686E-003
 Lowest  eigenvalues of input Hessian
    0.000000    0.000000    0.000000    0.000000    0.000000    0.000000
    0.010000    0.010510    0.010588    0.011374    0.013327    0.014582
    0.017699    0.018227    0.019389    0.022931    0.024299    0.024959
 Highest eigenvalues
    1.894455    1.949954    1.999030    2.017956    2.044343    2.240637


........................................................................
.............................. CYCLE    1 ..............................
........................................................................

 iter      E             dE          RMSdq      gap      omega  full diag
   1    -43.4687252 -0.434687E+02  0.141E-05    2.42       0.0  T
   2    -43.4687252 -0.200373E-11  0.888E-06    2.42    2022.3  T
   3    -43.4687252 -0.157030E-11  0.506E-06    2.42    3550.6  T
     SCC iter.                  ...        0 min,  0.005 sec
     gradient                   ...        0 min,  0.013 sec
 * total energy  :   -42.6858096 Eh     change       -0.1251976E-10 Eh
   gradient norm :     0.0215222 Eh/α   predicted     0.0000000E+00 (-100.00%)
   displ. norm   :     0.0510281 α      lambda       -0.7137440E-03
   maximum displ.:     0.0224652 α      in ANC's #26, #50, #25, ...

........................................................................
.............................. CYCLE    2 ..............................
........................................................................

 iter      E             dE          RMSdq      gap      omega  full diag
   1    -43.4721656 -0.434722E+02  0.572E-02    2.42       0.0  T
   2    -43.4721695 -0.392843E-05  0.328E-02    2.43       1.0  T
   3    -43.4721697 -0.174180E-06  0.657E-03    2.43       2.7  T
   4    -43.4721698 -0.102725E-06  0.165E-03    2.42      10.9  T
   5    -43.4721698 -0.119807E-07  0.961E-04    2.42      18.7  T
   6    -43.4721698 -0.862717E-08  0.250E-04    2.42      71.8  T
   7    -43.4721698 -0.233157E-09  0.733E-05    2.42     245.0  T
   8    -43.4721698 -0.748344E-10  0.304E-05    2.42     590.7  T
     SCC iter.                  ...        0 min,  0.010 sec
     gradient                   ...        0 min,  0.013 sec
 * total energy  :   -42.6862369 Eh     change       -0.4273130E-03 Eh
   gradient norm :     0.0066335 Eh/α   predicted    -0.3586630E-03 ( -16.07%)
   displ. norm   :     0.0149399 α      lambda       -0.6804637E-04
   maximum displ.:     0.0045880 α      in ANC's #71, #59, #26, ...

........................................................................
.............................. CYCLE    3 ..............................
........................................................................

 iter      E             dE          RMSdq      gap      omega  full diag
   1    -43.4731116 -0.434731E+02  0.158E-02    2.43       0.0  T
   2    -43.4731118 -0.227560E-06  0.904E-03    2.43       2.0  T
   3    -43.4731118  0.262389E-08  0.175E-03    2.43      10.3  T
   4    -43.4731118 -0.163792E-07  0.597E-04    2.43      30.1  T
   5    -43.4731118 -0.668424E-08  0.271E-04    2.43      66.3  T
   6    -43.4731118 -0.313783E-09  0.732E-05    2.43     245.2  T
   7    -43.4731118 -0.322800E-10  0.320E-05    2.43     560.4  T
     SCC iter.                  ...        0 min,  0.010 sec
     gradient                   ...        0 min,  0.014 sec
 * total energy  :   -42.6862723 Eh     change       -0.3541096E-04 Eh
   gradient norm :     0.0010846 Eh/α   predicted    -0.3403318E-04 (  -3.89%)
   displ. norm   :     0.0069424 α      lambda       -0.2417095E-05
   maximum displ.:     0.0020049 α      in ANC's #2, #19, #50, ...

........................................................................
.............................. CYCLE    4 ..............................
........................................................................

 iter      E             dE          RMSdq      gap      omega  full diag
   1    -43.4729385 -0.434729E+02  0.623E-03    2.43       0.0  T
   2    -43.4729385 -0.168497E-07  0.362E-03    2.43       5.0  T
   3    -43.4729385  0.513970E-08  0.609E-04    2.43      29.5  T
   4    -43.4729385 -0.811120E-08  0.231E-04    2.43      77.6  T
   5    -43.4729385 -0.860496E-09  0.991E-05    2.43     181.3  T
   6    -43.4729385 -0.158096E-10  0.304E-05    2.43     590.0  T
     SCC iter.                  ...        0 min,  0.008 sec
     gradient                   ...        0 min,  0.014 sec
 * total energy  :   -42.6862740 Eh     change       -0.1681539E-05 Eh
   gradient norm :     0.0003827 Eh/α   predicted    -0.1210642E-05 ( -28.00%)
   displ. norm   :     0.0039108 α      lambda       -0.2571983E-06
   maximum displ.:     0.0020436 α      in ANC's #2, #7, #1, ...

........................................................................
.............................. CYCLE    5 ..............................
........................................................................

 iter      E             dE          RMSdq      gap      omega  full diag
   1    -43.4729404 -0.434729E+02  0.225E-03    2.43       0.0  T
   2    -43.4729404 -0.113031E-08  0.132E-03    2.43      13.6  T
   3    -43.4729404  0.196837E-08  0.292E-04    2.43      61.4  T
   4    -43.4729404 -0.252926E-08  0.618E-05    2.43     290.5  T
   5    -43.4729404 -0.508749E-11  0.257E-05    2.43     697.8  T
     SCC iter.                  ...        0 min,  0.009 sec
     gradient                   ...        0 min,  0.014 sec
 * total energy  :   -42.6862743 Eh     change       -0.2865475E-06 Eh
   gradient norm :     0.0001452 Eh/α   predicted    -0.1537127E-06 ( -46.36%)
   displ. norm   :     0.0061514 α      lambda       -0.1729568E-06
   maximum displ.:     0.0035818 α      in ANC's #2, #4, #7, ...

........................................................................
.............................. CYCLE    6 ..............................
........................................................................

 iter      E             dE          RMSdq      gap      omega  full diag
   1    -43.4729523 -0.434730E+02  0.238E-03    2.43       0.0  T
   2    -43.4729523 -0.163479E-08  0.136E-03    2.43      13.2  T
   3    -43.4729523  0.316255E-09  0.197E-04    2.43      91.0  T
   4    -43.4729523 -0.858570E-09  0.735E-05    2.43     244.4  T
     SCC iter.                  ...        0 min,  0.005 sec
     gradient                   ...        0 min,  0.014 sec
 * total energy  :   -42.6862745 Eh     change       -0.1951536E-06 Eh
   gradient norm :     0.0001192 Eh/α   predicted    -0.8746533E-07 ( -55.18%)
   displ. norm   :     0.0124822 α      lambda       -0.2219301E-06
   maximum displ.:     0.0069230 α      in ANC's #2, #4, #7, ...

........................................................................
.............................. CYCLE    7 ..............................
........................................................................

 iter      E             dE          RMSdq      gap      omega  full diag
   1    -43.4729604 -0.434730E+02  0.429E-03    2.43       0.0  T
   2    -43.4729604 -0.428068E-08  0.246E-03    2.43       7.3  T
   3    -43.4729604  0.214357E-09  0.301E-04    2.43      59.7  T
   4    -43.4729604 -0.169938E-08  0.129E-04    2.43     139.2  T
   5    -43.4729604 -0.612772E-10  0.317E-05    2.43     566.4  T
     SCC iter.                  ...        0 min,  0.007 sec
     gradient                   ...        0 min,  0.013 sec
 * total energy  :   -42.6862747 Eh     change       -0.2723036E-06 Eh
   gradient norm :     0.0002350 Eh/α   predicted    -0.1121815E-06 ( -58.80%)
   displ. norm   :     0.0234503 α      lambda       -0.3545589E-06
   maximum displ.:     0.0126078 α      in ANC's #2, #4, #7, ...

........................................................................
.............................. CYCLE    8 ..............................
........................................................................

 iter      E             dE          RMSdq      gap      omega  full diag
   1    -43.4729595 -0.434730E+02  0.768E-03    2.43       0.0  T
   2    -43.4729595 -0.126189E-07  0.442E-03    2.43       4.1  T
   3    -43.4729595 -0.713769E-09  0.474E-04    2.43      37.9  T
   4    -43.4729595 -0.354122E-08  0.228E-04    2.43      78.8  T
   5    -43.4729595 -0.283400E-09  0.407E-05    2.43     440.9  T
   6    -43.4729595 -0.332037E-10  0.146E-05    2.43    1227.8  T
     SCC iter.                  ...        0 min,  0.008 sec
     gradient                   ...        0 min,  0.012 sec
 * total energy  :   -42.6862752 Eh     change       -0.4343194E-06 Eh
   gradient norm :     0.0003084 Eh/α   predicted    -0.1802000E-06 ( -58.51%)
   displ. norm   :     0.0367379 α      lambda       -0.4705851E-06
   maximum displ.:     0.0193940 α      in ANC's #2, #7, #4, ...

........................................................................
.............................. CYCLE    9 ..............................
........................................................................

 iter      E             dE          RMSdq      gap      omega  full diag
   1    -43.4729512 -0.434730E+02  0.118E-02    2.43       0.0  T
   2    -43.4729513 -0.288819E-07  0.680E-03    2.43       2.6  T
   3    -43.4729513  0.207326E-08  0.805E-04    2.43      22.3  T
   4    -43.4729513 -0.120080E-07  0.350E-04    2.43      51.2  T
   5    -43.4729513 -0.565706E-09  0.702E-05    2.43     255.7  T
   6    -43.4729513 -0.858549E-10  0.249E-05    2.43     721.0  T
     SCC iter.                  ...        0 min,  0.007 sec
     gradient                   ...        0 min,  0.013 sec
 * total energy  :   -42.6862757 Eh     change       -0.5054732E-06 Eh
   gradient norm :     0.0002651 Eh/α   predicted    -0.2379406E-06 ( -52.93%)
   displ. norm   :     0.0280307 α      lambda       -0.2523212E-06
   maximum displ.:     0.0146849 α      in ANC's #7, #2, #4, ...

........................................................................
.............................. CYCLE   10 ..............................
........................................................................

 iter      E             dE          RMSdq      gap      omega  full diag
   1    -43.4729555 -0.434730E+02  0.890E-03    2.43       0.0  T
   2    -43.4729555 -0.164471E-07  0.514E-03    2.43       3.5  T
   3    -43.4729555  0.607870E-08  0.734E-04    2.43      24.5  T
   4    -43.4729555 -0.120718E-07  0.262E-04    2.43      68.7  T
   5    -43.4729555 -0.248860E-09  0.654E-05    2.43     274.7  T
   6    -43.4729555 -0.637286E-10  0.222E-05    2.43     810.0  T
     SCC iter.                  ...        0 min,  0.008 sec
     gradient                   ...        0 min,  0.012 sec
 * total energy  :   -42.6862759 Eh     change       -0.2385391E-06 Eh
   gradient norm :     0.0001379 Eh/α   predicted    -0.1269916E-06 ( -46.76%)
   displ. norm   :     0.0094751 α      lambda       -0.7743090E-07
   maximum displ.:     0.0061035 α      in ANC's #7, #2, #5, ...

........................................................................
.............................. CYCLE   11 ..............................
........................................................................

 iter      E             dE          RMSdq      gap      omega  full diag
   1    -43.4729688 -0.434730E+02  0.298E-03    2.43       0.0  T
   2    -43.4729688 -0.197389E-08  0.173E-03    2.43      10.4  T
   3    -43.4729688  0.271628E-08  0.372E-04    2.43      48.3  T
   4    -43.4729688 -0.353970E-08  0.774E-05    2.43     232.1  T
   5    -43.4729688 -0.181544E-10  0.321E-05    2.43     559.0  T
     SCC iter.                  ...        0 min,  0.006 sec
     gradient                   ...        0 min,  0.013 sec
 * total energy  :   -42.6862760 Eh     change       -0.8511942E-07 Eh
   gradient norm :     0.0000442 Eh/α   predicted    -0.4207121E-07 ( -50.57%)
   displ. norm   :     0.0094751 α      lambda        0.0000000E+00
   maximum displ.:     0.0061035 α      in ANC's #7, #2, #5, ...

........................................................................
.............................. CYCLE   12 ..............................
........................................................................

 iter      E             dE          RMSdq      gap      omega  full diag
   1    -43.4729799 -0.434730E+02  0.298E-03    2.43       0.0  T
   2    -43.4729799 -0.196699E-08  0.173E-03    2.43      10.4  T
   3    -43.4729799  0.263995E-08  0.369E-04    2.43      48.6  T
   4    -43.4729799 -0.345577E-08  0.767E-05    2.43     234.1  T
   5    -43.4729799 -0.162146E-10  0.318E-05    2.43     565.1  T
     SCC iter.                  ...        0 min,  0.006 sec
     gradient                   ...        0 min,  0.012 sec
 * total energy  :   -42.6862760 Eh     change       -0.3007472E-08 Eh
   gradient norm :     0.0001249 Eh/α   predicted    -0.8699023E-09 ( -71.08%)
   displ. norm   :     0.0044737 α      lambda       -0.5415169E-07
   maximum displ.:     0.0025398 α      in ANC's #4, #2, #1, ...

........................................................................
.............................. CYCLE   13 ..............................
........................................................................

 iter      E             dE          RMSdq      gap      omega  full diag
   1    -43.4729741 -0.434730E+02  0.155E-03    2.43       0.0  T
   2    -43.4729741 -0.438199E-09  0.898E-04    2.43      20.0  T
   3    -43.4729741  0.120657E-09  0.114E-04    2.43     157.0  T
   4    -43.4729741 -0.278874E-09  0.424E-05    2.43     423.4  T
     SCC iter.                  ...        0 min,  0.005 sec
     gradient                   ...        0 min,  0.011 sec
 * total energy  :   -42.6862761 Eh     change       -0.5920554E-07 Eh
   gradient norm :     0.0000846 Eh/α   predicted    -0.2949511E-07 ( -50.18%)
   displ. norm   :     0.0044737 α      lambda        0.0000000E+00
   maximum displ.:     0.0025398 α      in ANC's #4, #2, #1, ...

........................................................................
.............................. CYCLE   14 ..............................
........................................................................

 iter      E             dE          RMSdq      gap      omega  full diag
   1    -43.4729680 -0.434730E+02  0.155E-03    2.43       0.0  T
   2    -43.4729680 -0.431839E-09  0.898E-04    2.43      20.0  T
   3    -43.4729680  0.150159E-09  0.121E-04    2.43     149.0  T
   4    -43.4729680 -0.310322E-09  0.423E-05    2.43     425.0  T
     SCC iter.                  ...        0 min,  0.006 sec
     gradient                   ...        0 min,  0.012 sec
 * total energy  :   -42.6862761 Eh     change       -0.2289795E-08 Eh
   gradient norm :     0.0001080 Eh/α   predicted     0.1663576E-08 (-172.65%)
   displ. norm   :     0.0028011 α      lambda       -0.4907055E-07
   maximum displ.:     0.0015740 α      in ANC's #2, #4, #1, ...

........................................................................
.............................. CYCLE   15 ..............................
........................................................................

 iter      E             dE          RMSdq      gap      omega  full diag
   1    -43.4729629 -0.434730E+02  0.107E-03    2.43       0.0  T
   2    -43.4729629 -0.214996E-09  0.623E-04    2.43      28.9  T
   3    -43.4729629  0.120956E-09  0.904E-05    2.43     198.8  T
   4    -43.4729629 -0.209873E-09  0.302E-05    2.43     594.0  T
     SCC iter.                  ...        0 min,  0.005 sec
     gradient                   ...        0 min,  0.013 sec
 * total energy  :   -42.6862761 Eh     change       -0.6391821E-07 Eh
   gradient norm :     0.0000608 Eh/α   predicted    -0.2636758E-07 ( -58.75%)
   displ. norm   :     0.0078111 α      lambda       -0.8817123E-07
   maximum displ.:     0.0038990 α      in ANC's #1, #4, #7, ...

........................................................................
.............................. CYCLE   16 ..............................
........................................................................

 iter      E             dE          RMSdq      gap      omega  full diag
   1    -43.4729680 -0.434730E+02  0.254E-03    2.43       0.0  T
   2    -43.4729680 -0.105896E-08  0.147E-03    2.43      12.2  T
   3    -43.4729680  0.184279E-09  0.162E-04    2.43     110.8  T
   4    -43.4729680 -0.570054E-09  0.697E-05    2.43     257.5  T
     SCC iter.                  ...        0 min,  0.005 sec
     gradient                   ...        0 min,  0.013 sec
 * total energy  :   -42.6862762 Eh     change       -0.1009397E-06 Eh
   gradient norm :     0.0000413 Eh/α   predicted    -0.4544644E-07 ( -54.98%)
   displ. norm   :     0.0110305 α      lambda       -0.8100282E-07
   maximum displ.:     0.0057841 α      in ANC's #7, #1, #4, ...

........................................................................
.............................. CYCLE   17 ..............................
........................................................................

 iter      E             dE          RMSdq      gap      omega  full diag
   1    -43.4729646 -0.434730E+02  0.346E-03    2.43       0.0  T
   2    -43.4729646 -0.187139E-08  0.200E-03    2.43       9.0  T
   3    -43.4729646  0.222187E-10  0.195E-04    2.43      92.0  T
   4    -43.4729646 -0.668138E-09  0.939E-05    2.43     191.4  T
     SCC iter.                  ...        0 min,  0.008 sec
     gradient                   ...        0 min,  0.018 sec
 * total energy  :   -42.6862763 Eh     change       -0.9954121E-07 Eh
   gradient norm :     0.0000693 Eh/α   predicted    -0.4083765E-07 ( -58.97%)
   displ. norm   :     0.0100078 α      lambda       -0.6915178E-07
   maximum displ.:     0.0057033 α      in ANC's #7, #1, #4, ...

........................................................................
.............................. CYCLE   18 ..............................
........................................................................

 iter      E             dE          RMSdq      gap      omega  full diag
   1    -43.4729665 -0.434730E+02  0.318E-03    2.43       0.0  T
   2    -43.4729665 -0.155040E-08  0.185E-03    2.43       9.7  T
   3    -43.4729665 -0.333671E-10  0.175E-04    2.43     102.9  T
   4    -43.4729665 -0.493337E-09  0.868E-05    2.43     206.8  T
     SCC iter.                  ...        0 min,  0.006 sec
     gradient                   ...        0 min,  0.015 sec
 * total energy  :   -42.6862764 Eh     change       -0.8887859E-07 Eh
   gradient norm :     0.0000565 Eh/α   predicted    -0.3571236E-07 ( -59.82%)
   displ. norm   :     0.0075217 α      lambda       -0.5045448E-07
   maximum displ.:     0.0049009 α      in ANC's #7, #1, #3, ...

........................................................................
.............................. CYCLE   19 ..............................
........................................................................

 iter      E             dE          RMSdq      gap      omega  full diag
   1    -43.4729678 -0.434730E+02  0.249E-03    2.43       0.0  T
   2    -43.4729678 -0.872902E-09  0.144E-03    2.43      12.4  T
   3    -43.4729678  0.235971E-10  0.140E-04    2.43     128.6  T
   4    -43.4729678 -0.332093E-09  0.660E-05    2.43     272.0  T
     SCC iter.                  ...        0 min,  0.006 sec
     gradient                   ...        0 min,  0.015 sec
 * total energy  :   -42.6862765 Eh     change       -0.6861358E-07 Eh
   gradient norm :     0.0000259 Eh/α   predicted    -0.2591670E-07 ( -62.23%)
   displ. norm   :     0.0048569 α      lambda       -0.2766956E-07
   maximum displ.:     0.0036903 α      in ANC's #7, #1, #3, ...

........................................................................
.............................. CYCLE   20 ..............................
........................................................................

 iter      E             dE          RMSdq      gap      omega  full diag
   1    -43.4729677 -0.434730E+02  0.166E-03    2.43       0.0  T
   2    -43.4729677 -0.338474E-09  0.966E-04    2.43      18.6  T
   3    -43.4729677  0.937916E-11  0.872E-05    2.43     206.0  T
   4    -43.4729677 -0.131664E-09  0.419E-05    2.43     428.6  T
     SCC iter.                  ...        0 min,  0.007 sec
     gradient                   ...        0 min,  0.014 sec
 * total energy  :   -42.6862765 Eh     change       -0.4516544E-07 Eh
   gradient norm :     0.0000182 Eh/α   predicted    -0.1634269E-07 ( -63.82%)
   displ. norm   :     0.0033547 α      lambda       -0.1720444E-07
   maximum displ.:     0.0025844 α      in ANC's #7, #1, #5, ...

   *** GEOMETRY OPTIMIZATION CONVERGED AFTER 20 ITERATIONS ***

------------------------------------------------------------------------
 total energy gain   :        -0.0004670 Eh       -0.2930 kcal/mol
 total RMSD          :         0.0237669 a0        0.0126 Å
 total power (kW/mol):        -0.0612995 (step)   -2.2022 (real)
------------------------------------------------------------------------

 ANCopt (total)                0 d,  0 h,  0 min,  0.557 sec
 optimizer setup                ...        0 min,  0.001 sec (  0.137%)
 model hessian                  ...        0 min,  0.008 sec (  1.389%)
 ANC generation                 ...        0 min,  0.001 sec (  0.189%)
 coordinate transformation      ...        0 min,  0.000 sec (  0.049%)
 single point calculation       ...        0 min,  0.538 sec ( 96.713%)
 optimization log               ...        0 min,  0.005 sec (  0.857%)
 hessian update                 ...        0 min,  0.000 sec (  0.080%)
 rational function              ...        0 min,  0.002 sec (  0.374%)

================
 final structure:
================
31
 xtb: 6.7.1 (edcfbbe)
C           -0.55278993797321       -1.38934828888272       -1.61862844865798
C           -0.20282287104014       -0.37015096524725       -0.56575381137205
N           -1.05919599288463        0.21011019436413        0.16814608197230
C           -2.41041862307683       -0.02385628525548        0.23378192822296
C           -2.91910020315947       -1.21484944424379        0.76129649904277
C           -4.27966749740772       -1.37401999158301        0.93802697213936
C           -5.15742698279797       -0.36254697572571        0.58363169781207
C           -4.66014240817948        0.82152793181790        0.06103403783573
C           -3.30137521481883        0.99905234279129       -0.10372676718724
C            1.20723189248862        0.00558623295323       -0.39205636015425
C            2.24541145737971       -0.66181133779929       -1.04233438191164
C            3.55890074935980       -0.27905643332375       -0.84749497672116
C            3.88367313886963        0.77817401367885       -0.00539566460150
C            5.31144811974963        1.17307481597146        0.21496594828403
C            2.84864700704870        1.44341790874148        0.64516829335866
C            1.53609873239086        1.06476296057404        0.45801956272902
H           -0.12811441142938       -1.10086605029397       -2.57862428234615
H           -1.63386670880815       -1.47001087761945       -1.71781778235782
H           -0.15429402039545       -2.36500786833427       -1.34248231621054
H           -2.23102583529268       -1.99996458675247        1.04311188817006
H           -4.65860365736344       -2.29946978994953        1.34929683708711
H           -6.22131215322038       -0.49422913515941        0.71662719815108
H           -5.33904326060687        1.61583862763526       -0.21642230760835
H           -2.90871559236668        1.91994851487199       -0.51008306554372
H            2.03964586133461       -1.49139065720187       -1.70136390526937
H            4.34858821618259       -0.81098989274659       -1.36011255294638
H            5.38814109261667        2.22802567694727        0.46871257827272
H            5.91121481845118        0.97577691505697       -0.67104196841558
H            5.73127369798167        0.59654348657118        1.04065706931017
H            3.07875800293371        2.26865210701067        1.30461496316914
H            0.73606995197192        1.58405678265788        0.96276465190552

 Bond Distances (Angstroems)
 ---------------------------
C1-C2=1.5066         C1-H17=1.0887        C1-H18=1.0886        C1-H19=1.0895        C2-C1=1.5066         C2-N3=1.2683         
C2-C10=1.4696        N3-C2=1.2683         N3-C4=1.3729         C4-N3=1.3729         C4-C5=1.3984         C4-C9=1.3979         
C5-C4=1.3984         C5-C6=1.3812         C5-H20=1.0813        C6-C5=1.3812         C6-C7=1.3853         C6-H21=1.0813        
C7-C6=1.3853         C7-C8=1.3865         C7-H22=1.0802        C8-C7=1.3865         C8-C9=1.3802         C8-H23=1.0811        
C9-C4=1.3979         C9-C8=1.3802         C9-H24=1.0804        C10-C2=1.4696        C10-C11=1.3950       C10-C16=1.3974       
C11-C10=1.3950       C11-C12=1.3819       C11-H25=1.0793       C12-C11=1.3819       C12-C13=1.3901       C12-H26=1.0814       
C13-C12=1.3901       C13-C14=1.4977       C13-C15=1.3918       C14-C13=1.4977       C14-H27=1.0877       C14-H28=1.0880       
C14-H29=1.0911       C15-C13=1.3918       C15-C16=1.3788       C15-H30=1.0811       C16-C10=1.3974       C16-C15=1.3788       
C16-H31=1.0791       H17-C1=1.0887        H18-C1=1.0886        H19-C1=1.0895        H20-C5=1.0813        H21-C6=1.0813        
H22-C7=1.0802        H23-C8=1.0811        H24-C9=1.0804        H25-C11=1.0793       H26-C12=1.0814       H27-C14=1.0877       
H28-C14=1.0880       H29-C14=1.0911       H30-C15=1.0811       H31-C16=1.0791       
 C  H  Rav=1.0839 sigma=0.0042  Rmin=1.0791  Rmax=1.0911    15
 C  C  Rav=1.4092 sigma=0.0421  Rmin=1.3788  Rmax=1.5066    15
 N  C  Rav=1.3206 sigma=0.0523  Rmin=1.2683  Rmax=1.3729     2

 selected bond angles (degree)
 --------------------
H17-C1-C2=110.27               H18-C1-C2=110.15               H18-C1-H17=109.07              H19-C1-C2=110.10               
H19-C1-H17=108.55              H19-C1-H18=108.66              N3-C2-C1=123.85                C10-C2-C1=118.58               
C10-C2-N3=117.55               C4-N3-C2=127.90                C5-C4-N3=121.41                C9-C4-N3=119.41                
C9-C4-C5=118.85                C6-C5-C4=120.31                H20-C5-C4=119.03               H20-C5-C6=120.65               
C7-C6-C5=120.48                H21-C6-C5=119.51               H21-C6-C7=120.01               C8-C7-C6=119.52                
H22-C7-C6=120.23               H22-C7-C8=120.25               C9-C8-C7=120.53                H23-C8-C7=119.93               
H23-C8-C9=119.54               C8-C9-C4=120.30                H24-C9-C4=118.87               H24-C9-C8=120.82               
C11-C10-C2=122.46              C16-C10-C2=119.44              C16-C10-C11=118.10             

 selected dihedral angles (degree)
 ---------------------------------
N3-C2-C1-H17=126.14           N3-C2-C1-H18=  5.71           N3-C2-C1-H19=245.89           C10-C2-C1-H17=307.68          
C10-C2-C1-H18=187.26          C10-C2-C1-H19= 67.44          C4-N3-C2-C1=  5.22            C4-N3-C2-C10=183.69           
C5-C4-N3-C2= 68.59            C9-C4-N3-C2=241.90            C6-C5-C4-N3=173.63            C6-C5-C4-C9=  0.28            
H20-C5-C4-N3=354.65           H20-C5-C4-C9=181.30           C7-C6-C5-C4=  0.62            C7-C6-C5-H20=179.59           
H21-C6-C5-C4=180.15           H21-C6-C5-H20=359.12          C8-C7-C6-C5=359.33            C8-C7-C6-H21=179.80           
H22-C7-C6-C5=179.54           H22-C7-C6-H21=  0.00          C9-C8-C7-C6=359.81            C9-C8-C7-H22=179.60           
H23-C8-C7-C6=180.09           H23-C8-C7-H22=359.88          C8-C9-C4-N3=185.38            C8-C9-C4-C5=358.87            
H24-C9-C4-N3=  6.43           H24-C9-C4-C5=179.92           C4-C9-C8-C7=  1.10            C4-C9-C8-H23=180.82           
H24-C9-C8-C7=180.03           H24-C9-C8-H23=359.75          C11-C10-C2-C1=351.76          C11-C10-C2-N3=173.20          
C16-C10-C2-C1=172.07          C16-C10-C2-N3=353.52          
           -------------------------------------------------
          |                Final Singlepoint                |
           -------------------------------------------------

          ...................................................
          :                      SETUP                      :
          :.................................................:
          :  # basis functions                  79          :
          :  # atomic orbitals                  79          :
          :  # shells                           47          :
          :  # electrons                        80          :
          :  max. iterations                   250          :
          :  Hamiltonian                  GFN2-xTB          :
          :  restarted?                      false          :
          :  GBSA solvation                   true          :
          :  PC potential                    false          :
          :  electronic temp.          300.0000000     K    :
          :  accuracy                    0.2000000          :
          :  -> integral cutoff          0.3198970E+02      :
          :  -> integral neglect         0.2000000E-08      :
          :  -> SCF convergence          0.2000000E-06 Eh   :
          :  -> wf. convergence          0.2000000E-04 e    :
          :  Broyden damping             0.4000000          :
          :  net charge                          0          :
          :  unpaired electrons                  0          :
          ...................................................

 iter      E             dE          RMSdq      gap      omega  full diag
   1    -43.4729677 -0.434730E+02  0.618E-06    2.43       0.0  T
   2    -43.4729677 -0.390799E-12  0.387E-06    2.43    4641.7  T
   3    -43.4729677 -0.405009E-12  0.178E-06    2.43   10090.8  T

   *** convergence criteria satisfied after 3 iterations ***

         #    Occupation            Energy/Eh            Energy/eV
      -------------------------------------------------------------
         1        2.0000           -0.6498497             -17.6833
       ...           ...                  ...                  ...
        34        2.0000           -0.4174475             -11.3593
        35        2.0000           -0.4129631             -11.2373
        36        2.0000           -0.4066145             -11.0645
        37        2.0000           -0.4040596             -10.9950
        38        2.0000           -0.3950909             -10.7510
        39        2.0000           -0.3859250             -10.5016
        40        2.0000           -0.3524744              -9.5913 (HOMO)
        41                         -0.2632038              -7.1621 (LUMO)
        42                         -0.2210569              -6.0153
        43                         -0.2127611              -5.7895
        44                         -0.2055083              -5.5922
        45                         -0.1793168              -4.8795
       ...                                ...                  ...
        79                          0.7038017              19.1514
      -------------------------------------------------------------
                  HL-Gap            0.0892706 Eh            2.4292 eV
             Fermi-level           -0.3078391 Eh           -8.3767 eV

 SCC (total)                   0 d,  0 h,  0 min,  0.024 sec
 SCC setup                      ...        0 min,  0.001 sec (  3.769%)
 Dispersion                     ...        0 min,  0.000 sec (  1.289%)
 classical contributions        ...        0 min,  0.000 sec (  0.347%)
 integral evaluation            ...        0 min,  0.004 sec ( 18.423%)
 iterations                     ...        0 min,  0.004 sec ( 18.469%)
 molecular gradient             ...        0 min,  0.013 sec ( 56.606%)
 printout                       ...        0 min,  0.000 sec (  1.027%)

         :::::::::::::::::::::::::::::::::::::::::::::::::::::
         ::                     SUMMARY                     ::
         :::::::::::::::::::::::::::::::::::::::::::::::::::::
         :: total energy             -42.686276537160 Eh    ::
         :: total w/o Gsasa/hb       -42.667816201576 Eh    ::
         :: gradient norm              0.000021491208 Eh/a0 ::
         :: HOMO-LUMO gap              2.429175993979 eV    ::
         ::.................................................::
         :: SCC energy               -43.473123150562 Eh    ::
         :: -> isotropic ES            0.011341715836 Eh    ::
         :: -> anisotropic ES          0.006343596711 Eh    ::
         :: -> anisotropic XC          0.031001628043 Eh    ::
         :: -> dispersion             -0.029877024020 Eh    ::
         :: -> Gsolv                  -0.018838921338 Eh    ::
         ::    -> Gelec               -0.000378585755 Eh    ::
         ::    -> Gsasa               -0.020668478722 Eh    ::
         ::    -> Ghb                  0.000000000000 Eh    ::
         ::    -> Gshift               0.002208143139 Eh    ::
         :: repulsion energy           0.786846613403 Eh    ::
         :: add. restraining           0.000000000000 Eh    ::
         :: total charge               0.000000000000 e     ::
         :::::::::::::::::::::::::::::::::::::::::::::::::::::

           -------------------------------------------------
          |                Property Printout                |
           -------------------------------------------------

    * Orbital Energies and Occupations

         #    Occupation            Energy/Eh            Energy/eV
      -------------------------------------------------------------
         1        2.0000           -0.6498497             -17.6833
       ...           ...                  ...                  ...
        28        2.0000           -0.4647815             -12.6473
        29        2.0000           -0.4598984             -12.5145
        30        2.0000           -0.4573333             -12.4447
        31        2.0000           -0.4401193             -11.9763
        32        2.0000           -0.4305171             -11.7150
        33        2.0000           -0.4280921             -11.6490
        34        2.0000           -0.4174475             -11.3593
        35        2.0000           -0.4129631             -11.2373
        36        2.0000           -0.4066145             -11.0645
        37        2.0000           -0.4040596             -10.9950
        38        2.0000           -0.3950909             -10.7510
        39        2.0000           -0.3859250             -10.5016
        40        2.0000           -0.3524744              -9.5913 (HOMO)
        41                         -0.2632038              -7.1621 (LUMO)
        42                         -0.2210569              -6.0153
        43                         -0.2127611              -5.7895
        44                         -0.2055083              -5.5922
        45                         -0.1793168              -4.8795
        46                         -0.0830881              -2.2609
        47                         -0.0779497              -2.1211
        48                          0.0782717               2.1299
        49                          0.1054846               2.8704
        50                          0.1135497               3.0898
        51                          0.1326170               3.6087
       ...                                ...                  ...
        79                          0.7038017              19.1514
      -------------------------------------------------------------
                  HL-Gap            0.0892706 Eh            2.4292 eV
             Fermi-level           -0.3078391 Eh           -8.3767 eV

     #   Z          covCN         q      C6AA      α(0)
     1   6 C        3.755    -0.116    22.768     6.804
     2   6 C        2.898     0.112    25.538     8.286
     3   7 N        1.848    -0.217    26.567     7.639
     4   6 C        2.922     0.085    26.116     8.381
     5   6 C        2.922    -0.051    29.278     8.873
     6   6 C        2.918    -0.032    28.799     8.800
     7   6 C        2.919    -0.043    29.065     8.841
     8   6 C        2.919    -0.032    28.787     8.798
     9   6 C        2.924    -0.049    29.215     8.864
    10   6 C        2.982    -0.002    28.074     8.691
    11   6 C        2.921    -0.034    28.845     8.807
    12   6 C        2.923    -0.041    29.007     8.832
    13   6 C        2.966     0.023    27.499     8.602
    14   6 C        3.757    -0.111    22.673     6.789
    15   6 C        2.922    -0.038    28.942     8.822
    16   6 C        2.924    -0.028    28.691     8.784
    17   1 H        0.925     0.052     2.300     2.371
    18   1 H        0.925     0.043     2.408     2.427
    19   1 H        0.925     0.054     2.274     2.358
    20   1 H        0.925     0.022     2.702     2.570
    21   1 H        0.925     0.023     2.682     2.561
    22   1 H        0.926     0.022     2.708     2.573
    23   1 H        0.926     0.025     2.665     2.553
    24   1 H        0.926     0.028     2.614     2.528
    25   1 H        0.926     0.038     2.482     2.464
    26   1 H        0.925     0.034     2.537     2.491
    27   1 H        0.925     0.047     2.360     2.403
    28   1 H        0.925     0.047     2.360     2.403
    29   1 H        0.924     0.053     2.287     2.365
    30   1 H        0.926     0.035     2.511     2.478
    31   1 H        0.926     0.053     2.285     2.364

 Mol. C6AA /au·bohr⁶  :      11522.439429
 Mol. C8AA /au·bohr⁸  :     279790.314929
 Mol. α(0) /au        :        171.522521


Wiberg/Mayer (AO) data.
largest (>0.10) Wiberg bond orders for each atom

 ---------------------------------------------------------------------------
     #   Z sym  total        # sym  WBO       # sym  WBO       # sym  WBO
 ---------------------------------------------------------------------------
     1   6 C    3.996 --     2 C    1.006    18 H    0.982    17 H    0.970
                            19 H    0.964
     2   6 C    3.965 --     3 N    1.760    10 C    1.063     1 C    1.006
     3   7 N    3.226 --     2 C    1.760     4 C    1.140
     4   6 C    3.976 --     9 C    1.341     5 C    1.338     3 N    1.140
     5   6 C    3.984 --     6 C    1.457     4 C    1.338    20 H    0.971
                             8 C    0.103
     6   6 C    3.992 --     5 C    1.457     7 C    1.431    21 H    0.970
                             9 C    0.105
     7   6 C    3.989 --     6 C    1.431     8 C    1.424    22 H    0.972
     8   6 C    3.992 --     9 C    1.465     7 C    1.424    23 H    0.971
                             5 C    0.103
     9   6 C    3.986 --     8 C    1.465     4 C    1.341    24 H    0.971
                             6 C    0.105
    10   6 C    3.988 --    11 C    1.380    16 C    1.367     2 C    1.063
    11   6 C    3.986 --    12 C    1.460    10 C    1.380    25 H    0.967
                            15 C    0.101
    12   6 C    3.991 --    11 C    1.460    13 C    1.403    26 H    0.969
                            16 C    0.103
    13   6 C    3.984 --    12 C    1.403    15 C    1.395    14 C    1.029
    14   6 C    3.995 --    13 C    1.029    27 H    0.981    28 H    0.981
                            29 H    0.964
    15   6 C    3.992 --    16 C    1.472    13 C    1.395    30 H    0.969
                            11 C    0.101
    16   6 C    3.989 --    15 C    1.472    10 C    1.367    31 H    0.966
                            12 C    0.103
    17   1 H    0.997 --     1 C    0.970
    18   1 H    0.998 --     1 C    0.982
    19   1 H    0.997 --     1 C    0.964
    20   1 H    0.999 --     5 C    0.971
    21   1 H    0.999 --     6 C    0.970
    22   1 H    0.999 --     7 C    0.972
    23   1 H    0.998 --     8 C    0.971
    24   1 H    0.999 --     9 C    0.971
    25   1 H    0.998 --    11 C    0.967
    26   1 H    0.998 --    12 C    0.969
    27   1 H    0.997 --    14 C    0.981
    28   1 H    0.997 --    14 C    0.981
    29   1 H    0.995 --    14 C    0.964
    30   1 H    0.998 --    15 C    0.969
    31   1 H    0.997 --    16 C    0.966
 ---------------------------------------------------------------------------

Topologies differ in total number of bonds
Writing topology from bond orders to xtbtopo.mol

molecular dipole:
                 x           y           z       tot (Debye)
 q only:        1.169      -0.083      -0.322
   full:        1.087      -0.329      -0.501       3.156
molecular quadrupole (traceless):
                xx          xy          yy          xz          yz          zz
 q only:        2.317       1.799      -0.427       1.463       2.028      -1.890
  q+dip:        5.440       1.709       0.470       0.833       2.732      -5.910
   full:        3.028       1.807       0.013       1.522       1.633      -3.041

           -------------------------------------------------
          |                Geometry Summary                 |
           -------------------------------------------------

      molecular mass/u    :      209.2868530
   center of mass at/Å    :       -0.2178099       0.0450062      -0.0432104
  moments of inertia/u·Å² :        0.2747005E+03   0.2333223E+04   0.2467280E+04
rotational constants/cm⁻¹ :        0.6136731E-01   0.7225043E-02   0.6832477E-02

 * 29 selected distances

     #   Z          #   Z                                           value/Å
     2   6 C        3   7 N                                       1.2683404
     3   7 N        4   6 C                                       1.3728989
     4   6 C        5   6 C                                       1.3983897 (max)
     5   6 C        6   6 C                                       1.3811997
     6   6 C        7   6 C                                       1.3853287
     7   6 C        8   6 C                                       1.3865187
     4   6 C        9   6 C                                       1.3978763
     8   6 C        9   6 C                                       1.3801847
    10   6 C       11   6 C                                       1.3950262
    11   6 C       12   6 C                                       1.3819255
    12   6 C       13   6 C                                       1.3900881
    13   6 C       15   6 C                                       1.3917839
    10   6 C       16   6 C                                       1.3973683
    15   6 C       16   6 C                                       1.3788356
     1   6 C       17   1 H                                       1.0886522
     1   6 C       18   1 H                                       1.0886102
     1   6 C       19   1 H                                       1.0894804
     5   6 C       20   1 H                                       1.0813289
     6   6 C       21   1 H                                       1.0812923
     7   6 C       22   1 H                                       1.0802221
     8   6 C       23   1 H                                       1.0811189
     9   6 C       24   1 H                                       1.0804430
    11   6 C       25   1 H                                       1.0792875
    12   6 C       26   1 H                                       1.0813586
    14   6 C       27   1 H                                       1.0877457
    14   6 C       28   1 H                                       1.0879599
    14   6 C       29   1 H                                       1.0910582
    15   6 C       30   1 H                                       1.0811257
    16   6 C       31   1 H                                       1.0791107 (min)

 * 3 distinct bonds (by element types)

   Z      Z             #   av. dist./Å        max./Å        min./Å
   1 H    6 C          15     1.0839196     1.0910582     1.0791107
   6 C    6 C          12     1.3887104     1.3983897     1.3788356
   6 C    7 N           2     1.3206196     1.3728989     1.2683404


optimized geometry written to: xtbopt.xyz


           -------------------------------------------------
          | TOTAL ENERGY              -42.686276537160 Eh   |
          | GRADIENT NORM               0.000021491208 Eh/α |
          | HOMO-LUMO GAP               2.429175993979 eV   |
           -------------------------------------------------

------------------------------------------------------------------------
 * finished run on 2026/09/10 at 23:01:19.343     
Note: The following floating-point exceptions are signalling: IEEE_DIVIDE_BY_ZERO IEEE_UNDERFLOW_FLAG IEEE_DENORMAL
normal termination of xtb
------------------------------------------------------------------------
 total:
 * wall-time:     0 d,  0 h,  0 min,  0.670 sec
 *  cpu-time:     0 d,  0 h,  0 min,  0.094 sec
 * ratio c/w:     0.140 speedup
 SCF:
 * wall-time:     0 d,  0 h,  0 min,  0.046 sec
 *  cpu-time:     0 d,  0 h,  0 min,  0.000 sec
 * ratio c/w:     0.000 speedup
 ANC optimizer:
 * wall-time:     0 d,  0 h,  0 min,  0.585 sec
 *  cpu-time:     0 d,  0 h,  0 min,  0.094 sec
 * ratio c/w:     0.160 speedup

