 Entering Gaussian System
 *********************************************
 Gaussian 98:
 frequency output generated by the xtb code
 *********************************************
                         Standard orientation:
 --------------------------------------------------------------------
  Center     Atomic     Atomic              Coordinates (Angstroms)
  Number     Number      Type              X           Y           Z
 --------------------------------------------------------------------
    1          6             0       -4.239868    1.959675   -0.001724
    2          8             0       -2.923517    1.433695    0.006900
    3          6             0       -2.815628    0.088079   -0.045784
    4          8             0       -3.802470   -0.625460   -0.094828
    5          6             0       -1.416551   -0.331035   -0.031833
    6          6             0       -1.026986   -1.626534   -0.037973
    7          6             0       -1.913036   -2.828488   -0.053125
    8          7             0        0.312738   -1.939759   -0.033952
    9          6             0        1.331463   -1.024132   -0.137921
   10          6             0        2.696449   -1.622035   -0.250384
   11          6             0        1.035497    0.296068   -0.138528
   12          6             0        1.994634    1.386838   -0.273185
   13          8             0        1.677315    2.562169   -0.266510
   14          8             0        3.284929    1.002545   -0.412235
   15          6             0        4.234435    2.049476   -0.545388
   16          6             0       -0.391807    0.780545    0.017847
   17          1             0       -4.132023    3.041019    0.030152
   18          1             0       -4.769065    1.651922   -0.907031
   19          1             0       -4.799423    1.603261    0.866770
   20          1             0       -2.956007   -2.534615   -0.033277
   21          1             0       -1.727327   -3.414153   -0.953404
   22          1             0       -1.700525   -3.454278    0.813508
   23          1             0        0.554655   -2.920414   -0.042306
   24          1             0        3.342016   -1.246177    0.539887
   25          1             0        2.650582   -2.707073   -0.184816
   26          1             0        3.154083   -1.343897   -1.197461
   27          1             0        4.213737    2.698832    0.333058
   28          1             0        5.203329    1.565637   -0.641921
   29          1             0        4.016149    2.654061   -1.428906
   30          1             0       -0.602496    1.516280   -0.765425
   31          1             0       -0.485301    1.327941    0.964726
 --------------------------------------------------------------------
     1 basis functions        1 primitive gaussians
     1 alpha electrons        1 beta electrons

 Harmonic frequencies (cm**-1), IR intensities (km*mol⁻¹),
 Raman scattering activities (A**4/amu), Raman depolarization ratios,
 reduced masses (AMU), force constants (mDyne/A) and normal coordinates:
                      1                      2                      3
                        a                      a                      a 
 Frequencies --    17.0031                44.1165                51.9450
 Red. masses --    11.3803                13.2856                 9.6653
 Frc consts  --     0.0000                 0.0000                 0.0000
 IR Inten    --     0.0710                10.2611                 0.7243
 Raman Activ --     0.0000                 0.0000                 0.0000
 Depolar     --     0.0000                 0.0000                 0.0000
 Atom AN      X      Y      Z        X      Y      Z        X      Y      Z
   1   6    -0.01  -0.01   0.05    -0.01  -0.01   0.33     0.02   0.02  -0.32
   2   8    -0.01  -0.00  -0.13    -0.01  -0.01   0.31     0.02   0.01  -0.12
   3   6    -0.02  -0.01   0.09    -0.00   0.00  -0.08     0.02   0.01   0.09
   4   8    -0.03  -0.02   0.47     0.01   0.01  -0.42     0.01   0.01   0.17
   5   6    -0.01  -0.00  -0.11    -0.00   0.01  -0.05     0.01  -0.01   0.19
   6   6    -0.01  -0.00  -0.06     0.00   0.01   0.01     0.00  -0.01   0.11
   7   6    -0.01  -0.00   0.17     0.00   0.01   0.02     0.00  -0.01   0.02
   8   7    -0.01  -0.00  -0.25     0.00   0.01   0.09     0.01  -0.01   0.05
   9   6    -0.01   0.00  -0.15    -0.00   0.01   0.04    -0.01  -0.01  -0.10
  10   6     0.01   0.00  -0.00    -0.00   0.00   0.04    -0.04  -0.01  -0.49
  11   6    -0.01   0.00  -0.19    -0.00   0.01  -0.03    -0.00  -0.01   0.06
  12   6     0.02   0.00  -0.04    -0.01  -0.00  -0.14    -0.02  -0.00  -0.03
  13   8     0.01  -0.00  -0.11    -0.05  -0.01  -0.59    -0.06  -0.01  -0.26
  14   8     0.05   0.01   0.23     0.03  -0.00   0.26     0.01   0.02   0.20
  15   6     0.06   0.01   0.36     0.03  -0.01   0.16    -0.00   0.02   0.18
  16   6    -0.03   0.02  -0.44    -0.00   0.01  -0.02     0.03  -0.03   0.35
  17   1    -0.00  -0.00  -0.02    -0.00  -0.01   0.18     0.01   0.01  -0.15
  18   1    -0.05  -0.03   0.05     0.01   0.06   0.07     0.03  -0.04  -0.09
  19   1     0.04   0.02   0.05    -0.02  -0.07   0.06    -0.02   0.05  -0.09
  20   1    -0.00  -0.00   0.07     0.00   0.00   0.04     0.00  -0.00  -0.01
  21   1    -0.02  -0.04   0.07    -0.03   0.02  -0.01     0.02   0.00   0.01
  22   1     0.02   0.03   0.07     0.03  -0.02  -0.02    -0.01  -0.01   0.01
  23   1    -0.00  -0.00  -0.05     0.00   0.00   0.04     0.00  -0.00  -0.02
  24   1    -0.03  -0.02   0.04    -0.02  -0.04   0.05     0.01  -0.11  -0.11
  25   1    -0.00  -0.00  -0.03    -0.01  -0.00  -0.04    -0.02  -0.01  -0.28
  26   1     0.05   0.03   0.03     0.03   0.05   0.04    -0.03   0.12  -0.11
  27   1    -0.03   0.01   0.10    -0.08   0.09  -0.02    -0.07   0.06   0.01
  28   1     0.02   0.00   0.16     0.02  -0.00   0.19     0.01   0.01   0.15
  29   1     0.06  -0.00   0.09     0.09  -0.10  -0.04     0.05  -0.05   0.00
  30   1    -0.00  -0.07  -0.20    -0.00   0.01  -0.00    -0.01   0.05   0.16
  31   1    -0.02   0.10  -0.18    -0.00  -0.01  -0.00     0.04  -0.08   0.14
                      4                      5                      6
                        a                      a                      a 
 Frequencies --    68.3028                91.7664                94.4868
 Red. masses --    10.5723                 3.0750                 1.6984
 Frc consts  --     0.0000                 0.0000                 0.0000
 IR Inten    --     1.3250                 0.1898                 0.0379
 Raman Activ --     0.0000                 0.0000                 0.0000
 Depolar     --     0.0000                 0.0000                 0.0000
 Atom AN      X      Y      Z        X      Y      Z        X      Y      Z
   1   6    -0.02  -0.02  -0.03     0.02   0.02  -0.02    -0.04  -0.03   0.05
   2   8    -0.02  -0.01   0.13     0.02   0.00   0.01    -0.04  -0.01   0.04
   3   6    -0.00  -0.00  -0.09     0.00  -0.00  -0.01    -0.00  -0.00  -0.03
   4   8     0.01  -0.00  -0.42    -0.00   0.01  -0.04     0.01  -0.02  -0.15
   5   6    -0.00   0.01   0.00    -0.00  -0.01  -0.01     0.00   0.02  -0.02
   6   6    -0.00   0.00   0.15    -0.00  -0.01  -0.00    -0.00   0.01   0.02
   7   6    -0.00   0.00   0.53    -0.01  -0.01   0.11    -0.00   0.02   0.03
   8   7    -0.00   0.01   0.02    -0.00  -0.01  -0.07    -0.00   0.02   0.03
   9   6    -0.01  -0.00  -0.14    -0.00  -0.01  -0.04    -0.00   0.01  -0.00
  10   6    -0.03  -0.01  -0.30     0.00  -0.01  -0.02    -0.01   0.00  -0.02
  11   6    -0.01   0.00  -0.12     0.00  -0.01  -0.01     0.00   0.01  -0.01
  12   6     0.01   0.00   0.01     0.00  -0.00   0.07     0.01   0.00   0.02
  13   8     0.04   0.01   0.28     0.01  -0.00   0.30     0.04   0.01   0.09
  14   8    -0.00   0.00  -0.12    -0.01   0.01  -0.08     0.01  -0.02  -0.02
  15   6     0.03   0.01   0.15    -0.03   0.02  -0.13     0.02  -0.03  -0.01
  16   6    -0.00   0.01  -0.12    -0.00  -0.01  -0.05    -0.00   0.02  -0.01
  17   1    -0.01  -0.01   0.05     0.01   0.00   0.09    -0.01   0.01  -0.49
  18   1     0.04   0.04  -0.05     0.04   0.08  -0.05    -0.18  -0.42   0.25
  19   1    -0.05  -0.05  -0.06    -0.03  -0.07  -0.06     0.15   0.38   0.28
  20   1     0.00   0.00   0.20    -0.00   0.00  -0.02     0.00  -0.00   0.23
  21   1    -0.06  -0.04   0.17     0.03  -0.06   0.08    -0.17   0.13  -0.11
  22   1     0.05   0.04   0.17    -0.04   0.05   0.08     0.16  -0.12  -0.12
  23   1     0.00   0.00   0.03    -0.00  -0.00  -0.01    -0.00   0.00   0.01
  24   1     0.01  -0.03  -0.09     0.00   0.01  -0.01     0.00  -0.00  -0.01
  25   1    -0.01  -0.00  -0.12     0.00  -0.00   0.01    -0.00   0.00  -0.01
  26   1    -0.03   0.03  -0.09    -0.00  -0.01  -0.01    -0.00   0.00  -0.01
  27   1     0.07  -0.11   0.13    -0.36   0.31  -0.27    -0.06   0.05  -0.05
  28   1    -0.01  -0.00  -0.08     0.05   0.03   0.47     0.02  -0.01   0.10
  29   1    -0.04   0.12   0.13     0.27  -0.31  -0.32     0.07  -0.07  -0.06
  30   1    -0.01  -0.01  -0.05     0.00  -0.01  -0.03     0.00   0.00  -0.00
  31   1     0.01   0.02  -0.05    -0.00   0.01  -0.02    -0.00   0.00  -0.00
                      7                      8                      9
                        a                      a                      a 
 Frequencies --    99.5664               103.3942               135.5634
 Red. masses --     8.4903                 4.0513                 9.9235
 Frc consts  --     0.0000                 0.0000                 0.0000
 IR Inten    --     1.1727                 0.7630                 2.8419
 Raman Activ --     0.0000                 0.0000                 0.0000
 Depolar     --     0.0000                 0.0000                 0.0000
 Atom AN      X      Y      Z        X      Y      Z        X      Y      Z
   1   6    -0.33  -0.26  -0.06     0.20   0.15  -0.09     0.01   0.00   0.16
   2   8    -0.26  -0.01  -0.04     0.16   0.01  -0.02     0.01   0.01  -0.22
   3   6    -0.04   0.00   0.02     0.03  -0.00   0.02     0.01   0.01  -0.09
   4   8     0.04  -0.13   0.10    -0.02   0.07   0.07     0.00   0.00   0.08
   5   6    -0.01   0.11   0.02     0.01  -0.06   0.00     0.00   0.00  -0.06
   6   6     0.00   0.11   0.02    -0.00  -0.07   0.04     0.00   0.00   0.07
   7   6     0.04   0.08  -0.05    -0.04  -0.04   0.00     0.01  -0.00  -0.13
   8   7    -0.01   0.12   0.03     0.00  -0.08   0.02     0.01   0.01   0.36
   9   6    -0.01   0.11   0.00     0.00  -0.07   0.01    -0.00  -0.01   0.05
  10   6    -0.03   0.06  -0.03     0.02  -0.04   0.04    -0.02  -0.03  -0.04
  11   6     0.00   0.11   0.01     0.00  -0.07  -0.01    -0.01  -0.01  -0.16
  12   6     0.09   0.04   0.00    -0.05  -0.03   0.00    -0.03  -0.01  -0.22
  13   8     0.26   0.09   0.02    -0.16  -0.06   0.02    -0.01  -0.00   0.03
  14   8     0.05  -0.14  -0.02    -0.03   0.09  -0.01    -0.05   0.00  -0.46
  15   6     0.21  -0.28  -0.02    -0.14   0.19   0.00     0.03   0.03   0.39
  16   6    -0.00   0.12   0.03     0.01  -0.07  -0.05     0.01  -0.01   0.06
  17   1    -0.16  -0.07   0.15     0.09   0.04   0.14     0.00  -0.00   0.08
  18   1    -0.02   0.03  -0.10     0.12   0.19  -0.11    -0.06   0.03   0.07
  19   1    -0.13  -0.24  -0.11    -0.02  -0.06  -0.12     0.06  -0.03   0.07
  20   1     0.01   0.00   0.21    -0.00  -0.01   0.43     0.00  -0.00  -0.07
  21   1    -0.15   0.17  -0.15    -0.33   0.24  -0.23     0.04   0.02  -0.05
  22   1     0.18  -0.12  -0.16     0.29  -0.26  -0.25    -0.03  -0.02  -0.05
  23   1    -0.00   0.03  -0.00    -0.00  -0.02  -0.00     0.00   0.00   0.12
  24   1    -0.00  -0.00  -0.00     0.00   0.00   0.01     0.06   0.12  -0.13
  25   1    -0.02   0.02  -0.02     0.01  -0.01   0.03     0.01   0.00   0.16
  26   1    -0.01   0.02  -0.01     0.00  -0.02   0.01    -0.10  -0.15  -0.10
  27   1     0.07  -0.06  -0.02    -0.06   0.05   0.00    -0.13  -0.06   0.16
  28   1     0.04  -0.13   0.03    -0.02   0.09   0.00     0.02   0.02   0.23
  29   1     0.11  -0.10  -0.03    -0.06   0.05   0.00     0.15   0.08   0.12
  30   1    -0.00   0.04   0.01     0.00  -0.03  -0.03    -0.01   0.04   0.06
  31   1     0.00   0.03   0.01    -0.00  -0.00  -0.03     0.03  -0.06   0.05
                     10                     11                     12
                        a                      a                      a 
 Frequencies --   148.5095               166.1634               173.2840
 Red. masses --    10.0548                 5.3630                 9.3215
 Frc consts  --     0.0000                 0.0000                 0.0000
 IR Inten    --     0.3143                 1.0603                 2.6866
 Raman Activ --     0.0000                 0.0000                 0.0000
 Depolar     --     0.0000                 0.0000                 0.0000
 Atom AN      X      Y      Z        X      Y      Z        X      Y      Z
   1   6    -0.00   0.01  -0.35    -0.12  -0.11   0.07    -0.25  -0.22  -0.04
   2   8    -0.02  -0.02   0.55    -0.06   0.06  -0.13    -0.13   0.12   0.08
   3   6    -0.01  -0.01   0.24     0.03   0.05  -0.05     0.06   0.12   0.04
   4   8     0.00  -0.00  -0.04     0.05   0.02  -0.01     0.11   0.07   0.01
   5   6    -0.00  -0.00   0.18     0.03   0.05  -0.03     0.06   0.11   0.03
   6   6    -0.00   0.00  -0.03    -0.02   0.04  -0.03    -0.05   0.07   0.01
   7   6    -0.00   0.00  -0.06    -0.07   0.07   0.09    -0.15   0.15  -0.05
   8   7    -0.00  -0.00  -0.22    -0.04  -0.02  -0.09    -0.08  -0.06   0.03
   9   6     0.00   0.01  -0.05     0.01  -0.06   0.02     0.01  -0.15  -0.01
  10   6     0.02   0.01   0.15    -0.03  -0.14  -0.15    -0.01  -0.23   0.10
  11   6    -0.01   0.01  -0.08     0.07  -0.05   0.12     0.12  -0.13  -0.07
  12   6    -0.01   0.00  -0.11     0.07  -0.05   0.11     0.12  -0.13  -0.06
  13   8     0.00   0.01  -0.10    -0.00  -0.07  -0.09     0.02  -0.18   0.03
  14   8    -0.02  -0.01  -0.19     0.13   0.05   0.28     0.21   0.08  -0.15
  15   6     0.04  -0.02   0.17    -0.05   0.16  -0.07    -0.10   0.36   0.03
  16   6    -0.00   0.01  -0.00     0.07   0.01   0.02     0.16   0.00  -0.01
  17   1     0.00   0.00  -0.18    -0.08  -0.03   0.04    -0.15  -0.05  -0.03
  18   1     0.13  -0.08  -0.15    -0.06  -0.04   0.03    -0.03  -0.12  -0.02
  19   1    -0.14   0.08  -0.15     0.01  -0.07   0.03    -0.06  -0.09  -0.02
  20   1    -0.00  -0.00  -0.04    -0.02   0.03   0.05    -0.04   0.06  -0.04
  21   1     0.02  -0.01  -0.01    -0.05   0.00   0.03    -0.03   0.04  -0.01
  22   1    -0.02   0.01  -0.01    -0.00   0.03   0.03    -0.08   0.04  -0.01
  23   1    -0.00   0.00  -0.07    -0.02  -0.01  -0.05    -0.05  -0.02   0.02
  24   1     0.03   0.17  -0.06     0.16   0.26  -0.33    -0.08  -0.21   0.16
  25   1     0.02   0.02   0.27     0.02  -0.02   0.36    -0.04  -0.08  -0.16
  26   1    -0.04  -0.18  -0.04    -0.22  -0.39  -0.25     0.11   0.08   0.13
  27   1    -0.04  -0.04   0.07     0.01   0.08  -0.05    -0.10   0.08   0.03
  28   1     0.01  -0.01   0.09     0.00   0.08  -0.06     0.01   0.19   0.01
  29   1     0.07   0.03   0.06    -0.09   0.00  -0.03    -0.07   0.11   0.02
  30   1    -0.03  -0.02  -0.01     0.05   0.00  -0.00     0.05   0.01   0.00
  31   1     0.03   0.03  -0.01     0.01   0.01   0.00     0.08   0.00  -0.00
                     13                     14                     15
                        a                      a                      a 
 Frequencies --   201.7701               263.9977               292.5366
 Red. masses --     9.7342                12.2963                10.3782
 Frc consts  --     0.0000                 0.0000                 0.0000
 IR Inten    --     7.8209                 9.9621                 5.7132
 Raman Activ --     0.0000                 0.0000                 0.0000
 Depolar     --     0.0000                 0.0000                 0.0000
 Atom AN      X      Y      Z        X      Y      Z        X      Y      Z
   1   6    -0.02  -0.02   0.09    -0.01  -0.31   0.00     0.05  -0.00   0.07
   2   8     0.01   0.03  -0.24     0.19   0.17  -0.02     0.03  -0.06  -0.20
   3   6     0.02   0.02  -0.06     0.22   0.14   0.02     0.01  -0.06   0.08
   4   8     0.02   0.02  -0.03     0.22   0.23  -0.02     0.02  -0.07  -0.16
   5   6     0.01   0.00   0.01     0.14   0.04   0.06     0.01  -0.00   0.41
   6   6    -0.00  -0.00  -0.15     0.10   0.03   0.03    -0.01  -0.00   0.14
   7   6    -0.03   0.01   0.27    -0.06   0.16  -0.02    -0.08   0.06  -0.06
   8   7    -0.01  -0.02  -0.49     0.08  -0.07  -0.01    -0.02  -0.04  -0.21
   9   6     0.01   0.00  -0.12     0.06  -0.04   0.01    -0.05   0.03   0.15
  10   6     0.05   0.03   0.26     0.09   0.03  -0.03    -0.01   0.17  -0.06
  11   6    -0.00   0.00   0.05    -0.03  -0.06   0.04    -0.02   0.03   0.42
  12   6    -0.02   0.01  -0.05    -0.21   0.04   0.03     0.05  -0.08   0.08
  13   8    -0.03   0.01  -0.10    -0.44  -0.01   0.03     0.17  -0.07  -0.14
  14   8    -0.05  -0.01  -0.17    -0.32  -0.03   0.00     0.03  -0.11  -0.25
  15   6     0.01  -0.03   0.09    -0.04  -0.27   0.02    -0.10   0.06   0.08
  16   6     0.03  -0.03   0.39     0.05   0.04  -0.08    -0.05   0.09  -0.09
  17   1    -0.01  -0.01   0.05    -0.13  -0.08  -0.00     0.03  -0.00   0.04
  18   1    -0.06   0.02   0.05     0.03  -0.15   0.00    -0.04   0.03   0.04
  19   1     0.05  -0.04   0.05     0.04  -0.15   0.00     0.06  -0.02   0.04
  20   1    -0.00   0.01   0.16    -0.00   0.09  -0.02    -0.02   0.03  -0.04
  21   1    -0.10  -0.05   0.09    -0.03   0.04  -0.01    -0.00   0.05  -0.03
  22   1     0.07   0.05   0.09    -0.06   0.03  -0.01    -0.07  -0.02  -0.03
  23   1    -0.00  -0.00  -0.14     0.01  -0.02  -0.01    -0.00  -0.01  -0.11
  24   1    -0.06   0.03   0.12     0.03   0.01  -0.01     0.02   0.03  -0.02
  25   1     0.02   0.01   0.10     0.04   0.01  -0.01     0.03   0.04  -0.07
  26   1     0.10  -0.01   0.11     0.01   0.02  -0.01    -0.05   0.11  -0.02
  27   1    -0.02  -0.04   0.05     0.03  -0.07   0.00    -0.11  -0.03   0.05
  28   1     0.00  -0.02   0.05    -0.05  -0.15   0.02    -0.00   0.07   0.05
  29   1     0.05   0.03   0.04     0.04  -0.06   0.00    -0.02   0.05   0.04
  30   1    -0.01   0.10   0.23     0.03  -0.03  -0.07     0.01  -0.14  -0.20
  31   1     0.04  -0.15   0.20     0.01   0.07  -0.06    -0.07   0.23  -0.16
                     16                     17                     18
                        a                      a                      a 
 Frequencies --   298.1264               305.8108               308.3296
 Red. masses --    10.5837                11.0591                11.0702
 Frc consts  --     0.0000                 0.0000                 0.0000
 IR Inten    --     0.9393                 4.1410                 2.3849
 Raman Activ --     0.0000                 0.0000                 0.0000
 Depolar     --     0.0000                 0.0000                 0.0000
 Atom AN      X      Y      Z        X      Y      Z        X      Y      Z
   1   6    -0.22   0.25   0.03    -0.04  -0.04  -0.06     0.02   0.04  -0.04
   2   8    -0.25   0.20  -0.06     0.01   0.07   0.18    -0.02  -0.06   0.15
   3   6    -0.10   0.15   0.03     0.01   0.06  -0.08    -0.00  -0.03  -0.07
   4   8    -0.03   0.07  -0.06    -0.05   0.13   0.14     0.04  -0.11   0.11
   5   6    -0.05   0.08   0.13     0.00   0.01  -0.40     0.01   0.03  -0.34
   6   6     0.10   0.11   0.04     0.07   0.02  -0.20    -0.02   0.03  -0.22
   7   6     0.49  -0.17  -0.01     0.06   0.03   0.07     0.00   0.00   0.07
   8   7     0.11   0.08  -0.08     0.08  -0.03   0.08    -0.04   0.04  -0.03
   9   6     0.17  -0.05  -0.01     0.03   0.01   0.12     0.04  -0.00   0.27
  10   6     0.12  -0.20  -0.01     0.14   0.34  -0.07    -0.11  -0.28  -0.07
  11   6     0.04  -0.09   0.06    -0.08  -0.03   0.15     0.11   0.02   0.47
  12   6    -0.06  -0.08   0.02     0.01  -0.20   0.04    -0.00   0.12   0.11
  13   8    -0.16  -0.12  -0.00     0.20  -0.18  -0.05    -0.16   0.10  -0.11
  14   8    -0.10  -0.11  -0.02    -0.03  -0.30  -0.05    -0.04   0.16  -0.25
  15   6    -0.13  -0.07   0.03    -0.32   0.00   0.05     0.17  -0.00   0.04
  16   6     0.04  -0.01  -0.03    -0.05   0.02   0.01     0.03   0.01  -0.04
  17   1    -0.04   0.07   0.02    -0.04  -0.01  -0.04     0.03   0.01  -0.03
  18   1    -0.08   0.10   0.01     0.04  -0.05  -0.03     0.03   0.01  -0.03
  19   1    -0.06   0.08   0.01    -0.04  -0.01  -0.03    -0.03   0.04  -0.03
  20   1     0.11  -0.16  -0.00     0.02   0.02   0.06    -0.00  -0.01   0.06
  21   1     0.21  -0.01  -0.01    -0.03  -0.04   0.04    -0.04  -0.05   0.04
  22   1     0.21  -0.04  -0.01     0.06   0.05   0.04     0.05   0.05   0.05
  23   1    -0.00   0.01  -0.03     0.02  -0.01   0.03    -0.02   0.01  -0.00
  24   1     0.05  -0.09  -0.00     0.05   0.12  -0.04     0.05  -0.19  -0.03
  25   1    -0.01  -0.06  -0.01     0.12   0.09  -0.04    -0.10  -0.08  -0.11
  26   1     0.05  -0.07  -0.00    -0.02   0.15  -0.03    -0.07  -0.04  -0.03
  27   1    -0.06  -0.03   0.01    -0.17  -0.02   0.03     0.04  -0.03   0.03
  28   1    -0.03  -0.00   0.01    -0.05   0.10   0.01     0.03  -0.05   0.04
  29   1    -0.04  -0.01   0.01    -0.14   0.00   0.03     0.13   0.04   0.02
  30   1     0.03  -0.04  -0.05     0.04   0.06   0.04     0.10  -0.01  -0.05
  31   1     0.03   0.05  -0.04    -0.07  -0.07   0.04    -0.11   0.01  -0.03
                     19                     20                     21
                        a                      a                      a 
 Frequencies --   322.7612               330.9395               376.3069
 Red. masses --    12.2209                10.8924                12.1724
 Frc consts  --     0.0000                 0.0000                 0.0000
 IR Inten    --     7.8758                16.5585                 2.1489
 Raman Activ --     0.0000                 0.0000                 0.0000
 Depolar     --     0.0000                 0.0000                 0.0000
 Atom AN      X      Y      Z        X      Y      Z        X      Y      Z
   1   6     0.14   0.09   0.00     0.09  -0.27  -0.01    -0.06   0.14   0.00
   2   8     0.04  -0.15   0.01     0.26   0.14   0.00    -0.05   0.15   0.02
   3   6     0.11  -0.09  -0.01     0.12   0.10   0.01     0.16   0.13  -0.01
   4   8     0.36  -0.42   0.01     0.05   0.26  -0.00     0.45  -0.20   0.02
   5   6     0.13   0.19  -0.03    -0.01  -0.07   0.01     0.07   0.06  -0.05
   6   6     0.05   0.19  -0.02    -0.10  -0.10  -0.00    -0.18  -0.04  -0.03
   7   6     0.04   0.22   0.00     0.20  -0.35   0.00     0.05  -0.26   0.00
   8   7    -0.03   0.10  -0.00    -0.11   0.07  -0.03    -0.22  -0.09   0.02
   9   6    -0.05   0.06  -0.07    -0.15   0.11   0.00    -0.26  -0.05   0.02
  10   6    -0.16  -0.20   0.04    -0.29  -0.17   0.03    -0.17   0.31   0.01
  11   6    -0.08   0.06  -0.11    -0.07   0.13   0.02    -0.06  -0.03  -0.00
  12   6    -0.08  -0.02  -0.02     0.00   0.09   0.00     0.04  -0.11  -0.00
  13   8     0.06   0.02   0.02     0.28   0.18  -0.04    -0.20  -0.20   0.03
  14   8    -0.17  -0.19   0.08    -0.04  -0.05  -0.00     0.13   0.07  -0.01
  15   6    -0.33  -0.04   0.03    -0.15   0.06   0.02     0.18   0.02  -0.02
  16   6     0.02   0.22   0.02    -0.08   0.01  -0.01     0.03   0.08   0.00
  17   1     0.10   0.02   0.00    -0.09  -0.07  -0.01    -0.01   0.04   0.00
  18   1     0.03   0.06  -0.00     0.06  -0.14   0.00    -0.01   0.04  -0.00
  19   1     0.02   0.06   0.00     0.06  -0.14  -0.00    -0.02   0.04  -0.00
  20   1     0.01   0.05  -0.01     0.03  -0.19   0.01    -0.01  -0.17   0.00
  21   1     0.02   0.06   0.01     0.11  -0.08  -0.00     0.07  -0.06   0.00
  22   1     0.02   0.07   0.01     0.12  -0.08  -0.00     0.08  -0.05   0.01
  23   1    -0.02   0.02   0.01     0.00   0.03  -0.01    -0.05  -0.02  -0.00
  24   1    -0.04  -0.09   0.02    -0.06  -0.10   0.01    -0.08   0.15  -0.00
  25   1    -0.12  -0.05   0.03    -0.16  -0.05   0.01     0.05   0.09   0.00
  26   1    -0.01  -0.11   0.02    -0.06  -0.08   0.01    -0.08   0.13   0.00
  27   1    -0.12  -0.01   0.01    -0.07   0.01   0.01     0.07   0.01  -0.01
  28   1    -0.07   0.05  -0.00    -0.02   0.06   0.00     0.04  -0.02  -0.00
  29   1    -0.14  -0.02   0.01    -0.07   0.02   0.01     0.07   0.01  -0.01
  30   1     0.00   0.09   0.03    -0.05  -0.01  -0.01     0.00   0.03   0.00
  31   1     0.03   0.04   0.03    -0.05   0.01  -0.01     0.00   0.01   0.00
                     22                     23                     24
                        a                      a                      a 
 Frequencies --   435.1538               488.2839               508.2054
 Red. masses --    12.7167                 4.9283                10.4008
 Frc consts  --     0.0000                 0.0000                 0.0000
 IR Inten    --     6.2520                78.5916                 0.0059
 Raman Activ --     0.0000                 0.0000                 0.0000
 Depolar     --     0.0000                 0.0000                 0.0000
 Atom AN      X      Y      Z        X      Y      Z        X      Y      Z
   1   6    -0.21   0.22   0.00     0.01  -0.00  -0.00     0.00  -0.00   0.00
   2   8    -0.19   0.18   0.00     0.01   0.00   0.02     0.00   0.00  -0.07
   3   6     0.12   0.13   0.01     0.00   0.00  -0.04    -0.00  -0.01   0.14
   4   8     0.32  -0.08   0.00     0.01  -0.01   0.02     0.00   0.00  -0.06
   5   6     0.06  -0.17  -0.01    -0.01   0.01  -0.05    -0.01  -0.01   0.32
   6   6    -0.03  -0.24   0.01    -0.02  -0.00   0.22     0.01  -0.00  -0.56
   7   6    -0.27  -0.14  -0.00    -0.01  -0.01  -0.01    -0.00   0.00   0.01
   8   7     0.06  -0.14   0.02    -0.03   0.03  -0.44     0.01   0.00   0.02
   9   6     0.09  -0.05   0.02     0.03   0.01   0.23     0.04   0.02   0.52
  10   6     0.14  -0.03  -0.01     0.01   0.01  -0.01    -0.01  -0.00  -0.01
  11   6     0.09  -0.01   0.00     0.00   0.00  -0.07    -0.04  -0.00  -0.31
  12   6    -0.07   0.20   0.01    -0.01  -0.01  -0.05    -0.01  -0.01  -0.14
  13   8     0.29   0.34  -0.04    -0.01  -0.01   0.02     0.01  -0.00   0.07
  14   8    -0.20   0.01   0.02     0.00  -0.01   0.02     0.01   0.00   0.06
  15   6    -0.16  -0.04   0.02    -0.01  -0.01  -0.00     0.00   0.00  -0.01
  16   6     0.06  -0.22  -0.04     0.01  -0.01   0.01    -0.00   0.00   0.00
  17   1    -0.03   0.06   0.00    -0.00  -0.00  -0.00     0.00  -0.00   0.01
  18   1    -0.07   0.08  -0.00     0.01  -0.00  -0.00    -0.01   0.01   0.01
  19   1    -0.07   0.08   0.00    -0.00  -0.00  -0.00     0.01  -0.01   0.01
  20   1    -0.05   0.04  -0.01    -0.01  -0.01  -0.04     0.00   0.01   0.10
  21   1    -0.12  -0.05  -0.00     0.05   0.07  -0.04    -0.12  -0.12   0.06
  22   1    -0.13  -0.06  -0.00    -0.05  -0.07  -0.04     0.11   0.12   0.06
  23   1     0.04  -0.03   0.00     0.03   0.01   0.80     0.01   0.00   0.01
  24   1     0.04  -0.01  -0.01     0.07  -0.02  -0.05     0.12  -0.08  -0.07
  25   1     0.06  -0.01  -0.01     0.01  -0.00  -0.05    -0.01  -0.01  -0.10
  26   1     0.03   0.00  -0.01    -0.08   0.03  -0.03    -0.15   0.08  -0.05
  27   1    -0.05  -0.01   0.00     0.00   0.00  -0.00     0.01   0.01  -0.01
  28   1    -0.05  -0.02   0.01    -0.00   0.00  -0.00     0.00   0.00  -0.01
  29   1    -0.04  -0.01   0.01    -0.01  -0.00  -0.00    -0.01  -0.01  -0.01
  30   1    -0.00  -0.07  -0.02    -0.00   0.02   0.03    -0.07  -0.02  -0.00
  31   1    -0.00  -0.05  -0.02     0.01  -0.03   0.02     0.08   0.03  -0.01
                     25                     26                     27
                        a                      a                      a 
 Frequencies --   552.8331               559.8744               584.9650
 Red. masses --     8.7277                10.1525                12.1387
 Frc consts  --     0.0000                 0.0000                 0.0000
 IR Inten    --     6.5431                 1.9533                 2.5901
 Raman Activ --     0.0000                 0.0000                 0.0000
 Depolar     --     0.0000                 0.0000                 0.0000
 Atom AN      X      Y      Z        X      Y      Z        X      Y      Z
   1   6     0.06  -0.05  -0.00    -0.14   0.11   0.00     0.02  -0.01   0.00
   2   8     0.05  -0.01  -0.02    -0.10   0.06  -0.01     0.05   0.08   0.00
   3   6    -0.04   0.00   0.04     0.11   0.01   0.01     0.01   0.06   0.02
   4   8    -0.01  -0.06  -0.01     0.07   0.10   0.01     0.13  -0.10  -0.01
   5   6    -0.07   0.06   0.21     0.11  -0.21   0.06    -0.13  -0.11  -0.03
   6   6    -0.16   0.06  -0.41     0.32  -0.19  -0.17    -0.14  -0.09   0.08
   7   6    -0.06  -0.06  -0.02     0.01   0.07  -0.01    -0.22  -0.13   0.00
   8   7    -0.13   0.18   0.22     0.32  -0.13   0.06     0.04   0.52  -0.02
   9   6     0.03  -0.04  -0.45    -0.07   0.18  -0.20     0.21   0.32   0.05
  10   6     0.13   0.02  -0.02    -0.22  -0.07   0.01     0.10  -0.01  -0.01
  11   6     0.12  -0.03   0.22    -0.21   0.14   0.10     0.08   0.20  -0.04
  12   6     0.01   0.03   0.05     0.02  -0.10  -0.00     0.12  -0.06  -0.00
  13   8    -0.01   0.03  -0.03    -0.08  -0.15   0.01    -0.27  -0.19   0.03
  14   8    -0.03  -0.02  -0.01     0.13  -0.02  -0.01     0.16  -0.20  -0.02
  15   6    -0.04  -0.03   0.01     0.10   0.06  -0.01    -0.03  -0.04   0.00
  16   6     0.09  -0.05   0.03    -0.26   0.09   0.05    -0.06  -0.17  -0.02
  17   1     0.00  -0.01   0.00    -0.01   0.03   0.00    -0.03   0.00   0.00
  18   1     0.02  -0.02   0.00    -0.05   0.05  -0.00     0.01  -0.02   0.00
  19   1     0.02  -0.02   0.00    -0.04   0.04   0.00     0.02  -0.02  -0.00
  20   1    -0.03  -0.06   0.06     0.04   0.16   0.03    -0.05   0.02  -0.01
  21   1    -0.06  -0.10   0.04    -0.11  -0.04   0.01    -0.08  -0.03  -0.01
  22   1     0.09   0.07   0.04    -0.05   0.02   0.01    -0.11  -0.06  -0.01
  23   1    -0.04   0.04   0.45     0.15  -0.02   0.22     0.05   0.15  -0.13
  24   1    -0.07   0.09   0.04    -0.07  -0.06   0.03     0.08  -0.08  -0.01
  25   1     0.07   0.01   0.06    -0.17  -0.01   0.04    -0.08  -0.00  -0.01
  26   1     0.14  -0.04   0.03     0.02  -0.11   0.02     0.04  -0.05  -0.01
  27   1    -0.02  -0.01   0.00     0.02   0.01  -0.00    -0.06  -0.02   0.01
  28   1    -0.01  -0.00   0.00     0.03   0.03  -0.00     0.03   0.07  -0.00
  29   1    -0.01  -0.01   0.00     0.02   0.01  -0.00    -0.05  -0.02   0.01
  30   1     0.06  -0.09  -0.08    -0.11  -0.02  -0.02    -0.05  -0.04   0.02
  31   1     0.01   0.09  -0.06    -0.13   0.05  -0.01    -0.04  -0.07   0.01
                     28                     29                     30
                        a                      a                      a 
 Frequencies --   643.3300               689.9436               701.7917
 Red. masses --    11.9429                11.2931                11.1946
 Frc consts  --     0.0000                 0.0000                 0.0000
 IR Inten    --    11.0881                52.7120                43.9832
 Raman Activ --     0.0000                 0.0000                 0.0000
 Depolar     --     0.0000                 0.0000                 0.0000
 Atom AN      X      Y      Z        X      Y      Z        X      Y      Z
   1   6    -0.09   0.04  -0.00    -0.00   0.01  -0.01     0.00  -0.01  -0.01
   2   8    -0.16  -0.24  -0.01     0.03   0.07  -0.13    -0.03  -0.07  -0.12
   3   6     0.09  -0.13  -0.02    -0.03   0.01   0.48     0.03  -0.05   0.45
   4   8    -0.19   0.24   0.01     0.04  -0.05  -0.15    -0.03   0.08  -0.14
   5   6     0.29   0.01   0.01    -0.09  -0.09  -0.13     0.11   0.11  -0.17
   6   6     0.02  -0.10  -0.01     0.08   0.05  -0.02    -0.08  -0.05  -0.00
   7   6    -0.06  -0.14  -0.00     0.17   0.24   0.00    -0.17  -0.26  -0.00
   8   7     0.03  -0.02  -0.00    -0.00   0.04   0.03     0.01  -0.06   0.04
   9   6    -0.10   0.09   0.00    -0.09   0.00  -0.02     0.08  -0.00  -0.01
  10   6    -0.25   0.11   0.02    -0.25   0.10   0.02     0.26  -0.11  -0.02
  11   6     0.31   0.13  -0.03     0.09  -0.04  -0.12    -0.13   0.03  -0.13
  12   6     0.16   0.13   0.00     0.06   0.04   0.42     0.02  -0.03   0.36
  13   8    -0.23   0.06   0.02    -0.02   0.02  -0.14    -0.01  -0.04  -0.11
  14   8     0.03  -0.17  -0.01    -0.01  -0.02  -0.11    -0.02   0.02  -0.09
  15   6    -0.15  -0.12   0.02    -0.02  -0.02  -0.00     0.02   0.02  -0.01
  16   6     0.43   0.10  -0.02     0.07  -0.40  -0.11    -0.09   0.45  -0.02
  17   1     0.09   0.00   0.00    -0.03   0.00   0.01     0.03  -0.01   0.01
  18   1    -0.05   0.06  -0.00    -0.02   0.00   0.01    -0.03   0.03   0.01
  19   1    -0.05   0.06   0.00     0.03  -0.02   0.01     0.01   0.00   0.01
  20   1    -0.02  -0.03   0.00     0.05   0.09  -0.01    -0.06  -0.10  -0.01
  21   1    -0.03  -0.04   0.00     0.04   0.07  -0.00    -0.03  -0.06  -0.01
  22   1    -0.02  -0.04   0.00     0.03   0.06  -0.00    -0.04  -0.08  -0.01
  23   1     0.07   0.01   0.00    -0.00   0.01   0.07     0.01  -0.02   0.05
  24   1    -0.07   0.03   0.01    -0.07   0.04   0.00     0.09  -0.06  -0.01
  25   1    -0.06   0.03   0.01    -0.04   0.03  -0.00     0.05  -0.03  -0.01
  26   1    -0.07   0.03   0.01    -0.09   0.05   0.00     0.07  -0.05  -0.01
  27   1    -0.09  -0.04   0.01    -0.03  -0.02   0.01     0.00  -0.01   0.01
  28   1    -0.00   0.05  -0.00     0.00   0.01   0.01     0.00  -0.01   0.01
  29   1    -0.09  -0.04   0.01     0.01   0.01   0.01     0.03   0.02   0.00
  30   1     0.11   0.03  -0.00     0.00  -0.03   0.05    -0.02   0.19   0.06
  31   1     0.14   0.03  -0.01     0.03  -0.20   0.02    -0.00   0.03   0.05
                     31                     32                     33
                        a                      a                      a 
 Frequencies --   709.3743               784.0906               822.4394
 Red. masses --    12.2638                12.9068                11.6161
 Frc consts  --     0.0000                 0.0000                 0.0000
 IR Inten    --     1.1910                 4.0629                12.2838
 Raman Activ --     0.0000                 0.0000                 0.0000
 Depolar     --     0.0000                 0.0000                 0.0000
 Atom AN      X      Y      Z        X      Y      Z        X      Y      Z
   1   6     0.00  -0.00   0.01    -0.06  -0.02  -0.00    -0.03  -0.04  -0.00
   2   8     0.00   0.00   0.14    -0.16  -0.33  -0.02    -0.14  -0.29  -0.01
   3   6     0.01   0.02  -0.55     0.27  -0.06   0.01     0.23   0.00  -0.00
   4   8    -0.00  -0.01   0.17     0.11   0.32   0.01     0.18   0.28   0.02
   5   6    -0.01  -0.00   0.25     0.12  -0.03  -0.00    -0.00  -0.05   0.01
   6   6     0.00  -0.00  -0.02    -0.07   0.02   0.01    -0.12   0.07  -0.00
   7   6    -0.00  -0.01  -0.00     0.01   0.01   0.00     0.09   0.16   0.00
   8   7     0.01   0.00   0.00    -0.08   0.34  -0.01    -0.19  -0.05   0.01
   9   6     0.01   0.00   0.02     0.05   0.07   0.00    -0.04  -0.11   0.01
  10   6     0.01  -0.01   0.00    -0.03   0.03   0.00     0.19  -0.09  -0.01
  11   6    -0.05  -0.01  -0.28    -0.09  -0.09   0.01    -0.07   0.03  -0.00
  12   6     0.06   0.01   0.64    -0.16  -0.25   0.02     0.04   0.19  -0.00
  13   8    -0.01  -0.01  -0.20     0.25  -0.24  -0.02    -0.17   0.24   0.01
  14   8    -0.02   0.00  -0.16    -0.25   0.27   0.02     0.26  -0.26  -0.03
  15   6     0.01   0.01  -0.01     0.02   0.08  -0.00     0.06  -0.02  -0.01
  16   6    -0.02   0.01  -0.00     0.05  -0.16  -0.01    -0.30  -0.12   0.01
  17   1    -0.00   0.00  -0.02     0.17  -0.02   0.00     0.17  -0.03   0.00
  18   1     0.03  -0.02  -0.01    -0.06   0.09  -0.00    -0.05   0.08  -0.00
  19   1    -0.02   0.01  -0.01    -0.06   0.09   0.01    -0.05   0.07   0.01
  20   1    -0.00   0.00   0.01     0.00   0.00  -0.00     0.00  -0.05   0.00
  21   1    -0.01  -0.02   0.01     0.01   0.01  -0.00     0.09   0.06   0.00
  22   1     0.01   0.01   0.01     0.01   0.01  -0.00     0.10   0.07   0.00
  23   1     0.00  -0.00   0.01    -0.02   0.09  -0.02    -0.10  -0.03   0.00
  24   1     0.02  -0.01  -0.01     0.00  -0.01   0.00     0.03   0.02  -0.01
  25   1    -0.00  -0.00  -0.01    -0.04   0.01   0.00     0.13  -0.03  -0.01
  26   1    -0.01   0.00  -0.01    -0.00  -0.00  -0.00     0.03   0.02  -0.00
  27   1    -0.02  -0.02   0.01     0.11   0.03  -0.01    -0.08  -0.02   0.01
  28   1     0.00  -0.00   0.02    -0.08  -0.15   0.01     0.10   0.17  -0.02
  29   1     0.03   0.02   0.00     0.11   0.03  -0.02    -0.08  -0.02   0.01
  30   1    -0.07  -0.00   0.01     0.01  -0.05  -0.01    -0.14  -0.05   0.00
  31   1     0.08   0.01   0.00     0.01  -0.03  -0.01    -0.14  -0.04   0.00
                     34                     35                     36
                        a                      a                      a 
 Frequencies --   960.3474               970.4745               973.7325
 Red. masses --     6.9127                 5.7186                10.9879
 Frc consts  --     0.0000                 0.0000                 0.0000
 IR Inten    --    14.0158                11.2051               137.3829
 Raman Activ --     0.0000                 0.0000                 0.0000
 Depolar     --     0.0000                 0.0000                 0.0000
 Atom AN      X      Y      Z        X      Y      Z        X      Y      Z
   1   6     0.08  -0.06  -0.00     0.00  -0.01  -0.00     0.29  -0.22  -0.00
   2   8    -0.08  -0.05   0.01    -0.01  -0.00   0.00    -0.28  -0.13  -0.01
   3   6    -0.03   0.09  -0.06     0.02   0.02  -0.03    -0.19   0.38   0.02
   4   8     0.06   0.03   0.01     0.01  -0.00   0.01     0.13   0.04   0.00
   5   6    -0.07   0.02   0.25    -0.04  -0.03   0.11    -0.16   0.16  -0.03
   6   6    -0.04   0.04  -0.07     0.12  -0.06  -0.04     0.05   0.11   0.01
   7   6    -0.07   0.04   0.05     0.18  -0.16   0.03    -0.09  -0.17  -0.01
   8   7     0.05  -0.20   0.03    -0.05   0.28  -0.00     0.25  -0.07  -0.01
   9   6    -0.00   0.08  -0.05    -0.02  -0.18  -0.03     0.10  -0.00  -0.01
  10   6     0.05   0.07   0.03    -0.10  -0.18   0.04    -0.13   0.11   0.01
  11   6     0.07   0.09   0.22     0.03  -0.11   0.11    -0.11  -0.11  -0.01
  12   6     0.13  -0.01  -0.07    -0.15  -0.00  -0.01    -0.24  -0.01   0.03
  13   8     0.00  -0.07   0.02     0.00   0.08   0.00     0.00   0.10  -0.00
  14   8    -0.03   0.10   0.01     0.03  -0.08   0.00     0.01  -0.18   0.00
  15   6    -0.09  -0.05   0.01     0.08   0.03  -0.01     0.18   0.11  -0.02
  16   6    -0.05  -0.01  -0.47    -0.04   0.18  -0.22     0.10  -0.07   0.04
  17   1     0.07  -0.02   0.00     0.01  -0.00   0.00     0.23  -0.07   0.00
  18   1     0.00   0.01   0.00    -0.00   0.00   0.00     0.02   0.03  -0.00
  19   1     0.00   0.01   0.00    -0.00   0.00   0.00     0.02   0.03   0.00
  20   1    -0.06  -0.13  -0.03     0.15   0.35  -0.02    -0.01  -0.00   0.01
  21   1     0.11   0.09  -0.01    -0.19  -0.05  -0.03    -0.07  -0.06   0.00
  22   1     0.04  -0.02  -0.03    -0.25  -0.14   0.00    -0.06  -0.05   0.00
  23   1     0.01  -0.05   0.02    -0.02   0.07  -0.01     0.04  -0.02   0.00
  24   1     0.11  -0.11  -0.01    -0.11   0.18  -0.03    -0.01  -0.03   0.01
  25   1    -0.13   0.02  -0.02     0.32  -0.06  -0.04    -0.16   0.03   0.02
  26   1     0.00  -0.06  -0.02    -0.16   0.20   0.02    -0.00  -0.04   0.00
  27   1     0.01  -0.01   0.00    -0.01   0.00   0.00    -0.02   0.02   0.00
  28   1    -0.05  -0.07   0.01     0.04   0.06  -0.01     0.09   0.12  -0.01
  29   1     0.01  -0.00  -0.00    -0.01   0.00   0.00    -0.02   0.02   0.00
  30   1    -0.08   0.34   0.23    -0.01   0.22   0.11     0.13  -0.03  -0.04
  31   1     0.08  -0.42   0.14     0.06  -0.16   0.07     0.09   0.05  -0.02
                     37                     38                     39
                        a                      a                      a 
 Frequencies --   984.4949              1016.8418              1022.0405
 Red. masses --    10.3956                 4.7687                 5.0712
 Frc consts  --     0.0000                 0.0000                 0.0000
 IR Inten    --    18.8888                53.3775               104.1327
 Raman Activ --     0.0000                 0.0000                 0.0000
 Depolar     --     0.0000                 0.0000                 0.0000
 Atom AN      X      Y      Z        X      Y      Z        X      Y      Z
   1   6     0.20  -0.16  -0.00     0.02  -0.01   0.00     0.02  -0.01   0.00
   2   8    -0.20  -0.06  -0.01    -0.02  -0.00  -0.00    -0.02  -0.00   0.00
   3   6    -0.09   0.25   0.02    -0.04   0.03   0.00    -0.05   0.04  -0.00
   4   8     0.11   0.03   0.00     0.01  -0.00  -0.00     0.01   0.00   0.00
   5   6    -0.19  -0.03  -0.06     0.04   0.01  -0.04     0.06   0.01   0.03
   6   6     0.03  -0.02   0.02     0.00   0.03   0.04     0.02   0.04   0.02
   7   6     0.12  -0.04  -0.02    -0.14   0.04  -0.03    -0.25   0.06  -0.04
   8   7    -0.02  -0.07  -0.01     0.16   0.03   0.02     0.28   0.08  -0.03
   9   6    -0.07  -0.03   0.03     0.00  -0.03  -0.30     0.07  -0.03   0.17
  10   6     0.01  -0.07  -0.02    -0.06  -0.11   0.38    -0.19  -0.22  -0.19
  11   6     0.21   0.10  -0.09     0.05   0.02  -0.00     0.08   0.03  -0.01
  12   6     0.37   0.03  -0.03    -0.04  -0.02  -0.00    -0.08  -0.04   0.02
  13   8    -0.01  -0.11   0.00     0.01  -0.01  -0.00     0.02  -0.01  -0.00
  14   8     0.05   0.32  -0.02     0.04   0.04  -0.00     0.06   0.04  -0.01
  15   6    -0.33  -0.22   0.04    -0.04  -0.03   0.00    -0.04  -0.03   0.01
  16   6    -0.14   0.08   0.14    -0.05  -0.01   0.08    -0.09  -0.01  -0.05
  17   1     0.17  -0.05   0.00     0.00  -0.00  -0.00     0.00  -0.00   0.00
  18   1     0.01   0.03  -0.00     0.01  -0.00   0.00     0.01  -0.01   0.00
  19   1     0.01   0.03   0.00     0.01  -0.00  -0.00     0.01  -0.01  -0.00
  20   1     0.09   0.18   0.01    -0.09  -0.19   0.01    -0.16  -0.32   0.02
  21   1    -0.11  -0.06  -0.00     0.08   0.00   0.02     0.13   0.01   0.03
  22   1    -0.08  -0.01   0.02     0.12   0.07  -0.00     0.19   0.10  -0.01
  23   1    -0.02  -0.02   0.00     0.11   0.03  -0.01     0.20   0.05  -0.00
  24   1    -0.05   0.05   0.01     0.32  -0.05  -0.18    -0.40   0.29   0.08
  25   1     0.11  -0.02   0.00     0.17  -0.05  -0.22     0.33  -0.06   0.09
  26   1     0.00   0.03   0.01    -0.53   0.26  -0.08     0.12   0.10   0.08
  27   1     0.02  -0.03  -0.00     0.01  -0.00   0.00     0.02   0.00  -0.00
  28   1    -0.15  -0.19   0.02    -0.02  -0.03   0.00    -0.02  -0.03   0.00
  29   1     0.02  -0.03  -0.00     0.01   0.00  -0.00     0.01  -0.00  -0.00
  30   1    -0.06  -0.08  -0.05    -0.05  -0.06  -0.03    -0.05   0.02   0.02
  31   1    -0.09   0.11  -0.03    -0.03   0.05  -0.02    -0.06  -0.05   0.02
                     40                     41                     42
                        a                      a                      a 
 Frequencies --  1030.6656              1073.1956              1100.2516
 Red. masses --     4.5989                12.8212                13.8078
 Frc consts  --     0.0000                 0.0000                 0.0000
 IR Inten    --    11.9234               267.4251               260.9171
 Raman Activ --     0.0000                 0.0000                 0.0000
 Depolar     --     0.0000                 0.0000                 0.0000
 Atom AN      X      Y      Z        X      Y      Z        X      Y      Z
   1   6     0.01  -0.01   0.00     0.26  -0.12   0.00     0.38  -0.11   0.01
   2   8    -0.01   0.00  -0.00    -0.29   0.21   0.00    -0.44   0.39   0.00
   3   6    -0.01   0.01  -0.01    -0.01  -0.01   0.00     0.12  -0.27  -0.01
   4   8     0.00  -0.00   0.01    -0.05  -0.04  -0.00    -0.12  -0.03  -0.00
   5   6     0.00   0.00  -0.00     0.07  -0.14  -0.01     0.24  -0.02   0.01
   6   6     0.01   0.00  -0.35    -0.05  -0.17  -0.00     0.02  -0.08   0.00
   7   6    -0.04   0.01   0.42     0.07   0.15   0.01    -0.01   0.04  -0.00
   8   7     0.03   0.00   0.03    -0.14  -0.06   0.01    -0.09   0.13  -0.00
   9   6     0.01  -0.00   0.01    -0.17   0.14   0.01     0.02  -0.04   0.00
  10   6    -0.02  -0.02   0.00     0.14  -0.14  -0.01     0.02   0.04  -0.00
  11   6     0.00  -0.00  -0.05     0.07   0.22  -0.01    -0.15  -0.11   0.03
  12   6     0.00   0.00   0.01     0.15  -0.01  -0.02    -0.19  -0.01   0.02
  13   8    -0.00  -0.00  -0.00     0.00  -0.12   0.00     0.01   0.07  -0.00
  14   8     0.02   0.02  -0.00    -0.44  -0.25   0.06     0.32   0.16  -0.04
  15   6    -0.02  -0.01   0.00     0.25   0.29  -0.03    -0.14  -0.20   0.02
  16   6    -0.00  -0.01   0.11     0.10   0.02   0.01     0.03  -0.03  -0.03
  17   1     0.01  -0.00  -0.00     0.07  -0.03  -0.00    -0.02  -0.01  -0.01
  18   1     0.00   0.00  -0.00     0.03   0.01   0.00     0.06  -0.02   0.01
  19   1    -0.00   0.00  -0.00     0.02   0.01  -0.00     0.04  -0.01  -0.02
  20   1    -0.03  -0.05  -0.23     0.01   0.01  -0.00    -0.01  -0.03   0.00
  21   1     0.32   0.45  -0.13     0.06   0.05   0.00     0.02   0.01   0.00
  22   1    -0.25  -0.43  -0.16     0.06   0.04  -0.00     0.03   0.02  -0.00
  23   1     0.02   0.00  -0.02     0.09   0.02  -0.00    -0.03   0.03  -0.00
  24   1    -0.02   0.02  -0.00     0.01   0.04  -0.01     0.02  -0.03   0.00
  25   1     0.03  -0.01  -0.00     0.20  -0.04  -0.02    -0.07   0.01   0.01
  26   1    -0.02   0.02   0.00     0.01   0.03   0.00     0.02  -0.03  -0.00
  27   1     0.00  -0.00  -0.00     0.02   0.04   0.01    -0.02  -0.03  -0.00
  28   1    -0.01  -0.01   0.00     0.03   0.02  -0.00     0.00   0.02  -0.00
  29   1     0.00  -0.00  -0.00     0.02   0.04  -0.01    -0.02  -0.02   0.01
  30   1     0.04  -0.07  -0.05    -0.05  -0.02  -0.00    -0.03  -0.00   0.01
  31   1    -0.06   0.08  -0.02     0.00   0.01  -0.00     0.01  -0.03   0.00
                     43                     44                     45
                        a                      a                      a 
 Frequencies --  1122.6031              1125.4003              1126.1730
 Red. masses --     3.8631                10.5162                 4.2564
 Frc consts  --     0.0000                 0.0000                 0.0000
 IR Inten    --     3.5150               445.2156                31.7738
 Raman Activ --     0.0000                 0.0000                 0.0000
 Depolar     --     0.0000                 0.0000                 0.0000
 Atom AN      X      Y      Z        X      Y      Z        X      Y      Z
   1   6     0.01  -0.00  -0.00     0.07  -0.01   0.11     0.03   0.01  -0.41
   2   8    -0.01   0.01   0.00    -0.10   0.14  -0.05    -0.04   0.04   0.23
   3   6     0.01  -0.02  -0.00     0.16  -0.25  -0.00     0.04  -0.07  -0.01
   4   8    -0.00   0.00   0.00    -0.01   0.04  -0.00    -0.01   0.01   0.01
   5   6     0.00   0.01   0.00    -0.01   0.15   0.01     0.01   0.04  -0.01
   6   6     0.01   0.01   0.00     0.16   0.20   0.00     0.04   0.05  -0.00
   7   6    -0.01  -0.01  -0.00    -0.10  -0.14  -0.00    -0.03  -0.04   0.00
   8   7     0.00   0.00  -0.00     0.05   0.05  -0.00     0.01   0.01  -0.00
   9   6     0.01  -0.01  -0.00     0.26  -0.17  -0.02     0.06  -0.04  -0.00
  10   6    -0.01   0.01   0.01    -0.19   0.14   0.02    -0.05   0.04   0.00
  11   6     0.01  -0.01   0.00     0.26  -0.19  -0.04     0.06  -0.05  -0.01
  12   6     0.02   0.00   0.01     0.29   0.07  -0.03     0.07   0.02  -0.01
  13   8    -0.00  -0.00  -0.01    -0.01  -0.02   0.00    -0.00  -0.01   0.00
  14   8    -0.04  -0.00  -0.23    -0.29  -0.06   0.05    -0.07  -0.01   0.01
  15   6     0.06   0.01   0.42     0.11   0.08  -0.04     0.03   0.02  -0.01
  16   6    -0.02   0.00  -0.00    -0.31   0.00   0.03    -0.08  -0.00   0.01
  17   1    -0.00   0.00   0.00    -0.03   0.01  -0.06    -0.02  -0.00   0.23
  18   1    -0.00   0.00   0.00     0.13  -0.04  -0.04    -0.52   0.16   0.16
  19   1     0.00  -0.00   0.00    -0.13   0.04  -0.05     0.53  -0.18   0.17
  20   1    -0.00  -0.00   0.00    -0.04  -0.08   0.00    -0.01  -0.02  -0.00
  21   1    -0.00  -0.00   0.00    -0.05  -0.04  -0.00    -0.01  -0.01  -0.00
  22   1    -0.00  -0.00   0.00    -0.05  -0.04   0.00    -0.01  -0.01   0.00
  23   1    -0.01  -0.00  -0.00    -0.20  -0.04   0.01    -0.05  -0.01   0.00
  24   1     0.00  -0.00   0.00    -0.05   0.01   0.01    -0.01   0.00   0.00
  25   1    -0.01   0.00  -0.00    -0.13   0.04   0.01    -0.03   0.01   0.00
  26   1    -0.01   0.00  -0.00    -0.06   0.01  -0.00    -0.01   0.00  -0.00
  27   1     0.33   0.44  -0.22    -0.07  -0.02   0.02    -0.02  -0.01   0.01
  28   1    -0.02   0.00  -0.24     0.04   0.05   0.01     0.01   0.01   0.00
  29   1    -0.38  -0.45  -0.12    -0.03   0.02   0.01    -0.00   0.01   0.00
  30   1    -0.00   0.00   0.00    -0.13  -0.02   0.01    -0.04  -0.01   0.00
  31   1    -0.01  -0.00   0.00    -0.16  -0.02   0.01    -0.04  -0.00   0.00
                     46                     47                     48
                        a                      a                      a 
 Frequencies --  1142.3605              1151.1530              1160.6027
 Red. masses --     7.1000                 6.5831                 9.6950
 Frc consts  --     0.0000                 0.0000                 0.0000
 IR Inten    --    75.5811                23.9926                59.6446
 Raman Activ --     0.0000                 0.0000                 0.0000
 Depolar     --     0.0000                 0.0000                 0.0000
 Atom AN      X      Y      Z        X      Y      Z        X      Y      Z
   1   6     0.18   0.25   0.01     0.13   0.20   0.01    -0.09  -0.11  -0.00
   2   8    -0.17  -0.23  -0.01    -0.12  -0.24  -0.01     0.10   0.14   0.01
   3   6    -0.02   0.03   0.00    -0.05   0.13   0.00     0.04  -0.12  -0.00
   4   8     0.00   0.05   0.00     0.06   0.05   0.00    -0.08  -0.04  -0.00
   5   6     0.21   0.24   0.01     0.02  -0.07  -0.00     0.11   0.33   0.01
   6   6    -0.00   0.20  -0.00    -0.06  -0.07  -0.00     0.10   0.28  -0.00
   7   6     0.02  -0.15   0.00     0.02   0.05   0.00    -0.02  -0.20  -0.00
   8   7     0.03  -0.09   0.00     0.01   0.02  -0.00     0.02  -0.14   0.00
   9   6    -0.08   0.07   0.01    -0.03  -0.00   0.00    -0.14   0.22   0.00
  10   6     0.05  -0.06  -0.00     0.01   0.00  -0.00     0.08  -0.17  -0.00
  11   6    -0.05   0.14   0.00     0.05  -0.01  -0.00    -0.26   0.19   0.03
  12   6    -0.01   0.00   0.00     0.02  -0.04  -0.00     0.10  -0.01  -0.01
  13   8    -0.03   0.02   0.00     0.06  -0.10  -0.00     0.02  -0.09   0.00
  14   8     0.08  -0.16  -0.01    -0.18   0.29   0.01    -0.06   0.19   0.00
  15   6    -0.10   0.17   0.01     0.19  -0.29  -0.02     0.07  -0.17  -0.01
  16   6    -0.02  -0.23  -0.02    -0.00   0.05   0.00     0.06  -0.33  -0.03
  17   1    -0.41   0.10  -0.01    -0.32   0.08  -0.00     0.18  -0.05   0.00
  18   1     0.14  -0.21   0.03     0.11  -0.17   0.03    -0.06   0.10  -0.02
  19   1     0.13  -0.21  -0.04     0.11  -0.17  -0.04    -0.06   0.10   0.02
  20   1     0.03   0.07  -0.00     0.01   0.02  -0.00     0.01   0.02  -0.00
  21   1    -0.10  -0.05  -0.01     0.03   0.02   0.00    -0.11  -0.07  -0.01
  22   1    -0.10  -0.06   0.01     0.03   0.02  -0.00    -0.12  -0.07   0.01
  23   1    -0.05  -0.04   0.01     0.06   0.02  -0.00    -0.02  -0.04   0.01
  24   1     0.00   0.01  -0.01     0.01  -0.01   0.00    -0.01   0.05  -0.02
  25   1     0.07  -0.02  -0.00    -0.01   0.00   0.00     0.19  -0.05  -0.02
  26   1     0.01   0.01   0.00     0.01  -0.01  -0.00    -0.01   0.05   0.01
  27   1     0.15   0.04   0.01    -0.27  -0.06  -0.01    -0.14  -0.04  -0.01
  28   1    -0.15  -0.21   0.02     0.26   0.38  -0.04     0.12   0.18  -0.02
  29   1     0.15   0.03  -0.04    -0.26  -0.05   0.08    -0.13  -0.03   0.04
  30   1    -0.10  -0.08   0.00    -0.03   0.01   0.00     0.01  -0.08  -0.00
  31   1    -0.08  -0.06  -0.01    -0.01   0.00   0.00     0.00  -0.06  -0.02
                     49                     50                     51
                        a                      a                      a 
 Frequencies --  1190.5835              1196.0337              1249.7424
 Red. masses --     6.6451                 3.6490                11.1930
 Frc consts  --     0.0000                 0.0000                 0.0000
 IR Inten    --   503.0632               182.9590               161.2967
 Raman Activ --     0.0000                 0.0000                 0.0000
 Depolar     --     0.0000                 0.0000                 0.0000
 Atom AN      X      Y      Z        X      Y      Z        X      Y      Z
   1   6    -0.07  -0.08  -0.00     0.03   0.05   0.00    -0.03  -0.01  -0.00
   2   8     0.10   0.03  -0.00    -0.04  -0.03  -0.01     0.04  -0.05  -0.00
   3   6    -0.17   0.18   0.01     0.11  -0.11   0.01    -0.16   0.24   0.01
   4   8    -0.10  -0.10  -0.01     0.07   0.07   0.00    -0.07  -0.08  -0.00
   5   6     0.38   0.06  -0.07    -0.27  -0.03  -0.15     0.36   0.00   0.00
   6   6    -0.13   0.02  -0.01     0.11   0.01  -0.01     0.12  -0.04   0.00
   7   6     0.06  -0.01   0.02    -0.05  -0.00   0.02    -0.06  -0.01   0.00
   8   7     0.01   0.01   0.00    -0.01  -0.02   0.00    -0.01   0.28  -0.01
   9   6    -0.04  -0.10   0.02     0.07   0.07  -0.00    -0.20  -0.19   0.02
  10   6     0.02   0.06  -0.02    -0.03  -0.04  -0.01     0.06   0.06  -0.01
  11   6     0.33   0.08   0.05    -0.16  -0.04   0.17    -0.33  -0.34   0.06
  12   6    -0.26  -0.08   0.03     0.12   0.04  -0.03     0.44   0.10  -0.05
  13   8     0.05  -0.04  -0.00    -0.02   0.02   0.00    -0.07   0.13   0.00
  14   8     0.01   0.01  -0.00     0.00  -0.00  -0.00    -0.09  -0.02   0.01
  15   6     0.03  -0.02  -0.00    -0.02   0.01   0.00    -0.01   0.03   0.00
  16   6    -0.08  -0.00  -0.01     0.01   0.00  -0.00    -0.08  -0.07  -0.02
  17   1     0.14  -0.04  -0.00    -0.08   0.02  -0.00     0.05  -0.01   0.00
  18   1    -0.02   0.05  -0.02     0.02  -0.03   0.01     0.01  -0.01  -0.01
  19   1    -0.03   0.05   0.02     0.01  -0.03  -0.01     0.01  -0.01   0.00
  20   1     0.03   0.07  -0.01    -0.03  -0.06  -0.01    -0.02  -0.03   0.00
  21   1    -0.02   0.02  -0.01     0.03   0.01   0.00     0.04   0.00   0.01
  22   1    -0.04  -0.02   0.00     0.01  -0.02  -0.01     0.04   0.00  -0.01
  23   1    -0.01  -0.00   0.00    -0.04  -0.02   0.00     0.23   0.13  -0.02
  24   1     0.02  -0.04   0.01    -0.04   0.04   0.00     0.02  -0.08   0.03
  25   1    -0.09   0.02   0.01     0.06  -0.01   0.00    -0.02   0.01   0.00
  26   1     0.04  -0.04  -0.00    -0.01   0.03   0.01     0.01  -0.08  -0.03
  27   1    -0.01   0.00  -0.01     0.01  -0.00   0.00    -0.01  -0.01   0.01
  28   1     0.04   0.05  -0.01    -0.02  -0.03   0.00    -0.04  -0.06   0.01
  29   1    -0.01   0.00   0.01     0.00  -0.00  -0.00    -0.02  -0.01  -0.00
  30   1    -0.64  -0.15   0.03    -0.35  -0.08   0.02    -0.01  -0.00   0.00
  31   1     0.08   0.00   0.01     0.76   0.18  -0.03     0.08  -0.02   0.01
                     52                     53                     54
                        a                      a                      a 
 Frequencies --  1258.3284              1286.0626              1352.0137
 Red. masses --     5.6805                10.9265                 7.3370
 Frc consts  --     0.0000                 0.0000                 0.0000
 IR Inten    --    65.4801                90.8676                 5.4904
 Raman Activ --     0.0000                 0.0000                 0.0000
 Depolar     --     0.0000                 0.0000                 0.0000
 Atom AN      X      Y      Z        X      Y      Z        X      Y      Z
   1   6     0.01   0.01   0.00    -0.01  -0.01  -0.00     0.01  -0.01  -0.00
   2   8    -0.01   0.06   0.00     0.02   0.01   0.00     0.01  -0.00   0.00
   3   6     0.16  -0.25  -0.00    -0.01   0.03   0.00    -0.05   0.09   0.00
   4   8     0.04   0.06   0.00    -0.06  -0.04  -0.00    -0.05  -0.04  -0.00
   5   6    -0.21   0.25  -0.01     0.20   0.11   0.00     0.27   0.04   0.00
   6   6    -0.28   0.07  -0.00    -0.55  -0.16  -0.00     0.07  -0.06  -0.00
   7   6     0.08  -0.02   0.00     0.16   0.06   0.00    -0.01  -0.01   0.00
   8   7     0.12  -0.06  -0.00     0.07  -0.18   0.01    -0.16  -0.04   0.01
   9   6    -0.19  -0.09   0.02     0.54   0.12  -0.05     0.01   0.09  -0.00
  10   6     0.03   0.06  -0.01    -0.19  -0.03   0.02    -0.00  -0.00  -0.00
  11   6     0.17  -0.10  -0.01    -0.24  -0.06   0.03     0.27   0.10  -0.03
  12   6    -0.04  -0.00   0.00     0.18   0.04  -0.02    -0.12  -0.03   0.01
  13   8     0.01   0.02  -0.00    -0.02   0.01   0.00     0.02  -0.04  -0.00
  14   8     0.00  -0.01  -0.00    -0.03   0.01   0.00     0.00  -0.00  -0.00
  15   6    -0.00   0.00   0.00    -0.00   0.01  -0.00    -0.00  -0.01   0.00
  16   6    -0.14  -0.03   0.02    -0.04  -0.03  -0.01    -0.56  -0.15   0.03
  17   1    -0.03   0.01  -0.00     0.02  -0.00   0.00    -0.00  -0.00   0.00
  18   1    -0.01   0.02   0.00     0.00   0.00  -0.00    -0.01   0.01   0.00
  19   1    -0.01   0.01  -0.00     0.00   0.00   0.00    -0.01   0.01  -0.00
  20   1     0.05   0.12  -0.00     0.09   0.20  -0.00     0.00   0.01   0.00
  21   1    -0.04  -0.02   0.00     0.01   0.05  -0.03     0.02   0.01  -0.00
  22   1    -0.04  -0.03  -0.00     0.01   0.05   0.03     0.02   0.01   0.00
  23   1     0.71   0.15  -0.03     0.04  -0.04   0.01    -0.02  -0.01   0.00
  24   1     0.06  -0.10   0.01    -0.11   0.11  -0.00     0.02   0.01  -0.02
  25   1    -0.01   0.01   0.00    -0.01  -0.00   0.00     0.01   0.00  -0.00
  26   1     0.06  -0.09  -0.01    -0.10   0.11   0.01     0.02   0.01   0.01
  27   1     0.01   0.00  -0.00    -0.02  -0.01   0.01     0.02   0.01  -0.01
  28   1     0.00   0.00  -0.00    -0.02  -0.03   0.00     0.02   0.03  -0.00
  29   1     0.01   0.00  -0.00    -0.02  -0.01  -0.00     0.02   0.01   0.00
  30   1     0.01  -0.00   0.00     0.02   0.01   0.00     0.48   0.11  -0.02
  31   1     0.05   0.02  -0.01     0.04   0.00   0.00     0.41   0.10  -0.02
                     55                     56                     57
                        a                      a                      a 
 Frequencies --  1387.1037              1388.1783              1390.9459
 Red. masses --     2.6487                 2.6072                 3.4669
 Frc consts  --     0.0000                 0.0000                 0.0000
 IR Inten    --    51.8263                17.2536                35.9203
 Raman Activ --     0.0000                 0.0000                 0.0000
 Depolar     --     0.0000                 0.0000                 0.0000
 Atom AN      X      Y      Z        X      Y      Z        X      Y      Z
   1   6    -0.08   0.06  -0.00    -0.25   0.19  -0.00    -0.01   0.00  -0.00
   2   8    -0.03   0.02  -0.00    -0.09   0.07   0.00     0.00  -0.00  -0.00
   3   6     0.02   0.00   0.00     0.06  -0.03  -0.00    -0.03   0.00  -0.00
   4   8    -0.01  -0.01  -0.00    -0.03  -0.02  -0.00     0.01   0.01   0.00
   5   6    -0.01   0.01   0.00    -0.03   0.01   0.00     0.04  -0.01  -0.00
   6   6     0.03   0.00   0.00     0.04   0.00   0.00    -0.09  -0.04  -0.00
   7   6    -0.02  -0.03  -0.00    -0.01   0.00  -0.00     0.25   0.38   0.00
   8   7    -0.05  -0.01   0.00    -0.06  -0.02   0.00     0.01  -0.00   0.00
   9   6     0.05   0.01  -0.01     0.03   0.02  -0.00     0.03   0.00  -0.00
  10   6    -0.06   0.02   0.01    -0.01  -0.00   0.00     0.00  -0.00  -0.00
  11   6    -0.03  -0.03   0.00     0.02   0.00  -0.00    -0.02  -0.00   0.00
  12   6     0.06   0.05  -0.01    -0.04  -0.01   0.00     0.02  -0.00  -0.00
  13   8     0.01  -0.04   0.00     0.00   0.00  -0.00    -0.00   0.00   0.00
  14   8    -0.10  -0.06   0.01     0.04   0.02  -0.01    -0.01  -0.00   0.00
  15   6    -0.26  -0.17   0.03     0.09   0.06  -0.01    -0.02  -0.01   0.00
  16   6     0.02   0.00  -0.00    -0.01  -0.00   0.00    -0.02   0.00  -0.00
  17   1     0.18  -0.01   0.01     0.54  -0.03   0.02     0.02  -0.00   0.00
  18   1     0.11  -0.12  -0.02     0.33  -0.36  -0.08     0.01  -0.01  -0.00
  19   1     0.11  -0.12   0.02     0.32  -0.35   0.07     0.01  -0.01   0.00
  20   1     0.01   0.03   0.00    -0.00  -0.01  -0.00    -0.11  -0.46  -0.01
  21   1     0.03   0.02  -0.01     0.00  -0.01   0.01    -0.31  -0.37   0.20
  22   1     0.03   0.02   0.01     0.00  -0.01  -0.01    -0.32  -0.36  -0.21
  23   1     0.03   0.01  -0.00     0.04   0.01  -0.00     0.01   0.00   0.00
  24   1     0.04  -0.02  -0.03     0.01   0.00  -0.01    -0.02   0.01   0.01
  25   1     0.07  -0.00  -0.01    -0.00   0.00  -0.00    -0.02   0.00   0.00
  26   1     0.04  -0.02   0.02     0.01   0.00   0.01    -0.02   0.01  -0.01
  27   1     0.43   0.18  -0.13    -0.15  -0.07   0.05     0.03   0.02  -0.01
  28   1     0.22   0.49  -0.03    -0.08  -0.17   0.01     0.02   0.04  -0.00
  29   1     0.44   0.19   0.03    -0.15  -0.07  -0.01     0.03   0.02   0.00
  30   1    -0.03  -0.00   0.00     0.01   0.01   0.00     0.02   0.01   0.00
  31   1    -0.02  -0.01   0.00     0.00   0.01  -0.00     0.02   0.01  -0.00
                     58                     59                     60
                        a                      a                      a 
 Frequencies --  1401.3177              1415.9517              1440.7995
 Red. masses --     4.3376                 8.7041                 1.5242
 Frc consts  --     0.0000                 0.0000                 0.0000
 IR Inten    --   165.2401               571.4836                 6.6740
 Raman Activ --     0.0000                 0.0000                 0.0000
 Depolar     --     0.0000                 0.0000                 0.0000
 Atom AN      X      Y      Z        X      Y      Z        X      Y      Z
   1   6     0.02  -0.01   0.00     0.02  -0.01   0.00    -0.00  -0.00  -0.00
   2   8     0.01  -0.03  -0.00     0.02  -0.06  -0.00    -0.00   0.00  -0.00
   3   6    -0.02   0.06   0.00    -0.02   0.11   0.00    -0.00  -0.00   0.00
   4   8    -0.01  -0.01  -0.00    -0.02  -0.02  -0.00     0.00   0.00  -0.00
   5   6     0.01   0.00   0.00    -0.02   0.06   0.00     0.00  -0.00   0.00
   6   6     0.12   0.00   0.00     0.35   0.02   0.00    -0.00  -0.00  -0.00
   7   6    -0.01   0.01  -0.00    -0.07  -0.01  -0.00     0.00  -0.00  -0.00
   8   7    -0.22  -0.05   0.01    -0.56  -0.15   0.02     0.00   0.00  -0.00
   9   6     0.19   0.04  -0.02     0.32   0.14  -0.03    -0.00  -0.00  -0.00
  10   6    -0.41   0.10   0.05     0.09  -0.04  -0.01    -0.00  -0.00  -0.01
  11   6    -0.02  -0.03   0.00     0.01  -0.04  -0.00     0.00  -0.00   0.00
  12   6    -0.02   0.01   0.00    -0.07   0.05   0.01    -0.00   0.00  -0.00
  13   8     0.00  -0.01   0.00     0.02  -0.06  -0.00     0.00  -0.00   0.00
  14   8     0.03   0.01  -0.00     0.04  -0.00  -0.00    -0.00   0.00  -0.04
  15   6     0.03   0.02  -0.00    -0.01   0.01  -0.00    -0.02  -0.00  -0.21
  16   6     0.03   0.02  -0.00     0.06   0.01  -0.00    -0.00  -0.00  -0.00
  17   1    -0.05   0.00  -0.00    -0.05   0.00  -0.00    -0.00  -0.00   0.01
  18   1    -0.03   0.03   0.01    -0.04   0.02   0.02     0.00  -0.00  -0.00
  19   1    -0.03   0.03  -0.01    -0.04   0.02  -0.02    -0.00   0.00   0.00
  20   1    -0.01  -0.02   0.00    -0.01   0.02   0.00    -0.00  -0.00   0.00
  21   1     0.00  -0.04   0.03     0.06  -0.09   0.07    -0.00   0.00  -0.00
  22   1     0.00  -0.03  -0.03     0.06  -0.08  -0.07    -0.00   0.00   0.00
  23   1     0.09   0.02  -0.00     0.40   0.09  -0.02    -0.00  -0.00   0.00
  24   1     0.39  -0.12  -0.29    -0.16   0.11   0.08     0.01  -0.01   0.00
  25   1     0.39  -0.01  -0.07    -0.19   0.01   0.03     0.00   0.00   0.02
  26   1     0.45  -0.13   0.20    -0.18   0.12  -0.06    -0.00   0.01   0.00
  27   1    -0.05  -0.03   0.02     0.00  -0.02   0.01     0.47  -0.06   0.04
  28   1    -0.03  -0.06   0.00    -0.00  -0.01   0.00     0.08   0.02   0.71
  29   1    -0.05  -0.03  -0.01    -0.00  -0.02  -0.01    -0.45   0.04   0.12
  30   1    -0.06  -0.01   0.00    -0.11  -0.03  -0.00     0.00   0.00   0.00
  31   1    -0.06  -0.01   0.00    -0.12  -0.04   0.01    -0.00   0.00  -0.00
                     61                     62                     63
                        a                      a                      a 
 Frequencies --  1442.6611              1449.4045              1454.1784
 Red. masses --     1.5208                 1.5488                 1.9267
 Frc consts  --     0.0000                 0.0000                 0.0000
 IR Inten    --     6.6703                 6.8643                13.1891
 Raman Activ --     0.0000                 0.0000                 0.0000
 Depolar     --     0.0000                 0.0000                 0.0000
 Atom AN      X      Y      Z        X      Y      Z        X      Y      Z
   1   6     0.01   0.00  -0.21    -0.00  -0.00   0.00     0.00   0.00   0.00
   2   8     0.00  -0.00  -0.04    -0.00   0.00   0.00    -0.00  -0.00   0.00
   3   6    -0.00   0.00  -0.00    -0.00  -0.00   0.00    -0.04   0.01  -0.00
   4   8     0.00   0.00   0.00     0.00   0.00  -0.00     0.02   0.01   0.00
   5   6     0.00  -0.00   0.00     0.00  -0.00  -0.00     0.02  -0.09  -0.00
   6   6     0.00   0.00  -0.00    -0.00   0.00  -0.00     0.05   0.04  -0.01
   7   6     0.00  -0.00  -0.00     0.00  -0.00  -0.01     0.19  -0.09  -0.05
   8   7    -0.00  -0.00  -0.00     0.00   0.00  -0.00    -0.11  -0.03   0.01
   9   6     0.00   0.00  -0.00    -0.01  -0.00  -0.04     0.06   0.03  -0.01
  10   6    -0.00  -0.00  -0.00    -0.04  -0.03  -0.21    -0.00  -0.01   0.00
  11   6    -0.00  -0.00  -0.00     0.00  -0.01   0.00    -0.01  -0.02   0.00
  12   6     0.00   0.00   0.00     0.00  -0.00  -0.00    -0.00   0.01   0.00
  13   8     0.00  -0.00  -0.00    -0.00   0.00   0.00     0.00  -0.01   0.00
  14   8     0.00  -0.00   0.00    -0.00   0.00   0.00     0.00  -0.00  -0.00
  15   6     0.00  -0.00   0.00    -0.00   0.00   0.01    -0.00   0.00   0.00
  16   6     0.00   0.00   0.00     0.00   0.00   0.00     0.00   0.03   0.00
  17   1    -0.02  -0.02   0.72     0.00   0.00  -0.00     0.01  -0.00  -0.01
  18   1     0.11  -0.44   0.07    -0.00   0.00  -0.00    -0.01  -0.00   0.01
  19   1    -0.12   0.45   0.09     0.00  -0.00  -0.00    -0.01  -0.01  -0.01
  20   1    -0.00  -0.00   0.01     0.00  -0.00   0.03    -0.07  -0.37   0.14
  21   1     0.00   0.00  -0.00     0.01   0.00  -0.00    -0.25   0.38  -0.31
  22   1    -0.01   0.00   0.00    -0.02   0.00   0.01    -0.42   0.36   0.36
  23   1     0.00   0.00  -0.00    -0.00  -0.00   0.01     0.13   0.03  -0.00
  24   1     0.00  -0.00   0.00     0.16  -0.41   0.05    -0.01   0.02  -0.00
  25   1     0.00   0.00   0.00     0.06   0.04   0.71    -0.02   0.00  -0.01
  26   1    -0.00   0.00   0.00    -0.06   0.48   0.10    -0.01   0.01   0.00
  27   1    -0.00   0.00  -0.00    -0.01  -0.00  -0.00     0.00  -0.01   0.01
  28   1    -0.00  -0.00  -0.01    -0.00   0.00  -0.02     0.00   0.00  -0.00
  29   1     0.00   0.00  -0.00     0.01  -0.01  -0.01     0.00  -0.01  -0.01
  30   1    -0.00  -0.00  -0.00     0.00  -0.00  -0.00     0.01  -0.02  -0.02
  31   1    -0.00  -0.00   0.00    -0.00   0.00  -0.00     0.01  -0.02   0.02
                     64                     65                     66
                        a                      a                      a 
 Frequencies --  1464.3174              1468.2947              1469.0263
 Red. masses --     1.5576                 1.6725                 1.6127
 Frc consts  --     0.0000                 0.0000                 0.0000
 IR Inten    --    11.8715                 0.9212                 4.3423
 Raman Activ --     0.0000                 0.0000                 0.0000
 Depolar     --     0.0000                 0.0000                 0.0000
 Atom AN      X      Y      Z        X      Y      Z        X      Y      Z
   1   6    -0.00  -0.00   0.00     0.00   0.00  -0.00    -0.14  -0.17  -0.00
   2   8     0.00   0.00   0.00     0.00   0.00   0.00    -0.05  -0.03  -0.00
   3   6     0.00  -0.01   0.00     0.00  -0.00  -0.00    -0.03  -0.01  -0.00
   4   8     0.00   0.00  -0.00     0.00   0.00  -0.00     0.03   0.03   0.00
   5   6    -0.00   0.02  -0.00    -0.00   0.00  -0.00     0.00  -0.01  -0.00
   6   6    -0.01  -0.01  -0.04    -0.02  -0.00  -0.00     0.01   0.00   0.00
   7   6    -0.04   0.02  -0.21    -0.00   0.00  -0.00     0.00  -0.00   0.00
   8   7     0.02   0.00   0.01     0.04   0.01  -0.00    -0.02  -0.00   0.00
   9   6    -0.01  -0.01   0.00    -0.05  -0.01   0.01     0.01   0.00  -0.00
  10   6     0.00   0.00   0.01     0.02  -0.07   0.01     0.00  -0.01   0.00
  11   6     0.00   0.00  -0.00     0.00  -0.02   0.00    -0.00  -0.00  -0.00
  12   6     0.00  -0.00  -0.00     0.01   0.03  -0.00     0.00  -0.00  -0.00
  13   8    -0.00   0.00  -0.00     0.01  -0.03  -0.00    -0.00   0.00  -0.00
  14   8    -0.00  -0.00   0.00    -0.02   0.05   0.00    -0.00  -0.00   0.00
  15   6     0.00  -0.00  -0.00    -0.11   0.17   0.01    -0.00  -0.00   0.00
  16   6    -0.00  -0.01   0.00    -0.00   0.00   0.00     0.00  -0.01  -0.00
  17   1    -0.00   0.00  -0.01     0.00  -0.00   0.00    -0.23   0.01  -0.01
  18   1     0.00   0.01  -0.00    -0.00  -0.00   0.00     0.45   0.33  -0.38
  19   1     0.00  -0.00   0.00    -0.00  -0.00  -0.00     0.43   0.30   0.40
  20   1     0.03   0.06   0.72     0.00   0.01   0.01    -0.00  -0.01  -0.00
  21   1     0.51  -0.07   0.13     0.01  -0.01   0.01    -0.01   0.01  -0.01
  22   1    -0.37  -0.08   0.01     0.00  -0.01  -0.00    -0.00   0.01   0.01
  23   1    -0.02  -0.01  -0.01    -0.01  -0.00  -0.00     0.01   0.00  -0.00
  24   1    -0.01   0.01   0.00     0.06   0.13  -0.11     0.01   0.02  -0.01
  25   1     0.01  -0.00  -0.02    -0.14  -0.00  -0.01    -0.02   0.00  -0.00
  26   1     0.00  -0.02  -0.01     0.08   0.12   0.07     0.01   0.02   0.01
  27   1    -0.00   0.00  -0.00     0.18  -0.48   0.36     0.00   0.00  -0.00
  28   1    -0.00  -0.00   0.00     0.09   0.21  -0.03     0.00   0.00  -0.00
  29   1    -0.00   0.01   0.00     0.12  -0.51  -0.38     0.00   0.00  -0.00
  30   1    -0.00   0.00   0.01     0.00  -0.00  -0.00    -0.00   0.03   0.02
  31   1     0.00   0.01  -0.00     0.00  -0.00   0.00    -0.01   0.03  -0.02
                     67                     68                     69
                        a                      a                      a 
 Frequencies --  1472.6792              1490.4270              1624.0467
 Red. masses --     1.8016                 2.0039                11.5673
 Frc consts  --     0.0000                 0.0000                 0.0000
 IR Inten    --     1.6298                 3.7635               506.7591
 Raman Activ --     0.0000                 0.0000                 0.0000
 Depolar     --     0.0000                 0.0000                 0.0000
 Atom AN      X      Y      Z        X      Y      Z        X      Y      Z
   1   6    -0.00  -0.01  -0.00     0.01   0.01   0.00     0.00  -0.00  -0.00
   2   8    -0.00  -0.00  -0.00     0.01  -0.01  -0.00    -0.01   0.06   0.00
   3   6    -0.00   0.01   0.00    -0.00   0.01   0.00    -0.18  -0.12  -0.01
   4   8    -0.00  -0.00  -0.00    -0.00  -0.00  -0.00     0.12   0.08   0.01
   5   6     0.01  -0.00   0.00    -0.01   0.03  -0.00     0.10  -0.41  -0.01
   6   6     0.01  -0.00   0.00     0.02  -0.06  -0.00    -0.07   0.44   0.00
   7   6     0.00   0.00   0.00     0.01   0.00   0.00    -0.03  -0.07   0.00
   8   7    -0.04  -0.02   0.00    -0.01   0.02   0.00    -0.06  -0.02   0.00
   9   6     0.11   0.05  -0.01     0.02  -0.07  -0.00     0.16  -0.41  -0.01
  10   6    -0.05   0.21  -0.02    -0.00   0.01   0.00    -0.04   0.05   0.00
  11   6     0.00   0.02  -0.00    -0.00   0.04  -0.00    -0.13   0.44   0.01
  12   6    -0.05   0.01   0.01     0.00  -0.02   0.00     0.07  -0.23  -0.00
  13   8     0.01  -0.02  -0.00    -0.00   0.01  -0.00    -0.04   0.13   0.00
  14   8     0.02   0.02  -0.00    -0.00   0.00   0.00    -0.04   0.03   0.00
  15   6    -0.02   0.06   0.00     0.00   0.00   0.00     0.00  -0.00  -0.00
  16   6     0.00   0.00   0.00     0.06  -0.27  -0.04     0.04   0.01  -0.00
  17   1    -0.01   0.00  -0.00     0.01  -0.00   0.00     0.02  -0.00   0.00
  18   1     0.01   0.01  -0.01    -0.03  -0.02   0.02    -0.00  -0.01   0.01
  19   1     0.01   0.01   0.01    -0.03  -0.01  -0.02    -0.00  -0.01  -0.01
  20   1    -0.00  -0.01  -0.00    -0.01  -0.02  -0.00     0.02   0.07  -0.00
  21   1    -0.01   0.00  -0.00    -0.01   0.03  -0.02     0.00  -0.05   0.03
  22   1    -0.00   0.00   0.00    -0.01   0.03   0.02     0.00  -0.05  -0.03
  23   1    -0.04  -0.01   0.00     0.01   0.00  -0.00     0.15   0.04  -0.01
  24   1    -0.20  -0.42   0.36    -0.00   0.00  -0.00    -0.00  -0.01   0.01
  25   1     0.46  -0.00   0.01    -0.02   0.00   0.00    -0.05   0.01   0.01
  26   1    -0.28  -0.39  -0.25    -0.00   0.00  -0.00    -0.00  -0.01  -0.00
  27   1     0.04  -0.15   0.12     0.00  -0.00   0.00     0.01  -0.01   0.01
  28   1     0.02   0.06  -0.01     0.00   0.00  -0.00     0.01   0.02  -0.00
  29   1     0.02  -0.16  -0.12     0.00  -0.00  -0.00     0.01  -0.01  -0.01
  30   1    -0.00   0.00   0.00    -0.10   0.47   0.48     0.09   0.01  -0.01
  31   1    -0.01   0.00  -0.00    -0.15   0.55  -0.33     0.09   0.01   0.00
                     70                     71                     72
                        a                      a                      a 
 Frequencies --  1656.6548              1679.0617              1691.0109
 Red. masses --    11.9077                13.1956                12.9453
 Frc consts  --     0.0000                 0.0000                 0.0000
 IR Inten    --   560.7837               466.1191               361.9756
 Raman Activ --     0.0000                 0.0000                 0.0000
 Depolar     --     0.0000                 0.0000                 0.0000
 Atom AN      X      Y      Z        X      Y      Z        X      Y      Z
   1   6     0.00  -0.00  -0.00    -0.00   0.00  -0.00     0.01   0.00   0.00
   2   8    -0.00   0.05   0.00     0.01   0.00   0.00    -0.04  -0.03  -0.00
   3   6    -0.29  -0.16  -0.01    -0.10  -0.07  -0.00     0.58   0.36   0.03
   4   8     0.19   0.12   0.01     0.07   0.05   0.00    -0.41  -0.29  -0.02
   5   6     0.14  -0.38  -0.01    -0.02   0.11   0.00    -0.03  -0.29  -0.01
   6   6    -0.13   0.39   0.00     0.05  -0.11  -0.00    -0.09   0.33   0.00
   7   6    -0.01  -0.05   0.00     0.00   0.01   0.00    -0.01  -0.04  -0.00
   8   7     0.01  -0.09   0.00    -0.06  -0.04   0.00     0.04  -0.06   0.00
   9   6    -0.09   0.45  -0.00    -0.02   0.25  -0.00    -0.03   0.12  -0.00
  10   6     0.03  -0.05   0.00     0.02  -0.03  -0.00     0.01  -0.02  -0.00
  11   6     0.11  -0.45  -0.00     0.11  -0.14  -0.01     0.05  -0.10  -0.00
  12   6    -0.03   0.16  -0.00     0.13  -0.71   0.00     0.01  -0.13   0.00
  13   8     0.03  -0.07  -0.00    -0.13   0.54   0.00    -0.02   0.11  -0.00
  14   8     0.02  -0.02  -0.00    -0.03   0.04   0.00     0.00   0.00  -0.00
  15   6    -0.00   0.00   0.00    -0.01  -0.01   0.00    -0.00  -0.00   0.00
  16   6    -0.01   0.06   0.00    -0.02   0.01   0.00    -0.01   0.04   0.00
  17   1     0.02  -0.00   0.00     0.01  -0.00   0.00    -0.04   0.01  -0.00
  18   1    -0.01  -0.01   0.01    -0.00  -0.00   0.00     0.01   0.02  -0.01
  19   1    -0.01  -0.01  -0.01    -0.00  -0.00  -0.00     0.01   0.02   0.01
  20   1     0.02   0.07  -0.00     0.00  -0.00  -0.00    -0.01  -0.01   0.00
  21   1    -0.00  -0.04   0.02     0.00   0.01  -0.00    -0.02  -0.03   0.01
  22   1    -0.00  -0.04  -0.03     0.01   0.01   0.01    -0.02  -0.03  -0.01
  23   1    -0.01  -0.01   0.01    -0.03  -0.01   0.00     0.04  -0.00   0.00
  24   1    -0.00   0.02  -0.01    -0.00   0.01   0.00    -0.00   0.00  -0.00
  25   1     0.05  -0.01  -0.01     0.03  -0.00  -0.00     0.01  -0.00  -0.00
  26   1    -0.00   0.01   0.01    -0.00   0.01  -0.00    -0.00   0.00   0.00
  27   1    -0.00   0.01  -0.01     0.02  -0.02   0.01     0.00  -0.00   0.00
  28   1    -0.01  -0.01   0.00     0.02   0.04  -0.00     0.00   0.01  -0.00
  29   1    -0.00   0.01   0.01     0.02  -0.02  -0.01     0.00  -0.00  -0.00
  30   1    -0.02   0.07   0.06    -0.04  -0.02   0.00     0.00   0.03   0.02
  31   1    -0.03   0.07  -0.04    -0.04  -0.01  -0.00     0.00   0.04  -0.02
                     73                     74                     75
                        a                      a                      a 
 Frequencies --  2886.1713              2945.2543              2961.5529
 Red. masses --     1.8905                 1.5476                 1.9484
 Frc consts  --     0.0000                 0.0000                 0.0000
 IR Inten    --    33.3388                21.7714                21.5227
 Raman Activ --     0.0000                 0.0000                 0.0000
 Depolar     --     0.0000                 0.0000                 0.0000
 Atom AN      X      Y      Z        X      Y      Z        X      Y      Z
   1   6     0.00   0.00   0.00     0.00   0.00   0.00     0.01   0.01  -0.29
   2   8    -0.00   0.00   0.00     0.00   0.00  -0.00     0.00   0.00  -0.01
   3   6     0.00  -0.00  -0.00     0.00  -0.00  -0.00    -0.00   0.00   0.00
   4   8    -0.00  -0.00   0.00     0.00   0.00   0.00    -0.00   0.00  -0.00
   5   6    -0.00  -0.01  -0.00    -0.00  -0.01   0.00    -0.00  -0.00  -0.00
   6   6    -0.00   0.00  -0.00    -0.00   0.00   0.00    -0.00   0.00  -0.00
   7   6     0.00  -0.00   0.00     0.00   0.00  -0.00    -0.00   0.00   0.00
   8   7     0.00  -0.00   0.00     0.00   0.00  -0.00     0.00   0.00   0.00
   9   6    -0.00   0.00  -0.00     0.00   0.00   0.00    -0.00   0.00  -0.00
  10   6     0.00  -0.00   0.00    -0.00   0.00  -0.00     0.00  -0.00   0.00
  11   6     0.01  -0.00  -0.00     0.01  -0.01   0.00     0.00  -0.00   0.00
  12   6    -0.00  -0.00   0.00     0.00  -0.00  -0.00    -0.00  -0.00  -0.00
  13   8    -0.00   0.00   0.00    -0.00   0.00   0.00     0.00   0.00   0.00
  14   8     0.00   0.00   0.00     0.00   0.00   0.00     0.00   0.00   0.00
  15   6    -0.00   0.00   0.00    -0.00   0.00  -0.00     0.00   0.00   0.00
  16   6    -0.00  -0.04  -0.28     0.05  -0.20   0.08     0.00  -0.00  -0.00
  17   1     0.00  -0.00   0.00     0.00   0.00   0.00     0.00  -0.00  -0.04
  18   1    -0.00  -0.00  -0.00    -0.01  -0.01  -0.01     0.33   0.21   0.54
  19   1     0.00  -0.00   0.00    -0.00  -0.00   0.01    -0.36  -0.24   0.53
  20   1    -0.00   0.00  -0.00    -0.00   0.00  -0.00     0.00  -0.00   0.00
  21   1     0.00  -0.00  -0.00     0.00   0.00  -0.00     0.00  -0.00  -0.00
  22   1    -0.00   0.00  -0.00     0.00  -0.00   0.00    -0.00   0.00  -0.00
  23   1     0.00  -0.00   0.00     0.00  -0.00  -0.00     0.00  -0.00   0.00
  24   1    -0.00  -0.00  -0.00     0.00   0.00   0.00    -0.00  -0.00  -0.00
  25   1    -0.00   0.00   0.00    -0.00  -0.00   0.00     0.00   0.00  -0.00
  26   1     0.00   0.00  -0.00     0.00   0.00  -0.00     0.00   0.00  -0.00
  27   1     0.00  -0.00  -0.00     0.00  -0.00  -0.00     0.00  -0.00  -0.00
  28   1     0.00   0.00   0.00     0.00  -0.00  -0.00    -0.00   0.00   0.00
  29   1    -0.00   0.00  -0.00     0.00  -0.00   0.01    -0.00   0.00  -0.00
  30   1     0.08  -0.29   0.25    -0.17   0.57  -0.65    -0.00   0.00  -0.00
  31   1    -0.08   0.44   0.75    -0.02   0.17   0.38     0.00   0.00   0.00
                     76                     77                     78
                        a                      a                      a 
 Frequencies --  2964.0278              2975.7351              2978.4315
 Red. masses --     1.9481                 1.4106                 1.4084
 Frc consts  --     0.0000                 0.0000                 0.0000
 IR Inten    --    21.3606                31.2082                29.5162
 Raman Activ --     0.0000                 0.0000                 0.0000
 Depolar     --     0.0000                 0.0000                 0.0000
 Atom AN      X      Y      Z        X      Y      Z        X      Y      Z
   1   6     0.00   0.00  -0.00    -0.16  -0.10  -0.01     0.00   0.00   0.00
   2   8     0.00  -0.00  -0.00    -0.02   0.01  -0.00     0.00   0.00   0.00
   3   6     0.00   0.00  -0.00    -0.00  -0.00  -0.00     0.00  -0.00   0.00
   4   8    -0.00  -0.00   0.00     0.00   0.00   0.00    -0.00  -0.00  -0.00
   5   6     0.00   0.00   0.00    -0.00   0.00  -0.00    -0.00   0.00  -0.00
   6   6     0.00  -0.00  -0.00     0.00  -0.00  -0.00     0.00  -0.00  -0.00
   7   6    -0.00   0.00   0.00    -0.00   0.00  -0.00    -0.00  -0.00   0.00
   8   7    -0.00  -0.00   0.00    -0.00  -0.00   0.00    -0.00  -0.00   0.00
   9   6    -0.00   0.00  -0.00     0.00   0.00  -0.00     0.00   0.00  -0.00
  10   6    -0.00  -0.00  -0.00    -0.00   0.00   0.00    -0.00  -0.00   0.00
  11   6    -0.00   0.00  -0.00     0.00  -0.00   0.00     0.00  -0.00   0.00
  12   6     0.00   0.00   0.00     0.00   0.00  -0.00     0.00  -0.00  -0.00
  13   8     0.00  -0.00  -0.00    -0.00  -0.00   0.00    -0.00   0.00   0.00
  14   8    -0.00  -0.00  -0.00    -0.00  -0.00   0.00    -0.01  -0.01   0.00
  15   6    -0.03  -0.01  -0.29     0.00  -0.00  -0.00     0.04  -0.19   0.00
  16   6    -0.00   0.00  -0.00     0.00  -0.00   0.00     0.00  -0.00   0.00
  17   1     0.00   0.00  -0.00    -0.02  -0.07  -0.00     0.00   0.00   0.00
  18   1     0.00   0.00   0.00     0.31   0.18   0.59    -0.00  -0.00  -0.01
  19   1    -0.00  -0.00   0.00     0.33   0.21  -0.56    -0.01  -0.00   0.01
  20   1    -0.00   0.00   0.00     0.00   0.00  -0.00     0.00  -0.00  -0.00
  21   1     0.00  -0.00  -0.00     0.00  -0.00  -0.00    -0.00   0.00   0.00
  22   1    -0.00   0.00  -0.00     0.00  -0.00   0.00    -0.00   0.00  -0.00
  23   1    -0.00  -0.00  -0.00    -0.00   0.00   0.00     0.00  -0.00  -0.00
  24   1     0.00   0.00   0.00     0.00   0.00   0.00     0.00   0.00   0.00
  25   1     0.00   0.00   0.00    -0.00  -0.00   0.00    -0.00   0.00  -0.00
  26   1    -0.00  -0.00   0.00     0.00   0.00  -0.00     0.00   0.00  -0.01
  27   1    -0.03   0.42   0.53    -0.00   0.01   0.01    -0.01   0.39   0.57
  28   1    -0.00  -0.00  -0.04     0.00  -0.00  -0.00     0.06  -0.05  -0.01
  29   1     0.15  -0.39   0.53    -0.00   0.01  -0.01    -0.14   0.36  -0.58
  30   1     0.00  -0.00   0.00    -0.00   0.01  -0.01    -0.00   0.01  -0.01
  31   1    -0.00   0.00   0.00    -0.00   0.00   0.01    -0.00   0.00   0.01
                     79                     80                     81
                        a                      a                      a 
 Frequencies --  3002.1234              3011.5377              3027.6455
 Red. masses --     1.9479                 1.4730                 1.9305
 Frc consts  --     0.0000                 0.0000                 0.0000
 IR Inten    --    15.2006                19.6187                 4.7965
 Raman Activ --     0.0000                 0.0000                 0.0000
 Depolar     --     0.0000                 0.0000                 0.0000
 Atom AN      X      Y      Z        X      Y      Z        X      Y      Z
   1   6     0.00   0.00  -0.00    -0.00  -0.00  -0.00    -0.00   0.00   0.00
   2   8     0.00   0.00  -0.00     0.00  -0.00  -0.00     0.00  -0.00  -0.00
   3   6    -0.00  -0.00  -0.00    -0.00   0.00  -0.00    -0.00   0.00   0.00
   4   8     0.00   0.00   0.00     0.00   0.00  -0.00     0.00   0.00  -0.00
   5   6     0.00   0.00  -0.00    -0.00   0.00   0.00     0.00   0.00  -0.00
   6   6    -0.00  -0.00  -0.01     0.00  -0.01   0.00    -0.00   0.00   0.00
   7   6     0.00  -0.00  -0.29     0.07  -0.19   0.01     0.00  -0.00   0.00
   8   7     0.00   0.00   0.00     0.00   0.00  -0.00     0.00   0.00   0.00
   9   6    -0.00  -0.00  -0.00    -0.00  -0.00  -0.00    -0.00  -0.00   0.01
  10   6     0.00   0.00   0.00     0.00   0.00   0.00    -0.01  -0.04   0.29
  11   6     0.00   0.00   0.00     0.00   0.00  -0.00     0.00  -0.00  -0.00
  12   6    -0.00   0.00  -0.00     0.00   0.00  -0.00    -0.00   0.00   0.00
  13   8     0.00  -0.00   0.00    -0.00   0.00   0.00     0.00  -0.00   0.00
  14   8    -0.00  -0.00   0.00    -0.00   0.00   0.00     0.00  -0.00  -0.00
  15   6    -0.00   0.00  -0.00    -0.00   0.00  -0.00     0.00   0.00  -0.00
  16   6    -0.00   0.00  -0.00     0.00  -0.00   0.00    -0.00  -0.00   0.00
  17   1    -0.00  -0.00  -0.00     0.00   0.00   0.00    -0.00  -0.00   0.00
  18   1     0.00   0.00   0.00     0.00   0.00   0.00    -0.00  -0.00  -0.00
  19   1    -0.00  -0.00   0.00     0.00   0.00  -0.00     0.00   0.00  -0.00
  20   1    -0.01   0.00  -0.04     0.01  -0.02   0.00    -0.00   0.00   0.00
  21   1    -0.13   0.39   0.57    -0.10   0.33   0.56     0.00  -0.00  -0.00
  22   1     0.14  -0.38   0.50    -0.13   0.39  -0.59    -0.00   0.00  -0.00
  23   1    -0.00  -0.00  -0.00    -0.00  -0.00  -0.00     0.00   0.00   0.00
  24   1    -0.00  -0.00  -0.00    -0.00   0.00  -0.00    -0.31  -0.20  -0.35
  25   1    -0.00  -0.00   0.00    -0.00  -0.01   0.00     0.01   0.14   0.03
  26   1     0.00   0.00  -0.00     0.00   0.00  -0.00     0.34   0.22  -0.69
  27   1    -0.00   0.00   0.00    -0.00  -0.00  -0.00    -0.00   0.00   0.00
  28   1     0.00  -0.00  -0.00     0.00  -0.00  -0.00    -0.00   0.00  -0.00
  29   1     0.00  -0.00   0.00     0.00  -0.00   0.00     0.00  -0.00   0.00
  30   1     0.00  -0.00   0.00    -0.00   0.00  -0.00    -0.00   0.00  -0.00
  31   1     0.00   0.00   0.00    -0.00   0.00   0.00     0.00  -0.00  -0.00
                     82                     83                     84
                        a                      a                      a 
 Frequencies --  3030.1763              3036.9759              3038.6533
 Red. masses --     1.7444                 1.7632                 1.7596
 Frc consts  --     0.0000                 0.0000                 0.0000
 IR Inten    --    19.8877                12.7338                 9.5481
 Raman Activ --     0.0000                 0.0000                 0.0000
 Depolar     --     0.0000                 0.0000                 0.0000
 Atom AN      X      Y      Z        X      Y      Z        X      Y      Z
   1   6     0.00   0.00  -0.00    -0.00  -0.01  -0.00     0.04   0.26   0.01
   2   8    -0.00   0.00   0.00     0.00  -0.00  -0.00    -0.00   0.01   0.00
   3   6     0.00   0.00   0.00    -0.00  -0.00  -0.00     0.00   0.00   0.00
   4   8    -0.00  -0.00  -0.00     0.00   0.00   0.00    -0.00  -0.00  -0.00
   5   6     0.00  -0.00  -0.00     0.00  -0.00  -0.00    -0.00  -0.00   0.00
   6   6    -0.00   0.00   0.00    -0.00  -0.00   0.00     0.00  -0.00   0.00
   7   6    -0.00   0.00   0.00     0.00  -0.00  -0.00     0.00  -0.00   0.00
   8   7     0.00  -0.00   0.00     0.00   0.00  -0.00    -0.00  -0.00   0.00
   9   6     0.00   0.01   0.00     0.00  -0.00  -0.00     0.00   0.00  -0.00
  10   6     0.02   0.26   0.03     0.00   0.00   0.00    -0.00  -0.00  -0.00
  11   6    -0.00  -0.00  -0.00    -0.00   0.00  -0.00    -0.00  -0.00   0.00
  12   6     0.00  -0.00  -0.00    -0.00  -0.00   0.00     0.00   0.00  -0.00
  13   8    -0.00   0.00   0.00    -0.00   0.00   0.00     0.00  -0.00   0.00
  14   8    -0.00   0.00  -0.00     0.01   0.00  -0.00     0.00   0.00  -0.00
  15   6    -0.00   0.00   0.00     0.23  -0.13  -0.02     0.00  -0.00  -0.00
  16   6     0.00   0.00  -0.00     0.00  -0.00   0.00    -0.00  -0.00   0.00
  17   1    -0.00  -0.00  -0.00     0.00   0.02   0.00    -0.10  -0.96  -0.03
  18   1    -0.00  -0.00  -0.00     0.00  -0.00   0.00    -0.01   0.02  -0.03
  19   1    -0.00  -0.00   0.00     0.00  -0.00  -0.00    -0.01   0.02   0.03
  20   1    -0.00   0.00   0.00    -0.00  -0.00  -0.00    -0.00   0.00   0.00
  21   1     0.00  -0.01  -0.01    -0.00   0.00   0.00    -0.00   0.00   0.00
  22   1     0.00  -0.01   0.01    -0.00   0.00  -0.00    -0.00   0.00  -0.00
  23   1    -0.00  -0.00   0.00    -0.00   0.00   0.00    -0.00   0.00   0.00
  24   1    -0.07  -0.01  -0.09    -0.00  -0.00  -0.01     0.00   0.00   0.00
  25   1    -0.05  -0.95   0.06    -0.00  -0.01   0.00     0.00   0.00  -0.00
  26   1     0.04   0.06  -0.07    -0.00  -0.00   0.00     0.00   0.00  -0.00
  27   1    -0.00   0.00   0.00     0.03   0.00   0.03     0.00  -0.00   0.00
  28   1     0.01  -0.01  -0.00    -0.86   0.43   0.09    -0.02   0.01   0.00
  29   1    -0.00   0.00  -0.00     0.02   0.00  -0.04     0.00  -0.00  -0.00
  30   1     0.00  -0.00   0.00    -0.00   0.00  -0.00    -0.00   0.00  -0.00
  31   1     0.00  -0.00  -0.00    -0.00   0.00   0.00    -0.00   0.00  -0.00
                     85                     86                     87
                        a                      a                      a 
 Frequencies --  3046.1509              3096.2039              3422.7873
 Red. masses --     1.4807                 1.7341                 1.8378
 Frc consts  --     0.0000                 0.0000                 0.0000
 IR Inten    --     3.0633                 2.9258                65.3820
 Raman Activ --     0.0000                 0.0000                 0.0000
 Depolar     --     0.0000                 0.0000                 0.0000
 Atom AN      X      Y      Z        X      Y      Z        X      Y      Z
   1   6    -0.00  -0.00  -0.00    -0.00   0.00   0.00     0.00  -0.00  -0.00
   2   8     0.00  -0.00   0.00    -0.00  -0.00  -0.00     0.00   0.00   0.00
   3   6    -0.00   0.00  -0.00     0.01   0.00   0.00     0.00  -0.00   0.00
   4   8     0.00   0.00   0.00    -0.00   0.00  -0.00    -0.00  -0.00  -0.00
   5   6     0.00  -0.00   0.00    -0.00   0.00  -0.00    -0.00   0.00  -0.00
   6   6    -0.00   0.00   0.00    -0.01  -0.00  -0.00     0.00  -0.01  -0.00
   7   6     0.00  -0.00  -0.00    -0.25   0.07   0.00     0.00  -0.00  -0.00
   8   7     0.00   0.00  -0.00     0.00  -0.00   0.00     0.06  -0.25  -0.00
   9   6    -0.01   0.00  -0.00     0.00  -0.00   0.00     0.00  -0.01  -0.00
  10   6    -0.18  -0.10  -0.04    -0.00   0.00   0.00     0.00   0.00  -0.00
  11   6     0.00  -0.00   0.00    -0.00   0.00   0.00     0.00   0.00  -0.00
  12   6    -0.00   0.00   0.00    -0.00  -0.00   0.00    -0.00  -0.00   0.00
  13   8     0.00  -0.00  -0.00     0.00   0.00   0.00    -0.00   0.00   0.00
  14   8     0.00  -0.00   0.00     0.00   0.00  -0.00     0.00  -0.00  -0.00
  15   6     0.00   0.00   0.00     0.00  -0.00  -0.00    -0.00  -0.00   0.00
  16   6    -0.00   0.00  -0.00     0.00  -0.00  -0.00     0.00  -0.00  -0.00
  17   1     0.00   0.01   0.00    -0.00  -0.00  -0.00     0.00   0.00   0.00
  18   1    -0.00  -0.00  -0.00    -0.00   0.00  -0.00    -0.00  -0.00  -0.00
  19   1    -0.00  -0.00   0.00    -0.00   0.00   0.00    -0.00  -0.00   0.00
  20   1    -0.00   0.00   0.00     0.93  -0.27  -0.02    -0.00   0.00   0.00
  21   1     0.00  -0.00  -0.00    -0.03   0.01   0.00     0.00   0.00   0.00
  22   1     0.00  -0.00   0.00    -0.02   0.01   0.01     0.00   0.00  -0.00
  23   1     0.00  -0.00  -0.00    -0.00   0.00   0.00    -0.23   0.94   0.01
  24   1     0.47   0.28   0.61     0.00   0.00   0.00     0.00   0.00   0.00
  25   1    -0.02  -0.07  -0.00     0.00  -0.00   0.00    -0.00  -0.00   0.00
  26   1     0.20   0.13  -0.48     0.00   0.00  -0.00     0.00   0.00  -0.00
  27   1     0.00  -0.00  -0.01     0.00  -0.00  -0.00     0.00   0.00   0.00
  28   1    -0.01   0.00   0.00    -0.00   0.00   0.00     0.00  -0.00  -0.00
  29   1     0.00  -0.00   0.00     0.00  -0.00   0.00    -0.00   0.00  -0.00
  30   1     0.00  -0.00   0.00     0.00   0.00  -0.00    -0.00   0.00  -0.00
  31   1     0.00  -0.00  -0.00     0.00   0.00   0.00    -0.00   0.00   0.00
