31
MMFF starting geometry; not quantum validated
C -4.3064645001 1.8433413792 0.1689589321
O -2.9812138402 1.3284707642 0.3020198553
C -2.7751650674 0.1573755219 -0.3529430085
O -3.6079467790 -0.4387541196 -1.0179915151
C -1.3724811153 -0.2843981020 -0.1529926303
C -1.0231851675 -1.5911955091 -0.1424427393
C -1.9983030464 -2.7383234570 -0.2243736010
N 0.3142473541 -1.9408785560 -0.0237331324
C 1.3645812429 -1.0365838303 0.0262519003
C 2.7411312993 -1.6368278536 0.1491847164
C 1.0998591299 0.2889499845 0.0026578420
C 2.1210322877 1.3609067486 0.0162553748
O 1.9863901450 2.4046378319 0.6373167242
O 3.1488417593 1.0597620305 -0.8158025863
C 4.1441068467 2.0798241717 -0.9002045888
C -0.3242848653 0.8018791755 -0.0257501445
H -4.3654747944 2.7769347056 0.7352192916
H -4.5297800601 2.0600544903 -0.8803873533
H -5.0350574296 1.1398973242 0.5841034670
H -2.9694861917 -2.4959960822 0.2164671059
H -2.1408433463 -3.0405622964 -1.2665863832
H -1.6226167663 -3.6052202011 0.3313789835
H 0.5451699322 -2.9304840734 -0.0520409191
H 3.4565443597 -0.9595642599 0.6244213789
H 2.7124575006 -2.5364833848 0.7746870298
H 3.1197743469 -1.9210183178 -0.8376548746
H 4.5904660357 2.2634380830 0.0822066237
H 4.9292952647 1.7316317521 -1.5769368544
H 3.7158431861 2.9997056700 -1.3104882230
H -0.4308161751 1.4921062995 -0.8727540343
H -0.5066215461 1.3673741104 0.8968859368
