31
 energy: -50.441508164934 gnorm: 0.000117531101 xtb: 6.7.1 (edcfbbe)
C           -4.23987798907126        1.95965217718893       -0.00173560787438
O           -2.92352380543449        1.43367930890434        0.00689265912973
C           -2.81562814593493        0.08806397643849       -0.04579340513638
O           -3.80246580377850       -0.62547957138019       -0.09484272849394
C           -1.41654906237807       -0.33104186558649       -0.03183803193119
C           -1.02697679407804       -1.62653955568202       -0.03797925017945
C           -1.91302079370281       -2.82849785155700       -0.05313680409927
N            0.31274844417085       -1.93975719863355       -0.03395449557350
C            1.33146884673901       -1.02412486657037       -0.13791794888622
C            2.69645813837802       -1.62201984794697       -0.25037741614255
C            1.03549555062407        0.29607338154458       -0.13852364730790
C            1.99462766492446        1.38684876778049       -0.27317526381919
O            1.67730281450709        2.56217808506659       -0.26649921641838
O            3.28492477065991        1.00256261807950       -0.41222190214815
C            4.23442621846350        2.04949892056309       -0.54536982108393
C           -0.39181154238449        0.78054252320703        0.01784708446619
H           -4.13203825701934        3.04099703087581        0.03014294863522
H           -4.76906979198730        1.65189855448551       -0.90704423404009
H           -4.79943359398571        1.60323401751413        0.86675599958546
H           -2.95599322998401       -2.53462981576448       -0.03329134979930
H           -1.72730560456700       -3.41415979685282       -0.95341591580261
H           -1.70050992776048       -3.45428828184962        0.81349587128735
H            0.55467069324919       -2.92041120183995       -0.04230959752057
H            3.34202044663492       -1.24615989453855        0.53989611578400
H            2.65059633391342       -2.70705861692942       -0.18481149425688
H            3.15409344323483       -1.34387851113584       -1.19745258676166
H            4.21372144745840        2.69885322825555        0.33307725729396
H            5.20332285387538        1.56566525979838       -0.64189955829596
H            4.01613922305097        2.65408380705181       -1.42888745244781
H           -0.60250169446720        1.51627826975127       -0.76542458162250
H           -0.48531085335015        1.32793694966290        0.96472694766020
