19
R1.90
C 1.9795451479 -0.8668908268 -1.4263459418
C 2.0933916946 -1.5804512013 -0.2430902800
C 1.2507099039 -1.3319384113 0.8294521956
C 0.2895740529 -0.3452607397 0.6906574656
N -0.6613100530 0.0564114757 1.6012662700
C -1.4505931817 1.1119459705 1.0449574873
C -0.7487241722 1.4365469939 -0.3682177313
C 0.1746266685 0.3892189881 -0.5074268096
C 1.0227877900 0.1292516154 -1.5653770580
C -2.4418204800 0.6592266978 0.0048748173
H 2.6425918214 -1.0874104778 -2.2492669809
H 2.8533493567 -2.3429098489 -0.1522679818
H 1.3480335638 -1.8843672687 1.7523037449
H -0.5021800239 -0.0103815799 2.5909392153
H -1.7368669416 1.9014364801 1.7326082224
H -0.9279793767 2.3189177127 -0.8478759332
H 0.9395884705 0.6905390365 -2.4848254165
H -2.5074652572 -0.3841851800 -0.2341487084
H -3.2647755816 1.3006414942 -0.2423499911
