19
R2.20
C 2.0120423895 -0.8631580131 -1.4311047973
C 2.0845524270 -1.5956915218 -0.2540381166
C 1.2457455046 -1.3246785828 0.8184817868
C 0.3364437074 -0.2917695091 0.6871551861
N -0.5204716112 0.2324176071 1.6185762665
C -1.3905394238 1.1949299339 1.0098389689
C -0.6196069678 1.5193810996 -0.3676550358
C 0.2453505717 0.4525228383 -0.5153640409
C 1.0879129435 0.1598694741 -1.5770418830
C -2.5332618258 0.6018311977 0.2120235492
H 2.6831831883 -1.1005852357 -2.2435805149
H 2.8110298119 -2.3907537857 -0.1640999219
H 1.3056968353 -1.8996066113 1.7312373316
H -0.7842767730 -0.2603654517 2.4534880155
H -1.6540535770 2.0203522798 1.6722657378
H -0.9803955030 2.2813263185 -0.9696103553
H 1.0266447026 0.7211864514 -2.4971489183
H -2.4716272016 -0.4200152467 -0.1038578774
H -3.2681861560 1.2465384399 -0.2256450538
