19
R2.40
C 2.0209596520 -0.8653616881 -1.4336566211
C 2.0875154215 -1.6003631811 -0.2546094884
C 1.2560507237 -1.3220360377 0.8198589128
C 0.3543532642 -0.2806325138 0.6903698503
N -0.5274195754 0.2261799881 1.5979957659
C -1.3885479779 1.1970235438 0.9833587090
C -0.5156918870 1.5683392023 -0.3720364638
C 0.2793112625 0.4777178766 -0.5099654398
C 1.1205347868 0.1739128111 -1.5763110386
C -2.6020909223 0.5851605154 0.2915136364
H 2.6793944191 -1.1165319206 -2.2511974636
H 2.7968586029 -2.4107155654 -0.1757850657
H 1.3131408556 -1.8976643726 1.7315193724
H -0.7855724757 -0.2511670788 2.4430522205
H -1.6329546587 2.0299576132 1.6461560596
H -0.9801712336 2.2608447388 -0.9962199861
H 1.0683476988 0.7459818018 -2.4908513978
H -2.4915034065 -0.4068647169 -0.1106727922
H -3.2624649213 1.2518822235 -0.2338942842
