19
R2.60
C 2.0772611666 -0.8534861367 -1.4284560895
C 2.1012056850 -1.6115571783 -0.2566666716
C 1.2562930621 -1.3317383741 0.8040395814
C 0.3631568669 -0.2814922674 0.6618550337
N -0.5416456673 0.2084326453 1.5410867517
C -1.3846533206 1.2036059041 0.9299306513
C -0.4586721752 1.5771595878 -0.4169044090
C 0.3173345147 0.4924023895 -0.5374642071
C 1.1955779254 0.1946732175 -1.5851796215
C -2.7113155303 0.5948443220 0.4320093872
H 2.7587649551 -1.1009156971 -2.2281846680
H 2.7947333789 -2.4357604204 -0.1763435401
H 1.2891575845 -1.9127727879 1.7139244655
H -0.8026755969 -0.2525891138 2.3945457691
H -1.5598977702 2.0598474434 1.5892762393
H -0.9623758499 2.2235763378 -1.0726379094
H 1.1835639227 0.7879740247 -2.4877674156
H -2.6175087602 -0.3888719489 -0.0063090256
H -3.3349745044 1.2678940048 -0.1374308975
