19
R2.90
C 2.1588606016 -0.8370139723 -1.4193289808
C 2.1384618981 -1.6115882791 -0.2539118736
C 1.2544639586 -1.3487788730 0.7764368445
C 0.3681260808 -0.2914463057 0.6212464855
N -0.5728746755 0.1747502960 1.4612372343
C -1.3855801237 1.2055529677 0.8596754674
C -0.3265737650 1.5969365841 -0.5333275087
C 0.3641037319 0.4986286993 -0.5728509397
C 1.2829387365 0.2081806877 -1.5944182613
C -2.8237542108 0.6352763766 0.5843931481
H 2.8759986403 -1.0732539027 -2.1916643949
H 2.8295463099 -2.4364149109 -0.1606352605
H 1.2503876489 -1.9442032382 1.6771016479
H -0.8426612652 -0.2759824725 2.3176306235
H -1.4697488348 2.0844690255 1.5116026545
H -0.9142168474 2.2005291922 -1.1584281579
H 1.2963751343 0.8078214772 -2.4913318187
H -2.8079245377 -0.3649545267 0.1643087273
H -3.4542695822 1.3121992176 0.0199615126
