 Entering Gaussian System
 *********************************************
 Gaussian 98:
 frequency output generated by the xtb code
 *********************************************
                         Standard orientation:
 --------------------------------------------------------------------
  Center     Atomic     Atomic              Coordinates (Angstroms)
  Number     Number      Type              X           Y           Z
 --------------------------------------------------------------------
    1          6             0       -0.213936   -0.364065   -1.864976
    2          6             0       -0.461643   -0.054405   -0.413069
    3          7             0        0.459282    0.168875    0.429223
    4          6             0        1.817421    0.098959    0.229941
    5          6             0        2.468384   -1.130293    0.090268
    6          6             0        3.846934   -1.185486    0.022611
    7          6             0        4.600937   -0.024937    0.082128
    8          6             0        3.962153    1.197430    0.222179
    9          6             0        2.585968    1.263938    0.306503
   10          6             0       -1.851997    0.023173    0.063231
   11          6             0       -2.926365   -0.411195   -0.713011
   12          6             0       -4.219871   -0.329081   -0.229128
   13          6             0       -4.465137    0.189480    1.031398
   14          6             0       -3.405191    0.623581    1.812804
   15          6             0       -2.112655    0.539517    1.334829
   16          1             0       -0.486193   -1.397239   -2.078082
   17          1             0       -0.809662    0.289824   -2.499024
   18          1             0        0.840203   -0.227941   -2.100761
   19          1             0        1.879043   -2.035951    0.050148
   20          1             0        4.336296   -2.143724   -0.083935
   21          1             0        5.678436   -0.072236    0.022550
   22          1             0        4.542988    2.107965    0.270273
   23          1             0        2.084735    2.215008    0.415973
   24          1             0       -2.761730   -0.826334   -1.695276
   25          1             0       -5.042057   -0.672337   -0.840809
   26          1             0       -5.477283    0.254456    1.403579
   27          1             0       -3.589765    1.028756    2.797298
   28          1             0       -1.279296    0.874262    1.933135
 --------------------------------------------------------------------
     1 basis functions        1 primitive gaussians
     1 alpha electrons        1 beta electrons

 Harmonic frequencies (cm**-1), IR intensities (km*mol⁻¹),
 Raman scattering activities (A**4/amu), Raman depolarization ratios,
 reduced masses (AMU), force constants (mDyne/A) and normal coordinates:
                      1                      2                      3
                        a                      a                      a 
 Frequencies --    23.3079                35.8591                52.3798
 Red. masses --     9.6251                 9.6683                11.0027
 Frc consts  --     0.0000                 0.0000                 0.0000
 IR Inten    --     0.1718                 1.4591                 0.7795
 Raman Activ --     0.0000                 0.0000                 0.0000
 Depolar     --     0.0000                 0.0000                 0.0000
 Atom AN      X      Y      Z        X      Y      Z        X      Y      Z
   1   6    -0.02   0.05  -0.02     0.02   0.58  -0.07    -0.04  -0.03  -0.09
   2   6     0.00   0.02  -0.01     0.01   0.17   0.01    -0.02   0.19  -0.14
   3   7    -0.00   0.03  -0.01     0.00  -0.16   0.10    -0.01   0.41  -0.21
   4   6    -0.00   0.01  -0.01     0.00  -0.10   0.05    -0.01   0.22  -0.12
   5   6    -0.04   0.02  -0.29     0.02  -0.11   0.23    -0.19   0.10   0.01
   6   6    -0.04  -0.00  -0.28     0.02  -0.09   0.17    -0.19  -0.12   0.18
   7   6    -0.00  -0.04   0.02    -0.00  -0.06  -0.05    -0.01  -0.24   0.21
   8   6     0.03  -0.05   0.30    -0.03  -0.05  -0.23     0.16  -0.13   0.06
   9   6     0.03  -0.03   0.29    -0.02  -0.07  -0.19     0.16   0.10  -0.10
  10   6     0.00   0.00  -0.00    -0.00   0.07   0.01    -0.00   0.13  -0.08
  11   6     0.03  -0.30   0.13     0.05  -0.12   0.05    -0.01   0.04  -0.02
  12   6     0.03  -0.30   0.13     0.04  -0.24   0.04     0.02  -0.17   0.10
  13   6     0.01   0.00   0.00    -0.01  -0.14  -0.01     0.06  -0.28   0.15
  14   6    -0.02   0.30  -0.13    -0.06   0.06  -0.05     0.06  -0.17   0.08
  15   6    -0.02   0.30  -0.13    -0.05   0.16  -0.04     0.03   0.04  -0.04
  16   1     0.05  -0.00   0.00     0.07   0.17  -0.09    -0.02  -0.02   0.02
  17   1    -0.05  -0.02   0.00    -0.04   0.18   0.03    -0.01  -0.03  -0.05
  18   1    -0.02   0.07  -0.02    -0.00   0.24  -0.02    -0.01  -0.02  -0.04
  19   1    -0.02   0.01  -0.15     0.01  -0.04   0.11    -0.09   0.06  -0.00
  20   1    -0.02   0.00  -0.14     0.01  -0.03   0.09    -0.09  -0.06   0.08
  21   1    -0.00  -0.02   0.01    -0.00  -0.01  -0.03    -0.00  -0.12   0.10
  22   1     0.02  -0.02   0.15    -0.01  -0.01  -0.12     0.09  -0.06   0.02
  23   1     0.02  -0.01   0.15    -0.01  -0.02  -0.09     0.09   0.05  -0.06
  24   1     0.02  -0.16   0.07     0.03  -0.06   0.03    -0.01   0.03  -0.02
  25   1     0.02  -0.16   0.07     0.02  -0.11   0.02     0.00  -0.07   0.04
  26   1     0.00  -0.00   0.00    -0.01  -0.07  -0.00     0.02  -0.13   0.07
  27   1    -0.01   0.16  -0.07    -0.03   0.04  -0.03     0.03  -0.07   0.03
  28   1    -0.01   0.15  -0.07    -0.03   0.09  -0.02     0.01   0.03  -0.03
                      4                      5                      6
                        a                      a                      a 
 Frequencies --    62.9807               146.0702               173.9825
 Red. masses --    10.6139                10.0270                10.0328
 Frc consts  --     0.0000                 0.0000                 0.0000
 IR Inten    --     0.8845                 0.9577                 1.1515
 Raman Activ --     0.0000                 0.0000                 0.0000
 Depolar     --     0.0000                 0.0000                 0.0000
 Atom AN      X      Y      Z        X      Y      Z        X      Y      Z
   1   6     0.17  -0.07   0.27     0.17  -0.19  -0.01     0.22   0.11  -0.11
   2   6     0.06   0.08   0.22     0.02   0.07  -0.09     0.04  -0.08  -0.11
   3   7     0.02   0.25   0.26    -0.08  -0.09   0.06    -0.12   0.08   0.02
   4   6     0.01   0.13   0.16    -0.06  -0.15   0.18    -0.11   0.12   0.16
   5   6    -0.12   0.07   0.05    -0.00  -0.10   0.15    -0.22   0.07   0.18
   6   6    -0.14  -0.06  -0.21    -0.01   0.02  -0.05    -0.24  -0.01   0.02
   7   6    -0.03  -0.13  -0.35    -0.10   0.08  -0.18    -0.19  -0.04  -0.15
   8   6     0.11  -0.08  -0.19    -0.16   0.03  -0.00    -0.09   0.00  -0.02
   9   6     0.13   0.05   0.07    -0.15  -0.09   0.19    -0.08   0.09   0.16
  10   6     0.02   0.04   0.10     0.00   0.29  -0.20     0.05  -0.24  -0.11
  11   6     0.12   0.01  -0.03    -0.02   0.27  -0.14    -0.02  -0.21  -0.02
  12   6     0.06  -0.06  -0.17     0.03  -0.04   0.06     0.03   0.05   0.06
  13   6    -0.10  -0.10  -0.19     0.12  -0.28   0.18     0.18   0.21   0.03
  14   6    -0.20  -0.07  -0.06     0.13  -0.02   0.02     0.28   0.01  -0.00
  15   6    -0.14   0.00   0.08     0.07   0.28  -0.18     0.22  -0.23  -0.08
  16   1     0.06  -0.03   0.11    -0.01  -0.04   0.03     0.19   0.00  -0.05
  17   1     0.06  -0.05   0.05     0.12  -0.04  -0.06    -0.01  -0.03  -0.02
  18   1     0.05  -0.02   0.09     0.07  -0.14   0.04     0.05   0.17  -0.02
  19   1    -0.06   0.04   0.04     0.02  -0.04   0.06    -0.09   0.04   0.08
  20   1    -0.07  -0.03  -0.09     0.02   0.02  -0.04    -0.09  -0.01  -0.00
  21   1    -0.01  -0.07  -0.17    -0.03   0.05  -0.11    -0.06  -0.03  -0.10
  22   1     0.06  -0.04  -0.08    -0.07   0.02  -0.01    -0.01  -0.01  -0.03
  23   1     0.07   0.03   0.05    -0.07  -0.04   0.08    -0.01   0.03   0.06
  24   1     0.07   0.01  -0.01    -0.02   0.12  -0.06    -0.03  -0.09   0.00
  25   1     0.04  -0.02  -0.08     0.00  -0.04   0.04    -0.02   0.04   0.04
  26   1    -0.04  -0.05  -0.09     0.05  -0.18   0.11     0.06   0.14   0.01
  27   1    -0.10  -0.03  -0.02     0.06  -0.03   0.02     0.12   0.02  -0.00
  28   1    -0.06   0.01   0.05     0.03   0.12  -0.08     0.09  -0.10  -0.05
                      7                      8                      9
                        a                      a                      a 
 Frequencies --   195.9684               241.6070               293.1702
 Red. masses --     1.8768                10.0609                10.1562
 Frc consts  --     0.0000                 0.0000                 0.0000
 IR Inten    --     0.9140                 1.1119                 0.1645
 Raman Activ --     0.0000                 0.0000                 0.0000
 Depolar     --     0.0000                 0.0000                 0.0000
 Atom AN      X      Y      Z        X      Y      Z        X      Y      Z
   1   6    -0.04   0.08  -0.04    -0.33  -0.02  -0.17     0.43   0.06   0.07
   2   6     0.02  -0.07  -0.00    -0.04   0.03  -0.12    -0.00  -0.07   0.02
   3   7    -0.01   0.04  -0.01     0.04   0.07  -0.23    -0.02  -0.02   0.08
   4   6     0.00   0.06   0.05     0.09   0.03   0.13     0.04   0.05   0.01
   5   6    -0.03   0.04   0.07     0.15   0.02   0.36     0.11   0.08  -0.04
   6   6    -0.04  -0.00   0.00     0.15   0.02   0.07     0.12   0.02  -0.04
   7   6    -0.01  -0.02  -0.06     0.18   0.01  -0.33     0.19  -0.03   0.03
   8   6     0.03  -0.00  -0.00     0.19  -0.02   0.04     0.17  -0.04  -0.02
   9   6     0.03   0.04   0.05     0.19  -0.03   0.34     0.15   0.00  -0.07
  10   6     0.01  -0.11  -0.00    -0.06  -0.02  -0.04    -0.17  -0.12  -0.18
  11   6    -0.00  -0.10   0.02    -0.11  -0.03   0.01    -0.36   0.00  -0.04
  12   6     0.00  -0.06   0.03    -0.12   0.00   0.02    -0.32   0.04   0.16
  13   6     0.02   0.03  -0.01    -0.11   0.03   0.01    -0.22   0.00   0.20
  14   6     0.03   0.06  -0.04    -0.07  -0.03  -0.01    -0.08   0.03  -0.01
  15   6     0.03  -0.04  -0.03    -0.07  -0.05  -0.03    -0.15  -0.05  -0.20
  16   1    -0.53   0.20  -0.19    -0.06  -0.03  -0.00     0.15   0.02  -0.04
  17   1     0.37   0.43   0.04    -0.18  -0.05  -0.02     0.17   0.02  -0.02
  18   1     0.07  -0.47   0.09    -0.12   0.04  -0.13     0.14   0.04   0.12
  19   1    -0.02   0.02   0.03     0.05  -0.00   0.15     0.04   0.02  -0.02
  20   1    -0.02  -0.00  -0.00     0.03  -0.00   0.02     0.01  -0.00  -0.02
  21   1    -0.00  -0.01  -0.04     0.04   0.01  -0.22     0.06  -0.02   0.03
  22   1     0.02  -0.01  -0.01     0.05  -0.00   0.01     0.05  -0.01  -0.00
  23   1     0.02   0.02   0.02     0.08  -0.00   0.15     0.07   0.02  -0.03
  24   1    -0.01  -0.02   0.00    -0.05  -0.02   0.00    -0.15   0.01  -0.03
  25   1    -0.00  -0.02   0.01    -0.03   0.00   0.01    -0.11   0.02   0.07
  26   1     0.01   0.03  -0.01    -0.03   0.02   0.00    -0.05  -0.00   0.10
  27   1     0.01   0.04  -0.02    -0.01  -0.01  -0.00     0.03   0.03   0.00
  28   1     0.01  -0.01  -0.01    -0.02  -0.02  -0.01    -0.03  -0.01  -0.08
                     10                     11                     12
                        a                      a                      a 
 Frequencies --   351.2426               365.6596               368.1879
 Red. masses --     9.8472                 8.8377                 9.0682
 Frc consts  --     0.0000                 0.0000                 0.0000
 IR Inten    --     0.6873                 0.0103                 1.0903
 Raman Activ --     0.0000                 0.0000                 0.0000
 Depolar     --     0.0000                 0.0000                 0.0000
 Atom AN      X      Y      Z        X      Y      Z        X      Y      Z
   1   6    -0.30   0.05   0.08     0.06  -0.00  -0.01     0.04   0.00  -0.01
   2   6     0.02  -0.34   0.19    -0.00   0.07  -0.04     0.01  -0.01  -0.00
   3   7    -0.01  -0.18   0.21    -0.00   0.02  -0.03     0.01   0.02  -0.02
   4   6     0.01   0.16   0.10    -0.00  -0.03  -0.01     0.00  -0.01  -0.02
   5   6    -0.04   0.15  -0.02     0.01  -0.03   0.06    -0.02   0.02  -0.43
   6   6    -0.06   0.01  -0.01     0.01   0.00  -0.06     0.03  -0.04   0.42
   7   6     0.03  -0.06   0.06     0.00   0.01  -0.01    -0.01   0.00  -0.01
   8   6     0.10  -0.01  -0.05    -0.01  -0.01   0.06    -0.03   0.04  -0.41
   9   6     0.08   0.13  -0.02    -0.01  -0.02  -0.06     0.02  -0.05   0.42
  10   6    -0.01  -0.25  -0.01    -0.00   0.06  -0.01     0.00   0.00   0.01
  11   6    -0.04   0.06  -0.15     0.04  -0.40   0.19     0.00  -0.05   0.04
  12   6    -0.02   0.20  -0.13    -0.04   0.34  -0.13    -0.01   0.05  -0.01
  13   6     0.13  -0.26   0.09    -0.03   0.06  -0.02    -0.02  -0.00   0.01
  14   6     0.12   0.04  -0.07     0.01  -0.40   0.18    -0.01  -0.05   0.03
  15   6     0.06   0.21  -0.21    -0.05   0.35  -0.13    -0.02   0.05  -0.02
  16   1    -0.06   0.02  -0.04    -0.01   0.01   0.00     0.01   0.01  -0.02
  17   1    -0.19   0.04   0.15     0.05   0.01  -0.03     0.02   0.01  -0.00
  18   1    -0.12   0.09  -0.08     0.03  -0.04   0.02     0.02  -0.00   0.01
  19   1    -0.04   0.06  -0.02     0.01  -0.01   0.04    -0.01   0.01  -0.24
  20   1    -0.05  -0.01  -0.02     0.01   0.00  -0.03     0.02  -0.02   0.27
  21   1     0.01  -0.04   0.03     0.00   0.01  -0.00    -0.00   0.00   0.00
  22   1     0.05  -0.01  -0.04    -0.01  -0.00   0.04    -0.02   0.02  -0.25
  23   1     0.06   0.06  -0.02    -0.01  -0.01  -0.03     0.01  -0.03   0.25
  24   1    -0.03   0.04  -0.05     0.03  -0.27   0.12     0.00  -0.03   0.02
  25   1    -0.03   0.14  -0.05    -0.02   0.21  -0.09    -0.00   0.03  -0.01
  26   1     0.05  -0.16   0.08    -0.01   0.04  -0.02    -0.01  -0.00   0.00
  27   1     0.04   0.03  -0.03     0.02  -0.26   0.11    -0.00  -0.03   0.01
  28   1     0.03   0.13  -0.12    -0.03   0.22  -0.09    -0.01   0.04  -0.01
                     13                     14                     15
                        a                      a                      a 
 Frequencies --   403.6237               464.9646               496.6171
 Red. masses --    10.1276                10.7816                10.6583
 Frc consts  --     0.0000                 0.0000                 0.0000
 IR Inten    --     1.2504                 4.2297                 2.5352
 Raman Activ --     0.0000                 0.0000                 0.0000
 Depolar     --     0.0000                 0.0000                 0.0000
 Atom AN      X      Y      Z        X      Y      Z        X      Y      Z
   1   6     0.26  -0.01  -0.20     0.02  -0.10  -0.29     0.00  -0.01   0.14
   2   6     0.01  -0.34  -0.11     0.07  -0.04  -0.20    -0.11   0.04   0.07
   3   7     0.07  -0.09  -0.30    -0.06  -0.45   0.03    -0.03  -0.48   0.11
   4   6     0.02   0.07  -0.21     0.02   0.16   0.38    -0.04   0.20  -0.39
   5   6    -0.06   0.00   0.08    -0.01   0.21   0.01     0.00   0.20  -0.05
   6   6    -0.08  -0.04   0.07    -0.06  -0.01  -0.14    -0.02  -0.04   0.21
   7   6    -0.11  -0.00  -0.15     0.03  -0.09   0.21     0.01  -0.05  -0.28
   8   6    -0.03   0.02   0.12     0.06  -0.03  -0.17     0.05  -0.07   0.19
   9   6    -0.02   0.09   0.04     0.04   0.19   0.03     0.01   0.16  -0.03
  10   6     0.11  -0.16   0.28     0.08   0.20  -0.01    -0.10   0.19  -0.07
  11   6     0.10   0.14   0.17     0.06   0.07   0.13    -0.02   0.00  -0.08
  12   6     0.04   0.14  -0.03     0.03  -0.07   0.08     0.02  -0.13  -0.00
  13   6    -0.11  -0.19   0.07    -0.13   0.10  -0.03     0.08   0.13  -0.09
  14   6    -0.18   0.11   0.01    -0.09  -0.08   0.03     0.06  -0.08   0.07
  15   6    -0.08   0.15   0.17    -0.04   0.02   0.08     0.03   0.04   0.01
  16   1     0.14   0.01  -0.19    -0.01  -0.04  -0.04    -0.00  -0.01   0.08
  17   1     0.10   0.04  -0.04     0.01  -0.05  -0.10     0.04  -0.03  -0.02
  18   1     0.09   0.07   0.05     0.01  -0.05  -0.09     0.01  -0.03   0.08
  19   1    -0.04   0.01   0.08    -0.05   0.09  -0.09    -0.02   0.07   0.10
  20   1    -0.02  -0.01   0.06    -0.06  -0.01  -0.14    -0.04  -0.04   0.19
  21   1    -0.03  -0.00  -0.08     0.01  -0.04   0.08     0.00  -0.02  -0.09
  22   1     0.01  -0.01   0.09     0.04  -0.02  -0.16     0.05  -0.05   0.18
  23   1    -0.01   0.02   0.05     0.06   0.09  -0.08     0.06   0.06   0.11
  24   1     0.06   0.09   0.03     0.02  -0.01   0.05     0.02  -0.04  -0.00
  25   1     0.04   0.08  -0.07     0.04  -0.08   0.01    -0.00  -0.09   0.04
  26   1    -0.03  -0.12   0.02    -0.04   0.05  -0.03     0.02   0.05  -0.03
  27   1    -0.08   0.08  -0.02    -0.03  -0.07   0.03     0.01  -0.08   0.04
  28   1    -0.06   0.11   0.07    -0.04  -0.02   0.07     0.03  -0.04   0.00
                     16                     17                     18
                        a                      a                      a 
 Frequencies --   520.7812               550.1458               587.9011
 Red. masses --    11.2651                 9.2927                11.1771
 Frc consts  --     0.0000                 0.0000                 0.0000
 IR Inten    --     1.1378                 4.7597                 0.1687
 Raman Activ --     0.0000                 0.0000                 0.0000
 Depolar     --     0.0000                 0.0000                 0.0000
 Atom AN      X      Y      Z        X      Y      Z        X      Y      Z
   1   6    -0.04   0.01   0.03    -0.01  -0.01   0.02     0.01   0.02   0.06
   2   6     0.34   0.08   0.06     0.02  -0.58   0.15    -0.01   0.04   0.01
   3   7     0.39  -0.07   0.07     0.02   0.23  -0.04     0.03   0.00  -0.02
   4   6     0.31   0.00  -0.08     0.00  -0.05   0.00     0.03   0.01   0.00
   5   6    -0.05  -0.18  -0.02    -0.04  -0.07   0.01     0.03   0.00   0.01
   6   6    -0.09  -0.17   0.02    -0.03   0.04  -0.00     0.02  -0.04  -0.02
   7   6    -0.35   0.01  -0.03    -0.00   0.03   0.01    -0.03  -0.01   0.02
   8   6    -0.06   0.17   0.06     0.04   0.05   0.00    -0.03  -0.01  -0.01
   9   6    -0.02   0.21  -0.00     0.04  -0.06  -0.01    -0.02   0.04   0.02
  10   6     0.18   0.00  -0.16    -0.02   0.32  -0.12     0.03   0.06   0.14
  11   6    -0.04   0.04   0.06    -0.02   0.14  -0.03    -0.22   0.12   0.34
  12   6    -0.05   0.03   0.14     0.00  -0.19   0.08    -0.45  -0.11  -0.18
  13   6    -0.24   0.05   0.09    -0.03   0.23  -0.11    -0.04  -0.08  -0.16
  14   6    -0.07  -0.07  -0.10     0.02  -0.19   0.06     0.22  -0.14  -0.39
  15   6    -0.08  -0.08  -0.20     0.01   0.13  -0.04     0.41   0.09   0.14
  16   1    -0.08   0.00   0.08     0.06   0.04  -0.26     0.00   0.00   0.03
  17   1    -0.08  -0.01   0.07    -0.06   0.13   0.19     0.01  -0.00   0.00
  18   1    -0.04  -0.04  -0.13    -0.02   0.14   0.01     0.01  -0.00   0.03
  19   1    -0.08  -0.01   0.03    -0.00  -0.03   0.01    -0.00   0.01  -0.00
  20   1     0.04  -0.02   0.03     0.01   0.02  -0.00     0.01  -0.01  -0.01
  21   1    -0.10   0.00  -0.00    -0.00  -0.01   0.00    -0.01   0.01   0.00
  22   1     0.05   0.01   0.04     0.00   0.02   0.00     0.00  -0.01  -0.01
  23   1    -0.07   0.02   0.03    -0.01  -0.02  -0.01    -0.01   0.01  -0.00
  24   1    -0.09  -0.01   0.01     0.01  -0.06   0.04     0.01   0.05   0.10
  25   1     0.01  -0.02   0.02     0.02  -0.19   0.08    -0.09  -0.04  -0.09
  26   1    -0.06   0.02   0.04    -0.01   0.05  -0.02     0.04   0.04   0.09
  27   1     0.05  -0.03  -0.01     0.01  -0.19   0.08    -0.00  -0.04  -0.12
  28   1    -0.04  -0.03  -0.02     0.01  -0.07   0.04     0.08   0.04   0.08
                     19                     20                     21
                        a                      a                      a 
 Frequencies --   590.2609               614.3962               662.1064
 Red. masses --    11.2454                11.1133                 9.5329
 Frc consts  --     0.0000                 0.0000                 0.0000
 IR Inten    --     1.2403                17.5307                 1.8015
 Raman Activ --     0.0000                 0.0000                 0.0000
 Depolar     --     0.0000                 0.0000                 0.0000
 Atom AN      X      Y      Z        X      Y      Z        X      Y      Z
   1   6     0.01  -0.02  -0.07     0.01   0.04   0.17     0.00   0.01   0.01
   2   6     0.03   0.05  -0.05    -0.20   0.04   0.07     0.05   0.05  -0.01
   3   7    -0.05  -0.18   0.11     0.19  -0.18  -0.32    -0.04  -0.00   0.09
   4   6    -0.05  -0.13  -0.02     0.20  -0.00  -0.07    -0.11   0.04  -0.38
   5   6    -0.34  -0.19  -0.05    -0.04  -0.17   0.18    -0.01   0.05   0.22
   6   6    -0.33   0.36   0.10    -0.09  -0.05  -0.18    -0.03   0.10  -0.26
   7   6     0.05   0.17  -0.04    -0.18   0.01   0.23     0.11  -0.02   0.21
   8   6     0.37   0.28   0.05     0.11   0.22  -0.17    -0.05  -0.06  -0.27
   9   6     0.30  -0.28  -0.09     0.13   0.11   0.20    -0.03  -0.11   0.20
  10   6     0.05  -0.01   0.01    -0.25  -0.01   0.06     0.13  -0.24   0.07
  11   6     0.00   0.02   0.07    -0.11  -0.07  -0.19     0.05   0.18   0.01
  12   6    -0.03   0.01   0.00    -0.06  -0.08  -0.11     0.07  -0.15   0.15
  13   6    -0.04  -0.02   0.00     0.22   0.02  -0.07    -0.12   0.14  -0.02
  14   6     0.01  -0.01  -0.06     0.03   0.05   0.18     0.01  -0.22  -0.01
  15   6     0.03  -0.01   0.01    -0.02   0.07   0.09    -0.00   0.12  -0.13
  16   1    -0.02  -0.01   0.03     0.05   0.00   0.04    -0.02  -0.00   0.05
  17   1     0.00  -0.03  -0.04     0.07  -0.01  -0.04    -0.01  -0.01  -0.00
  18   1    -0.00  -0.03  -0.04     0.03   0.02   0.17    -0.01  -0.02  -0.03
  19   1    -0.04  -0.09  -0.00    -0.05  -0.02  -0.00     0.02  -0.01   0.21
  20   1    -0.06   0.12   0.05     0.02   0.02  -0.13    -0.03   0.00   0.04
  21   1     0.01  -0.11  -0.02    -0.05  -0.04   0.04     0.04  -0.01   0.19
  22   1     0.05   0.11   0.04     0.07   0.04  -0.13    -0.04  -0.01   0.04
  23   1     0.05  -0.10  -0.00    -0.01   0.01   0.00     0.02  -0.04   0.22
  24   1     0.00   0.01   0.02     0.02  -0.01  -0.05    -0.02   0.15  -0.05
  25   1     0.00   0.01  -0.02    -0.07  -0.01   0.03     0.04   0.02  -0.02
  26   1    -0.01   0.00   0.01     0.06   0.01  -0.03    -0.04   0.14  -0.05
  27   1     0.00   0.01  -0.02    -0.04  -0.00   0.05     0.03   0.01  -0.03
  28   1    -0.00   0.01   0.01     0.04  -0.00  -0.03    -0.03   0.15  -0.06
                     22                     23                     24
                        a                      a                      a 
 Frequencies --   662.9868               733.6540               757.9941
 Red. masses --     9.1266                 6.7671                 4.6509
 Frc consts  --     0.0000                 0.0000                 0.0000
 IR Inten    --     5.6542                25.5138                24.8562
 Raman Activ --     0.0000                 0.0000                 0.0000
 Depolar     --     0.0000                 0.0000                 0.0000
 Atom AN      X      Y      Z        X      Y      Z        X      Y      Z
   1   6     0.00  -0.01   0.02     0.05  -0.07  -0.29     0.02   0.03  -0.06
   2   6     0.03  -0.08   0.03     0.10  -0.01  -0.03     0.02   0.12  -0.03
   3   7    -0.02  -0.02   0.06    -0.06   0.10   0.23     0.00   0.03   0.01
   4   6    -0.05   0.03  -0.27     0.09  -0.02   0.16    -0.00  -0.01   0.04
   5   6    -0.01   0.03   0.15     0.05  -0.07  -0.12     0.00  -0.01  -0.02
   6   6    -0.03   0.06  -0.18     0.06  -0.12  -0.12     0.01   0.00  -0.01
   7   6     0.05  -0.01   0.15    -0.11   0.01  -0.09     0.01   0.00  -0.02
   8   6    -0.01  -0.01  -0.19     0.05   0.11  -0.10    -0.02  -0.01  -0.01
   9   6     0.00  -0.04   0.14     0.04   0.08  -0.12    -0.01  -0.01  -0.02
  10   6     0.01   0.36  -0.17    -0.12   0.03   0.04     0.02  -0.36   0.16
  11   6     0.05  -0.20   0.12    -0.11  -0.07  -0.06    -0.03   0.20  -0.09
  12   6    -0.00   0.29  -0.08    -0.14  -0.08  -0.12    -0.03   0.06  -0.05
  13   6    -0.03  -0.20   0.11     0.18  -0.03  -0.06     0.00   0.20  -0.09
  14   6    -0.03   0.26  -0.16    -0.02   0.07   0.20    -0.01   0.09  -0.01
  15   6     0.02  -0.23   0.05    -0.03   0.04   0.16    -0.02   0.18  -0.05
  16   1    -0.01   0.01  -0.03    -0.01  -0.01  -0.09    -0.02  -0.01   0.08
  17   1    -0.02   0.02   0.05    -0.02  -0.00  -0.03     0.02  -0.04  -0.08
  18   1    -0.01   0.01  -0.01    -0.00  -0.02  -0.15     0.01  -0.05  -0.03
  19   1     0.01  -0.00   0.15     0.01  -0.03   0.26     0.01  -0.01   0.03
  20   1    -0.02   0.00   0.03     0.07  -0.04   0.27     0.00  -0.00   0.03
  21   1     0.02  -0.02   0.14    -0.01  -0.02   0.35     0.00   0.00   0.05
  22   1    -0.01  -0.00   0.03     0.06  -0.02   0.27    -0.01  -0.00   0.03
  23   1     0.02  -0.02   0.15     0.00  -0.02   0.27    -0.00  -0.01   0.03
  24   1     0.02  -0.23   0.11     0.00   0.04  -0.04     0.03  -0.27   0.12
  25   1     0.02  -0.04   0.01    -0.09   0.05  -0.01     0.02  -0.35   0.15
  26   1     0.01  -0.22   0.10     0.04   0.05  -0.04     0.04  -0.41   0.17
  27   1     0.02  -0.04   0.01    -0.08   0.06   0.03     0.02  -0.35   0.16
  28   1     0.01  -0.23   0.10     0.01   0.04   0.00     0.02  -0.22   0.10
                     25                     26                     27
                        a                      a                      a 
 Frequencies --   783.4318               828.8702               865.7612
 Red. masses --     8.4516                11.1293                 3.2989
 Frc consts  --     0.0000                 0.0000                 0.0000
 IR Inten    --    31.7151                16.8034                 1.8244
 Raman Activ --     0.0000                 0.0000                 0.0000
 Depolar     --     0.0000                 0.0000                 0.0000
 Atom AN      X      Y      Z        X      Y      Z        X      Y      Z
   1   6     0.11  -0.07  -0.29    -0.07  -0.03  -0.07    -0.00   0.00  -0.01
   2   6     0.23   0.01   0.02    -0.25  -0.00  -0.04    -0.00   0.00  -0.00
   3   7    -0.01   0.08   0.36    -0.41   0.07   0.23    -0.00  -0.00   0.01
   4   6    -0.00   0.03  -0.38    -0.06   0.01  -0.12    -0.01   0.00  -0.01
   5   6     0.01  -0.01   0.12     0.14  -0.12   0.01    -0.01   0.01  -0.27
   6   6     0.02  -0.02   0.07     0.21  -0.34  -0.02    -0.00   0.00  -0.18
   7   6    -0.00  -0.01   0.14    -0.26   0.01   0.07    -0.01   0.00   0.01
   8   6    -0.02  -0.01   0.07     0.23   0.31   0.03     0.02  -0.00   0.18
   9   6    -0.01  -0.05   0.11     0.15   0.09   0.01     0.02  -0.02   0.26
  10   6    -0.04  -0.00   0.02    -0.02  -0.03   0.02     0.00  -0.00  -0.00
  11   6    -0.11  -0.03  -0.05     0.10   0.04   0.04    -0.00   0.01  -0.01
  12   6    -0.17  -0.07  -0.12     0.16   0.06   0.10    -0.00   0.01  -0.00
  13   6     0.16  -0.01  -0.06    -0.12   0.02   0.03    -0.00  -0.00   0.00
  14   6    -0.04   0.08   0.20     0.04  -0.06  -0.16     0.00  -0.01   0.00
  15   6    -0.04   0.05   0.13     0.05  -0.02  -0.05     0.00  -0.01   0.01
  16   1    -0.05  -0.01  -0.04     0.05  -0.01  -0.08     0.00  -0.00   0.00
  17   1    -0.06  -0.00   0.02     0.05  -0.01  -0.09     0.00  -0.00  -0.01
  18   1    -0.01  -0.05  -0.26     0.01   0.02   0.11     0.00  -0.01  -0.00
  19   1    -0.01   0.01  -0.16     0.02  -0.03  -0.03     0.03  -0.04   0.53
  20   1    -0.00   0.02  -0.22     0.15  -0.04  -0.06     0.03  -0.03   0.35
  21   1    -0.02   0.04  -0.34    -0.07   0.02  -0.11    -0.00   0.00  -0.02
  22   1    -0.02   0.02  -0.21     0.14   0.04  -0.05    -0.01   0.03  -0.36
  23   1    -0.02  -0.00  -0.14     0.02   0.02   0.02    -0.02   0.05  -0.51
  24   1    -0.01  -0.00  -0.01     0.03  -0.00   0.02     0.00  -0.02   0.01
  25   1    -0.09  -0.00   0.01     0.08  -0.02  -0.00     0.00  -0.01   0.01
  26   1     0.04  -0.00  -0.02    -0.03  -0.02   0.02    -0.00   0.00  -0.00
  27   1    -0.08   0.01   0.05     0.05  -0.02  -0.04    -0.00   0.01  -0.01
  28   1     0.00   0.01   0.02     0.00   0.00  -0.00    -0.00   0.02  -0.01
                     28                     29                     30
                        a                      a                      a 
 Frequencies --   873.5404               878.9326               907.8841
 Red. masses --     3.3485                 3.8836                 3.7379
 Frc consts  --     0.0000                 0.0000                 0.0000
 IR Inten    --     1.0147                 1.4904                 0.3785
 Raman Activ --     0.0000                 0.0000                 0.0000
 Depolar     --     0.0000                 0.0000                 0.0000
 Atom AN      X      Y      Z        X      Y      Z        X      Y      Z
   1   6     0.01   0.00   0.00    -0.01   0.01   0.02     0.00   0.02  -0.01
   2   6     0.00  -0.00  -0.00    -0.00  -0.00  -0.01    -0.01   0.01  -0.00
   3   7     0.01   0.00  -0.00     0.04  -0.01  -0.06    -0.01   0.01   0.00
   4   6     0.00  -0.00   0.00     0.02  -0.01   0.11    -0.00   0.00   0.00
   5   6     0.00  -0.00   0.01    -0.03   0.02  -0.24     0.00  -0.00   0.00
   6   6    -0.00   0.00   0.01    -0.01   0.03   0.03     0.00  -0.00  -0.01
   7   6     0.00   0.00  -0.00     0.04  -0.03   0.33    -0.00   0.00  -0.00
   8   6    -0.00  -0.00  -0.01    -0.02  -0.03   0.01     0.00   0.00   0.01
   9   6    -0.00   0.00  -0.01    -0.03   0.04  -0.25     0.00  -0.00  -0.00
  10   6     0.01   0.00  -0.00     0.00   0.00   0.00     0.00  -0.07   0.03
  11   6    -0.03   0.26  -0.12    -0.00   0.00  -0.00    -0.02   0.24  -0.10
  12   6    -0.02   0.16  -0.08    -0.00   0.00  -0.00     0.01  -0.11   0.05
  13   6     0.01  -0.05   0.02     0.00  -0.00   0.00     0.02  -0.29   0.13
  14   6     0.02  -0.20   0.09    -0.00  -0.00   0.00    -0.00   0.06  -0.03
  15   6     0.01  -0.19   0.08    -0.00  -0.00  -0.00    -0.02   0.21  -0.09
  16   1    -0.00   0.00   0.00     0.01   0.00   0.01    -0.01   0.00   0.03
  17   1     0.00  -0.00   0.00     0.01   0.00  -0.00     0.01  -0.01  -0.03
  18   1     0.00  -0.01   0.00     0.00   0.00   0.03     0.01  -0.02   0.00
  19   1    -0.00   0.00  -0.03     0.02  -0.04   0.45     0.00  -0.00  -0.00
  20   1    -0.00   0.00  -0.01    -0.02   0.01  -0.12     0.00  -0.00   0.01
  21   1     0.00  -0.00   0.01    -0.02   0.04  -0.53    -0.00   0.00   0.00
  22   1    -0.00  -0.00   0.02    -0.01   0.00  -0.10    -0.00   0.00  -0.01
  23   1     0.00  -0.00   0.02     0.02  -0.04   0.47    -0.00  -0.00   0.00
  24   1     0.05  -0.50   0.22     0.00  -0.01   0.00     0.05  -0.42   0.18
  25   1     0.03  -0.32   0.14    -0.00  -0.00   0.00    -0.02   0.25  -0.11
  26   1    -0.01   0.07  -0.03     0.00   0.00  -0.00    -0.04   0.46  -0.20
  27   1    -0.04   0.42  -0.18     0.00   0.01  -0.00     0.00  -0.05   0.02
  28   1    -0.04   0.35  -0.15     0.00   0.00  -0.00     0.04  -0.41   0.17
                     31                     32                     33
                        a                      a                      a 
 Frequencies --   920.0817               923.0372               930.8605
 Red. masses --     3.9698                 2.7834                 4.1156
 Frc consts  --     0.0000                 0.0000                 0.0000
 IR Inten    --     0.3277                 0.0193                 0.4885
 Raman Activ --     0.0000                 0.0000                 0.0000
 Depolar     --     0.0000                 0.0000                 0.0000
 Atom AN      X      Y      Z        X      Y      Z        X      Y      Z
   1   6    -0.00   0.00   0.01    -0.00  -0.00   0.01     0.00  -0.01   0.01
   2   6    -0.00  -0.01   0.00     0.00   0.00  -0.00     0.00  -0.00  -0.00
   3   7     0.00   0.00  -0.01     0.00  -0.00  -0.01     0.00  -0.00  -0.00
   4   6     0.01  -0.00   0.01     0.01  -0.01   0.08    -0.00  -0.00  -0.00
   5   6     0.01  -0.02   0.21     0.00  -0.01   0.05     0.00   0.00   0.00
   6   6    -0.02   0.04  -0.29    -0.01   0.02  -0.22    -0.00   0.00  -0.00
   7   6     0.01  -0.00   0.00     0.01  -0.02   0.23    -0.00  -0.00  -0.00
   8   6     0.01  -0.04   0.30    -0.01   0.01  -0.22     0.00   0.00   0.00
   9   6    -0.02   0.02  -0.21     0.00  -0.00   0.05     0.00   0.00  -0.00
  10   6    -0.00   0.00  -0.00     0.00  -0.00   0.00     0.00   0.04  -0.02
  11   6     0.00  -0.01   0.00    -0.00   0.00  -0.00    -0.02   0.18  -0.08
  12   6    -0.00   0.01  -0.00    -0.00  -0.00   0.00     0.02  -0.30   0.12
  13   6    -0.00   0.00  -0.00     0.00  -0.00   0.00    -0.00   0.13  -0.06
  14   6     0.00  -0.00   0.00    -0.00   0.00  -0.00    -0.02   0.19  -0.07
  15   6    -0.00  -0.00  -0.00    -0.00  -0.00   0.00     0.02  -0.25   0.10
  16   1    -0.00  -0.00   0.01    -0.00   0.00   0.00    -0.00   0.00  -0.01
  17   1     0.00  -0.00  -0.00    -0.00  -0.00   0.00    -0.00   0.01   0.01
  18   1     0.00   0.00   0.00    -0.00   0.00   0.00     0.00  -0.00   0.00
  19   1    -0.02   0.02  -0.33    -0.01   0.02  -0.23    -0.00   0.00  -0.00
  20   1     0.02  -0.04   0.50     0.03  -0.04   0.49    -0.00  -0.00   0.00
  21   1     0.00  -0.00  -0.00    -0.02   0.04  -0.49    -0.00  -0.00   0.00
  22   1    -0.03   0.04  -0.50     0.02  -0.04   0.49     0.00   0.00  -0.01
  23   1     0.01  -0.03   0.34    -0.01   0.02  -0.22     0.00   0.00   0.01
  24   1    -0.00   0.01  -0.00    -0.00  -0.00   0.00     0.03  -0.30   0.13
  25   1     0.00  -0.01   0.00    -0.00   0.00  -0.00    -0.05   0.50  -0.22
  26   1     0.00  -0.00   0.00    -0.00   0.00  -0.00     0.02  -0.22   0.10
  27   1    -0.00   0.01  -0.00     0.00  -0.00   0.00     0.02  -0.27   0.12
  28   1    -0.00   0.00  -0.00     0.00   0.00  -0.00    -0.04   0.38  -0.16
                     34                     35                     36
                        a                      a                      a 
 Frequencies --   932.9167               964.9424               982.0258
 Red. masses --     3.0741                10.5783                10.0715
 Frc consts  --     0.0000                 0.0000                 0.0000
 IR Inten    --     0.1252                 5.9749                10.7170
 Raman Activ --     0.0000                 0.0000                 0.0000
 Depolar     --     0.0000                 0.0000                 0.0000
 Atom AN      X      Y      Z        X      Y      Z        X      Y      Z
   1   6     0.00   0.00  -0.00     0.08   0.11   0.24     0.13   0.07   0.02
   2   6    -0.00   0.00  -0.00     0.09  -0.10  -0.19     0.05  -0.07   0.01
   3   7    -0.00  -0.00  -0.00    -0.10  -0.03  -0.16     0.07  -0.01  -0.09
   4   6     0.00  -0.00   0.00    -0.16   0.01   0.03    -0.06  -0.00   0.03
   5   6    -0.00   0.00  -0.00     0.13   0.28   0.01     0.12   0.31   0.02
   6   6    -0.00   0.00  -0.00     0.06  -0.16  -0.02     0.01  -0.08  -0.01
   7   6     0.00  -0.00   0.00    -0.24   0.01   0.02    -0.22   0.01   0.02
   8   6     0.00   0.00  -0.00     0.08   0.16   0.01     0.02   0.08   0.01
   9   6    -0.00   0.00   0.00     0.10  -0.29  -0.04     0.08  -0.31  -0.04
  10   6    -0.01   0.05  -0.02     0.18  -0.01  -0.08    -0.13   0.02   0.04
  11   6     0.00  -0.01   0.00    -0.01   0.12   0.30    -0.01  -0.17  -0.38
  12   6     0.01  -0.13   0.06    -0.12  -0.06  -0.12     0.09   0.05   0.10
  13   6    -0.02   0.22  -0.09     0.23  -0.02  -0.10    -0.27   0.02   0.09
  14   6     0.03  -0.26   0.11    -0.04   0.08   0.20    -0.01  -0.05  -0.12
  15   6    -0.01   0.14  -0.06    -0.20  -0.09  -0.18     0.27   0.15   0.30
  16   1    -0.00   0.00   0.00    -0.09   0.03   0.21    -0.08   0.02   0.16
  17   1    -0.00  -0.00  -0.00    -0.08  -0.01   0.12    -0.07  -0.02   0.06
  18   1     0.00  -0.00  -0.00    -0.01  -0.04  -0.09    -0.00  -0.07  -0.19
  19   1     0.00  -0.00   0.00     0.02   0.09   0.01    -0.00   0.11   0.02
  20   1    -0.00  -0.00   0.00    -0.01  -0.05   0.00    -0.05  -0.04   0.01
  21   1     0.00  -0.00  -0.00    -0.07  -0.00   0.00    -0.06   0.00  -0.00
  22   1     0.00  -0.00   0.00    -0.00   0.06   0.01    -0.04   0.05   0.01
  23   1    -0.00   0.00  -0.00     0.01  -0.09   0.00    -0.01  -0.11   0.00
  24   1     0.01  -0.09   0.04     0.00   0.04   0.08    -0.07  -0.05  -0.12
  25   1    -0.03   0.32  -0.14    -0.01  -0.03  -0.05    -0.02   0.03   0.07
  26   1     0.04  -0.43   0.18     0.06  -0.01  -0.04    -0.08   0.00   0.02
  27   1    -0.05   0.52  -0.22     0.00   0.03   0.05    -0.08  -0.02  -0.04
  28   1     0.04  -0.34   0.14    -0.05  -0.04  -0.05     0.05   0.06   0.11
                     37                     38                     39
                        a                      a                      a 
 Frequencies --   991.0926              1006.5392              1079.8774
 Red. masses --     5.6234                 7.6435                 6.8546
 Frc consts  --     0.0000                 0.0000                 0.0000
 IR Inten    --     9.3381                10.1014                 0.9457
 Raman Activ --     0.0000                 0.0000                 0.0000
 Depolar     --     0.0000                 0.0000                 0.0000
 Atom AN      X      Y      Z        X      Y      Z        X      Y      Z
   1   6     0.00   0.39  -0.10     0.26  -0.01   0.28     0.04  -0.01  -0.02
   2   6    -0.00  -0.41   0.07     0.02   0.01  -0.28    -0.03   0.00   0.02
   3   7    -0.05   0.10   0.01    -0.25  -0.05  -0.12    -0.01   0.00  -0.00
   4   6     0.00   0.01  -0.01    -0.09   0.00  -0.01     0.00   0.01   0.00
   5   6    -0.05  -0.17  -0.01    -0.10  -0.30  -0.02     0.16  -0.00  -0.01
   6   6     0.01   0.01   0.01     0.05  -0.02  -0.00    -0.04   0.34   0.03
   7   6     0.09   0.00  -0.01     0.18  -0.01  -0.01    -0.44   0.03   0.03
   8   6    -0.00  -0.03  -0.01     0.06   0.02  -0.00    -0.07  -0.35  -0.03
   9   6    -0.04   0.14   0.02    -0.07   0.31   0.03     0.16  -0.02  -0.01
  10   6    -0.01   0.08  -0.04    -0.00  -0.04  -0.02    -0.05   0.00   0.02
  11   6     0.01  -0.01   0.03    -0.00  -0.02  -0.05    -0.03   0.01   0.04
  12   6     0.02  -0.01   0.01     0.03   0.02   0.02     0.05   0.03   0.06
  13   6     0.00   0.00  -0.01    -0.05  -0.01  -0.01     0.09  -0.01  -0.03
  14   6    -0.00  -0.01   0.01    -0.03   0.01   0.03    -0.01  -0.04  -0.08
  15   6     0.01  -0.01   0.02     0.08   0.06   0.12    -0.05  -0.01  -0.01
  16   1    -0.09  -0.01   0.56    -0.15   0.05   0.11    -0.01   0.00   0.00
  17   1     0.05  -0.22  -0.39    -0.20   0.08   0.40    -0.02   0.00   0.02
  18   1     0.03  -0.21  -0.05    -0.03  -0.01  -0.31    -0.00  -0.01  -0.05
  19   1     0.02  -0.07  -0.01     0.03  -0.12  -0.01     0.28  -0.15  -0.02
  20   1     0.04   0.02  -0.01     0.09   0.03  -0.00     0.24   0.23   0.00
  21   1     0.03   0.01   0.00     0.05  -0.01   0.00    -0.13   0.01   0.01
  22   1     0.02  -0.02   0.00     0.09  -0.03  -0.01     0.21  -0.25  -0.03
  23   1     0.01   0.05  -0.00     0.04   0.12   0.01     0.32   0.13   0.00
  24   1    -0.01   0.03  -0.01    -0.06  -0.02  -0.02    -0.04  -0.00   0.01
  25   1     0.01   0.01  -0.01     0.01  -0.00   0.01    -0.01   0.02   0.05
  26   1    -0.00  -0.00  -0.01    -0.03  -0.02  -0.04     0.03  -0.00  -0.01
  27   1    -0.01   0.00  -0.00    -0.07  -0.01   0.00    -0.04  -0.02  -0.03
  28   1    -0.00   0.03  -0.01     0.02   0.01   0.05    -0.04   0.01   0.03
                     40                     41                     42
                        a                      a                      a 
 Frequencies --  1080.9603              1094.8965              1115.8885
 Red. masses --     8.3185                 6.7628                 4.0692
 Frc consts  --     0.0000                 0.0000                 0.0000
 IR Inten    --     3.8595                16.2601                 0.3964
 Raman Activ --     0.0000                 0.0000                 0.0000
 Depolar     --     0.0000                 0.0000                 0.0000
 Atom AN      X      Y      Z        X      Y      Z        X      Y      Z
   1   6    -0.11   0.01   0.08    -0.26   0.03   0.17     0.00  -0.01   0.00
   2   6     0.08  -0.02  -0.11     0.24  -0.05  -0.28    -0.00   0.00  -0.00
   3   7    -0.04   0.01   0.03    -0.08   0.01   0.06     0.01  -0.04  -0.01
   4   6    -0.03   0.01  -0.01    -0.06   0.02  -0.03     0.01   0.17   0.02
   5   6     0.03  -0.02  -0.00    -0.01  -0.04   0.00    -0.21  -0.14   0.00
   6   6     0.00   0.07   0.01     0.02  -0.01   0.00     0.10  -0.17  -0.02
   7   6    -0.09   0.01   0.01     0.00   0.01  -0.00     0.02   0.21   0.02
   8   6    -0.01  -0.07  -0.01     0.01  -0.00   0.00    -0.11  -0.14  -0.00
   9   6     0.03   0.01   0.00    -0.00   0.02   0.01     0.19  -0.16  -0.03
  10   6     0.15  -0.02  -0.07     0.38  -0.03  -0.14    -0.02   0.00  -0.01
  11   6     0.13  -0.04  -0.12    -0.04  -0.08  -0.18    -0.01   0.01   0.02
  12   6    -0.21  -0.14  -0.28    -0.11   0.00   0.03     0.02   0.01   0.02
  13   6    -0.42   0.02   0.13     0.09   0.00  -0.01     0.00  -0.01  -0.02
  14   6     0.03   0.16   0.37    -0.09   0.00   0.03    -0.01   0.00   0.00
  15   6     0.21   0.04   0.04     0.06   0.08   0.15     0.01   0.00   0.00
  16   1     0.04  -0.01  -0.00     0.09  -0.01  -0.04    -0.00   0.00  -0.01
  17   1     0.04   0.00  -0.04     0.09  -0.00  -0.11    -0.00  -0.00   0.00
  18   1    -0.00   0.02   0.13     0.00   0.07   0.36     0.00   0.00   0.00
  19   1     0.07  -0.04  -0.01     0.02  -0.03  -0.01    -0.40   0.18   0.03
  20   1     0.07   0.05  -0.00     0.03   0.01  -0.00     0.25   0.06  -0.01
  21   1    -0.03   0.01   0.00     0.00   0.01   0.00     0.02   0.44   0.04
  22   1     0.05  -0.06  -0.01     0.02  -0.01  -0.00    -0.26   0.10   0.02
  23   1     0.08   0.04  -0.00     0.03   0.02  -0.01     0.41   0.14  -0.00
  24   1     0.19   0.01  -0.02    -0.21  -0.06  -0.08    -0.03  -0.00   0.00
  25   1     0.09  -0.10  -0.25    -0.18   0.06   0.17     0.01  -0.00  -0.01
  26   1    -0.14  -0.01   0.01     0.03   0.01   0.02    -0.01  -0.01  -0.03
  27   1     0.21   0.08   0.14    -0.22  -0.03  -0.02    -0.03  -0.00  -0.00
  28   1     0.22  -0.05  -0.17    -0.19   0.10   0.30     0.03  -0.01  -0.03
                     43                     44                     45
                        a                      a                      a 
 Frequencies --  1122.2481              1179.5806              1180.9051
 Red. masses --     4.0829                 1.4029                 1.3687
 Frc consts  --     0.0000                 0.0000                 0.0000
 IR Inten    --     5.9756                 2.3022                 0.2097
 Raman Activ --     0.0000                 0.0000                 0.0000
 Depolar     --     0.0000                 0.0000                 0.0000
 Atom AN      X      Y      Z        X      Y      Z        X      Y      Z
   1   6     0.05   0.00  -0.00     0.01  -0.00  -0.01    -0.00  -0.00  -0.00
   2   6    -0.02  -0.00   0.03    -0.02   0.01   0.03     0.00   0.00   0.01
   3   7    -0.02  -0.02  -0.05     0.01  -0.00  -0.00     0.01   0.01  -0.00
   4   6    -0.07   0.02   0.01    -0.01  -0.00   0.00    -0.01   0.06   0.01
   5   6    -0.02  -0.03  -0.00    -0.00  -0.00  -0.00     0.09  -0.01  -0.00
   6   6     0.02  -0.03  -0.00    -0.00  -0.00  -0.00     0.03   0.02   0.00
   7   6     0.00   0.02   0.00     0.00   0.00   0.00    -0.00  -0.09  -0.01
   8   6     0.01   0.01  -0.00    -0.00   0.00  -0.00    -0.03   0.04   0.01
   9   6     0.01   0.01  -0.00     0.00   0.00  -0.00    -0.09   0.00   0.00
  10   6     0.05   0.06   0.13     0.01   0.02   0.04     0.00   0.00   0.00
  11   6     0.17  -0.07  -0.20    -0.11  -0.00   0.02    -0.00  -0.00   0.00
  12   6    -0.16  -0.08  -0.14    -0.00   0.00   0.00    -0.00   0.00   0.00
  13   6     0.02   0.08   0.18    -0.02  -0.03  -0.07    -0.00  -0.00  -0.00
  14   6     0.07  -0.04  -0.11     0.08   0.02   0.03     0.00   0.00   0.00
  15   6    -0.23  -0.04  -0.05     0.06   0.00  -0.01     0.00   0.00  -0.00
  16   1    -0.02   0.00   0.04    -0.00   0.00  -0.00     0.00  -0.00  -0.00
  17   1    -0.02   0.01   0.04    -0.00  -0.00   0.00     0.00  -0.00  -0.00
  18   1    -0.01  -0.02  -0.09    -0.00  -0.00  -0.02     0.00  -0.00  -0.00
  19   1    -0.01  -0.01  -0.00     0.00  -0.00   0.00    -0.10   0.08   0.01
  20   1     0.04   0.01  -0.00    -0.01  -0.00   0.00     0.39   0.20  -0.00
  21   1     0.00   0.03   0.00     0.00   0.01   0.00    -0.03  -0.72  -0.06
  22   1    -0.01   0.01   0.00     0.01  -0.00  -0.00    -0.39   0.25   0.04
  23   1     0.06   0.03   0.00     0.00   0.00   0.00     0.14   0.09   0.00
  24   1     0.38   0.03  -0.02     0.02   0.01   0.01    -0.00  -0.00  -0.00
  25   1    -0.15   0.02   0.07    -0.18   0.07   0.20    -0.00   0.00   0.00
  26   1     0.14   0.19   0.40    -0.24  -0.27  -0.60    -0.00  -0.01  -0.01
  27   1     0.34   0.03   0.01     0.54   0.08   0.07     0.01   0.00   0.00
  28   1    -0.32   0.09   0.29    -0.18   0.08   0.23    -0.00   0.00   0.00
                     46                     47                     48
                        a                      a                      a 
 Frequencies --  1189.3917              1199.1340              1244.0720
 Red. masses --     2.2275                 1.9324                 9.6506
 Frc consts  --     0.0000                 0.0000                 0.0000
 IR Inten    --    25.3579                23.1308               213.3285
 Raman Activ --     0.0000                 0.0000                 0.0000
 Depolar     --     0.0000                 0.0000                 0.0000
 Atom AN      X      Y      Z        X      Y      Z        X      Y      Z
   1   6     0.00  -0.01  -0.04     0.04  -0.01  -0.05     0.05  -0.03  -0.13
   2   6     0.00   0.03   0.10    -0.10   0.02   0.10    -0.10   0.10   0.40
   3   7     0.09  -0.01  -0.03     0.03  -0.00  -0.01     0.24  -0.05  -0.15
   4   6    -0.16  -0.00   0.01    -0.01  -0.00   0.01    -0.54  -0.02   0.05
   5   6     0.06  -0.07  -0.01    -0.00   0.00  -0.00    -0.13   0.02   0.01
   6   6    -0.07  -0.13  -0.01     0.00   0.00  -0.00     0.11  -0.12  -0.02
   7   6    -0.02   0.00   0.00     0.00  -0.00   0.00     0.07  -0.00  -0.00
   8   6    -0.05   0.14   0.02     0.00  -0.00  -0.00     0.11   0.14   0.00
   9   6     0.07   0.07  -0.00    -0.00  -0.00  -0.00    -0.14   0.01   0.00
  10   6     0.04   0.00  -0.01     0.02  -0.03  -0.07     0.27   0.02  -0.04
  11   6    -0.01  -0.00  -0.00    -0.12  -0.01   0.01     0.05  -0.01  -0.02
  12   6    -0.01  -0.00  -0.00     0.07  -0.03  -0.09    -0.08  -0.02  -0.04
  13   6    -0.00  -0.00  -0.00     0.03  -0.00  -0.01    -0.03  -0.00   0.00
  14   6    -0.00   0.00   0.01     0.09   0.04   0.07    -0.03   0.02   0.06
  15   6     0.01  -0.00  -0.00    -0.04   0.03   0.08     0.06  -0.01  -0.05
  16   1     0.01  -0.00  -0.02    -0.02   0.01  -0.02     0.01  -0.00  -0.05
  17   1     0.01   0.00  -0.01    -0.01  -0.02  -0.01     0.02  -0.01  -0.04
  18   1     0.00  -0.00  -0.01     0.01   0.01  -0.02    -0.00  -0.02  -0.10
  19   1     0.42  -0.28  -0.05    -0.02   0.01   0.00    -0.01  -0.02  -0.01
  20   1    -0.40  -0.23   0.00     0.02   0.01   0.00     0.23   0.07  -0.00
  21   1    -0.00   0.02   0.00     0.00   0.00   0.00     0.02  -0.01  -0.00
  22   1    -0.33   0.24   0.04     0.02  -0.01  -0.00     0.28  -0.12  -0.02
  23   1     0.44   0.24   0.01    -0.01  -0.01   0.00     0.06   0.06   0.02
  24   1    -0.05  -0.01  -0.01    -0.53  -0.08  -0.05    -0.12  -0.02  -0.03
  25   1     0.00  -0.00  -0.01     0.40  -0.16  -0.45    -0.12   0.03   0.09
  26   1    -0.00  -0.00  -0.01     0.05   0.05   0.11    -0.02  -0.01  -0.02
  27   1    -0.02  -0.00   0.00     0.23   0.04   0.05    -0.12  -0.01   0.00
  28   1     0.01  -0.00  -0.01    -0.24   0.10   0.30     0.05  -0.02  -0.05
                     49                     50                     51
                        a                      a                      a 
 Frequencies --  1277.2469              1277.8348              1295.9445
 Red. masses --     4.0519                 3.7508                 9.7868
 Frc consts  --     0.0000                 0.0000                 0.0000
 IR Inten    --     1.8054                10.2448                14.4801
 Raman Activ --     0.0000                 0.0000                 0.0000
 Depolar     --     0.0000                 0.0000                 0.0000
 Atom AN      X      Y      Z        X      Y      Z        X      Y      Z
   1   6     0.00   0.01   0.01    -0.00   0.01   0.01     0.13  -0.01  -0.07
   2   6    -0.03  -0.01  -0.01     0.09  -0.03  -0.11    -0.47   0.03   0.21
   3   7    -0.03   0.05   0.02    -0.04   0.01   0.01    -0.17   0.00  -0.01
   4   6     0.05  -0.40  -0.04    -0.00  -0.06  -0.01     0.31   0.00  -0.00
   5   6     0.12   0.00  -0.01     0.02  -0.00  -0.00     0.10  -0.03  -0.01
   6   6     0.12   0.15   0.01     0.02   0.02   0.00    -0.05   0.09   0.01
   7   6    -0.01   0.08   0.01     0.00   0.02   0.00    -0.06  -0.01   0.00
   8   6    -0.13   0.12   0.02    -0.02   0.02   0.00    -0.04  -0.11  -0.01
   9   6    -0.09   0.02   0.01    -0.03  -0.00   0.00     0.13   0.03  -0.00
  10   6     0.00  -0.03  -0.06     0.04   0.12   0.28     0.35  -0.06  -0.20
  11   6    -0.01   0.00   0.01     0.13   0.00  -0.02     0.28   0.03   0.02
  12   6    -0.02   0.01   0.02     0.05  -0.03  -0.08    -0.16  -0.03  -0.03
  13   6    -0.00   0.01   0.02    -0.02  -0.07  -0.15    -0.11  -0.05  -0.10
  14   6     0.02   0.01   0.02    -0.10  -0.05  -0.10     0.07   0.06   0.13
  15   6     0.03  -0.00  -0.02    -0.18   0.04   0.13     0.01   0.01   0.02
  16   1    -0.01   0.00   0.01    -0.02   0.01   0.01    -0.07   0.02   0.00
  17   1    -0.00  -0.01  -0.01    -0.01  -0.01   0.00    -0.05  -0.03   0.03
  18   1    -0.00  -0.01  -0.01     0.01   0.02   0.07    -0.00  -0.01  -0.14
  19   1    -0.39   0.28   0.04    -0.06   0.04   0.01    -0.05   0.05   0.01
  20   1    -0.33  -0.14   0.01    -0.05  -0.02   0.00    -0.11  -0.02   0.00
  21   1    -0.01  -0.22  -0.02    -0.00  -0.04  -0.00    -0.02   0.02   0.00
  22   1     0.26  -0.16  -0.03     0.05  -0.03  -0.01    -0.16   0.06   0.01
  23   1     0.39   0.22   0.00     0.07   0.04  -0.00    -0.10  -0.07  -0.00
  24   1     0.08   0.01   0.01    -0.47  -0.08  -0.06    -0.17  -0.03  -0.03
  25   1     0.02  -0.01  -0.03    -0.19   0.07   0.20    -0.20   0.05   0.16
  26   1    -0.01  -0.01  -0.03     0.09   0.09   0.19    -0.01   0.02   0.04
  27   1    -0.07  -0.01  -0.00     0.42   0.05   0.03    -0.11  -0.00   0.02
  28   1    -0.05   0.02   0.06     0.26  -0.11  -0.32    -0.02   0.01   0.04
                     52                     53                     54
                        a                      a                      a 
 Frequencies --  1315.5203              1324.8730              1376.3993
 Red. masses --    11.3158                11.7968                 3.2101
 Frc consts  --     0.0000                 0.0000                 0.0000
 IR Inten    --     4.9620                 1.0766                20.0027
 Raman Activ --     0.0000                 0.0000                 0.0000
 Depolar     --     0.0000                 0.0000                 0.0000
 Atom AN      X      Y      Z        X      Y      Z        X      Y      Z
   1   6    -0.00   0.01   0.00     0.05  -0.00  -0.03    -0.02   0.12   0.42
   2   6     0.01  -0.01  -0.02    -0.13  -0.00   0.02     0.01  -0.01  -0.04
   3   7     0.00   0.00   0.01    -0.08   0.00   0.01    -0.01   0.00   0.01
   4   6    -0.02  -0.41  -0.04     0.09  -0.01  -0.01     0.01  -0.00   0.00
   5   6    -0.35   0.26   0.04     0.04  -0.02  -0.00     0.00   0.00  -0.00
   6   6     0.27   0.15  -0.00    -0.01   0.04   0.00    -0.01  -0.00   0.00
   7   6    -0.02  -0.45  -0.04    -0.02   0.00   0.00     0.00  -0.00  -0.00
   8   6    -0.26   0.17   0.03    -0.01  -0.04  -0.00     0.00  -0.00  -0.00
   9   6     0.36   0.22   0.00     0.04   0.02   0.00    -0.00   0.00   0.00
  10   6    -0.01  -0.00   0.01     0.25   0.16   0.32    -0.01  -0.01  -0.00
  11   6    -0.00  -0.00  -0.00    -0.33  -0.05  -0.05    -0.01   0.00   0.01
  12   6     0.00   0.00   0.00     0.21  -0.11  -0.31     0.03  -0.00  -0.01
  13   6     0.00  -0.00  -0.00     0.11   0.16   0.35    -0.00  -0.00  -0.01
  14   6    -0.00  -0.00  -0.00    -0.37  -0.04  -0.01    -0.03  -0.00   0.00
  15   6    -0.00   0.00   0.00     0.28  -0.10  -0.30     0.01   0.01   0.01
  16   1     0.00  -0.00   0.01    -0.03   0.01   0.01     0.06   0.11  -0.52
  17   1    -0.00  -0.00  -0.00    -0.03  -0.01   0.02     0.10  -0.33  -0.40
  18   1     0.00  -0.01   0.01     0.01  -0.00  -0.02    -0.09  -0.17  -0.44
  19   1     0.05  -0.02  -0.01    -0.03   0.02   0.00     0.01  -0.00   0.00
  20   1     0.13   0.07   0.00    -0.04  -0.01   0.00     0.00   0.00  -0.00
  21   1     0.01   0.13   0.01    -0.01   0.00   0.00     0.00   0.00   0.00
  22   1    -0.12   0.08   0.01    -0.05   0.02   0.00    -0.01   0.00   0.00
  23   1    -0.04  -0.01  -0.00    -0.03  -0.02  -0.00    -0.00   0.00   0.00
  24   1     0.00  -0.00   0.00    -0.06  -0.01  -0.01    -0.01   0.00   0.00
  25   1     0.00  -0.00  -0.00    -0.03   0.01   0.02    -0.01   0.01   0.01
  26   1     0.00   0.00   0.00    -0.02  -0.01  -0.01     0.01   0.01   0.03
  27   1     0.01   0.00   0.00    -0.07  -0.01   0.00     0.03   0.00   0.01
  28   1     0.00  -0.00  -0.00     0.01  -0.00   0.00     0.01   0.00  -0.00
                     55                     56                     57
                        a                      a                      a 
 Frequencies --  1429.2653              1432.3881              1460.6470
 Red. masses --     8.8521                 8.9991                 8.1993
 Frc consts  --     0.0000                 0.0000                 0.0000
 IR Inten    --     5.5568                 6.9588                27.1043
 Raman Activ --     0.0000                 0.0000                 0.0000
 Depolar     --     0.0000                 0.0000                 0.0000
 Atom AN      X      Y      Z        X      Y      Z        X      Y      Z
   1   6     0.02   0.02   0.02     0.01   0.00   0.00    -0.06  -0.01   0.00
   2   6     0.04  -0.02  -0.04    -0.01   0.00   0.00    -0.01   0.02   0.07
   3   7    -0.06  -0.00  -0.01     0.00  -0.05  -0.01     0.02  -0.01  -0.04
   4   6     0.01  -0.02  -0.01     0.01   0.36   0.04    -0.29   0.01   0.02
   5   6     0.03  -0.00  -0.00    -0.30  -0.12   0.01     0.14  -0.19  -0.02
   6   6    -0.02   0.02   0.00     0.40  -0.03  -0.02     0.16   0.18   0.01
   7   6    -0.01  -0.02  -0.00     0.01   0.25   0.02    -0.18   0.01   0.01
   8   6     0.03  -0.02  -0.00    -0.39  -0.00   0.02     0.14  -0.19  -0.02
   9   6    -0.01   0.02   0.00     0.29  -0.14  -0.03     0.17   0.18   0.01
  10   6     0.10   0.16   0.36     0.00   0.02   0.02     0.25  -0.01  -0.08
  11   6     0.22  -0.07  -0.20     0.02  -0.00  -0.01    -0.18  -0.06  -0.10
  12   6    -0.35  -0.00   0.07    -0.02  -0.00  -0.00    -0.09   0.08   0.19
  13   6     0.10   0.13   0.28     0.00   0.01   0.02     0.17  -0.00  -0.04
  14   6     0.33  -0.04  -0.16     0.03  -0.00  -0.01    -0.18  -0.06  -0.11
  15   6    -0.28  -0.05  -0.06    -0.01  -0.01  -0.01    -0.08   0.08   0.20
  16   1    -0.03   0.02  -0.04     0.01   0.00  -0.02     0.16  -0.05   0.05
  17   1    -0.03  -0.05  -0.02    -0.02  -0.01   0.01     0.11   0.12   0.01
  18   1     0.01  -0.02   0.00     0.00  -0.02   0.00    -0.03  -0.05  -0.12
  19   1    -0.02   0.01   0.00     0.06  -0.13  -0.02    -0.18   0.08   0.01
  20   1    -0.00   0.01   0.00    -0.16  -0.16  -0.00    -0.17  -0.06   0.00
  21   1    -0.00   0.02   0.00    -0.02  -0.36  -0.03    -0.05   0.00   0.00
  22   1    -0.02   0.02   0.00     0.14  -0.16  -0.02    -0.17   0.08   0.02
  23   1    -0.01   0.00   0.00    -0.08  -0.13  -0.01    -0.19  -0.07   0.01
  24   1    -0.14  -0.05  -0.08    -0.02  -0.00  -0.01     0.17   0.01  -0.01
  25   1     0.08  -0.08  -0.19    -0.00  -0.00  -0.01     0.13  -0.04  -0.12
  26   1    -0.13  -0.14  -0.31    -0.01  -0.01  -0.02     0.04  -0.01  -0.03
  27   1    -0.21  -0.06  -0.09    -0.02  -0.00  -0.01     0.16   0.01  -0.00
  28   1     0.00  -0.05  -0.12    -0.00  -0.00  -0.00     0.13  -0.04  -0.12
                     58                     59                     60
                        a                      a                      a 
 Frequencies --  1470.3846              1473.3613              1475.1300
 Red. masses --     6.8032                 2.4497                 3.8373
 Frc consts  --     0.0000                 0.0000                 0.0000
 IR Inten    --     9.6422                 7.3497                13.6618
 Raman Activ --     0.0000                 0.0000                 0.0000
 Depolar     --     0.0000                 0.0000                 0.0000
 Atom AN      X      Y      Z        X      Y      Z        X      Y      Z
   1   6    -0.06  -0.09   0.06     0.07  -0.19   0.06    -0.18  -0.04   0.05
   2   6    -0.14  -0.02   0.01     0.08  -0.03  -0.01     0.09  -0.01  -0.01
   3   7    -0.10   0.00   0.00     0.04  -0.00  -0.00    -0.04  -0.01  -0.03
   4   6     0.31  -0.00  -0.01    -0.13   0.01   0.01    -0.06  -0.00   0.00
   5   6    -0.12   0.16   0.02     0.04  -0.07  -0.01     0.02  -0.04  -0.00
   6   6    -0.14  -0.15  -0.01     0.08   0.06   0.00     0.05   0.04   0.00
   7   6     0.16   0.01  -0.01    -0.07   0.00   0.00    -0.04   0.00   0.00
   8   6    -0.15   0.15   0.02     0.05  -0.07  -0.01     0.04  -0.05  -0.01
   9   6    -0.11  -0.15  -0.01     0.06   0.06   0.00     0.03   0.04   0.00
  10   6     0.24   0.00  -0.06    -0.09   0.01   0.02    -0.19   0.03   0.11
  11   6    -0.10  -0.05  -0.09     0.03   0.02   0.03     0.13   0.05   0.08
  12   6    -0.10   0.05   0.14     0.03  -0.02  -0.04     0.07  -0.06  -0.14
  13   6     0.14   0.02   0.01    -0.04  -0.00   0.01    -0.13  -0.01   0.02
  14   6    -0.15  -0.05  -0.09     0.05   0.01   0.02     0.17   0.05   0.08
  15   6    -0.07   0.06   0.14     0.02  -0.02  -0.04     0.04  -0.06  -0.16
  16   1     0.05  -0.06   0.16    -0.50   0.10   0.09     0.43  -0.16   0.18
  17   1     0.32   0.22  -0.06     0.26  -0.02  -0.24     0.38   0.37   0.02
  18   1    -0.09   0.22  -0.26    -0.10   0.66  -0.07    -0.08  -0.05  -0.32
  19   1     0.15  -0.07  -0.01    -0.06   0.02   0.01    -0.04   0.02   0.00
  20   1     0.14   0.05  -0.00    -0.06  -0.03   0.00    -0.04  -0.02   0.00
  21   1     0.05  -0.01  -0.00    -0.02  -0.01   0.00    -0.01   0.00   0.00
  22   1     0.14  -0.07  -0.01    -0.06   0.03   0.01    -0.04   0.02   0.00
  23   1     0.15   0.05  -0.01    -0.07  -0.02   0.00    -0.04  -0.01   0.00
  24   1     0.10  -0.00  -0.01    -0.02  -0.01   0.01    -0.20  -0.03  -0.00
  25   1     0.10  -0.03  -0.10    -0.03   0.01   0.03    -0.09   0.03   0.09
  26   1     0.02  -0.02  -0.05    -0.01   0.00   0.01    -0.03   0.01   0.02
  27   1     0.11   0.01  -0.01    -0.04  -0.00   0.00    -0.13  -0.01   0.00
  28   1     0.09  -0.03  -0.09    -0.03   0.01   0.02    -0.09   0.02   0.07
                     61                     62                     63
                        a                      a                      a 
 Frequencies --  1567.5577              1578.9095              1590.1508
 Red. masses --    11.4165                11.4775                11.4699
 Frc consts  --     0.0000                 0.0000                 0.0000
 IR Inten    --     2.6047                 1.8488                69.1297
 Raman Activ --     0.0000                 0.0000                 0.0000
 Depolar     --     0.0000                 0.0000                 0.0000
 Atom AN      X      Y      Z        X      Y      Z        X      Y      Z
   1   6     0.00   0.00  -0.00    -0.01  -0.00   0.00    -0.00  -0.00  -0.01
   2   6     0.00  -0.00  -0.00    -0.01   0.01  -0.00     0.07   0.02   0.07
   3   7     0.00   0.02   0.00     0.06   0.00   0.01    -0.07  -0.01  -0.05
   4   6    -0.01  -0.43  -0.04    -0.02  -0.01   0.00     0.12   0.00  -0.00
   5   6    -0.18   0.27   0.03    -0.01   0.00   0.00    -0.19   0.05   0.01
   6   6    -0.10  -0.30  -0.02     0.01  -0.00  -0.00     0.21   0.06  -0.01
   7   6     0.02   0.58   0.05    -0.01   0.01   0.00    -0.10  -0.01   0.00
   8   6     0.12  -0.33  -0.03     0.01  -0.01  -0.00     0.21  -0.07  -0.02
   9   6     0.15   0.25   0.02    -0.00   0.01   0.00    -0.20  -0.04   0.01
  10   6     0.00  -0.00   0.01    -0.18  -0.18  -0.39    -0.21  -0.00   0.04
  11   6    -0.01  -0.00  -0.00     0.24   0.10   0.19     0.39   0.02  -0.04
  12   6     0.00   0.00   0.00     0.02  -0.14  -0.32    -0.32   0.07   0.22
  13   6    -0.00  -0.00  -0.01     0.17   0.22   0.48     0.18  -0.01  -0.05
  14   6     0.01   0.00   0.00    -0.17  -0.11  -0.22    -0.43  -0.03   0.03
  15   6    -0.00  -0.00  -0.00    -0.07   0.11   0.29     0.34  -0.06  -0.20
  16   1    -0.00   0.00   0.00     0.01  -0.01   0.00    -0.00   0.00  -0.01
  17   1    -0.00  -0.00  -0.00     0.01   0.01   0.00    -0.00  -0.01  -0.01
  18   1     0.00  -0.00   0.01    -0.00  -0.00   0.01     0.00   0.00   0.01
  19   1     0.09  -0.02  -0.00    -0.00  -0.00  -0.00     0.03  -0.04  -0.00
  20   1     0.07  -0.03  -0.01    -0.00  -0.00   0.00    -0.04  -0.03  -0.00
  21   1    -0.01  -0.16  -0.01    -0.00  -0.00   0.00    -0.03   0.00   0.00
  22   1    -0.08  -0.02   0.00    -0.00   0.00   0.00    -0.04   0.04   0.00
  23   1    -0.09  -0.00   0.00    -0.00   0.00   0.00     0.03   0.03   0.00
  24   1     0.00  -0.00   0.00    -0.10   0.00   0.03    -0.08  -0.02  -0.03
  25   1     0.00   0.00   0.00    -0.09  -0.00   0.02     0.04  -0.03  -0.08
  26   1     0.00   0.00   0.00    -0.05  -0.06  -0.12     0.05  -0.00  -0.02
  27   1    -0.00  -0.00   0.00     0.05  -0.02  -0.05     0.10   0.02   0.03
  28   1    -0.00  -0.00   0.00     0.07  -0.01  -0.03    -0.03   0.03   0.08
                     64                     65                     66
                        a                      a                      a 
 Frequencies --  1595.8177              1702.1548              3007.5992
 Red. masses --    11.4676                12.7931                 1.8410
 Frc consts  --     0.0000                 0.0000                 0.0000
 IR Inten    --    57.0781               283.4723                14.2937
 Raman Activ --     0.0000                 0.0000                 0.0000
 Depolar     --     0.0000                 0.0000                 0.0000
 Atom AN      X      Y      Z        X      Y      Z        X      Y      Z
   1   6     0.01   0.00   0.00     0.01   0.01   0.05    -0.06  -0.27  -0.01
   2   6    -0.03   0.00   0.02    -0.50  -0.12  -0.49    -0.00  -0.01  -0.00
   3   7    -0.03  -0.00  -0.02     0.55   0.09   0.37     0.00   0.00   0.00
   4   6     0.21   0.01  -0.01    -0.11   0.01   0.01     0.00  -0.00  -0.00
   5   6    -0.37   0.09   0.02    -0.04   0.01   0.01     0.00   0.00   0.00
   6   6     0.40   0.12  -0.01     0.05   0.01  -0.00    -0.00   0.00   0.00
   7   6    -0.19  -0.02   0.01    -0.02  -0.00   0.00    -0.00   0.00   0.00
   8   6     0.39  -0.13  -0.03     0.05  -0.01  -0.00     0.00  -0.00  -0.00
   9   6    -0.40  -0.09   0.02    -0.06  -0.01   0.00    -0.00   0.00   0.00
  10   6     0.13  -0.00  -0.03    -0.00   0.02   0.05    -0.00   0.00  -0.00
  11   6    -0.22  -0.01   0.02     0.07   0.00  -0.01    -0.00   0.00   0.00
  12   6     0.17  -0.03  -0.11    -0.05   0.01   0.04    -0.00  -0.00  -0.00
  13   6    -0.09   0.00   0.02     0.01  -0.01  -0.02    -0.00   0.00   0.00
  14   6     0.22   0.01  -0.02    -0.03   0.00   0.01    -0.00   0.00   0.00
  15   6    -0.17   0.03   0.11     0.03  -0.02  -0.05     0.00   0.00   0.00
  16   1    -0.00   0.00   0.00     0.01  -0.01   0.05     0.24   0.89   0.18
  17   1    -0.01  -0.00   0.00     0.01   0.04   0.04    -0.12   0.08  -0.11
  18   1     0.00  -0.00   0.00    -0.01  -0.00  -0.05     0.10  -0.02  -0.02
  19   1     0.05  -0.07  -0.01     0.00  -0.01  -0.01    -0.01  -0.01  -0.00
  20   1    -0.08  -0.06  -0.00    -0.00  -0.01  -0.00     0.00  -0.00   0.00
  21   1    -0.05   0.01   0.00    -0.00   0.00  -0.00     0.00   0.00  -0.00
  22   1    -0.07   0.07   0.01    -0.00   0.01   0.00     0.00   0.00   0.00
  23   1     0.07   0.07   0.00     0.00   0.01   0.00     0.00  -0.00  -0.00
  24   1     0.05   0.01   0.01    -0.01  -0.00  -0.01     0.00  -0.00  -0.01
  25   1    -0.02   0.02   0.04     0.00  -0.00  -0.01     0.00   0.00   0.00
  26   1    -0.02   0.00   0.01     0.01  -0.00  -0.00     0.00  -0.00  -0.00
  27   1    -0.05  -0.01  -0.02    -0.00   0.00   0.00    -0.00  -0.00  -0.00
  28   1     0.01  -0.02  -0.04    -0.01   0.00   0.01    -0.00  -0.00  -0.00
                     67                     68                     69
                        a                      a                      a 
 Frequencies --  3024.2137              3032.1675              3060.2003
 Red. masses --     1.6992                 1.6037                 1.7600
 Frc consts  --     0.0000                 0.0000                 0.0000
 IR Inten    --    20.0515                23.5883                17.6291
 Raman Activ --     0.0000                 0.0000                 0.0000
 Depolar     --     0.0000                 0.0000                 0.0000
 Atom AN      X      Y      Z        X      Y      Z        X      Y      Z
   1   6    -0.18   0.10  -0.14    -0.22  -0.02   0.07    -0.00   0.00   0.00
   2   6    -0.01   0.00  -0.01    -0.01   0.00   0.01    -0.00   0.00  -0.00
   3   7     0.00   0.00   0.00     0.00  -0.00  -0.00     0.00  -0.00  -0.00
   4   6     0.00   0.00  -0.00     0.00  -0.00   0.00     0.00   0.00   0.00
   5   6    -0.00  -0.00  -0.00    -0.00  -0.00  -0.00     0.08   0.11   0.00
   6   6    -0.00   0.00   0.00    -0.00   0.00   0.00     0.10  -0.19  -0.02
   7   6    -0.00   0.00   0.00    -0.00   0.00   0.00    -0.06   0.00   0.00
   8   6    -0.00  -0.00  -0.00    -0.00  -0.00  -0.00     0.00   0.01   0.00
   9   6     0.00  -0.00  -0.00    -0.00   0.00  -0.00    -0.00   0.01   0.00
  10   6    -0.00  -0.00   0.00     0.00  -0.00  -0.00     0.00   0.00  -0.00
  11   6    -0.00   0.00   0.01    -0.00   0.00   0.00    -0.00   0.00   0.00
  12   6    -0.00  -0.00  -0.00    -0.00  -0.00  -0.00     0.00   0.00   0.00
  13   6    -0.00   0.00   0.00    -0.00   0.00   0.00     0.00   0.00  -0.00
  14   6    -0.00   0.00   0.00    -0.00   0.00   0.00     0.00  -0.00  -0.00
  15   6     0.00   0.00  -0.00     0.00   0.00   0.00     0.00   0.00   0.00
  16   1     0.02   0.19   0.01    -0.06  -0.12  -0.02    -0.00  -0.01  -0.00
  17   1     0.52  -0.58   0.54    -0.08   0.05  -0.05     0.00  -0.00   0.00
  18   1     0.09   0.03  -0.04     0.93   0.12  -0.19     0.02   0.00  -0.00
  19   1     0.01   0.01   0.00     0.01   0.02   0.00    -0.28  -0.43  -0.02
  20   1     0.00  -0.00  -0.00     0.00  -0.01  -0.00    -0.35   0.69   0.08
  21   1     0.00  -0.00  -0.00     0.00  -0.00   0.00     0.25  -0.01  -0.01
  22   1     0.00   0.00   0.00     0.00   0.00   0.00    -0.02  -0.04  -0.00
  23   1    -0.00   0.00   0.00     0.00  -0.01  -0.00     0.01  -0.02  -0.00
  24   1     0.01  -0.01  -0.02     0.00  -0.00  -0.00    -0.00  -0.00  -0.00
  25   1     0.00   0.00   0.00     0.00   0.00   0.00    -0.00  -0.00  -0.00
  26   1     0.00   0.00  -0.00     0.00  -0.00  -0.00     0.00   0.00   0.00
  27   1    -0.00   0.00   0.00     0.00  -0.00  -0.00    -0.00   0.00   0.00
  28   1    -0.00  -0.00  -0.00    -0.00  -0.00  -0.00    -0.00  -0.00  -0.00
                     70                     71                     72
                        a                      a                      a 
 Frequencies --  3063.6382              3070.0884              3071.6519
 Red. masses --     1.7659                 1.7543                 1.8472
 Frc consts  --     0.0000                 0.0000                 0.0000
 IR Inten    --    11.7656                 1.1793                94.9590
 Raman Activ --     0.0000                 0.0000                 0.0000
 Depolar     --     0.0000                 0.0000                 0.0000
 Atom AN      X      Y      Z        X      Y      Z        X      Y      Z
   1   6    -0.00   0.00  -0.00     0.00   0.00   0.00     0.00  -0.00  -0.00
   2   6     0.00   0.00   0.00     0.00  -0.00  -0.00     0.00  -0.00  -0.00
   3   7    -0.00  -0.00  -0.00    -0.00   0.00   0.00     0.00  -0.00   0.00
   4   6    -0.00   0.00   0.00     0.00  -0.00   0.00    -0.01   0.00   0.00
   5   6     0.02   0.03   0.00     0.00   0.00   0.00    -0.12  -0.18  -0.01
   6   6     0.01  -0.01  -0.00    -0.00   0.00   0.00     0.05  -0.10  -0.01
   7   6     0.08  -0.01  -0.00    -0.00  -0.00   0.00    -0.11   0.01   0.01
   8   6    -0.12  -0.19  -0.01     0.00   0.00   0.00    -0.03  -0.04  -0.00
   9   6    -0.05   0.09   0.01     0.00  -0.00  -0.00    -0.02   0.04   0.00
  10   6    -0.00   0.00  -0.00    -0.00   0.00   0.00    -0.00   0.00   0.00
  11   6     0.00  -0.00  -0.00    -0.01   0.01   0.03    -0.00   0.00   0.00
  12   6    -0.00  -0.00  -0.00    -0.13  -0.05  -0.10    -0.00  -0.00  -0.00
  13   6    -0.00   0.00   0.00     0.15  -0.01  -0.06     0.00  -0.00  -0.00
  14   6    -0.00   0.00   0.00    -0.02   0.04   0.10    -0.00   0.00   0.00
  15   6     0.00   0.00   0.00    -0.01  -0.00  -0.01    -0.00  -0.00  -0.00
  16   1    -0.00  -0.00  -0.00    -0.00  -0.00  -0.00     0.00   0.01   0.00
  17   1     0.00  -0.00   0.00    -0.00   0.00  -0.00    -0.00   0.00  -0.00
  18   1    -0.00   0.00   0.00    -0.00  -0.00   0.00    -0.02  -0.00   0.00
  19   1    -0.08  -0.12  -0.01    -0.00  -0.01  -0.00     0.41   0.63   0.03
  20   1    -0.02   0.03   0.00     0.00  -0.00  -0.00    -0.17   0.33   0.04
  21   1    -0.31   0.01   0.02     0.00  -0.00  -0.00     0.40  -0.02  -0.02
  22   1     0.44   0.68   0.04    -0.00  -0.00  -0.00     0.10   0.15   0.01
  23   1     0.19  -0.35  -0.04    -0.00   0.01   0.00     0.08  -0.15  -0.02
  24   1    -0.00   0.00   0.00     0.02  -0.05  -0.11     0.00  -0.00  -0.00
  25   1     0.00   0.00   0.00     0.47   0.20   0.35     0.00   0.00   0.00
  26   1     0.00   0.00  -0.00    -0.57   0.04   0.21    -0.01   0.00   0.00
  27   1     0.00  -0.00  -0.00     0.07  -0.16  -0.38     0.00  -0.00  -0.00
  28   1    -0.00  -0.00  -0.00     0.04   0.02   0.03     0.01   0.00   0.00
                     73                     74                     75
                        a                      a                      a 
 Frequencies --  3074.5308              3076.4052              3085.3093
 Red. masses --     1.8110                 1.8581                 1.8852
 Frc consts  --     0.0000                 0.0000                 0.0000
 IR Inten    --    45.5257               135.2148               156.3829
 Raman Activ --     0.0000                 0.0000                 0.0000
 Depolar     --     0.0000                 0.0000                 0.0000
 Atom AN      X      Y      Z        X      Y      Z        X      Y      Z
   1   6     0.00   0.00   0.00    -0.00  -0.00   0.00     0.00   0.00   0.00
   2   6    -0.00  -0.00  -0.00    -0.00  -0.00  -0.00     0.00   0.00   0.00
   3   7    -0.00  -0.00  -0.00    -0.00   0.00  -0.00    -0.00   0.00   0.00
   4   6    -0.00   0.00  -0.00     0.01  -0.00  -0.00     0.00  -0.00  -0.00
   5   6    -0.00  -0.00  -0.00    -0.03  -0.04  -0.00     0.01   0.02   0.00
   6   6     0.00  -0.00  -0.00     0.04  -0.07  -0.01    -0.02   0.03   0.00
   7   6    -0.00   0.00   0.00     0.11  -0.00  -0.01    -0.07   0.00   0.00
   8   6    -0.00  -0.00  -0.00    -0.04  -0.06  -0.00    -0.02  -0.04  -0.00
   9   6    -0.00   0.00   0.00     0.10  -0.20  -0.02     0.02  -0.03  -0.00
  10   6     0.00   0.00   0.00     0.00   0.00  -0.00    -0.00   0.00   0.00
  11   6    -0.01   0.02   0.04     0.00  -0.00  -0.00    -0.01   0.02   0.05
  12   6    -0.13  -0.05  -0.09    -0.00  -0.00  -0.00    -0.07  -0.03  -0.06
  13   6    -0.04   0.00   0.01    -0.00   0.00   0.00    -0.19   0.01   0.07
  14   6     0.04  -0.07  -0.18     0.00  -0.00  -0.00    -0.02   0.05   0.11
  15   6     0.03   0.01   0.02    -0.00  -0.00  -0.00    -0.03  -0.01  -0.03
  16   1    -0.00  -0.00  -0.00     0.00   0.00   0.00    -0.00  -0.01  -0.00
  17   1    -0.00   0.00  -0.00    -0.00   0.00  -0.00    -0.00   0.00  -0.00
  18   1    -0.00  -0.00  -0.00     0.00  -0.00  -0.00    -0.00  -0.00   0.00
  19   1     0.00   0.00   0.00     0.10   0.15   0.01    -0.04  -0.06  -0.00
  20   1    -0.00   0.00   0.00    -0.13   0.25   0.03     0.05  -0.10  -0.01
  21   1     0.00  -0.00  -0.00    -0.39   0.02   0.02     0.25  -0.01  -0.01
  22   1     0.00   0.00  -0.00     0.13   0.21   0.01     0.08   0.12   0.01
  23   1     0.00  -0.00  -0.00    -0.36   0.68   0.08    -0.06   0.12   0.01
  24   1     0.03  -0.06  -0.15    -0.00   0.00   0.00     0.03  -0.08  -0.20
  25   1     0.45   0.19   0.34     0.00   0.00   0.00     0.24   0.10   0.18
  26   1     0.13  -0.01  -0.05     0.00  -0.00  -0.00     0.63  -0.04  -0.23
  27   1    -0.12   0.27   0.65    -0.00   0.00   0.00     0.07  -0.15  -0.38
  28   1    -0.11  -0.04  -0.08     0.00   0.00   0.00     0.13   0.05   0.09
                     76                     77                     78
                        a                      a                      a 
 Frequencies --  3085.8240              3097.8586              3101.7988
 Red. masses --     1.9114                 1.8555                 1.8586
 Frc consts  --     0.0000                 0.0000                 0.0000
 IR Inten    --    35.7006                59.2240                13.4629
 Raman Activ --     0.0000                 0.0000                 0.0000
 Depolar     --     0.0000                 0.0000                 0.0000
 Atom AN      X      Y      Z        X      Y      Z        X      Y      Z
   1   6     0.00   0.00  -0.00    -0.00  -0.00  -0.00     0.00   0.00  -0.00
   2   6    -0.00  -0.00  -0.00    -0.00  -0.00  -0.00     0.00   0.00   0.00
   3   7     0.00  -0.00   0.00    -0.00   0.00   0.00    -0.00  -0.00  -0.00
   4   6    -0.01   0.00   0.00     0.00  -0.00  -0.00    -0.00   0.00   0.00
   5   6    -0.03  -0.05  -0.00    -0.00  -0.00  -0.00    -0.00  -0.00  -0.00
   6   6     0.04  -0.08  -0.01     0.00  -0.00  -0.00     0.00  -0.00  -0.00
   7   6     0.19  -0.01  -0.01     0.00  -0.00  -0.00     0.00  -0.00  -0.00
   8   6     0.06   0.10   0.01     0.00   0.00   0.00     0.00   0.00   0.00
   9   6    -0.05   0.09   0.01    -0.00   0.00   0.00    -0.00   0.00   0.00
  10   6    -0.00   0.00   0.00     0.01  -0.00  -0.00     0.01   0.00  -0.00
  11   6    -0.00   0.01   0.03     0.04  -0.10  -0.23     0.01  -0.02  -0.04
  12   6    -0.03  -0.01  -0.02    -0.06  -0.03  -0.05    -0.02  -0.01  -0.01
  13   6    -0.07   0.00   0.03    -0.03   0.00   0.02    -0.03   0.00   0.01
  14   6    -0.01   0.02   0.04     0.00   0.00   0.00    -0.01   0.03   0.07
  15   6    -0.01  -0.01  -0.01    -0.05  -0.02  -0.03     0.20   0.08   0.14
  16   1     0.00   0.00   0.00     0.00   0.01   0.00     0.00   0.00   0.00
  17   1     0.00  -0.00   0.00     0.01  -0.01   0.01     0.00  -0.00   0.00
  18   1    -0.01  -0.00   0.00     0.01   0.00  -0.00    -0.00  -0.00   0.00
  19   1     0.11   0.17   0.01     0.00   0.00   0.00     0.01   0.01   0.00
  20   1    -0.14   0.27   0.03    -0.00   0.00   0.00    -0.00   0.01   0.00
  21   1    -0.63   0.03   0.03    -0.01   0.00   0.00    -0.01   0.00   0.00
  22   1    -0.21  -0.33  -0.02    -0.00  -0.01  -0.00    -0.00  -0.00  -0.00
  23   1     0.16  -0.31  -0.04     0.00  -0.01  -0.00     0.00  -0.00  -0.00
  24   1     0.02  -0.04  -0.09    -0.14   0.34   0.81    -0.03   0.06   0.15
  25   1     0.09   0.04   0.07     0.20   0.08   0.15     0.05   0.02   0.04
  26   1     0.24  -0.02  -0.09     0.11  -0.01  -0.04     0.10  -0.01  -0.04
  27   1     0.03  -0.06  -0.15     0.00  -0.00  -0.00     0.04  -0.08  -0.20
  28   1     0.06   0.02   0.04     0.16   0.06   0.11    -0.70  -0.28  -0.51
