24
azobenzene rigid scan CNNC=90 deg
C 4.48264066 0.16895441 -0.09924804
C 3.58429873 0.86278906 -0.89743503
C 2.22751491 0.73297406 -0.68971923
C 1.75290699 -0.10906522 0.32391827
C 2.66402292 -0.81701074 1.11471005
C 4.01934327 -0.66575405 0.90748685
N 0.41374819 -0.35677104 0.54009216
N -0.40868733 0.52059988 0.14305629
C -0.89011567 0.39703502 -1.14317655
C -2.08320052 1.06417603 -1.44006486
C -2.58738297 1.03610489 -2.72370241
C -1.90249846 0.36756739 -3.72813756
C -0.71060264 -0.28378621 -3.44414590
C -0.20457659 -0.27710107 -2.16166661
H 5.54457321 0.27519838 -0.26535580
H 3.94946672 1.50723202 -1.68406917
H 1.50915943 1.25583773 -1.30357600
H 2.28426787 -1.46014685 1.89347046
H 4.72224858 -1.20431200 1.52597284
H -2.60189512 1.57727934 -0.64509110
H -3.51448634 1.54221540 -2.94947848
H -2.29520262 0.35817977 -4.73425674
H -0.17761754 -0.79824209 -4.23072683
H 0.72534345 -0.76934738 -1.91839040
