24
azobenzene rigid scan CNNC=180 deg
C 4.48264066 0.16895441 -0.09924804
C 3.58429873 0.86278906 -0.89743503
C 2.22751491 0.73297406 -0.68971923
C 1.75290699 -0.10906522 0.32391827
C 2.66402292 -0.81701074 1.11471005
C 4.01934327 -0.66575405 0.90748685
N 0.41374819 -0.35677104 0.54009216
N -0.40868733 0.52059988 0.14305629
C -1.74784619 0.27289312 0.35923067
C -2.60815270 1.37560935 0.33554765
C -3.96760729 1.19222925 0.48035185
C -4.48794199 -0.08564096 0.62594957
C -3.64185092 -1.18544618 0.63526501
C -2.27973993 -1.01423873 0.50797856
H 5.54457321 0.27519838 -0.26535580
H 3.94946672 1.50723202 -1.68406917
H 1.50915943 1.25583773 -1.30357600
H 2.28426787 -1.46014685 1.89347046
H 4.72224858 -1.20431200 1.52597284
H -2.18428694 2.36146946 0.22276451
H -4.63002779 2.04533518 0.47309282
H -5.55416340 -0.22521022 0.72730443
H -4.05198195 -2.17923767 0.74305436
H -1.60233558 -1.85527673 0.50356481
