24
azobenzene rigid scan CNNC=80 deg
C 4.48264066 0.16895441 -0.09924804
C 3.58429873 0.86278906 -0.89743503
C 2.22751491 0.73297406 -0.68971923
C 1.75290699 -0.10906522 0.32391827
C 2.66402292 -0.81701074 1.11471005
C 4.01934327 -0.66575405 0.90748685
N 0.41374819 -0.35677104 0.54009216
N -0.40868733 0.52059988 0.14305629
C -0.72755577 0.52438574 -1.19848947
C -1.91624073 1.16391866 -1.56550033
C -2.26381903 1.26105935 -2.89684037
C -1.42625650 0.74699256 -3.87618889
C -0.23820589 0.12456265 -3.52031647
C 0.11264601 0.00642712 -2.19223246
H 5.54457321 0.27519838 -0.26535580
H 3.94946672 1.50723202 -1.68406917
H 1.50915943 1.25583773 -1.30357600
H 2.28426787 -1.46014685 1.89347046
H 4.72224858 -1.20431200 1.52597284
H -2.55499806 1.55600297 -0.78925208
H -3.18732694 1.74524211 -3.17852020
H -1.69700855 0.83576457 -4.91801102
H 0.41381555 -0.26915739 -4.28667154
H 1.03604512 -0.46589813 -1.89142694
