24
trans-azobenzene S0 (GFN2-xTB/MMFF94)
C 4.48264066 0.16895441 -0.09924804
C 3.58429873 0.86278906 -0.89743503
C 2.22751491 0.73297406 -0.68971923
C 1.75290699 -0.10906522 0.32391827
C 2.66402292 -0.81701074 1.11471005
C 4.01934327 -0.66575405 0.90748685
N 0.41374819 -0.35677104 0.54009216
N -0.40868733 0.52059988 0.14305629
C -1.74977278 0.21052775 0.22540632
C -2.64967863 1.28136589 0.21330662
C -4.00777135 1.04036182 0.22795220
C -4.48552089 -0.26219201 0.23079142
C -3.59871508 -1.32947544 0.22763553
C -2.23891140 -1.10190144 0.22968747
H 5.54457321 0.27519838 -0.26535580
H 3.94946672 1.50723202 -1.68406917
H 1.50915943 1.25583773 -1.30357600
H 2.28426787 -1.46014685 1.89347046
H 4.72224858 -1.20431200 1.52597284
H -2.25872346 2.28707752 0.21256369
H -4.70174544 1.86803307 0.22984888
H -5.54984944 -0.44599930 0.23046803
H -3.97526000 -2.34221827 0.22397457
H -1.52955567 -1.91610521 0.21838673
