117
Rigid ternary start; face is not product CIP; no energy
O 0.655599000000 3.393923000000 -0.334710000000
P 0.042431000000 2.215357000000 0.354700000000
O -0.789047000000 2.659123000000 1.658940000000
O -1.043943000000 1.414063000000 -0.523323000000
C -1.531553000000 0.216760000000 -0.047752000000
C -2.887076000000 0.195434000000 0.327852000000
C -3.418236000000 -1.015274000000 0.774413000000
C -2.628425000000 -2.163681000000 0.884225000000
C -3.205089000000 -3.343324000000 1.385506000000
C -2.445223000000 -4.494519000000 1.570317000000
C -1.093225000000 -4.473656000000 1.270328000000
C -0.511502000000 -3.308217000000 0.763468000000
C -1.256284000000 -2.126218000000 0.516065000000
C -0.681196000000 -0.916354000000 -0.021068000000
C 0.680439000000 -0.816246000000 -0.508852000000
C 1.547756000000 0.179982000000 0.008653000000
O 1.055539000000 1.094672000000 0.914656000000
C 2.918075000000 0.253988000000 -0.291599000000
C 3.440818000000 -0.668921000000 -1.198577000000
C 2.628567000000 -1.622748000000 -1.818385000000
C 3.194018000000 -2.491328000000 -2.767486000000
C 2.413717000000 -3.423565000000 -3.445260000000
C 1.053479000000 -3.488248000000 -3.190710000000
C 0.482245000000 -2.634425000000 -2.243129000000
C 1.246035000000 -1.697897000000 -1.500331000000
C -3.734684000000 1.398761000000 0.280744000000
C -4.250301000000 1.956830000000 1.462332000000
C -5.041294000000 3.107577000000 1.427014000000
C -5.329871000000 3.717140000000 0.208407000000
C -4.829062000000 3.177224000000 -0.973977000000
C -4.038373000000 2.026218000000 -0.937643000000
C 3.806867000000 1.247387000000 0.324036000000
C 3.899765000000 2.548967000000 -0.189683000000
C 4.750522000000 3.488887000000 0.396478000000
C 5.523388000000 3.137777000000 1.501141000000
C 5.445012000000 1.848055000000 2.022028000000
C 4.592331000000 0.909054000000 1.437019000000
H -1.314877000000 3.456368000000 1.465191000000
H -4.468895000000 -1.053301000000 1.061049000000
H -4.259921000000 -3.371101000000 1.653082000000
H -2.905305000000 -5.396096000000 1.965324000000
H -0.481835000000 -5.357420000000 1.433444000000
H 0.560016000000 -3.335897000000 0.573427000000
H 4.501991000000 -0.619011000000 -1.441868000000
H 4.256475000000 -2.438484000000 -2.998836000000
H 2.865807000000 -4.083099000000 -4.180951000000
H 0.428396000000 -4.195962000000 -3.729062000000
H -0.594700000000 -2.705335000000 -2.100110000000
H -4.025451000000 1.499372000000 2.424428000000
H -5.431692000000 3.526204000000 2.351165000000
H -5.946885000000 4.611651000000 0.179199000000
H -5.053532000000 3.650013000000 -1.926813000000
H -3.654868000000 1.618109000000 -1.871189000000
H 3.298579000000 2.843767000000 -1.048107000000
H 4.802395000000 4.496069000000 -0.008689000000
H 6.182557000000 3.870871000000 1.958251000000
H 6.043336000000 1.572984000000 2.886422000000
H 4.536194000000 -0.092260000000 1.858805000000
C -4.156925473101 6.476238062322 1.670904072782
C -3.289053049874 5.247192410292 1.875591099772
N -2.286145726049 4.928971570544 1.107314225371
C -1.960835849718 5.727566758059 0.004703537933
C -2.598570819226 5.536360087884 -1.223794752270
C -2.256719701437 6.319829738428 -2.327883380289
C -1.263021339279 7.291137741663 -2.210825134335
C -0.606840898447 7.473243830011 -0.993912253147
C -0.951459665167 6.687689072643 0.107860746681
C -3.615747497468 4.342065558573 3.021881348384
C -4.916643128533 4.240934969512 3.529128652531
C -5.187329801079 3.382164963718 4.597986480768
C -4.164855445815 2.617496957768 5.158620795794
C -2.870486682915 2.703328376209 4.648934693722
C -2.596546955390 3.559916161968 3.581015431427
H -4.887968512490 6.275452091190 0.882677499934
H -4.683216197045 6.756193011723 2.586936890902
H -3.547542475896 7.338505091080 1.387669419320
H -3.361281764155 4.768750697759 -1.317552631024
H -2.759892571016 6.165973876123 -3.278516207097
H -0.992786390257 7.898930756587 -3.070468461998
H 0.176823021622 8.220349751662 -0.903000566294
H -0.433237045582 6.819542324322 1.053257139164
H -5.737137922956 4.804830908180 3.095605731738
H -6.198794857134 3.303885838153 4.989135760586
H -4.378209765682 1.947935703925 5.988206223302
H -2.073579136209 2.101464482413 5.078265923147
H -1.583907092544 3.615462321514 3.186752975583
C -3.458134421532 5.299380883536 6.779218024648
O -2.487052625293 6.043981550746 6.043244824710
C -1.321067481303 5.379769741389 5.837824433560
O -1.075671821279 4.244991543029 6.216303520687
C -0.389216626322 6.237862500906 5.064521469924
C 0.953579766578 6.150332731318 5.202638802548
C 1.655073345403 5.270531191536 6.206294204705
N 1.775963008692 6.927842266821 4.399981126757
C 1.327958897860 7.770478065128 3.393647838579
C 2.397418391633 8.517057756441 2.639213984474
C -0.000663053061 7.900166286065 3.180060675676
C -0.614983973954 8.735288317156 2.123059264359
O -1.636044060816 9.384689219119 2.293164067103
O 0.050552916173 8.596257115244 0.949546079404
C -0.524896498011 9.327486257144 -0.133211749209
C -1.007183202583 7.181387580578 4.053195068188
H -4.348603310565 5.923762002979 6.892988406925
H -3.738517277327 4.392172192400 6.234866129075
H -3.078378024439 5.052941545844 7.775750530912
H 1.066683302597 5.119586268891 7.115839349024
H 1.886339900915 4.297848733585 5.761011671968
H 2.597439177901 5.727983779030 6.529087550593
H 2.780448995697 6.813734555963 4.506902420481
H 2.033710928523 9.453305243544 2.206190814039
H 3.219257589488 8.791606877556 3.310523991046
H 2.805921280013 7.889401865719 1.840990246305
H -0.532653860813 10.399414357283 0.088133607815
H 0.093316423463 9.162149872565 -1.019891357460
H -1.536567063926 8.966907321738 -0.343997387031
H -1.684223833559 6.607503526641 3.407090573428
H -1.603348566246 7.933797510497 4.584941926776
