117
Rigid ternary start; face is not product CIP; no energy
O 0.655599000000 3.393923000000 -0.334710000000
P 0.042431000000 2.215357000000 0.354700000000
O -0.789047000000 2.659123000000 1.658940000000
O -1.043943000000 1.414063000000 -0.523323000000
C -1.531553000000 0.216760000000 -0.047752000000
C -2.887076000000 0.195434000000 0.327852000000
C -3.418236000000 -1.015274000000 0.774413000000
C -2.628425000000 -2.163681000000 0.884225000000
C -3.205089000000 -3.343324000000 1.385506000000
C -2.445223000000 -4.494519000000 1.570317000000
C -1.093225000000 -4.473656000000 1.270328000000
C -0.511502000000 -3.308217000000 0.763468000000
C -1.256284000000 -2.126218000000 0.516065000000
C -0.681196000000 -0.916354000000 -0.021068000000
C 0.680439000000 -0.816246000000 -0.508852000000
C 1.547756000000 0.179982000000 0.008653000000
O 1.055539000000 1.094672000000 0.914656000000
C 2.918075000000 0.253988000000 -0.291599000000
C 3.440818000000 -0.668921000000 -1.198577000000
C 2.628567000000 -1.622748000000 -1.818385000000
C 3.194018000000 -2.491328000000 -2.767486000000
C 2.413717000000 -3.423565000000 -3.445260000000
C 1.053479000000 -3.488248000000 -3.190710000000
C 0.482245000000 -2.634425000000 -2.243129000000
C 1.246035000000 -1.697897000000 -1.500331000000
C -3.734684000000 1.398761000000 0.280744000000
C -4.250301000000 1.956830000000 1.462332000000
C -5.041294000000 3.107577000000 1.427014000000
C -5.329871000000 3.717140000000 0.208407000000
C -4.829062000000 3.177224000000 -0.973977000000
C -4.038373000000 2.026218000000 -0.937643000000
C 3.806867000000 1.247387000000 0.324036000000
C 3.899765000000 2.548967000000 -0.189683000000
C 4.750522000000 3.488887000000 0.396478000000
C 5.523388000000 3.137777000000 1.501141000000
C 5.445012000000 1.848055000000 2.022028000000
C 4.592331000000 0.909054000000 1.437019000000
H -1.314877000000 3.456368000000 1.465191000000
H -4.468895000000 -1.053301000000 1.061049000000
H -4.259921000000 -3.371101000000 1.653082000000
H -2.905305000000 -5.396096000000 1.965324000000
H -0.481835000000 -5.357420000000 1.433444000000
H 0.560016000000 -3.335897000000 0.573427000000
H 4.501991000000 -0.619011000000 -1.441868000000
H 4.256475000000 -2.438484000000 -2.998836000000
H 2.865807000000 -4.083099000000 -4.180951000000
H 0.428396000000 -4.195962000000 -3.729062000000
H -0.594700000000 -2.705335000000 -2.100110000000
H -4.025451000000 1.499372000000 2.424428000000
H -5.431692000000 3.526204000000 2.351165000000
H -5.946885000000 4.611651000000 0.179199000000
H -5.053532000000 3.650013000000 -1.926813000000
H -3.654868000000 1.618109000000 -1.871189000000
H 3.298579000000 2.843767000000 -1.048107000000
H 4.802395000000 4.496069000000 -0.008689000000
H 6.182557000000 3.870871000000 1.958251000000
H 6.043336000000 1.572984000000 2.886422000000
H 4.536194000000 -0.092260000000 1.858805000000
C -3.139451798168 7.172979181613 1.776479797866
C -2.363509464949 5.885160432282 1.988821270925
N -2.286145726049 4.928971570544 1.107314225371
C -2.955248771267 5.042127784752 -0.116952046027
C -4.293974167266 4.658940102806 -0.232949656314
C -4.952790709702 4.752402089607 -1.460518065412
C -4.269210609092 5.217858103949 -2.583303552410
C -2.926965217809 5.581730916801 -2.480414075822
C -2.271599054394 5.486722247126 -1.251092857065
C -1.656838855463 5.700490227200 3.295143887624
C -2.105165563946 6.322997094164 4.466188305901
C -1.423602567470 6.125126112840 5.670153924643
C -0.299109015343 5.301544017067 5.711488951269
C 0.143887982513 4.667890775895 4.551844747535
C -0.534753651713 4.863024467617 3.347433881402
H -4.202397952284 6.988390603059 1.955679663671
H -2.794651726281 7.966992637813 2.443659208128
H -3.003767716808 7.543921909540 0.757134293264
H -4.820562619620 4.281738591059 0.638925519693
H -5.994683883100 4.454767506947 -1.540702882438
H -4.779430221407 5.287178657887 -3.540537345936
H -2.388023893223 5.932487973141 -3.356241152745
H -1.222912965538 5.758057963126 -1.171414010372
H -2.992641695305 6.948706089913 4.468801556620
H -1.774671571071 6.608175786648 6.578779539276
H 0.227921349510 5.146717934770 6.649738490972
H 1.014784948595 4.018141390650 4.583329665383
H -0.184195439417 4.359337427999 2.448892809627
C 1.962539075706 6.212652457224 4.281182970753
O 1.761150630947 6.716354439736 2.960269057300
C 2.062155081136 5.828374515900 1.978543944743
O 2.461898661170 4.687747797320 2.152793099428
C 1.814791352106 6.449040693346 0.653307605381
C 2.526011820174 6.108583088382 -0.445825724086
C 3.697976694665 5.159917968768 -0.446815976322
N 2.200747370493 6.670177585747 -1.672165512855
C 1.136388103125 7.532923994071 -1.887240950078
C 0.961824799095 8.018484582333 -3.302887040222
C 0.365487836794 7.908171757926 -0.841977014812
C -0.817836741573 8.793440274505 -0.932052427524
O -1.087352909480 9.636927640656 -0.089965154880
O -1.583329891914 8.469346167084 -2.003679913549
C -2.777018250422 9.243991946557 -2.118721735422
C 0.675390462373 7.443477014097 0.565186253596
H 1.698920106825 7.003395518746 4.988968796011
H 1.312713189029 5.351556859611 4.466120338756
H 3.013150465682 5.946740001192 4.434579767708
H 4.248462054887 5.171823171823 0.498215089845
H 3.359453692868 4.139936075031 -0.653965756354
H 4.421522092825 5.440487996463 -1.220944061703
H 2.733964466753 6.368037382753 -2.483236198312
H 0.452732438301 8.984972158070 -3.358369254378
H 1.937226415679 8.160664439573 -3.782293534251
H 0.399257642438 7.284440026722 -3.888279598919
H -2.536803390983 10.306537884824 -2.225383565509
H -3.307173947248 8.917587530186 -3.017676215987
H -3.426527595253 9.077378776297 -1.253676794288
H -0.226264260270 6.981117759442 0.987584906857
H 0.921593502024 8.323056036897 1.173473497427
