117
Rigid ternary start; face is not product CIP; no energy
O 0.655599000000 3.393923000000 -0.334710000000
P 0.042431000000 2.215357000000 0.354700000000
O -0.789047000000 2.659123000000 1.658940000000
O -1.043943000000 1.414063000000 -0.523323000000
C -1.531553000000 0.216760000000 -0.047752000000
C -2.887076000000 0.195434000000 0.327852000000
C -3.418236000000 -1.015274000000 0.774413000000
C -2.628425000000 -2.163681000000 0.884225000000
C -3.205089000000 -3.343324000000 1.385506000000
C -2.445223000000 -4.494519000000 1.570317000000
C -1.093225000000 -4.473656000000 1.270328000000
C -0.511502000000 -3.308217000000 0.763468000000
C -1.256284000000 -2.126218000000 0.516065000000
C -0.681196000000 -0.916354000000 -0.021068000000
C 0.680439000000 -0.816246000000 -0.508852000000
C 1.547756000000 0.179982000000 0.008653000000
O 1.055539000000 1.094672000000 0.914656000000
C 2.918075000000 0.253988000000 -0.291599000000
C 3.440818000000 -0.668921000000 -1.198577000000
C 2.628567000000 -1.622748000000 -1.818385000000
C 3.194018000000 -2.491328000000 -2.767486000000
C 2.413717000000 -3.423565000000 -3.445260000000
C 1.053479000000 -3.488248000000 -3.190710000000
C 0.482245000000 -2.634425000000 -2.243129000000
C 1.246035000000 -1.697897000000 -1.500331000000
C -3.734684000000 1.398761000000 0.280744000000
C -4.250301000000 1.956830000000 1.462332000000
C -5.041294000000 3.107577000000 1.427014000000
C -5.329871000000 3.717140000000 0.208407000000
C -4.829062000000 3.177224000000 -0.973977000000
C -4.038373000000 2.026218000000 -0.937643000000
C 3.806867000000 1.247387000000 0.324036000000
C 3.899765000000 2.548967000000 -0.189683000000
C 4.750522000000 3.488887000000 0.396478000000
C 5.523388000000 3.137777000000 1.501141000000
C 5.445012000000 1.848055000000 2.022028000000
C 4.592331000000 0.909054000000 1.437019000000
H -1.314877000000 3.456368000000 1.465191000000
H -4.468895000000 -1.053301000000 1.061049000000
H -4.259921000000 -3.371101000000 1.653082000000
H -2.905305000000 -5.396096000000 1.965324000000
H -0.481835000000 -5.357420000000 1.433444000000
H 0.560016000000 -3.335897000000 0.573427000000
H 4.501991000000 -0.619011000000 -1.441868000000
H 4.256475000000 -2.438484000000 -2.998836000000
H 2.865807000000 -4.083099000000 -4.180951000000
H 0.428396000000 -4.195962000000 -3.729062000000
H -0.594700000000 -2.705335000000 -2.100110000000
H -4.025451000000 1.499372000000 2.424428000000
H -5.431692000000 3.526204000000 2.351165000000
H -5.946885000000 4.611651000000 0.179199000000
H -5.053532000000 3.650013000000 -1.926813000000
H -3.654868000000 1.618109000000 -1.871189000000
H 3.298579000000 2.843767000000 -1.048107000000
H 4.802395000000 4.496069000000 -0.008689000000
H 6.182557000000 3.870871000000 1.958251000000
H 6.043336000000 1.572984000000 2.886422000000
H 4.536194000000 -0.092260000000 1.858805000000
C -1.917270343779 5.500876226228 3.413042367140
C -2.480110285947 5.809883902200 2.044352005938
N -2.286145726049 4.928971570544 1.107314225371
C -2.820279319679 5.106458447977 -0.176226073335
C -1.962955026867 5.373146887041 -1.246517593473
C -2.467959251462 5.531539749403 -2.538729790707
C -3.837120309484 5.407423509361 -2.770174286902
C -4.697911878407 5.115391564151 -1.712998907913
C -4.188404815459 4.956595834053 -0.422475937232
C -3.209044259900 7.094515416429 1.913261833369
C -4.357233352303 7.310748626696 2.680888249164
C -5.037635779654 8.524004710757 2.574675242005
C -4.568223525848 9.514393528489 1.709923992870
C -3.417420139838 9.296690247477 0.950215771690
C -2.732160727276 8.086082066863 1.052619473007
H -0.875171839293 5.182468541475 3.313152630469
H -1.950964280922 6.373541769070 4.070831850414
H -2.495389038459 4.688791918708 3.863455999880
H -0.894871935634 5.455175590706 -1.066574100850
H -1.792243607710 5.743726589237 -3.362588706078
H -4.231962080616 5.527271615635 -3.775630406186
H -5.763752054279 5.004428651717 -1.892047641035
H -4.858771539329 4.713355519953 0.396365934981
H -4.730137563207 6.539509109038 3.349304920328
H -5.935322942029 8.698068861888 3.162676239395
H -5.101453763644 10.458450567223 1.626209335424
H -3.055570957048 10.069664775695 0.276912099221
H -1.834352310042 7.920462932594 0.463596444086
C -6.978105132487 7.582922220376 1.206947296062
O -6.763066312233 6.323632336251 1.844939343931
C -6.744840379277 5.267979632269 0.991615604229
O -6.883712514562 5.333451796893 -0.219835977356
C -6.512154209270 4.016001574185 1.753898203923
C -7.005898950459 2.823508631435 1.348908422621
C -7.917870999946 2.632995648793 0.163379029812
N -6.694437352412 1.675807068705 2.063658319482
C -5.843961327398 1.634758304473 3.158398009380
C -5.640756324407 0.277393094696 3.780139674842
C -5.295005448380 2.782787565693 3.614852889461
C -4.347784243637 2.881060598088 4.748513061018
O -4.371531107449 3.792183174987 5.562461838702
O -3.420422073452 1.893121336398 4.690395567857
C -2.434800308141 1.962105710099 5.720926253282
C -5.633043652150 4.116661871890 2.983506063778
H -6.981263167796 8.357432308702 1.978863401886
H -6.168433213456 7.798976516685 0.502878360596
H -7.947934823450 7.595610863514 0.699706058385
H -8.551405168512 3.504813282710 -0.023243723758
H -7.331291348808 2.414824389291 -0.734506002953
H -8.602125287660 1.793673655621 0.333221420685
H -7.055033756729 0.792184617892 1.713477754014
H -5.367960703549 0.333649909147 4.837858570405
H -6.566997136018 -0.307035854834 3.735701247625
H -4.864755998345 -0.274101640070 3.240079757215
H -2.903534533927 1.883110583918 6.706893692520
H -1.752440081485 1.117128386430 5.593954179204
H -1.858161094137 2.888670740090 5.637922941434
H -4.697554716086 4.619048155291 2.704855001949
H -6.139461010445 4.736248735203 3.734466877082
