31
MMFF starting geometry; not quantum validated
C -0.6949699314 -1.0520791094 -1.6066583117
C -0.2416923462 -0.2074425254 -0.4290108272
N -1.0441754677 0.2480645498 0.4907387535
C -2.4117593069 -0.0464071448 0.4427284925
C -2.9033386378 -1.2307176914 0.9979045912
C -4.2707285125 -1.5118761412 0.9680017306
C -5.1559915564 -0.6004979758 0.3932984614
C -4.6755586397 0.5935182700 -0.1434751702
C -3.3074616668 0.8710974082 -0.1115415221
C 1.2166360674 0.1082644398 -0.3141019118
C 2.1944039558 -0.7389980711 -0.8455897173
C 3.5492277159 -0.4163914753 -0.7165991222
C 3.9430359660 0.7552826468 -0.0593185662
C 5.3979160419 1.0806191447 0.1086947618
C 2.9633203165 1.5859076351 0.4958621474
C 1.6092773605 1.2655091623 0.3686017822
H 0.0288600026 -1.0257263799 -2.4251069680
H -1.6371742960 -0.6757678846 -2.0137541859
H -0.8301303701 -2.0866405064 -1.2788557169
H -2.2143325676 -1.9323036786 1.4591984163
H -4.6436449614 -2.4366099011 1.3996848175
H -6.2211631669 -0.8159409776 0.3730242269
H -5.3641887084 1.3114925793 -0.5803452448
H -2.9324776183 1.8058777765 -0.5181041274
H 1.9275218520 -1.6662002160 -1.3438112736
H 4.2974497110 -1.0907616042 -1.1281272403
H 5.5535763210 2.1637959138 0.1500954028
H 5.9828293775 0.7009016927 -0.7356395110
H 5.7772554879 0.6327056053 1.0322649096
H 3.2455943981 2.4877554518 1.0347769547
H 0.8618831801 1.9235690067 0.8071316544
