 Entering Gaussian System
 *********************************************
 Gaussian 98:
 frequency output generated by the xtb code
 *********************************************
                         Standard orientation:
 --------------------------------------------------------------------
  Center     Atomic     Atomic              Coordinates (Angstroms)
  Number     Number      Type              X           Y           Z
 --------------------------------------------------------------------
    1          6             0       -0.559757   -1.358691   -1.635172
    2          6             0       -0.200838   -0.370233   -0.557584
    3          7             0       -1.053398    0.182043    0.202050
    4          6             0       -2.407844   -0.043860    0.253748
    5          6             0       -2.927692   -1.192804    0.857291
    6          6             0       -4.291841   -1.341264    1.014933
    7          6             0       -5.162259   -0.359129    0.571222
    8          6             0       -4.653756    0.784286   -0.025087
    9          6             0       -3.291695    0.949911   -0.176445
   10          6             0        1.209848    0.001985   -0.384577
   11          6             0        2.236958   -0.608722   -1.102818
   12          6             0        3.553128   -0.230259   -0.910636
   13          6             0        3.890021    0.765425   -0.002950
   14          6             0        5.313200    1.179212    0.210387
   15          6             0        2.864375    1.374526    0.717037
   16          6             0        1.551105    1.001025    0.532157
   17          1             0       -0.179780   -1.021276   -2.597909
   18          1             0       -1.641335   -1.465729   -1.698439
   19          1             0       -0.124451   -2.331736   -1.411365
   20          1             0       -2.246682   -1.956713    1.206575
   21          1             0       -4.678909   -2.235797    1.483070
   22          1             0       -6.228682   -0.482339    0.691297
   23          1             0       -5.325819    1.556251   -0.373392
   24          1             0       -2.891479    1.840034   -0.640622
   25          1             0        2.021070   -1.389604   -1.815490
   26          1             0        4.332330   -0.719356   -1.478764
   27          1             0        5.422689    2.252641    0.060017
   28          1             0        5.979729    0.660068   -0.473890
   29          1             0        5.620576    0.955407    1.231978
   30          1             0        3.105562    2.151393    1.429119
   31          1             0        0.759318    1.475974    1.090815
 --------------------------------------------------------------------
     1 basis functions        1 primitive gaussians
     1 alpha electrons        1 beta electrons

 Harmonic frequencies (cm**-1), IR intensities (km*mol⁻¹),
 Raman scattering activities (A**4/amu), Raman depolarization ratios,
 reduced masses (AMU), force constants (mDyne/A) and normal coordinates:
                      1                      2                      3
                        a                      a                      a 
 Frequencies --   -31.6592                16.6592                34.2973
 Red. masses --     1.2162                 9.5602                 9.6975
 Frc consts  --     0.0000                 0.0000                 0.0000
 IR Inten    --     0.6181                 0.1242                 0.7315
 Raman Activ --     0.0000                 0.0000                 0.0000
 Depolar     --     0.0000                 0.0000                 0.0000
 Atom AN      X      Y      Z        X      Y      Z        X      Y      Z
   1   6     0.01  -0.02   0.02     0.01  -0.07   0.05     0.08  -0.41   0.31
   2   6     0.00  -0.01   0.01     0.01  -0.03   0.01     0.03  -0.17   0.11
   3   7    -0.00   0.00   0.00     0.00  -0.01  -0.01    -0.01   0.04  -0.08
   4   6    -0.00   0.00   0.00    -0.00  -0.00  -0.01    -0.01   0.05  -0.06
   5   6    -0.00   0.01   0.02    -0.01   0.13   0.24    -0.04  -0.05  -0.26
   6   6    -0.00   0.01   0.02    -0.01   0.15   0.24    -0.05  -0.01  -0.25
   7   6    -0.00   0.00  -0.00    -0.01   0.04  -0.01    -0.01   0.11  -0.05
   8   6    -0.00  -0.01  -0.03    -0.00  -0.09  -0.26     0.02   0.20   0.15
   9   6    -0.00  -0.01  -0.03     0.00  -0.11  -0.27     0.02   0.17   0.16
  10   6     0.00   0.00   0.01     0.00  -0.01  -0.00     0.02  -0.11   0.08
  11   6     0.00  -0.02   0.03    -0.02   0.23  -0.24     0.02   0.03  -0.04
  12   6     0.00  -0.01   0.01    -0.02   0.23  -0.24    -0.00   0.13  -0.11
  13   6    -0.01   0.04  -0.03     0.00   0.00   0.01    -0.02   0.08  -0.06
  14   6     0.01  -0.04   0.03    -0.00   0.01   0.01    -0.04   0.21  -0.15
  15   6    -0.01   0.05  -0.05     0.03  -0.23   0.24    -0.02  -0.07   0.08
  16   6    -0.01   0.03  -0.03     0.03  -0.24   0.24     0.00  -0.17   0.14
  17   1     0.00  -0.01   0.01    -0.06   0.01  -0.00    -0.01  -0.15   0.07
  18   1     0.00  -0.01   0.01     0.00  -0.07   0.06     0.03  -0.17   0.12
  19   1    -0.00  -0.01   0.01     0.06   0.00  -0.01     0.07  -0.09   0.13
  20   1    -0.00   0.01   0.01    -0.00   0.06   0.12    -0.02  -0.04  -0.12
  21   1    -0.00   0.01   0.01    -0.00   0.07   0.12    -0.02  -0.02  -0.12
  22   1    -0.00   0.00  -0.00    -0.00   0.02  -0.00    -0.00   0.04  -0.02
  23   1    -0.00  -0.01  -0.01     0.00  -0.05  -0.13     0.01   0.09   0.09
  24   1    -0.00  -0.01  -0.01     0.00  -0.06  -0.13     0.02   0.07   0.09
  25   1     0.00  -0.01   0.02    -0.01   0.12  -0.13     0.01   0.02  -0.03
  26   1     0.00  -0.01   0.01    -0.01   0.12  -0.12    -0.00   0.07  -0.06
  27   1    -0.07   0.07   0.58    -0.01   0.01   0.02    -0.05   0.07  -0.02
  28   1    -0.06   0.38  -0.36    -0.00   0.02  -0.01    -0.01   0.09  -0.07
  29   1     0.15  -0.56  -0.15     0.01  -0.01  -0.00     0.02   0.05  -0.05
  30   1    -0.00   0.03  -0.02     0.01  -0.12   0.13    -0.01  -0.03   0.04
  31   1    -0.00   0.02  -0.02     0.01  -0.12   0.12     0.00  -0.08   0.07
                      4                      5                      6
                        a                      a                      a 
 Frequencies --    46.9648                59.1640               109.1776
 Red. masses --    10.6958                10.5694                 9.9235
 Frc consts  --     0.0000                 0.0000                 0.0000
 IR Inten    --     1.7304                 0.4402                 0.2857
 Raman Activ --     0.0000                 0.0000                 0.0000
 Depolar     --     0.0000                 0.0000                 0.0000
 Atom AN      X      Y      Z        X      Y      Z        X      Y      Z
   1   6     0.03  -0.21   0.11     0.10  -0.10  -0.28     0.01   0.18  -0.18
   2   6    -0.02   0.08  -0.14     0.04  -0.17  -0.20    -0.00   0.04  -0.04
   3   7    -0.06   0.31  -0.35     0.03  -0.27  -0.19    -0.05   0.15  -0.17
   4   6    -0.02   0.16  -0.17     0.02  -0.14  -0.10    -0.04   0.12  -0.17
   5   6     0.18   0.10  -0.11    -0.06  -0.05  -0.00     0.09   0.09  -0.10
   6   6     0.22  -0.05   0.09    -0.06   0.15   0.19     0.12   0.01   0.07
   7   6     0.06  -0.14   0.22     0.02   0.27   0.29     0.01  -0.05   0.14
   8   6    -0.15  -0.08   0.15     0.10   0.17   0.17    -0.12  -0.05   0.03
   9   6    -0.19   0.07  -0.03     0.10  -0.04  -0.03    -0.15   0.04  -0.13
  10   6    -0.02   0.09  -0.13     0.02  -0.10  -0.12     0.02  -0.14   0.16
  11   6    -0.01   0.08  -0.10     0.11  -0.04  -0.04     0.03  -0.21   0.22
  12   6     0.00  -0.01   0.01     0.07   0.05   0.07     0.02  -0.15   0.16
  13   6    -0.00  -0.08   0.10    -0.07   0.08   0.09     0.01  -0.03   0.03
  14   6     0.01  -0.22   0.27    -0.12   0.18   0.22    -0.03   0.28  -0.31
  15   6    -0.02  -0.04   0.03    -0.17   0.02   0.00     0.03  -0.15   0.16
  16   6    -0.03   0.05  -0.08    -0.13  -0.07  -0.11     0.03  -0.21   0.22
  17   1    -0.01  -0.11   0.01     0.04  -0.01  -0.07     0.07   0.05  -0.02
  18   1     0.01  -0.09   0.05     0.03  -0.03  -0.09     0.00   0.11  -0.11
  19   1     0.04  -0.03   0.09     0.03  -0.03  -0.10    -0.06   0.02  -0.05
  20   1     0.09   0.05  -0.06    -0.03  -0.04  -0.02     0.05   0.04  -0.04
  21   1     0.11  -0.03   0.04    -0.04   0.06   0.08     0.07  -0.00   0.04
  22   1     0.03  -0.07   0.11     0.01   0.12   0.14     0.01  -0.03   0.08
  23   1    -0.08  -0.04   0.07     0.05   0.07   0.07    -0.06  -0.03   0.02
  24   1    -0.10   0.03  -0.02     0.05  -0.03  -0.03    -0.08   0.02  -0.06
  25   1     0.00   0.04  -0.05     0.06  -0.02  -0.01     0.01  -0.07   0.08
  26   1     0.00  -0.01   0.01     0.04   0.03   0.04     0.01  -0.04   0.04
  27   1     0.04  -0.07   0.08    -0.05   0.06   0.08    -0.10   0.09  -0.09
  28   1     0.01  -0.08   0.10    -0.01   0.07   0.08    -0.03   0.14  -0.15
  29   1    -0.04  -0.07   0.09    -0.05   0.05   0.07     0.09   0.09  -0.12
  30   1    -0.01  -0.02   0.02    -0.08   0.01   0.00     0.01  -0.04   0.04
  31   1    -0.01   0.02  -0.03    -0.06  -0.03  -0.05     0.01  -0.07   0.07
                      7                      8                      9
                        a                      a                      a 
 Frequencies --   154.9021               189.8711               237.2527
 Red. masses --    10.3451                 1.5333                10.2821
 Frc consts  --     0.0000                 0.0000                 0.0000
 IR Inten    --     2.1063                 0.9571                 0.9227
 Raman Activ --     0.0000                 0.0000                 0.0000
 Depolar     --     0.0000                 0.0000                 0.0000
 Atom AN      X      Y      Z        X      Y      Z        X      Y      Z
   1   6    -0.30  -0.01  -0.02    -0.04  -0.03   0.06     0.22  -0.10  -0.14
   2   6    -0.05  -0.05  -0.07     0.00   0.04  -0.02     0.00   0.01  -0.16
   3   7     0.15   0.10   0.04     0.00  -0.03   0.03    -0.07  -0.06  -0.20
   4   6     0.15   0.17   0.17     0.00  -0.05  -0.01    -0.09   0.05   0.13
   5   6     0.21   0.15   0.18    -0.02  -0.05  -0.02    -0.15   0.16   0.32
   6   6     0.21  -0.00  -0.04    -0.03   0.00   0.01    -0.18   0.03   0.06
   7   6     0.19  -0.11  -0.23    -0.00   0.03   0.04    -0.23  -0.15  -0.26
   8   6     0.15  -0.00  -0.06     0.02  -0.00  -0.01    -0.17  -0.01   0.07
   9   6     0.15   0.15   0.16     0.02  -0.05  -0.03    -0.15   0.11   0.33
  10   6    -0.03  -0.15  -0.14    -0.00   0.05  -0.03     0.05   0.03  -0.13
  11   6     0.01  -0.13  -0.08    -0.00   0.06  -0.04     0.13   0.01  -0.04
  12   6    -0.02  -0.04   0.01    -0.00   0.08  -0.07     0.14  -0.04   0.05
  13   6    -0.15  -0.02   0.03     0.01   0.02  -0.01     0.14  -0.04   0.05
  14   6    -0.22   0.17   0.12     0.02  -0.02   0.02     0.12   0.11  -0.01
  15   6    -0.20  -0.09  -0.00     0.02  -0.02   0.04     0.10  -0.09   0.02
  16   6    -0.15  -0.16  -0.09     0.01   0.01   0.02     0.09  -0.03  -0.08
  17   1    -0.07  -0.04  -0.01     0.44  -0.35   0.08     0.12  -0.06  -0.03
  18   1    -0.09   0.06   0.00    -0.03   0.39  -0.32     0.07  -0.04  -0.10
  19   1    -0.14  -0.03   0.01    -0.47  -0.14   0.35     0.06  -0.02   0.02
  20   1     0.08   0.07   0.07    -0.01  -0.02  -0.01    -0.05   0.06   0.14
  21   1     0.07  -0.01  -0.03    -0.01   0.01   0.01    -0.04   0.01   0.02
  22   1     0.05  -0.08  -0.14    -0.00   0.02   0.02    -0.07  -0.10  -0.18
  23   1     0.03  -0.02  -0.04     0.01   0.00  -0.01    -0.04   0.00   0.01
  24   1     0.04   0.06   0.07     0.01  -0.02  -0.01    -0.05   0.06   0.14
  25   1     0.02  -0.04  -0.03    -0.00   0.01  -0.00     0.05   0.01  -0.02
  26   1     0.01   0.00   0.02    -0.00   0.03  -0.03     0.04  -0.02   0.02
  27   1    -0.11   0.05   0.05     0.02  -0.01   0.01    -0.01   0.04  -0.00
  28   1    -0.03   0.08   0.04     0.00  -0.01   0.01     0.04   0.06  -0.02
  29   1    -0.07   0.05   0.04    -0.00  -0.01   0.01     0.06   0.04  -0.01
  30   1    -0.08  -0.02   0.01     0.01  -0.02   0.03     0.02  -0.03   0.02
  31   1    -0.07  -0.06  -0.04     0.01  -0.00   0.01     0.03  -0.00  -0.02
                     10                     11                     12
                        a                      a                      a 
 Frequencies --   255.9670               270.0289               331.3415
 Red. masses --     9.9933                 9.6875                 9.0878
 Frc consts  --     0.0000                 0.0000                 0.0000
 IR Inten    --     0.0526                 0.4537                 0.2798
 Raman Activ --     0.0000                 0.0000                 0.0000
 Depolar     --     0.0000                 0.0000                 0.0000
 Atom AN      X      Y      Z        X      Y      Z        X      Y      Z
   1   6    -0.09   0.10  -0.03    -0.40   0.04   0.19    -0.41  -0.11  -0.07
   2   6     0.02  -0.19   0.20    -0.04   0.13  -0.02    -0.03  -0.15  -0.12
   3   7    -0.01   0.01   0.05     0.00   0.07   0.11    -0.00  -0.09  -0.15
   4   6    -0.06   0.13  -0.05    -0.03  -0.06   0.01    -0.00  -0.02  -0.05
   5   6    -0.04   0.12  -0.04    -0.11  -0.09  -0.10     0.00   0.01   0.03
   6   6    -0.02   0.01   0.01    -0.13  -0.03  -0.04     0.01   0.01   0.02
   7   6    -0.11  -0.06   0.03    -0.11   0.06   0.12     0.00  -0.03  -0.04
   8   6    -0.17  -0.04   0.02    -0.07  -0.03  -0.00     0.00   0.01   0.02
   9   6    -0.17   0.07  -0.02    -0.06  -0.12  -0.09     0.00   0.02   0.02
  10   6     0.10  -0.34   0.18     0.06   0.05  -0.23    -0.01  -0.07  -0.00
  11   6     0.14  -0.13   0.02     0.16   0.01  -0.11     0.13   0.08   0.08
  12   6     0.12   0.16  -0.23     0.21  -0.12   0.07     0.06   0.23   0.22
  13   6     0.09   0.18  -0.23     0.22  -0.12   0.08     0.07   0.26   0.19
  14   6     0.08  -0.01   0.29     0.11   0.30   0.12     0.29  -0.21  -0.21
  15   6     0.04   0.12  -0.26     0.15  -0.15   0.00    -0.05   0.17   0.12
  16   6     0.10  -0.18   0.01     0.14  -0.03  -0.17    -0.02  -0.05   0.02
  17   1     0.01   0.09   0.02    -0.20  -0.03   0.00    -0.18  -0.05  -0.05
  18   1    -0.03   0.09  -0.04    -0.12   0.02   0.16    -0.13   0.03   0.07
  19   1    -0.08  -0.01  -0.08    -0.10   0.01   0.04    -0.15  -0.06  -0.07
  20   1     0.00   0.04  -0.02    -0.05  -0.05  -0.04     0.00   0.01   0.01
  21   1     0.02  -0.01   0.01    -0.04  -0.01  -0.02     0.00   0.00   0.01
  22   1    -0.03  -0.04   0.01    -0.03   0.04   0.08    -0.00  -0.02  -0.03
  23   1    -0.06  -0.02   0.01    -0.01  -0.00  -0.01     0.00   0.01   0.01
  24   1    -0.08   0.03  -0.01    -0.02  -0.04  -0.05     0.00   0.01   0.01
  25   1     0.06  -0.06   0.02     0.05   0.02  -0.05     0.08   0.02   0.01
  26   1     0.03   0.08  -0.09     0.06  -0.05   0.03     0.03   0.08   0.07
  27   1     0.10  -0.01   0.12    -0.09   0.10   0.05     0.21  -0.08  -0.10
  28   1     0.09  -0.03   0.17     0.09   0.17   0.03    -0.06  -0.16  -0.12
  29   1    -0.12  -0.03   0.12     0.05   0.11   0.04     0.16  -0.08  -0.09
  30   1    -0.01   0.07  -0.10     0.03  -0.05   0.02    -0.07   0.06   0.04
  31   1     0.03  -0.07   0.02     0.04   0.01  -0.06    -0.02  -0.03   0.00
                     13                     14                     15
                        a                      a                      a 
 Frequencies --   367.6792               372.9287               394.7755
 Red. masses --     8.9033                 9.0676                 9.9397
 Frc consts  --     0.0000                 0.0000                 0.0000
 IR Inten    --     0.0751                 0.8387                 2.2421
 Raman Activ --     0.0000                 0.0000                 0.0000
 Depolar     --     0.0000                 0.0000                 0.0000
 Atom AN      X      Y      Z        X      Y      Z        X      Y      Z
   1   6     0.00  -0.00   0.01     0.02  -0.00   0.00     0.22   0.08   0.06
   2   6    -0.00   0.04  -0.03     0.01   0.01  -0.01     0.04  -0.05   0.19
   3   7    -0.01   0.02  -0.03     0.02  -0.02   0.02     0.13  -0.00   0.32
   4   6     0.00  -0.03   0.00     0.00   0.02   0.00     0.03   0.19   0.11
   5   6    -0.00  -0.03  -0.01     0.02   0.21   0.37    -0.04   0.10  -0.13
   6   6    -0.01   0.01   0.02    -0.02  -0.19  -0.38    -0.02   0.00  -0.06
   7   6     0.01   0.01  -0.01    -0.01  -0.00   0.01    -0.10   0.01   0.14
   8   6     0.01  -0.00  -0.02     0.01   0.18   0.38    -0.12  -0.09  -0.06
   9   6     0.02  -0.00   0.03    -0.03  -0.18  -0.38    -0.10   0.04  -0.04
  10   6    -0.00   0.02   0.01     0.01  -0.01  -0.01     0.10  -0.17  -0.16
  11   6    -0.05   0.27  -0.28     0.00   0.01  -0.02     0.15   0.01  -0.28
  12   6     0.03  -0.30   0.29     0.00  -0.01   0.02     0.07   0.04   0.12
  13   6    -0.00   0.00  -0.04    -0.01   0.01   0.00    -0.09  -0.04   0.28
  14   6    -0.01   0.01   0.02    -0.01  -0.01  -0.01    -0.02  -0.10  -0.16
  15   6    -0.03   0.28  -0.31    -0.02   0.02  -0.01    -0.18   0.05   0.06
  16   6     0.05  -0.30   0.33    -0.01  -0.02   0.01    -0.10  -0.08  -0.23
  17   1     0.01  -0.03  -0.00     0.01  -0.01   0.00     0.14   0.07   0.06
  18   1     0.00   0.01  -0.01     0.01   0.00  -0.01     0.07   0.00  -0.07
  19   1    -0.01  -0.00   0.03     0.00   0.00   0.01     0.07   0.03   0.02
  20   1    -0.00  -0.01  -0.00     0.01   0.12   0.22    -0.01   0.01  -0.08
  21   1    -0.01   0.01   0.02    -0.01  -0.12  -0.24     0.03  -0.03  -0.04
  22   1     0.00   0.00  -0.01    -0.00  -0.00   0.00    -0.03   0.01   0.08
  23   1     0.01  -0.00  -0.01     0.01   0.11   0.24    -0.04  -0.05  -0.06
  24   1     0.01   0.00   0.02    -0.02  -0.11  -0.23    -0.07   0.01  -0.05
  25   1    -0.03   0.18  -0.19     0.00   0.01  -0.01     0.10   0.04  -0.14
  26   1     0.02  -0.18   0.18     0.00  -0.01   0.01     0.06   0.06   0.06
  27   1    -0.01   0.00   0.01     0.00  -0.00  -0.00    -0.00  -0.04  -0.09
  28   1     0.01   0.00   0.02    -0.01  -0.01  -0.00    -0.10  -0.06  -0.12
  29   1    -0.02   0.00   0.01    -0.00  -0.00  -0.00     0.12  -0.01  -0.08
  30   1    -0.01   0.17  -0.19    -0.01   0.01  -0.01    -0.11   0.05   0.00
  31   1     0.03  -0.19   0.21    -0.00  -0.02   0.01    -0.08  -0.04  -0.13
                     16                     17                     18
                        a                      a                      a 
 Frequencies --   421.2869               467.4994               492.3693
 Red. masses --     9.8564                10.1151                10.9822
 Frc consts  --     0.0000                 0.0000                 0.0000
 IR Inten    --     3.0615                 6.5278                 1.5052
 Raman Activ --     0.0000                 0.0000                 0.0000
 Depolar     --     0.0000                 0.0000                 0.0000
 Atom AN      X      Y      Z        X      Y      Z        X      Y      Z
   1   6     0.09   0.09   0.10    -0.02   0.20   0.20    -0.06  -0.03   0.03
   2   6    -0.00   0.35  -0.17     0.20   0.05   0.15     0.19   0.03  -0.09
   3   7     0.04   0.28  -0.03    -0.01   0.21  -0.19     0.23  -0.43   0.26
   4   6     0.06  -0.08   0.15     0.04  -0.28  -0.34     0.08   0.10  -0.26
   5   6    -0.05  -0.11   0.03    -0.02  -0.08   0.04    -0.06   0.23  -0.16
   6   6    -0.10   0.00  -0.04    -0.05   0.11   0.15     0.00   0.06   0.08
   7   6    -0.08   0.06   0.05    -0.08  -0.08  -0.24    -0.14  -0.14  -0.06
   8   6     0.02  -0.03  -0.04     0.02   0.08   0.17    -0.06  -0.07   0.13
   9   6     0.03  -0.15   0.06     0.02  -0.14   0.05    -0.05   0.11  -0.06
  10   6     0.07   0.02  -0.23     0.20  -0.12   0.08     0.12   0.24  -0.12
  11   6     0.13  -0.27   0.08     0.10  -0.06  -0.14     0.04  -0.02   0.00
  12   6     0.04   0.04   0.02     0.05   0.00  -0.07     0.04  -0.12   0.01
  13   6    -0.12   0.34  -0.23    -0.14  -0.12   0.13    -0.14   0.11  -0.18
  14   6    -0.04  -0.11  -0.02    -0.18  -0.07  -0.05    -0.17  -0.05  -0.02
  15   6    -0.10   0.01   0.07    -0.06   0.09   0.04     0.02   0.01   0.12
  16   6    -0.01  -0.25   0.06    -0.00   0.04  -0.04     0.02   0.08   0.12
  17   1     0.00  -0.04  -0.00    -0.03   0.07   0.05    -0.09  -0.09  -0.05
  18   1     0.03  -0.06   0.05    -0.02   0.13   0.10    -0.03   0.01   0.12
  19   1     0.10   0.08   0.12    -0.06   0.02  -0.01    -0.03  -0.01   0.04
  20   1    -0.05  -0.07   0.00    -0.03   0.00   0.12    -0.00   0.09  -0.02
  21   1    -0.05  -0.00  -0.03    -0.02   0.09   0.15     0.07   0.02   0.09
  22   1    -0.02   0.04   0.02    -0.03  -0.03  -0.09    -0.04  -0.05  -0.02
  23   1     0.03   0.00  -0.04     0.04   0.10   0.15    -0.03  -0.01   0.09
  24   1     0.03  -0.06   0.00     0.03   0.00   0.11    -0.09   0.09   0.02
  25   1     0.08  -0.16   0.10     0.01   0.02  -0.08    -0.03  -0.05   0.06
  26   1     0.05  -0.01   0.08     0.04   0.07  -0.04     0.03  -0.08   0.08
  27   1     0.14  -0.04   0.02    -0.08  -0.02  -0.04     0.00  -0.02   0.02
  28   1    -0.04  -0.11   0.03    -0.07  -0.01  -0.04    -0.03  -0.03   0.02
  29   1    -0.10  -0.09   0.01     0.01   0.00  -0.03    -0.11  -0.04   0.01
  30   1    -0.05  -0.06   0.09    -0.01   0.06  -0.03     0.06  -0.06   0.09
  31   1    -0.03  -0.17   0.07    -0.04   0.02  -0.08     0.00  -0.04   0.08
                     19                     20                     21
                        a                      a                      a 
 Frequencies --   504.0644               549.5594               589.7530
 Red. masses --    10.6220                 9.0448                11.2448
 Frc consts  --     0.0000                 0.0000                 0.0000
 IR Inten    --     0.4366                 5.4823                 3.5445
 Raman Activ --     0.0000                 0.0000                 0.0000
 Depolar     --     0.0000                 0.0000                 0.0000
 Atom AN      X      Y      Z        X      Y      Z        X      Y      Z
   1   6     0.08   0.08   0.10     0.01   0.00   0.02    -0.00   0.06   0.07
   2   6    -0.23   0.12   0.10     0.07  -0.44   0.40     0.05  -0.00   0.06
   3   7    -0.25  -0.12   0.27    -0.04   0.17  -0.15    -0.17   0.02  -0.20
   4   6    -0.24  -0.11  -0.27     0.01  -0.03   0.03    -0.15   0.11  -0.02
   5   6     0.05  -0.08  -0.02     0.04  -0.04   0.03    -0.32   0.12   0.05
   6   6     0.11  -0.04   0.18     0.02   0.04  -0.03    -0.26  -0.41   0.12
   7   6     0.25  -0.08  -0.20    -0.00   0.03  -0.01     0.15  -0.08   0.14
   8   6     0.05   0.17   0.08    -0.04   0.04  -0.02     0.34  -0.18  -0.02
   9   6     0.00   0.16  -0.14    -0.03  -0.06   0.02     0.23   0.35  -0.10
  10   6    -0.16  -0.04  -0.18    -0.03   0.24  -0.24     0.09   0.01  -0.01
  11   6    -0.02  -0.03  -0.03    -0.01   0.10  -0.09     0.08  -0.03  -0.05
  12   6    -0.02   0.03   0.10     0.02  -0.13   0.13     0.07  -0.02  -0.02
  13   6     0.11   0.13  -0.03    -0.03   0.19  -0.20    -0.06  -0.00  -0.00
  14   6     0.19   0.05   0.02    -0.00   0.01  -0.02    -0.09  -0.03  -0.02
  15   6    -0.04  -0.10  -0.04     0.01  -0.13   0.12     0.02   0.05   0.05
  16   6    -0.02  -0.16  -0.15    -0.02   0.08  -0.08     0.05   0.02   0.00
  17   1     0.08   0.03   0.05     0.07   0.21   0.10    -0.01   0.03   0.02
  18   1     0.04  -0.07  -0.05    -0.01   0.12  -0.07    -0.01   0.06   0.04
  19   1     0.09   0.07   0.09    -0.09  -0.09  -0.23    -0.03  -0.00  -0.02
  20   1     0.08   0.06   0.05     0.00  -0.02   0.02    -0.03   0.06  -0.04
  21   1     0.01   0.05   0.14    -0.01   0.01  -0.01    -0.06  -0.14  -0.01
  22   1     0.07  -0.03  -0.06     0.00  -0.00   0.01     0.02   0.10  -0.03
  23   1    -0.03   0.06   0.14    -0.00   0.02  -0.01     0.03  -0.12  -0.02
  24   1     0.05   0.07   0.06     0.01  -0.03   0.00     0.05   0.09  -0.06
  25   1     0.06  -0.04   0.01     0.01  -0.06   0.07     0.02  -0.01  -0.01
  26   1    -0.01  -0.03   0.06     0.02  -0.15   0.16     0.04   0.01   0.01
  27   1     0.09   0.01   0.01     0.06   0.00   0.02    -0.02  -0.01  -0.01
  28   1     0.04  -0.01   0.01     0.01  -0.02   0.02    -0.03  -0.01  -0.01
  29   1     0.04  -0.00   0.01    -0.06  -0.03   0.01    -0.03  -0.01  -0.01
  30   1    -0.07  -0.05   0.04     0.02  -0.15   0.16     0.02   0.01   0.02
  31   1     0.00  -0.07  -0.01     0.01  -0.07   0.08    -0.00  -0.01  -0.01
                     22                     23                     24
                        a                      a                      a 
 Frequencies --   597.7852               608.9270               658.4555
 Red. masses --    11.2521                11.2926                10.1508
 Frc consts  --     0.0000                 0.0000                 0.0000
 IR Inten    --     8.6497                 0.3397                 0.2266
 Raman Activ --     0.0000                 0.0000                 0.0000
 Depolar     --     0.0000                 0.0000                 0.0000
 Atom AN      X      Y      Z        X      Y      Z        X      Y      Z
   1   6     0.03  -0.06  -0.07     0.00  -0.04  -0.04    -0.02  -0.07  -0.08
   2   6    -0.07  -0.07  -0.00     0.01  -0.02  -0.00    -0.04  -0.03  -0.01
   3   7     0.24   0.30   0.08     0.01  -0.03  -0.02    -0.04   0.04  -0.02
   4   6     0.24   0.05  -0.07     0.01  -0.00  -0.00    -0.06   0.20   0.43
   5   6    -0.18   0.16  -0.21     0.01   0.01   0.01    -0.04  -0.19  -0.23
   6   6    -0.17   0.04   0.13     0.01   0.01  -0.02    -0.00   0.08   0.34
   7   6    -0.24  -0.16  -0.08    -0.01   0.01   0.01     0.07  -0.13  -0.27
   8   6     0.24  -0.21   0.23    -0.01  -0.00  -0.01    -0.01   0.21   0.28
   9   6     0.20  -0.12  -0.10    -0.01  -0.01   0.01    -0.04  -0.06  -0.28
  10   6    -0.19  -0.03  -0.01     0.04  -0.08  -0.08     0.06   0.03  -0.01
  11   6    -0.18   0.04   0.07    -0.28  -0.28  -0.24     0.09  -0.01   0.01
  12   6    -0.17   0.05   0.06    -0.44   0.08   0.14     0.09  -0.00  -0.04
  13   6     0.12   0.02   0.02    -0.04   0.08   0.08    -0.05  -0.03   0.01
  14   6     0.20   0.07   0.04    -0.03   0.06   0.06    -0.12  -0.04  -0.02
  15   6    -0.05  -0.10  -0.10     0.29   0.29   0.24     0.06   0.08   0.04
  16   6    -0.08  -0.06  -0.04     0.45  -0.08  -0.14     0.08   0.03   0.04
  17   1     0.05   0.03   0.01    -0.01  -0.01  -0.01     0.00  -0.01  -0.01
  18   1     0.01  -0.05  -0.09    -0.00  -0.00  -0.01    -0.01  -0.02  -0.03
  19   1     0.03  -0.01  -0.03    -0.01  -0.02  -0.02    -0.01  -0.02  -0.03
  20   1    -0.08   0.05   0.01     0.00  -0.00  -0.00    -0.00  -0.11  -0.20
  21   1     0.03   0.02   0.11     0.00   0.00  -0.01    -0.03  -0.01   0.01
  22   1    -0.08   0.04  -0.04    -0.00  -0.00   0.00     0.01  -0.09  -0.19
  23   1     0.11   0.00   0.11    -0.00  -0.00  -0.01    -0.03  -0.00   0.00
  24   1    -0.01   0.02   0.01    -0.00  -0.00  -0.00    -0.00  -0.09  -0.22
  25   1    -0.03   0.01   0.02    -0.03  -0.08  -0.08     0.02  -0.00   0.00
  26   1    -0.09  -0.02  -0.01    -0.09   0.05   0.06     0.04   0.02  -0.00
  27   1     0.05   0.02   0.01    -0.03   0.02   0.03    -0.04  -0.01  -0.01
  28   1     0.06   0.02   0.01     0.02   0.04   0.03    -0.03  -0.01  -0.01
  29   1     0.06   0.02   0.01    -0.03   0.02   0.02    -0.03  -0.01  -0.01
  30   1    -0.05  -0.02  -0.02     0.04   0.08   0.08     0.04   0.02   0.00
  31   1     0.01   0.01   0.01     0.10  -0.05  -0.06     0.02   0.00   0.01
                     25                     26                     27
                        a                      a                      a 
 Frequencies --   673.8851               714.7006               768.9882
 Red. masses --    10.3857                 7.7202                 6.9077
 Frc consts  --     0.0000                 0.0000                 0.0000
 IR Inten    --     1.0889                29.8268                23.9601
 Raman Activ --     0.0000                 0.0000                 0.0000
 Depolar     --     0.0000                 0.0000                 0.0000
 Atom AN      X      Y      Z        X      Y      Z        X      Y      Z
   1   6    -0.00   0.01  -0.02    -0.11  -0.24  -0.25     0.09   0.08   0.08
   2   6    -0.02   0.10  -0.09    -0.24  -0.04  -0.01     0.22   0.00  -0.05
   3   7    -0.00   0.01  -0.01     0.05   0.26   0.23     0.05  -0.12  -0.17
   4   6     0.01   0.01   0.03    -0.04  -0.01  -0.00    -0.01   0.17   0.34
   5   6    -0.01  -0.01  -0.01    -0.03  -0.06  -0.03    -0.04  -0.13  -0.10
   6   6    -0.01   0.01   0.02    -0.04  -0.11  -0.07    -0.04  -0.13  -0.04
   7   6    -0.01  -0.01  -0.01     0.04  -0.01  -0.04     0.07  -0.06  -0.15
   8   6     0.02   0.00   0.03    -0.01  -0.02  -0.11    -0.09   0.04  -0.12
   9   6     0.01  -0.02  -0.01    -0.01  -0.02  -0.06    -0.07   0.00  -0.16
  10   6     0.04  -0.37   0.38     0.00  -0.01   0.02     0.08   0.02   0.02
  11   6    -0.03   0.20  -0.20     0.16   0.08   0.05    -0.10  -0.10  -0.08
  12   6     0.03  -0.22   0.24     0.19  -0.02  -0.03    -0.12  -0.03  -0.01
  13   6    -0.03   0.28  -0.29    -0.08  -0.02  -0.02     0.03   0.01  -0.00
  14   6    -0.00   0.04  -0.04    -0.26  -0.08  -0.05     0.20   0.06   0.03
  15   6     0.03  -0.23   0.23     0.14   0.11   0.10    -0.11  -0.04  -0.02
  16   6    -0.03   0.20  -0.20     0.17   0.05   0.02    -0.14   0.03   0.05
  17   1    -0.02  -0.06  -0.03     0.05  -0.01  -0.02    -0.06  -0.02  -0.03
  18   1     0.00  -0.02   0.01    -0.01  -0.15  -0.19     0.01   0.12   0.14
  19   1     0.02   0.03   0.07     0.04  -0.03  -0.05    -0.06  -0.02  -0.01
  20   1    -0.01  -0.02  -0.02     0.01   0.11   0.22     0.01   0.09   0.20
  21   1    -0.00  -0.01  -0.01    -0.02   0.09   0.20    -0.03   0.11   0.25
  22   1    -0.00  -0.00  -0.02     0.02   0.13   0.24     0.04   0.17   0.35
  23   1     0.01  -0.01  -0.01    -0.00   0.10   0.20    -0.04   0.12   0.24
  24   1     0.00  -0.01  -0.02     0.03   0.11   0.23     0.00   0.11   0.18
  25   1    -0.02   0.14  -0.15     0.05   0.03  -0.00    -0.06  -0.02  -0.02
  26   1     0.00  -0.03   0.03     0.08   0.03  -0.00    -0.04  -0.01  -0.01
  27   1     0.12   0.00   0.04    -0.07  -0.02  -0.01     0.06   0.02   0.01
  28   1     0.02  -0.04   0.04    -0.07  -0.02  -0.01     0.06   0.02   0.01
  29   1    -0.13  -0.06   0.01    -0.08  -0.02  -0.01     0.06   0.01   0.01
  30   1     0.00  -0.04   0.03     0.08   0.03   0.01    -0.04  -0.00  -0.01
  31   1    -0.02   0.15  -0.15     0.06   0.04   0.01    -0.07  -0.01  -0.01
                     28                     29                     30
                        a                      a                      a 
 Frequencies --   803.0053               814.6269               851.8449
 Red. masses --     4.3601                10.9433                10.7464
 Frc consts  --     0.0000                 0.0000                 0.0000
 IR Inten    --    16.7301                33.4088                 0.2247
 Raman Activ --     0.0000                 0.0000                 0.0000
 Depolar     --     0.0000                 0.0000                 0.0000
 Atom AN      X      Y      Z        X      Y      Z        X      Y      Z
   1   6     0.01  -0.03   0.03     0.01   0.17   0.18    -0.09  -0.08  -0.07
   2   6     0.02  -0.06   0.05    -0.11  -0.01   0.02    -0.17   0.04   0.08
   3   7     0.03   0.00   0.02    -0.34  -0.27  -0.21    -0.26  -0.02   0.03
   4   6    -0.00  -0.01  -0.03     0.01   0.09   0.19    -0.07  -0.00   0.02
   5   6    -0.01   0.00   0.01     0.10   0.09  -0.11     0.08   0.05  -0.03
   6   6    -0.00  -0.01   0.01     0.14   0.25  -0.17     0.10   0.18  -0.10
   7   6     0.02   0.00   0.01    -0.23  -0.07  -0.05    -0.15  -0.02   0.00
   8   6    -0.02   0.02  -0.01     0.20  -0.23   0.07     0.16  -0.16   0.07
   9   6    -0.01   0.02   0.00     0.12  -0.08  -0.00     0.09  -0.02   0.02
  10   6    -0.03   0.22  -0.23    -0.13  -0.01  -0.04     0.13   0.05   0.01
  11   6     0.02  -0.19   0.19     0.07   0.13   0.14     0.02  -0.29  -0.26
  12   6     0.01  -0.13   0.14     0.06   0.07   0.08     0.12  -0.21  -0.21
  13   6    -0.01   0.08  -0.09     0.01   0.01   0.00    -0.08  -0.02  -0.01
  14   6     0.00   0.04  -0.04    -0.22  -0.06  -0.04     0.29   0.09   0.05
  15   6     0.01  -0.12   0.12     0.10  -0.05  -0.05    -0.08   0.21   0.21
  16   6     0.01  -0.14   0.14     0.16  -0.12  -0.12    -0.19   0.21   0.22
  17   1     0.02   0.06   0.04     0.03   0.05   0.06     0.04   0.02   0.02
  18   1     0.00   0.04  -0.02     0.01   0.02   0.03    -0.01  -0.11  -0.13
  19   1    -0.03  -0.04  -0.07     0.03   0.06   0.07     0.04   0.01   0.01
  20   1     0.00  -0.00  -0.01     0.02   0.05   0.03     0.02   0.02  -0.00
  21   1    -0.01  -0.01  -0.01     0.13   0.08   0.05     0.08   0.04  -0.01
  22   1     0.00  -0.01  -0.02    -0.05   0.07   0.17    -0.04   0.01   0.02
  23   1    -0.01  -0.01  -0.01     0.13   0.02   0.08     0.09  -0.01   0.00
  24   1    -0.00   0.00  -0.01     0.01  -0.01   0.02     0.02  -0.02  -0.02
  25   1    -0.04   0.30  -0.32     0.07   0.05   0.01    -0.07  -0.06  -0.08
  26   1    -0.05   0.31  -0.33     0.00   0.04  -0.00     0.09  -0.00  -0.04
  27   1     0.12   0.00   0.05    -0.06  -0.02  -0.01     0.10   0.02   0.01
  28   1     0.02  -0.04   0.05    -0.06  -0.02  -0.01     0.08   0.03   0.02
  29   1    -0.12  -0.06   0.01    -0.07  -0.02  -0.01     0.09   0.02   0.01
  30   1    -0.04   0.26  -0.28    -0.00   0.00  -0.03     0.05   0.06   0.04
  31   1    -0.03   0.22  -0.23     0.08   0.01  -0.02    -0.12  -0.00   0.02
                     31                     32                     33
                        a                      a                      a 
 Frequencies --   867.3704               869.4379               879.1090
 Red. masses --     3.3057                 3.3729                 3.9113
 Frc consts  --     0.0000                 0.0000                 0.0000
 IR Inten    --     1.0479                 0.9448                 1.4717
 Raman Activ --     0.0000                 0.0000                 0.0000
 Depolar     --     0.0000                 0.0000                 0.0000
 Atom AN      X      Y      Z        X      Y      Z        X      Y      Z
   1   6    -0.00  -0.00  -0.01     0.00   0.00  -0.01    -0.01  -0.02  -0.02
   2   6     0.00   0.00  -0.00     0.00   0.01  -0.01    -0.00   0.01   0.01
   3   7     0.01   0.01   0.01     0.01   0.00   0.01     0.04   0.04   0.04
   4   6     0.01  -0.01  -0.02     0.00  -0.00  -0.01     0.00  -0.05  -0.11
   5   6    -0.02  -0.11  -0.21    -0.01  -0.03  -0.05    -0.00   0.12   0.23
   6   6    -0.02  -0.09  -0.15    -0.01  -0.03  -0.04    -0.01  -0.03   0.01
   7   6     0.01  -0.00  -0.01     0.01  -0.00  -0.01     0.01  -0.15  -0.31
   8   6    -0.00   0.09   0.15    -0.00   0.03   0.04    -0.02   0.01  -0.03
   9   6     0.01   0.12   0.24     0.00   0.03   0.07     0.00   0.09   0.21
  10   6    -0.00   0.01  -0.01     0.00  -0.03   0.03     0.00   0.00  -0.00
  11   6    -0.01   0.04  -0.05     0.02  -0.15   0.17    -0.00   0.00   0.00
  12   6    -0.00   0.03  -0.03     0.01  -0.11   0.13    -0.00   0.00  -0.00
  13   6    -0.00   0.00  -0.00     0.00  -0.01   0.01     0.00  -0.00  -0.00
  14   6    -0.00   0.00  -0.00    -0.01  -0.00   0.00     0.00  -0.00  -0.00
  15   6     0.01  -0.04   0.05    -0.02   0.15  -0.17    -0.00  -0.00   0.00
  16   6     0.01  -0.05   0.05    -0.02   0.17  -0.18    -0.00   0.00   0.01
  17   1    -0.00  -0.00  -0.00    -0.00  -0.01  -0.01     0.01   0.00   0.00
  18   1     0.00  -0.01   0.00     0.00   0.01  -0.00    -0.00  -0.02  -0.02
  19   1    -0.00  -0.00  -0.00    -0.00   0.00   0.01     0.01  -0.00  -0.01
  20   1     0.03   0.22   0.42     0.01   0.06   0.11    -0.03  -0.22  -0.43
  21   1     0.01   0.16   0.32     0.00   0.04   0.09    -0.01   0.03   0.07
  22   1     0.00   0.01   0.02     0.00   0.01   0.01     0.03   0.24   0.49
  23   1    -0.02  -0.15  -0.30    -0.01  -0.04  -0.08    -0.00   0.06   0.10
  24   1    -0.03  -0.23  -0.47    -0.01  -0.07  -0.13    -0.03  -0.19  -0.38
  25   1     0.01  -0.08   0.09    -0.04   0.30  -0.31     0.00  -0.00   0.00
  26   1     0.01  -0.06   0.07    -0.04   0.23  -0.24    -0.00  -0.00   0.00
  27   1     0.00   0.00   0.00    -0.02  -0.00  -0.00    -0.00   0.00   0.00
  28   1     0.00  -0.00   0.00    -0.00   0.00  -0.00     0.00   0.00   0.00
  29   1    -0.00  -0.00   0.00     0.01   0.01  -0.00    -0.00   0.00   0.00
  30   1    -0.01   0.09  -0.09     0.05  -0.33   0.34     0.00   0.00  -0.00
  31   1    -0.01   0.09  -0.09     0.04  -0.31   0.32     0.00   0.00  -0.00
                     34                     35                     36
                        a                      a                      a 
 Frequencies --   915.7378               922.2449               924.4587
 Red. masses --     3.0696                 3.9571                 2.7622
 Frc consts  --     0.0000                 0.0000                 0.0000
 IR Inten    --     0.0128                 0.2415                 0.0301
 Raman Activ --     0.0000                 0.0000                 0.0000
 Depolar     --     0.0000                 0.0000                 0.0000
 Atom AN      X      Y      Z        X      Y      Z        X      Y      Z
   1   6    -0.01   0.01  -0.01     0.00   0.00   0.00    -0.00  -0.00  -0.00
   2   6     0.00   0.00  -0.00     0.00  -0.01   0.00     0.00   0.00   0.00
   3   7     0.00   0.00  -0.00    -0.00  -0.00  -0.01     0.00   0.00   0.01
   4   6     0.00   0.00  -0.00    -0.01  -0.00  -0.00     0.00  -0.04  -0.07
   5   6    -0.00   0.00   0.00     0.01   0.09   0.18    -0.01  -0.03  -0.07
   6   6    -0.00  -0.00  -0.00    -0.01  -0.12  -0.25     0.01   0.11   0.22
   7   6     0.00  -0.00  -0.00    -0.01  -0.01  -0.02    -0.01  -0.10  -0.20
   8   6    -0.00   0.00   0.00     0.02   0.14   0.29     0.01   0.09   0.16
   9   6    -0.00  -0.00  -0.00    -0.00  -0.09  -0.19    -0.00  -0.02  -0.03
  10   6    -0.00   0.01  -0.01     0.00   0.00  -0.00     0.00   0.00  -0.00
  11   6    -0.03   0.20  -0.20     0.00  -0.00   0.01    -0.00  -0.00   0.00
  12   6     0.03  -0.22   0.23    -0.00   0.01  -0.01    -0.00   0.00  -0.00
  13   6     0.00  -0.01   0.01     0.00  -0.00   0.00     0.00   0.00   0.00
  14   6    -0.00  -0.00  -0.00     0.00   0.00  -0.00    -0.00  -0.00   0.00
  15   6     0.00  -0.02   0.03     0.00  -0.01   0.01    -0.00  -0.00  -0.00
  16   6    -0.01   0.05  -0.06    -0.00   0.00  -0.00    -0.00   0.00  -0.00
  17   1    -0.00  -0.01  -0.01    -0.00  -0.00  -0.00    -0.00  -0.00  -0.00
  18   1    -0.00  -0.02   0.01     0.00   0.00   0.00    -0.00  -0.00  -0.00
  19   1     0.01   0.01   0.01     0.00   0.00   0.01    -0.00  -0.00  -0.00
  20   1    -0.00  -0.00  -0.00    -0.02  -0.14  -0.28     0.02   0.13   0.24
  21   1    -0.00   0.00   0.00     0.03   0.20   0.40    -0.03  -0.24  -0.49
  22   1     0.00   0.00   0.00     0.00   0.02   0.05     0.02   0.21   0.43
  23   1    -0.00  -0.00  -0.01    -0.03  -0.25  -0.49    -0.02  -0.20  -0.40
  24   1     0.00   0.00   0.00     0.03   0.16   0.32     0.01   0.08   0.17
  25   1     0.05  -0.38   0.41    -0.00   0.01  -0.01    -0.00   0.00  -0.00
  26   1    -0.06   0.43  -0.46     0.00  -0.01   0.01    -0.00  -0.00   0.00
  27   1     0.00  -0.00   0.01     0.00   0.00   0.00     0.00  -0.00  -0.00
  28   1     0.00  -0.00   0.01     0.00   0.00   0.00    -0.00  -0.00  -0.00
  29   1    -0.01  -0.01   0.00    -0.00  -0.00   0.00     0.00  -0.00  -0.00
  30   1    -0.02   0.12  -0.12    -0.00   0.01  -0.01    -0.00   0.00  -0.00
  31   1     0.02  -0.18   0.19     0.00  -0.01   0.01     0.00  -0.00   0.00
                     37                     38                     39
                        a                      a                      a 
 Frequencies --   931.0621               970.7460               991.6895
 Red. masses --     3.8371                 9.7388                 5.5282
 Frc consts  --     0.0000                 0.0000                 0.0000
 IR Inten    --     0.1921                 7.2052                 8.6093
 Raman Activ --     0.0000                 0.0000                 0.0000
 Depolar     --     0.0000                 0.0000                 0.0000
 Atom AN      X      Y      Z        X      Y      Z        X      Y      Z
   1   6    -0.00  -0.01   0.01     0.13  -0.20  -0.17    -0.07   0.30  -0.26
   2   6    -0.00  -0.00   0.00     0.12   0.18   0.09     0.05  -0.33   0.26
   3   7    -0.00  -0.00   0.00    -0.04   0.11   0.15     0.04   0.09  -0.06
   4   6     0.00  -0.00  -0.00    -0.17  -0.03  -0.01     0.00   0.01  -0.01
   5   6    -0.00   0.00   0.00     0.20  -0.33   0.16     0.06  -0.12   0.06
   6   6     0.00  -0.00  -0.00     0.04   0.16  -0.08    -0.01   0.01   0.00
   7   6     0.00  -0.00  -0.00    -0.31  -0.04   0.03    -0.08  -0.00   0.01
   8   6     0.00   0.00   0.01     0.10  -0.15   0.07     0.01  -0.02   0.00
   9   6    -0.00  -0.00  -0.01     0.08   0.37  -0.17     0.02   0.11  -0.05
  10   6    -0.00   0.00  -0.00     0.09   0.03   0.03    -0.00   0.06  -0.07
  11   6    -0.01   0.09  -0.10     0.01  -0.01  -0.02     0.00  -0.01   0.02
  12   6     0.02  -0.11   0.11    -0.07   0.07   0.08    -0.01   0.01   0.02
  13   6    -0.00   0.01  -0.01     0.03   0.03   0.02     0.01  -0.00  -0.01
  14   6     0.00  -0.00   0.00    -0.05   0.01   0.02     0.01  -0.01  -0.02
  15   6    -0.03   0.23  -0.23    -0.02  -0.13  -0.12     0.00  -0.00   0.01
  16   6     0.03  -0.23   0.24     0.00  -0.02  -0.02    -0.01   0.00   0.03
  17   1     0.00   0.01   0.01    -0.13  -0.08  -0.12    -0.07  -0.40  -0.24
  18   1    -0.00   0.00  -0.00    -0.00   0.14   0.13     0.00  -0.19   0.09
  19   1    -0.00  -0.01  -0.01    -0.14  -0.16  -0.18     0.15   0.26   0.47
  20   1    -0.00  -0.00  -0.01     0.03  -0.12   0.04    -0.01  -0.05   0.02
  21   1     0.00   0.00   0.01    -0.04   0.05  -0.03    -0.04   0.01  -0.01
  22   1     0.00   0.00   0.00    -0.08  -0.01   0.01    -0.02   0.01   0.00
  23   1    -0.00  -0.01  -0.01    -0.02  -0.06   0.03    -0.02  -0.01   0.02
  24   1    -0.00   0.01   0.01    -0.01   0.11  -0.07    -0.01   0.03  -0.02
  25   1     0.01  -0.10   0.10    -0.01  -0.01   0.01     0.01   0.02  -0.02
  26   1    -0.02   0.14  -0.14    -0.01   0.03   0.03    -0.01   0.01  -0.00
  27   1    -0.01  -0.00  -0.00     0.01  -0.00  -0.01    -0.02   0.00   0.01
  28   1     0.00   0.00  -0.00    -0.06  -0.03  -0.02     0.03   0.01   0.01
  29   1     0.01   0.00  -0.00     0.01  -0.01  -0.01    -0.03   0.00   0.00
  30   1     0.06  -0.40   0.42    -0.02  -0.04  -0.03     0.01   0.00  -0.00
  31   1    -0.05   0.41  -0.42     0.02   0.00   0.01    -0.01   0.03  -0.02
                     40                     41                     42
                        a                      a                      a 
 Frequencies --  1001.3877              1009.3162              1011.6576
 Red. masses --     7.6798                 7.9631                 5.5587
 Frc consts  --     0.0000                 0.0000                 0.0000
 IR Inten    --     2.2333                16.4283                 9.5526
 Raman Activ --     0.0000                 0.0000                 0.0000
 Depolar     --     0.0000                 0.0000                 0.0000
 Atom AN      X      Y      Z        X      Y      Z        X      Y      Z
   1   6     0.09  -0.08  -0.23     0.13   0.04  -0.00    -0.19   0.08   0.17
   2   6     0.04   0.09   0.21    -0.02  -0.04  -0.02    -0.03  -0.09  -0.14
   3   7    -0.21   0.05   0.07     0.04   0.03   0.01     0.15  -0.07  -0.09
   4   6    -0.05   0.00   0.02     0.01  -0.00  -0.02     0.07   0.01  -0.01
   5   6    -0.13   0.26  -0.12     0.02  -0.04   0.02     0.07  -0.15   0.07
   6   6     0.04  -0.00  -0.00    -0.01  -0.00   0.00    -0.03  -0.02   0.01
   7   6     0.18   0.02  -0.02    -0.03  -0.00   0.00    -0.10  -0.01   0.01
   8   6     0.04   0.01  -0.01    -0.01   0.00   0.00    -0.04   0.01  -0.01
   9   6    -0.04  -0.28   0.14     0.01   0.04  -0.02     0.02   0.17  -0.08
  10   6     0.07   0.08   0.03    -0.18  -0.03  -0.00     0.04   0.02   0.03
  11   6     0.01  -0.11  -0.11    -0.08   0.18   0.19    -0.02  -0.10  -0.10
  12   6    -0.04   0.04   0.05     0.18  -0.29  -0.30    -0.05  -0.00   0.01
  13   6     0.02   0.07   0.06    -0.13  -0.00   0.02     0.00   0.05   0.04
  14   6    -0.13   0.14   0.15     0.04   0.17   0.15    -0.13   0.19   0.20
  15   6     0.03  -0.19  -0.19    -0.02   0.23   0.22     0.09  -0.13  -0.14
  16   6     0.02   0.02   0.02     0.16  -0.20  -0.21     0.01   0.09   0.08
  17   1    -0.14  -0.19  -0.18    -0.07  -0.06  -0.06     0.17   0.17   0.18
  18   1     0.00   0.06   0.13     0.01   0.10   0.13    -0.01  -0.15  -0.21
  19   1    -0.09  -0.06  -0.01    -0.05  -0.03  -0.01     0.13   0.11   0.07
  20   1     0.01   0.11  -0.05    -0.00  -0.02   0.00    -0.01  -0.07   0.04
  21   1     0.08  -0.02   0.01    -0.01   0.00  -0.00    -0.06   0.01  -0.00
  22   1     0.05   0.01  -0.01    -0.01   0.00   0.00    -0.03  -0.00   0.01
  23   1     0.07   0.04  -0.02    -0.01  -0.01   0.00    -0.05  -0.02   0.01
  24   1     0.05  -0.10   0.05    -0.01   0.01  -0.01    -0.03   0.07  -0.03
  25   1    -0.01  -0.03  -0.03    -0.21   0.07   0.09     0.02  -0.03  -0.03
  26   1     0.01   0.03   0.02    -0.06  -0.17  -0.16    -0.01   0.00  -0.00
  27   1     0.20  -0.00  -0.06     0.23   0.01  -0.04     0.26  -0.00  -0.08
  28   1    -0.32  -0.15  -0.10    -0.21  -0.11  -0.07    -0.39  -0.19  -0.13
  29   1     0.17  -0.04  -0.04     0.19  -0.02  -0.03     0.22  -0.05  -0.05
  30   1     0.05  -0.06  -0.06    -0.12   0.07   0.09     0.13  -0.05  -0.06
  31   1     0.08   0.07   0.05    -0.03  -0.12  -0.11     0.09   0.10   0.09
                     43                     44                     45
                        a                      a                      a 
 Frequencies --  1028.5510              1080.0346              1096.6471
 Red. masses --     4.7144                 6.6613                 7.4774
 Frc consts  --     0.0000                 0.0000                 0.0000
 IR Inten    --    11.3559                 0.4156                19.1592
 Raman Activ --     0.0000                 0.0000                 0.0000
 Depolar     --     0.0000                 0.0000                 0.0000
 Atom AN      X      Y      Z        X      Y      Z        X      Y      Z
   1   6     0.00   0.00  -0.00     0.01   0.00  -0.00    -0.28  -0.13  -0.11
   2   6    -0.00  -0.00   0.00    -0.01   0.00   0.01     0.27   0.20   0.19
   3   7    -0.00  -0.00   0.00    -0.02  -0.00  -0.00    -0.08  -0.05  -0.04
   4   6    -0.00  -0.00  -0.00    -0.00  -0.01   0.01    -0.05  -0.00   0.04
   5   6    -0.00   0.00  -0.00     0.15   0.02  -0.02    -0.02   0.03  -0.02
   6   6     0.00   0.00  -0.00    -0.00  -0.31   0.16     0.02   0.01  -0.01
   7   6     0.00   0.00  -0.00    -0.45  -0.06   0.05     0.01  -0.01   0.00
   8   6     0.00  -0.00   0.00    -0.11   0.31  -0.15     0.01  -0.00  -0.00
   9   6    -0.00  -0.00   0.00     0.16   0.03  -0.02    -0.00  -0.02   0.01
  10   6    -0.00   0.01  -0.01    -0.01  -0.00   0.00     0.40   0.13   0.07
  11   6     0.00  -0.02   0.03     0.00  -0.01  -0.01    -0.02   0.15   0.15
  12   6     0.01  -0.04   0.04     0.01   0.00   0.00    -0.14   0.00   0.02
  13   6    -0.04   0.26  -0.27     0.00   0.00   0.00     0.01  -0.01  -0.01
  14   6     0.04  -0.30   0.31    -0.00  -0.00  -0.00     0.02   0.01   0.00
  15   6     0.01  -0.04   0.05     0.00  -0.00  -0.00    -0.09  -0.07  -0.05
  16   6     0.01  -0.02   0.01    -0.00   0.00   0.00     0.09  -0.13  -0.14
  17   1    -0.00  -0.00  -0.00    -0.01  -0.01  -0.01     0.11   0.05   0.07
  18   1     0.00   0.00   0.00     0.00   0.01   0.01    -0.03  -0.25  -0.29
  19   1    -0.00  -0.00  -0.00    -0.01  -0.00  -0.00     0.10   0.05   0.02
  20   1     0.00   0.00  -0.00     0.27   0.16  -0.10     0.01   0.03  -0.00
  21   1     0.00   0.00   0.00     0.27  -0.19   0.08     0.03  -0.01   0.00
  22   1     0.00  -0.00   0.00    -0.13  -0.03   0.02     0.00  -0.01   0.01
  23   1     0.00  -0.00  -0.00     0.18   0.24  -0.13     0.01   0.01  -0.00
  24   1    -0.00  -0.00  -0.00     0.35  -0.11   0.03     0.03  -0.01   0.01
  25   1    -0.01   0.04  -0.04     0.00  -0.00  -0.00    -0.19   0.07   0.08
  26   1    -0.01   0.04  -0.05     0.01   0.00   0.00    -0.16  -0.10  -0.07
  27   1    -0.48  -0.06  -0.20    -0.00  -0.00   0.00    -0.00   0.00   0.00
  28   1    -0.06   0.16  -0.17     0.00   0.00   0.00    -0.00  -0.00  -0.00
  29   1     0.49   0.27  -0.00    -0.00   0.00   0.00    -0.00   0.00   0.00
  30   1    -0.01   0.05  -0.05     0.00  -0.00  -0.00    -0.18  -0.01   0.02
  31   1    -0.01   0.03  -0.04     0.00   0.01   0.00    -0.17  -0.20  -0.18
                     46                     47                     48
                        a                      a                      a 
 Frequencies --  1115.4447              1143.7070              1181.3093
 Red. masses --     4.0662                 2.8399                 1.3951
 Frc consts  --     0.0000                 0.0000                 0.0000
 IR Inten    --     0.4488                12.8062                 0.9317
 Raman Activ --     0.0000                 0.0000                 0.0000
 Depolar     --     0.0000                 0.0000                 0.0000
 Atom AN      X      Y      Z        X      Y      Z        X      Y      Z
   1   6     0.00   0.01  -0.01     0.04   0.01   0.01     0.00   0.01   0.01
   2   6    -0.00  -0.01  -0.00    -0.04  -0.04  -0.04     0.00  -0.01  -0.01
   3   7     0.01   0.04  -0.01     0.01   0.03   0.03     0.02  -0.00   0.01
   4   6     0.02  -0.15   0.07    -0.07  -0.01   0.00    -0.02  -0.06   0.03
   5   6    -0.23   0.11  -0.05    -0.01   0.01  -0.01     0.10   0.02  -0.02
   6   6     0.08   0.17  -0.09     0.01   0.02  -0.01     0.02  -0.00   0.00
   7   6     0.05  -0.19   0.09     0.00  -0.00  -0.00    -0.02   0.08  -0.04
   8   6    -0.12   0.11  -0.05     0.01  -0.02   0.01    -0.03  -0.05   0.02
   9   6     0.17   0.16  -0.08    -0.00  -0.01   0.01    -0.08  -0.02   0.01
  10   6    -0.01  -0.01   0.00     0.04  -0.10  -0.10     0.01   0.00   0.00
  11   6    -0.00  -0.00  -0.00     0.06   0.11   0.09    -0.00   0.00   0.00
  12   6     0.01  -0.00  -0.00    -0.13   0.06   0.08    -0.00   0.00   0.00
  13   6    -0.00   0.00   0.00     0.06  -0.09  -0.10    -0.00   0.00   0.00
  14   6     0.00  -0.00  -0.00    -0.03   0.04   0.05     0.00  -0.00  -0.00
  15   6    -0.00   0.00   0.00     0.12   0.08   0.06    -0.00  -0.00  -0.00
  16   6    -0.00   0.00   0.00    -0.14   0.05   0.07     0.00   0.00   0.00
  17   1    -0.00  -0.00  -0.01    -0.02  -0.02  -0.02     0.00   0.00   0.00
  18   1     0.00   0.00   0.01     0.00   0.06   0.07     0.00   0.00   0.00
  19   1    -0.00   0.00   0.00    -0.02  -0.01  -0.02     0.00   0.00   0.00
  20   1    -0.38  -0.18   0.12     0.02   0.02  -0.01    -0.04  -0.04   0.03
  21   1     0.25  -0.03   0.00     0.01   0.00  -0.00     0.35  -0.13   0.04
  22   1     0.07  -0.39   0.19     0.00  -0.00   0.00    -0.11   0.64  -0.31
  23   1    -0.26  -0.12   0.08     0.01  -0.00   0.00    -0.39  -0.28   0.16
  24   1     0.42  -0.10   0.01     0.03  -0.02   0.00     0.20  -0.09   0.03
  25   1     0.00  -0.00  -0.00     0.33  -0.00  -0.04    -0.01   0.00   0.00
  26   1     0.01   0.00   0.00    -0.26  -0.17  -0.12     0.00   0.00   0.00
  27   1    -0.00  -0.00   0.00     0.04   0.00  -0.02    -0.00   0.00   0.00
  28   1     0.00   0.00   0.00    -0.07  -0.03  -0.02     0.00   0.00   0.00
  29   1     0.00   0.00   0.00     0.03  -0.02  -0.01    -0.00   0.00   0.00
  30   1     0.00  -0.00   0.00     0.52  -0.02  -0.09    -0.01   0.00   0.00
  31   1     0.01   0.01   0.01    -0.41  -0.29  -0.23     0.00   0.00   0.00
                     49                     50                     51
                        a                      a                      a 
 Frequencies --  1189.7858              1201.8068              1234.7542
 Red. masses --     2.2002                 2.1231                 7.8953
 Frc consts  --     0.0000                 0.0000                 0.0000
 IR Inten    --    28.7456                51.9085                35.8617
 Raman Activ --     0.0000                 0.0000                 0.0000
 Depolar     --     0.0000                 0.0000                 0.0000
 Atom AN      X      Y      Z        X      Y      Z        X      Y      Z
   1   6    -0.01  -0.03  -0.03    -0.04  -0.03  -0.03     0.08   0.08   0.07
   2   6     0.00   0.07   0.07     0.10   0.07   0.06    -0.19  -0.21  -0.20
   3   7    -0.09  -0.03  -0.01    -0.03  -0.01  -0.00     0.12   0.07   0.05
   4   6     0.16  -0.00  -0.01     0.02   0.00   0.01    -0.22  -0.01  -0.00
   5   6    -0.05  -0.06   0.03     0.00   0.00  -0.00    -0.05  -0.01   0.01
   6   6     0.08  -0.11   0.05    -0.00   0.00  -0.00     0.04   0.04  -0.02
   7   6     0.01   0.01  -0.01    -0.00  -0.00   0.00     0.03   0.00  -0.00
   8   6     0.03   0.13  -0.06    -0.00  -0.00  -0.00     0.05  -0.04   0.02
   9   6    -0.08   0.05  -0.03     0.00  -0.00  -0.00    -0.05  -0.01   0.01
  10   6    -0.04  -0.01  -0.00    -0.03  -0.06  -0.05     0.14   0.05   0.03
  11   6     0.01  -0.00  -0.00     0.11  -0.01  -0.03    -0.06  -0.12  -0.10
  12   6     0.01  -0.00  -0.00    -0.06  -0.06  -0.06     0.09   0.05   0.03
  13   6     0.00  -0.00  -0.00     0.11   0.00  -0.01     0.48   0.10   0.04
  14   6    -0.00   0.00   0.00    -0.04  -0.01  -0.00    -0.22  -0.06  -0.03
  15   6     0.00   0.01   0.01    -0.08   0.08   0.09     0.10  -0.00  -0.02
  16   6    -0.01  -0.00  -0.00    -0.01   0.08   0.08    -0.05   0.12   0.12
  17   1    -0.01  -0.01  -0.01     0.01  -0.02  -0.00    -0.01   0.03   0.01
  18   1    -0.00  -0.01  -0.01    -0.01  -0.01  -0.01     0.01   0.06   0.07
  19   1    -0.01  -0.01  -0.02     0.01  -0.00  -0.02    -0.01   0.01   0.04
  20   1    -0.40  -0.29   0.17     0.02   0.01  -0.01    -0.02  -0.01   0.01
  21   1     0.47  -0.19   0.07    -0.02   0.01  -0.00     0.11  -0.02   0.00
  22   1    -0.01   0.09  -0.04    -0.00  -0.00   0.00     0.01   0.00  -0.00
  23   1     0.25   0.20  -0.12    -0.02  -0.01   0.01     0.12   0.06  -0.04
  24   1    -0.44   0.18  -0.05     0.01  -0.00   0.00     0.01  -0.02   0.00
  25   1     0.05  -0.00  -0.01     0.49  -0.05  -0.10    -0.27  -0.01   0.02
  26   1    -0.01  -0.01  -0.01    -0.42  -0.35  -0.28    -0.10  -0.10  -0.08
  27   1     0.00  -0.00  -0.00    -0.03   0.00   0.01    -0.09  -0.01   0.00
  28   1    -0.00  -0.00  -0.00    -0.04  -0.02  -0.01    -0.12  -0.06  -0.03
  29   1     0.00  -0.00  -0.00    -0.02   0.00   0.00    -0.09  -0.02   0.00
  30   1     0.03  -0.00  -0.00    -0.35   0.06   0.10    -0.35   0.04   0.09
  31   1    -0.01  -0.01  -0.01     0.22   0.21   0.18    -0.21  -0.13  -0.10
                     52                     53                     54
                        a                      a                      a 
 Frequencies --  1248.7479              1277.2065              1278.2886
 Red. masses --     9.4968                 4.0092                 3.6847
 Frc consts  --     0.0000                 0.0000                 0.0000
 IR Inten    --   222.9718                 0.6909                21.8426
 Raman Activ --     0.0000                 0.0000                 0.0000
 Depolar     --     0.0000                 0.0000                 0.0000
 Atom AN      X      Y      Z        X      Y      Z        X      Y      Z
   1   6     0.01   0.06   0.06    -0.00  -0.02  -0.00     0.02  -0.00   0.00
   2   6     0.00  -0.19  -0.21    -0.01   0.01   0.01     0.03   0.06   0.05
   3   7     0.23   0.10   0.05    -0.02  -0.05   0.01    -0.06  -0.02   0.00
   4   6    -0.52  -0.04   0.03    -0.01   0.36  -0.18     0.05   0.08  -0.04
   5   6    -0.13  -0.03   0.02     0.11   0.00  -0.01     0.04   0.01  -0.01
   6   6     0.09   0.12  -0.06     0.14  -0.12   0.05     0.02  -0.04   0.02
   7   6     0.07   0.01  -0.01     0.01  -0.07   0.03    -0.00  -0.02   0.01
   8   6     0.12  -0.11   0.05    -0.11  -0.13   0.07    -0.03  -0.01   0.01
   9   6    -0.14  -0.01   0.02    -0.09  -0.02   0.01    -0.01  -0.00   0.00
  10   6     0.21  -0.01  -0.03    -0.01   0.06   0.05     0.05  -0.20  -0.21
  11   6     0.09   0.10   0.08    -0.01   0.00   0.01     0.07  -0.03  -0.04
  12   6    -0.14  -0.00   0.01    -0.03  -0.02  -0.02     0.11   0.09   0.07
  13   6    -0.32  -0.06  -0.02    -0.02  -0.03  -0.03     0.09   0.16   0.14
  14   6     0.15   0.04   0.02     0.01   0.01   0.01    -0.03  -0.05  -0.05
  15   6    -0.10  -0.04  -0.02     0.02  -0.01  -0.02    -0.09   0.05   0.06
  16   6     0.08  -0.04  -0.05     0.03   0.01   0.00    -0.13  -0.06  -0.04
  17   1     0.03   0.02   0.03     0.01   0.01   0.01    -0.03   0.01  -0.01
  18   1     0.00   0.03   0.03    -0.00   0.01   0.01     0.01  -0.04  -0.04
  19   1     0.03   0.03   0.03     0.00  -0.00  -0.01    -0.03  -0.01   0.01
  20   1     0.01   0.03  -0.01    -0.36  -0.27   0.16    -0.08  -0.06   0.04
  21   1     0.22  -0.04   0.00    -0.33   0.10  -0.03    -0.09   0.03  -0.01
  22   1     0.02   0.01  -0.01    -0.03   0.20  -0.10    -0.01   0.04  -0.02
  23   1     0.25   0.11  -0.07     0.26   0.16  -0.10     0.04   0.03  -0.02
  24   1     0.07  -0.06   0.01     0.41  -0.17   0.06     0.08  -0.03   0.01
  25   1     0.02   0.03   0.03     0.12  -0.01  -0.02    -0.51   0.04   0.10
  26   1    -0.06  -0.01  -0.01     0.06   0.05   0.04    -0.28  -0.23  -0.18
  27   1     0.05   0.01   0.00     0.02   0.00  -0.00    -0.08   0.00   0.02
  28   1     0.08   0.03   0.02    -0.00  -0.00  -0.00     0.02   0.01   0.00
  29   1     0.05   0.01   0.00     0.02  -0.00  -0.00    -0.07   0.01   0.01
  30   1     0.07  -0.02  -0.03    -0.08   0.00   0.02     0.40  -0.02  -0.08
  31   1     0.20   0.13   0.10    -0.05  -0.04  -0.04     0.21   0.20   0.16
                     55                     56                     57
                        a                      a                      a 
 Frequencies --  1303.5670              1315.7968              1333.1138
 Red. masses --    10.5551                11.2928                11.5559
 Frc consts  --     0.0000                 0.0000                 0.0000
 IR Inten    --    52.4293                 5.4430                15.6097
 Raman Activ --     0.0000                 0.0000                 0.0000
 Depolar     --     0.0000                 0.0000                 0.0000
 Atom AN      X      Y      Z        X      Y      Z        X      Y      Z
   1   6     0.12   0.04   0.03    -0.00  -0.01   0.00    -0.06  -0.02  -0.02
   2   6    -0.46  -0.16  -0.11     0.01   0.02   0.01     0.18   0.04   0.02
   3   7    -0.14   0.00   0.04     0.00  -0.01  -0.01     0.10   0.01  -0.01
   4   6     0.25   0.02  -0.04    -0.06   0.37  -0.18    -0.10  -0.01   0.01
   5   6     0.08   0.03  -0.02    -0.32  -0.26   0.14    -0.05  -0.02   0.01
   6   6    -0.03  -0.08   0.04     0.28  -0.11   0.04     0.01   0.04  -0.02
   7   6    -0.05   0.01  -0.00    -0.07   0.40  -0.20     0.03   0.00  -0.00
   8   6    -0.05   0.08  -0.04    -0.23  -0.17   0.10     0.02  -0.04   0.02
   9   6     0.12  -0.02   0.01     0.38  -0.17   0.06    -0.05   0.02  -0.00
  10   6     0.36   0.21   0.16    -0.01  -0.00  -0.01    -0.30   0.22   0.25
  11   6     0.31   0.02  -0.03    -0.01  -0.00   0.00     0.27  -0.07  -0.10
  12   6    -0.23  -0.03  -0.00     0.01   0.00   0.00    -0.15  -0.22  -0.19
  13   6    -0.25   0.06   0.10     0.01   0.00  -0.00     0.01   0.31   0.30
  14   6     0.09   0.00  -0.01    -0.00  -0.00  -0.00    -0.04  -0.07  -0.06
  15   6     0.06  -0.11  -0.11    -0.00   0.00   0.00     0.37   0.00  -0.05
  16   6     0.03  -0.06  -0.06    -0.00  -0.00   0.00    -0.30  -0.21  -0.16
  17   1    -0.05   0.01  -0.02    -0.00   0.00   0.00     0.03   0.01   0.02
  18   1     0.01   0.09   0.11    -0.00   0.00  -0.01    -0.01  -0.02  -0.03
  19   1    -0.06  -0.02   0.01     0.00  -0.00  -0.00     0.03   0.02   0.01
  20   1    -0.05  -0.05   0.02     0.05   0.03  -0.02     0.03   0.03  -0.01
  21   1    -0.10   0.01   0.00     0.14  -0.06   0.02     0.05  -0.01   0.00
  22   1    -0.01  -0.02   0.01     0.02  -0.11   0.06     0.01   0.00  -0.00
  23   1    -0.13  -0.05   0.03    -0.11  -0.08   0.05     0.05   0.02  -0.01
  24   1    -0.09   0.04  -0.02    -0.04   0.01   0.00     0.04  -0.02   0.01
  25   1    -0.05   0.02   0.03     0.00  -0.00  -0.00     0.03  -0.02  -0.02
  26   1    -0.17  -0.10  -0.07     0.00   0.00  -0.00     0.01  -0.02  -0.02
  27   1     0.00   0.01   0.02    -0.00  -0.00  -0.00    -0.06   0.00   0.06
  28   1     0.07   0.03   0.02    -0.00  -0.00  -0.00     0.04   0.03   0.02
  29   1     0.00   0.03   0.01    -0.00  -0.00  -0.00    -0.06   0.05   0.02
  30   1    -0.08  -0.02  -0.01     0.01   0.00  -0.00     0.09   0.00  -0.01
  31   1     0.01  -0.02  -0.02     0.00   0.00   0.00    -0.04  -0.02  -0.01
                     58                     59                     60
                        a                      a                      a 
 Frequencies --  1375.4458              1400.8770              1407.4894
 Red. masses --     3.2803                 3.1951                 9.6856
 Frc consts  --     0.0000                 0.0000                 0.0000
 IR Inten    --    19.9255                 6.8928                 5.0686
 Raman Activ --     0.0000                 0.0000                 0.0000
 Depolar     --     0.0000                 0.0000                 0.0000
 Atom AN      X      Y      Z        X      Y      Z        X      Y      Z
   1   6     0.05   0.30   0.32     0.00  -0.00  -0.00     0.02  -0.04  -0.03
   2   6    -0.01  -0.03  -0.03     0.00   0.00   0.00     0.04   0.04   0.03
   3   7     0.01   0.01   0.00    -0.00  -0.00   0.00    -0.06   0.01   0.02
   4   6    -0.01  -0.00   0.00     0.00   0.00   0.00     0.02   0.01   0.00
   5   6    -0.00   0.00  -0.00     0.00   0.00  -0.00     0.01   0.01  -0.00
   6   6     0.01  -0.00   0.00     0.00  -0.00   0.00     0.01  -0.01   0.00
   7   6    -0.00  -0.00   0.00    -0.00  -0.00   0.00    -0.01   0.00   0.00
   8   6    -0.00   0.00  -0.00    -0.00   0.00  -0.00     0.00   0.01  -0.01
   9   6     0.00   0.00  -0.00     0.00  -0.00   0.00     0.01  -0.01   0.00
  10   6     0.01  -0.01  -0.01     0.00  -0.03  -0.03     0.07  -0.24  -0.24
  11   6     0.04   0.02   0.01    -0.01  -0.00  -0.00     0.31   0.16   0.12
  12   6    -0.05  -0.01  -0.01     0.00   0.02   0.02    -0.37  -0.05  -0.00
  13   6     0.01  -0.02  -0.02     0.05   0.00  -0.01     0.11  -0.22  -0.23
  14   6    -0.01   0.01   0.01    -0.40  -0.14  -0.10    -0.04   0.08   0.08
  15   6     0.05   0.01   0.00     0.01  -0.01  -0.01     0.32   0.15   0.10
  16   6    -0.04   0.00   0.01    -0.01   0.02   0.02    -0.34  -0.01   0.04
  17   1    -0.09  -0.49  -0.19    -0.00   0.01   0.00    -0.02   0.07   0.01
  18   1     0.06  -0.33  -0.34     0.00   0.00   0.00    -0.00   0.02   0.01
  19   1    -0.13  -0.15  -0.49    -0.00   0.00   0.01    -0.01   0.01   0.07
  20   1    -0.01  -0.00   0.00    -0.00  -0.00   0.00    -0.01  -0.01   0.00
  21   1    -0.00   0.00  -0.00    -0.00   0.00  -0.00    -0.01   0.00  -0.00
  22   1    -0.00   0.00  -0.00    -0.00   0.00  -0.00    -0.00  -0.00   0.00
  23   1     0.00   0.00  -0.00    -0.00  -0.00   0.00    -0.01  -0.01   0.00
  24   1    -0.00   0.00  -0.00    -0.00   0.00  -0.00    -0.01   0.00  -0.00
  25   1    -0.01   0.01   0.01    -0.02   0.00   0.00    -0.16   0.07   0.09
  26   1     0.01   0.02   0.02    -0.03  -0.02  -0.01     0.10   0.16   0.14
  27   1     0.01  -0.00  -0.00     0.48  -0.03   0.24     0.04  -0.01  -0.09
  28   1    -0.00   0.00   0.00     0.35   0.21   0.20    -0.04  -0.02   0.00
  29   1     0.01  -0.00  -0.00     0.45   0.30  -0.09     0.05  -0.09  -0.03
  30   1    -0.04   0.01   0.01    -0.02   0.00   0.00    -0.19   0.07   0.10
  31   1    -0.00   0.01   0.01    -0.01  -0.00  -0.00     0.04   0.12   0.11
                     61                     62                     63
                        a                      a                      a 
 Frequencies --  1432.6061              1464.8173              1473.2617
 Red. masses --     9.0188                 8.3808                 2.2927
 Frc consts  --     0.0000                 0.0000                 0.0000
 IR Inten    --     7.8937                17.5911                19.0891
 Raman Activ --     0.0000                 0.0000                 0.0000
 Depolar     --     0.0000                 0.0000                 0.0000
 Atom AN      X      Y      Z        X      Y      Z        X      Y      Z
   1   6     0.00  -0.00  -0.00     0.07   0.01  -0.01    -0.16  -0.11   0.08
   2   6    -0.01  -0.01   0.00    -0.08   0.04   0.05    -0.05  -0.02   0.01
   3   7     0.00   0.04  -0.02    -0.05  -0.04  -0.02    -0.07   0.01   0.03
   4   6     0.05  -0.32   0.15     0.40   0.04  -0.05     0.15   0.02  -0.02
   5   6    -0.31   0.08  -0.02    -0.15  -0.23   0.13    -0.03  -0.06   0.03
   6   6     0.40   0.05  -0.05    -0.24   0.19  -0.08    -0.07   0.05  -0.02
   7   6     0.03  -0.22   0.11     0.24   0.02  -0.02     0.06   0.00  -0.01
   8   6    -0.40  -0.03   0.04    -0.17  -0.23   0.13    -0.04  -0.06   0.03
   9   6     0.28   0.15  -0.09    -0.23   0.20  -0.09    -0.06   0.05  -0.02
  10   6     0.00  -0.01   0.01    -0.05  -0.01  -0.00     0.07   0.00  -0.02
  11   6     0.00  -0.00  -0.00     0.08  -0.02  -0.03    -0.01   0.01   0.01
  12   6     0.00   0.00   0.00     0.01   0.05   0.05    -0.02  -0.01  -0.01
  13   6    -0.01  -0.00   0.00    -0.09  -0.04  -0.02     0.04   0.00  -0.00
  14   6     0.00   0.00   0.00     0.02   0.01   0.01    -0.02   0.01  -0.00
  15   6     0.00  -0.00  -0.00     0.03  -0.03  -0.03    -0.02   0.01   0.02
  16   6     0.00   0.00   0.00     0.05   0.05   0.04    -0.03  -0.02  -0.01
  17   1    -0.02   0.00  -0.01    -0.11   0.09  -0.02     0.14  -0.33  -0.04
  18   1    -0.00   0.02  -0.01     0.02  -0.11  -0.05    -0.06   0.52  -0.03
  19   1     0.01   0.01   0.01    -0.15  -0.05   0.08     0.59   0.19  -0.27
  20   1     0.05   0.13  -0.07     0.22   0.11  -0.08     0.06   0.03  -0.02
  21   1    -0.18   0.13  -0.05     0.23  -0.05   0.01     0.06  -0.02   0.00
  22   1    -0.06   0.32  -0.16     0.07   0.01  -0.01     0.02  -0.00  -0.00
  23   1     0.12   0.16  -0.09     0.21   0.11  -0.07     0.05   0.03  -0.02
  24   1    -0.10   0.11  -0.05     0.24  -0.06   0.02     0.07  -0.01   0.00
  25   1    -0.00  -0.00   0.00    -0.04   0.00   0.01    -0.04   0.01   0.02
  26   1    -0.00  -0.00  -0.00    -0.05  -0.03  -0.02     0.01   0.01   0.01
  27   1    -0.00   0.00  -0.00     0.01  -0.00  -0.04    -0.01   0.00   0.01
  28   1     0.00   0.00  -0.00     0.02   0.02   0.01     0.00  -0.02   0.02
  29   1    -0.00  -0.00   0.00     0.01  -0.03  -0.01     0.02  -0.01  -0.01
  30   1    -0.00  -0.00   0.00    -0.05  -0.00   0.00     0.02   0.00  -0.00
  31   1    -0.00  -0.00  -0.00    -0.04  -0.03  -0.03     0.02   0.02   0.01
                     64                     65                     66
                        a                      a                      a 
 Frequencies --  1474.0333              1474.4432              1479.4795
 Red. masses --     1.8709                 1.6081                 1.9851
 Frc consts  --     0.0000                 0.0000                 0.0000
 IR Inten    --     8.9389                 3.3134                 8.7622
 Raman Activ --     0.0000                 0.0000                 0.0000
 Depolar     --     0.0000                 0.0000                 0.0000
 Atom AN      X      Y      Z        X      Y      Z        X      Y      Z
   1   6    -0.11   0.11  -0.14    -0.05   0.04  -0.05     0.01  -0.00   0.00
   2   6    -0.02   0.01  -0.02    -0.00   0.01  -0.01    -0.02  -0.00   0.00
   3   7    -0.05   0.01   0.02    -0.02   0.00   0.01    -0.02   0.00   0.01
   4   6     0.07  -0.00  -0.01     0.03   0.00  -0.00     0.04   0.00  -0.00
   5   6    -0.03  -0.02   0.01    -0.01  -0.01   0.01    -0.01  -0.02   0.01
   6   6    -0.01   0.02  -0.01    -0.00   0.01  -0.00    -0.02   0.01  -0.00
   7   6     0.02  -0.00   0.00     0.01  -0.00   0.00     0.02   0.00  -0.00
   8   6    -0.03  -0.02   0.01    -0.01  -0.01   0.01    -0.01  -0.01   0.01
   9   6    -0.01   0.02  -0.01    -0.00   0.01  -0.00    -0.01   0.01  -0.01
  10   6     0.06   0.01   0.00     0.02  -0.02  -0.02     0.06  -0.07  -0.08
  11   6    -0.03   0.01   0.01    -0.01   0.01   0.01    -0.01   0.06   0.06
  12   6    -0.02  -0.02  -0.02    -0.01  -0.01  -0.00    -0.08  -0.06  -0.05
  13   6     0.06   0.01  -0.01     0.02  -0.03   0.02     0.01  -0.02  -0.02
  14   6    -0.03   0.06  -0.05     0.01  -0.16   0.12     0.14  -0.09  -0.14
  15   6    -0.03   0.02   0.03     0.01   0.01  -0.00     0.00   0.00   0.00
  16   6    -0.03  -0.03  -0.03    -0.01   0.00   0.00    -0.00   0.03   0.03
  17   1     0.56  -0.12   0.17     0.24  -0.07   0.07    -0.02   0.01  -0.00
  18   1    -0.01  -0.27   0.53    -0.01  -0.09   0.22     0.00  -0.00  -0.01
  19   1    -0.09  -0.07  -0.21    -0.01  -0.02  -0.10    -0.02  -0.00   0.01
  20   1     0.03   0.01  -0.01     0.01   0.01  -0.00     0.01   0.01  -0.00
  21   1     0.02  -0.00   0.00     0.01  -0.00   0.00     0.01  -0.00   0.00
  22   1     0.01   0.01  -0.01     0.00   0.00  -0.00     0.00   0.00  -0.00
  23   1     0.02   0.01  -0.01     0.01   0.01  -0.00     0.01   0.01  -0.00
  24   1     0.02  -0.00   0.00     0.01  -0.00   0.00     0.02  -0.00   0.00
  25   1    -0.01   0.01  -0.00    -0.02   0.01   0.00     0.02   0.01   0.01
  26   1     0.02   0.02   0.01     0.00   0.01   0.00     0.06   0.06   0.04
  27   1    -0.14   0.03   0.09     0.34  -0.08  -0.21    -0.06   0.09   0.61
  28   1     0.03  -0.20   0.18    -0.09   0.48  -0.45    -0.32  -0.25  -0.15
  29   1     0.14  -0.09  -0.07    -0.35   0.23   0.17    -0.09   0.55   0.14
  30   1     0.03   0.00  -0.00    -0.00  -0.00   0.00     0.00   0.00   0.00
  31   1     0.03   0.02   0.02     0.00   0.00   0.01     0.00   0.01   0.01
                     67                     68                     69
                        a                      a                      a 
 Frequencies --  1490.9967              1567.3128              1570.9190
 Red. masses --     9.3593                11.4191                11.4099
 Frc consts  --     0.0000                 0.0000                 0.0000
 IR Inten    --     1.4186                 2.6256                 2.4035
 Raman Activ --     0.0000                 0.0000                 0.0000
 Depolar     --     0.0000                 0.0000                 0.0000
 Atom AN      X      Y      Z        X      Y      Z        X      Y      Z
   1   6    -0.05  -0.00  -0.01    -0.00   0.00  -0.00    -0.02   0.00   0.00
   2   6     0.15   0.03   0.01    -0.00  -0.00  -0.00     0.01  -0.01  -0.00
   3   7     0.01   0.01   0.01    -0.00   0.02  -0.01     0.05  -0.00  -0.02
   4   6    -0.07  -0.00   0.01     0.06  -0.38   0.18    -0.02  -0.00   0.00
   5   6     0.01   0.03  -0.02     0.15   0.26  -0.14    -0.01   0.00  -0.00
   6   6     0.05  -0.03   0.01     0.13  -0.26   0.13     0.02  -0.00   0.00
   7   6    -0.04  -0.00   0.00    -0.08   0.52  -0.26    -0.01  -0.00   0.00
   8   6     0.04   0.04  -0.02    -0.08  -0.30   0.16     0.02   0.01  -0.00
   9   6     0.02  -0.03   0.01    -0.18   0.21  -0.09    -0.01  -0.00   0.00
  10   6    -0.37  -0.16  -0.10     0.00  -0.00   0.00    -0.21   0.31   0.33
  11   6     0.26  -0.07  -0.10     0.00   0.00   0.00     0.29  -0.16  -0.19
  12   6     0.08   0.16   0.14    -0.00  -0.00  -0.00     0.03   0.24   0.23
  13   6    -0.39  -0.05   0.00     0.00   0.00  -0.00     0.11  -0.37  -0.37
  14   6     0.12   0.02  -0.01    -0.00  -0.00   0.00     0.01   0.02   0.02
  15   6     0.22  -0.13  -0.16    -0.00   0.00   0.00    -0.19   0.15   0.17
  16   6     0.19   0.25   0.22     0.00  -0.00  -0.00    -0.04  -0.20  -0.18
  17   1     0.12  -0.06   0.03     0.00  -0.00  -0.00     0.01  -0.01   0.00
  18   1    -0.01   0.02   0.06    -0.00   0.00   0.01    -0.00  -0.00  -0.01
  19   1     0.08   0.02  -0.07     0.00   0.00   0.00     0.01   0.00  -0.01
  20   1    -0.03  -0.01   0.01    -0.09  -0.03   0.02    -0.00   0.00  -0.00
  21   1    -0.04   0.01  -0.00    -0.06  -0.03   0.02    -0.01   0.00  -0.00
  22   1    -0.01  -0.00   0.00     0.03  -0.14   0.07    -0.00  -0.00   0.00
  23   1    -0.03  -0.02   0.01     0.08  -0.01  -0.00    -0.00  -0.00   0.00
  24   1    -0.03   0.00  -0.00     0.09   0.00  -0.01    -0.00  -0.00   0.00
  25   1    -0.24   0.01   0.03    -0.00  -0.00   0.00    -0.12  -0.02  -0.01
  26   1    -0.16  -0.10  -0.07     0.00   0.00   0.00    -0.09  -0.02  -0.01
  27   1    -0.01   0.02   0.05    -0.00  -0.00  -0.00     0.05   0.01   0.07
  28   1     0.01  -0.03   0.01    -0.00   0.00  -0.00    -0.09  -0.04  -0.04
  29   1     0.02   0.03   0.01    -0.00   0.00   0.00     0.02   0.07   0.01
  30   1    -0.22  -0.01   0.02     0.00  -0.00   0.00     0.06   0.03   0.02
  31   1    -0.17  -0.12  -0.09     0.00   0.00   0.00     0.05   0.01  -0.00
                     70                     71                     72
                        a                      a                      a 
 Frequencies --  1593.5298              1599.5698              1700.6988
 Red. masses --    11.4705                11.4842                12.7883
 Frc consts  --     0.0000                 0.0000                 0.0000
 IR Inten    --   243.9464                12.0729               323.0944
 Raman Activ --     0.0000                 0.0000                 0.0000
 Depolar     --     0.0000                 0.0000                 0.0000
 Atom AN      X      Y      Z        X      Y      Z        X      Y      Z
   1   6    -0.00  -0.01  -0.01    -0.01   0.01   0.01    -0.01   0.03   0.04
   2   6    -0.04   0.05   0.07     0.06  -0.02  -0.04     0.46  -0.32  -0.44
   3   7     0.08  -0.03  -0.06    -0.03   0.01   0.02    -0.52   0.23   0.35
   4   6    -0.21  -0.00   0.02    -0.13   0.00   0.01     0.11   0.02  -0.01
   5   6     0.33   0.10  -0.07     0.22   0.07  -0.05     0.04   0.01  -0.00
   6   6    -0.39   0.08  -0.02    -0.26   0.05  -0.01    -0.05   0.00   0.00
   7   6     0.18  -0.00  -0.01     0.12  -0.00  -0.01     0.02   0.00  -0.00
   8   6    -0.35  -0.13   0.09    -0.23  -0.09   0.06    -0.05  -0.01   0.01
   9   6     0.38  -0.04   0.00     0.26  -0.03   0.00     0.06  -0.00  -0.00
  10   6     0.09   0.02   0.01    -0.18  -0.04  -0.02     0.01   0.04   0.04
  11   6    -0.20  -0.03  -0.00     0.33   0.03  -0.01    -0.08  -0.01   0.00
  12   6     0.20   0.13   0.10    -0.31  -0.18  -0.14     0.06   0.04   0.03
  13   6    -0.16  -0.07  -0.04     0.24   0.09   0.05    -0.03  -0.02  -0.01
  14   6     0.03   0.01   0.00    -0.04  -0.01  -0.00     0.01   0.00   0.00
  15   6     0.26   0.02  -0.01    -0.40  -0.03   0.02     0.05   0.01   0.00
  16   6    -0.21  -0.10  -0.06     0.32   0.15   0.10    -0.04  -0.04  -0.04
  17   1     0.01  -0.01  -0.00     0.01   0.01   0.00    -0.01   0.05   0.02
  18   1    -0.00   0.01   0.01     0.00  -0.00  -0.00     0.01  -0.03  -0.04
  19   1     0.00   0.00  -0.01     0.00   0.00   0.01    -0.00   0.01   0.05
  20   1    -0.04  -0.06   0.04    -0.03  -0.04   0.02    -0.00  -0.01  -0.00
  21   1     0.08  -0.05   0.02     0.05  -0.03   0.01     0.01  -0.01   0.00
  22   1     0.04   0.01  -0.01     0.03   0.01  -0.00     0.00   0.00  -0.00
  23   1     0.06   0.07  -0.04     0.04   0.04  -0.02     0.00   0.01  -0.00
  24   1    -0.07   0.05  -0.02    -0.05   0.03  -0.02    -0.00   0.01  -0.00
  25   1     0.03  -0.01  -0.02    -0.06   0.02   0.03     0.01  -0.01  -0.01
  26   1    -0.04  -0.04  -0.03     0.05   0.06   0.05    -0.01  -0.01  -0.01
  27   1     0.01   0.00   0.02    -0.01  -0.00  -0.03     0.00   0.00   0.00
  28   1    -0.01  -0.01  -0.00     0.01   0.01   0.00    -0.00  -0.00  -0.00
  29   1     0.00   0.02   0.00    -0.01  -0.03  -0.00     0.00   0.00  -0.00
  30   1    -0.06   0.02   0.03     0.09  -0.03  -0.04    -0.00   0.00   0.00
  31   1     0.02   0.04   0.03    -0.02  -0.05  -0.05     0.01   0.01   0.01
                     73                     74                     75
                        a                      a                      a 
 Frequencies --  3001.8157              3010.2641              3016.7037
 Red. masses --     1.9076                 1.8731                 1.5689
 Frc consts  --     0.0000                 0.0000                 0.0000
 IR Inten    --    24.5965                16.0727                29.4945
 Raman Activ --     0.0000                 0.0000                 0.0000
 Depolar     --     0.0000                 0.0000                 0.0000
 Atom AN      X      Y      Z        X      Y      Z        X      Y      Z
   1   6    -0.00  -0.00   0.00     0.09  -0.24   0.12     0.00  -0.00   0.00
   2   6     0.00   0.00  -0.00     0.00  -0.01   0.00    -0.00  -0.00   0.00
   3   7    -0.00  -0.00   0.00    -0.00   0.00   0.00     0.00  -0.00  -0.00
   4   6     0.00  -0.00  -0.00    -0.00  -0.00   0.00    -0.00  -0.00   0.00
   5   6     0.00  -0.00   0.00    -0.00   0.00  -0.00    -0.00   0.00  -0.00
   6   6     0.00  -0.00   0.00     0.00   0.00  -0.00     0.00   0.00  -0.00
   7   6    -0.00  -0.00   0.00     0.00   0.00  -0.00     0.00   0.00  -0.00
   8   6    -0.00   0.00  -0.00    -0.00  -0.00   0.00     0.00  -0.00   0.00
   9   6     0.00   0.00  -0.00     0.00   0.00  -0.00    -0.00  -0.00   0.00
  10   6     0.00   0.00   0.00     0.00   0.00  -0.00    -0.00  -0.00  -0.00
  11   6     0.00  -0.00   0.00     0.00   0.00   0.00    -0.00   0.00   0.00
  12   6     0.00   0.00  -0.00     0.00  -0.00  -0.00     0.00  -0.00  -0.00
  13   6    -0.00   0.00  -0.01     0.00   0.00   0.00     0.01   0.01   0.00
  14   6    -0.04   0.17  -0.23    -0.00  -0.00   0.00     0.04   0.20   0.10
  15   6     0.00   0.00   0.00     0.00   0.00   0.00    -0.00  -0.01  -0.01
  16   6    -0.00  -0.00  -0.00    -0.00  -0.00   0.00     0.00   0.00   0.00
  17   1     0.00  -0.00   0.00     0.12   0.06  -0.25     0.01   0.01  -0.01
  18   1     0.00  -0.00   0.00    -0.07  -0.04   0.01    -0.01  -0.00   0.00
  19   1    -0.00   0.00  -0.00    -0.37   0.81  -0.19    -0.00   0.00   0.00
  20   1    -0.00   0.00  -0.00     0.01  -0.01   0.00     0.00  -0.00   0.00
  21   1     0.00   0.00  -0.00    -0.00  -0.00   0.00    -0.00  -0.00   0.00
  22   1     0.00   0.00  -0.00    -0.00   0.00  -0.00    -0.00  -0.00   0.00
  23   1     0.00  -0.00   0.00    -0.00   0.00  -0.00    -0.00   0.00  -0.00
  24   1    -0.00  -0.00   0.00    -0.00  -0.00   0.00     0.00   0.00  -0.00
  25   1     0.00  -0.00  -0.00    -0.00  -0.01  -0.01    -0.00  -0.00  -0.00
  26   1    -0.00   0.00  -0.00    -0.00   0.00   0.00    -0.01   0.00   0.00
  27   1    -0.05  -0.46   0.03     0.00   0.01  -0.00    -0.07  -0.83   0.14
  28   1    -0.02   0.04  -0.02     0.00  -0.00  -0.00     0.05  -0.01  -0.04
  29   1     0.23  -0.16   0.79     0.00  -0.00   0.00    -0.13   0.13  -0.44
  30   1    -0.00  -0.00  -0.00     0.00  -0.00  -0.00     0.01   0.02   0.02
  31   1    -0.00   0.00   0.00     0.00  -0.00  -0.00     0.00  -0.00  -0.00
                     76                     77                     78
                        a                      a                      a 
 Frequencies --  3021.1982              3032.1289              3042.7045
 Red. masses --     1.6807                 1.5892                 1.6654
 Frc consts  --     0.0000                 0.0000                 0.0000
 IR Inten    --    21.9646                25.6040                28.6779
 Raman Activ --     0.0000                 0.0000                 0.0000
 Depolar     --     0.0000                 0.0000                 0.0000
 Atom AN      X      Y      Z        X      Y      Z        X      Y      Z
   1   6     0.15   0.02  -0.19    -0.22  -0.04  -0.03     0.00   0.00   0.00
   2   6     0.01  -0.00  -0.01    -0.01  -0.00  -0.00     0.00   0.00   0.00
   3   7    -0.00   0.00   0.00     0.00   0.00   0.00    -0.00  -0.00  -0.00
   4   6    -0.00  -0.00  -0.00     0.00  -0.00  -0.00     0.00   0.00  -0.00
   5   6     0.00  -0.00   0.00    -0.00   0.00  -0.00     0.00  -0.00   0.00
   6   6     0.00   0.00  -0.00    -0.00  -0.00   0.00    -0.00  -0.00   0.00
   7   6     0.00   0.00  -0.00    -0.00  -0.00   0.00    -0.00  -0.00   0.00
   8   6     0.00  -0.00   0.00    -0.00   0.00  -0.00    -0.00   0.00  -0.00
   9   6    -0.00  -0.00   0.00    -0.00  -0.00   0.00     0.00   0.00  -0.00
  10   6     0.00  -0.00   0.00     0.00   0.00  -0.00     0.00   0.00   0.00
  11   6     0.00   0.00   0.00    -0.00  -0.00  -0.00    -0.00   0.00   0.00
  12   6     0.00  -0.00  -0.00    -0.00   0.00   0.00     0.02  -0.01  -0.01
  13   6     0.00   0.00   0.00     0.00   0.00   0.00    -0.01   0.00   0.00
  14   6     0.00   0.00   0.00    -0.00   0.00   0.00    -0.16   0.11   0.15
  15   6     0.00   0.00  -0.00    -0.00  -0.00  -0.00    -0.00  -0.01  -0.00
  16   6    -0.00  -0.00   0.00     0.00  -0.00  -0.00    -0.00   0.00   0.00
  17   1    -0.31  -0.30   0.81    -0.07  -0.04   0.11     0.00   0.00  -0.00
  18   1    -0.14  -0.01  -0.03     0.95   0.08   0.05    -0.01  -0.00  -0.00
  19   1    -0.09   0.26  -0.09    -0.08   0.11  -0.03     0.00  -0.00   0.00
  20   1    -0.01   0.01  -0.00     0.01  -0.01   0.01    -0.00   0.00  -0.00
  21   1    -0.00  -0.00   0.00     0.00   0.00  -0.00     0.00   0.00  -0.00
  22   1    -0.00  -0.00   0.00     0.00   0.00  -0.00     0.00   0.00  -0.00
  23   1    -0.00   0.00  -0.00     0.00  -0.00   0.00     0.00  -0.00   0.00
  24   1     0.00   0.00  -0.00     0.00   0.01  -0.00    -0.00  -0.00   0.00
  25   1    -0.01  -0.02  -0.01     0.00   0.00   0.00    -0.00  -0.00  -0.00
  26   1    -0.00   0.00   0.00     0.00  -0.00  -0.00    -0.05   0.03   0.04
  27   1    -0.00  -0.01   0.00    -0.00  -0.01   0.00    -0.01   0.07   0.01
  28   1     0.00  -0.00  -0.00     0.01  -0.00  -0.01     0.58  -0.47  -0.61
  29   1    -0.00   0.00  -0.01    -0.00   0.00  -0.00    -0.00   0.00   0.08
  30   1     0.00   0.00   0.00     0.00   0.00   0.00     0.01   0.02   0.01
  31   1     0.00  -0.00  -0.00    -0.00   0.00   0.00     0.00  -0.00  -0.00
                     79                     80                     81
                        a                      a                      a 
 Frequencies --  3060.1072              3062.5158              3067.4544
 Red. masses --     1.7580                 1.7680                 1.8054
 Frc consts  --     0.0000                 0.0000                 0.0000
 IR Inten    --    18.1844                15.4889                61.3507
 Raman Activ --     0.0000                 0.0000                 0.0000
 Depolar     --     0.0000                 0.0000                 0.0000
 Atom AN      X      Y      Z        X      Y      Z        X      Y      Z
   1   6     0.00   0.00  -0.00     0.00  -0.00   0.00    -0.00   0.00   0.00
   2   6     0.00   0.00  -0.00     0.00  -0.00  -0.00    -0.00  -0.00  -0.00
   3   7    -0.00  -0.00   0.00    -0.00   0.00  -0.00     0.00   0.00  -0.00
   4   6    -0.01   0.00  -0.00    -0.00  -0.00   0.00    -0.00  -0.00   0.00
   5   6    -0.09   0.10  -0.05     0.02  -0.03   0.01    -0.00   0.00  -0.00
   6   6    -0.07  -0.17   0.09     0.01   0.01  -0.01     0.00   0.00  -0.00
   7   6     0.06   0.00  -0.01     0.08   0.01  -0.01     0.00   0.00  -0.00
   8   6    -0.01   0.01  -0.01    -0.14   0.16  -0.07    -0.00   0.00  -0.00
   9   6     0.00   0.01  -0.00    -0.04  -0.08   0.04    -0.00  -0.00   0.00
  10   6    -0.00  -0.00  -0.00    -0.00  -0.00   0.00     0.00   0.00   0.00
  11   6     0.00  -0.00  -0.00     0.00  -0.00  -0.00     0.01   0.03   0.03
  12   6    -0.00   0.00   0.00    -0.00   0.00   0.00     0.18  -0.11  -0.13
  13   6    -0.00  -0.00   0.00    -0.00  -0.00   0.00     0.01  -0.00  -0.00
  14   6    -0.00   0.00   0.00     0.00   0.00  -0.00     0.01  -0.01  -0.01
  15   6    -0.00  -0.00  -0.00    -0.00  -0.00  -0.00    -0.02  -0.05  -0.05
  16   6    -0.00   0.00   0.00     0.00   0.00  -0.00    -0.01   0.00   0.00
  17   1    -0.00  -0.00   0.01     0.00   0.00  -0.00     0.00   0.00  -0.01
  18   1    -0.02  -0.00  -0.00    -0.00  -0.00   0.00     0.00   0.00   0.00
  19   1     0.00  -0.01   0.00    -0.00   0.00  -0.00     0.00  -0.01   0.00
  20   1     0.34  -0.39   0.18    -0.08   0.09  -0.04     0.01  -0.01   0.00
  21   1     0.27   0.63  -0.33    -0.02  -0.03   0.02    -0.00  -0.00   0.00
  22   1    -0.24  -0.03   0.03    -0.29  -0.04   0.03    -0.00  -0.00   0.00
  23   1     0.03  -0.04   0.02     0.52  -0.59   0.27     0.00  -0.00   0.00
  24   1    -0.01  -0.02   0.01     0.14   0.31  -0.16     0.00   0.01  -0.00
  25   1     0.00   0.00   0.00     0.00   0.00   0.00    -0.04  -0.14  -0.13
  26   1     0.00  -0.00  -0.00     0.00  -0.00  -0.00    -0.65   0.41   0.48
  27   1     0.00  -0.00   0.00    -0.00  -0.00   0.00     0.00   0.01  -0.00
  28   1     0.00  -0.00  -0.00    -0.00   0.00   0.00    -0.05   0.04   0.05
  29   1     0.00  -0.00   0.00    -0.00   0.00  -0.00     0.00  -0.00   0.00
  30   1     0.00   0.00   0.00     0.00   0.00   0.00     0.06   0.18   0.17
  31   1     0.00  -0.00  -0.00     0.00   0.00   0.00     0.03  -0.02  -0.02
                     82                     83                     84
                        a                      a                      a 
 Frequencies --  3071.1645              3071.5937              3076.2980
 Red. masses --     1.8473                 1.8086                 1.8549
 Frc consts  --     0.0000                 0.0000                 0.0000
 IR Inten    --    98.1985                49.3731               136.9853
 Raman Activ --     0.0000                 0.0000                 0.0000
 Depolar     --     0.0000                 0.0000                 0.0000
 Atom AN      X      Y      Z        X      Y      Z        X      Y      Z
   1   6     0.00   0.00  -0.00    -0.00  -0.00   0.00     0.00  -0.00   0.00
   2   6     0.00   0.00   0.00    -0.00  -0.00   0.00     0.00  -0.00   0.00
   3   7     0.00  -0.00  -0.00     0.00   0.00   0.00     0.00   0.00  -0.00
   4   6    -0.01  -0.00   0.00     0.00   0.00  -0.00    -0.01  -0.00   0.00
   5   6    -0.13   0.15  -0.07     0.01  -0.02   0.01     0.03  -0.03   0.01
   6   6     0.04   0.10  -0.05    -0.00  -0.01   0.01    -0.03  -0.07   0.04
   7   6    -0.11  -0.01   0.01     0.02   0.00  -0.00    -0.11  -0.01   0.01
   8   6    -0.03   0.04  -0.02     0.00  -0.00   0.00     0.04  -0.05   0.02
   9   6    -0.01  -0.03   0.02     0.00   0.00  -0.00    -0.08  -0.19   0.10
  10   6     0.00  -0.00  -0.00     0.00  -0.00  -0.00    -0.00   0.00  -0.00
  11   6     0.00   0.00   0.00     0.00   0.01   0.01    -0.00  -0.00  -0.00
  12   6     0.00  -0.00  -0.00     0.05  -0.03  -0.04    -0.00   0.00   0.00
  13   6     0.00   0.00   0.00     0.01   0.00   0.00    -0.00  -0.00   0.00
  14   6    -0.00   0.00   0.00     0.00   0.01   0.00    -0.00   0.00  -0.00
  15   6     0.01   0.02   0.02     0.06   0.18   0.17    -0.00  -0.00  -0.00
  16   6     0.00  -0.00  -0.00     0.03  -0.02  -0.02     0.00  -0.00  -0.00
  17   1    -0.00  -0.00   0.01     0.00   0.00  -0.00     0.00   0.00  -0.01
  18   1    -0.01  -0.00  -0.00     0.01   0.00   0.00    -0.00  -0.00   0.00
  19   1     0.00  -0.01   0.00    -0.00  -0.00  -0.00    -0.00   0.00  -0.00
  20   1     0.46  -0.52   0.24    -0.05   0.06  -0.03    -0.10   0.11  -0.05
  21   1    -0.15  -0.34   0.18     0.02   0.04  -0.02     0.10   0.23  -0.12
  22   1     0.40   0.05  -0.05    -0.06  -0.01   0.01     0.39   0.04  -0.04
  23   1     0.11  -0.13   0.06    -0.01   0.02  -0.01    -0.14   0.16  -0.07
  24   1     0.05   0.11  -0.06    -0.00  -0.00   0.00     0.29   0.65  -0.34
  25   1    -0.00  -0.00  -0.00    -0.01  -0.05  -0.04     0.00   0.00   0.00
  26   1    -0.02   0.01   0.01    -0.18   0.12   0.13     0.00  -0.00  -0.00
  27   1    -0.00  -0.00   0.00    -0.00  -0.02   0.00     0.00   0.00  -0.00
  28   1     0.00  -0.00  -0.00     0.00  -0.00  -0.00     0.00  -0.00  -0.00
  29   1    -0.00   0.00  -0.00    -0.01   0.01  -0.02     0.00  -0.00   0.00
  30   1    -0.02  -0.08  -0.07    -0.20  -0.65  -0.60     0.00   0.00   0.00
  31   1    -0.01   0.01   0.01    -0.13   0.08   0.09    -0.00   0.00   0.00
                     85                     86                     87
                        a                      a                      a 
 Frequencies --  3085.4572              3096.9728              3100.4420
 Red. masses --     1.9153                 1.8442                 1.8493
 Frc consts  --     0.0000                 0.0000                 0.0000
 IR Inten    --    89.6954                61.0621                13.6965
 Raman Activ --     0.0000                 0.0000                 0.0000
 Depolar     --     0.0000                 0.0000                 0.0000
 Atom AN      X      Y      Z        X      Y      Z        X      Y      Z
   1   6    -0.00  -0.00  -0.00     0.00  -0.00  -0.00     0.00   0.00   0.00
   2   6     0.00  -0.00  -0.00    -0.00  -0.00  -0.00     0.00  -0.00  -0.00
   3   7    -0.00   0.00   0.00     0.00   0.00   0.00    -0.00   0.00   0.00
   4   6     0.01   0.00  -0.00    -0.00  -0.00   0.00    -0.00  -0.00   0.00
   5   6     0.04  -0.04   0.02     0.00  -0.00   0.00    -0.00   0.00  -0.00
   6   6    -0.04  -0.08   0.04    -0.00  -0.00   0.00     0.00   0.00  -0.00
   7   6    -0.20  -0.02   0.02    -0.00  -0.00   0.00     0.00   0.00  -0.00
   8   6    -0.08   0.09  -0.04    -0.00   0.00  -0.00     0.00  -0.00   0.00
   9   6     0.04   0.09  -0.05     0.00   0.00  -0.00    -0.00  -0.00   0.00
  10   6     0.00   0.00   0.00    -0.01  -0.00  -0.00     0.01   0.00   0.00
  11   6     0.00   0.00   0.00    -0.05  -0.19  -0.17     0.01   0.04   0.04
  12   6     0.00  -0.00  -0.00     0.04  -0.03  -0.03    -0.01   0.01   0.01
  13   6     0.00   0.00   0.00     0.00   0.00   0.00    -0.00   0.00   0.00
  14   6     0.00   0.00   0.00     0.00  -0.00  -0.00    -0.00  -0.00  -0.00
  15   6     0.00   0.00   0.00    -0.00  -0.01  -0.01    -0.01  -0.04  -0.04
  16   6     0.00  -0.00  -0.00     0.04  -0.02  -0.03     0.19  -0.12  -0.14
  17   1    -0.00  -0.00   0.00    -0.01  -0.00   0.01     0.00   0.00  -0.00
  18   1     0.00   0.00  -0.00    -0.01  -0.00  -0.00    -0.00  -0.00  -0.00
  19   1    -0.00   0.00  -0.00    -0.01   0.01  -0.00     0.00  -0.00   0.00
  20   1    -0.14   0.15  -0.07    -0.00   0.00  -0.00     0.01  -0.01   0.00
  21   1     0.12   0.27  -0.14     0.00   0.00  -0.00    -0.00  -0.01   0.00
  22   1     0.67   0.08  -0.08     0.01   0.00  -0.00    -0.01  -0.00   0.00
  23   1     0.25  -0.28   0.13     0.00  -0.00   0.00    -0.00   0.00  -0.00
  24   1    -0.14  -0.32   0.17    -0.00  -0.01   0.00     0.00   0.00  -0.00
  25   1    -0.00  -0.01  -0.01     0.19   0.67   0.61    -0.04  -0.13  -0.12
  26   1    -0.00   0.00   0.00    -0.14   0.09   0.10     0.03  -0.02  -0.02
  27   1    -0.00  -0.00   0.00    -0.00  -0.00  -0.00     0.00   0.00  -0.00
  28   1    -0.00   0.00   0.00    -0.01   0.00   0.01     0.00  -0.00  -0.00
  29   1    -0.00   0.00  -0.00    -0.00  -0.00  -0.00     0.00  -0.00   0.00
  30   1    -0.00  -0.01  -0.01     0.01   0.02   0.01     0.04   0.13   0.12
  31   1    -0.01   0.01   0.01    -0.14   0.08   0.10    -0.68   0.41   0.48
