31
 xtb: 6.7.1 (edcfbbe)
C           -0.55825160184664       -1.36517198764581       -1.62863694650809
C           -0.20047937298956       -0.37194169900693       -0.55504590045900
N           -1.05367781698076        0.18258657412525        0.20223792914890
C           -2.40805369720501       -0.04383789012280        0.25378659821224
C           -2.92784227025733       -1.18951239497659        0.86355569233314
C           -4.29207369901924       -1.33795613584920        1.02052791308748
C           -5.16263046458987       -0.35895859446149        0.57016723893287
C           -4.65419615008473        0.78120368773973       -0.03241430784523
C           -3.29207990633285        0.94678702491444       -0.18331275556557
C            1.20989754232962        0.00211402217678       -0.38323576310410
C            2.23805414031963       -0.61455756652385       -1.09546675741276
C            3.55318149351894       -0.23161343553247       -0.90763597433233
C            3.88838916802597        0.77572512903976       -0.01139403654069
C            5.31560344797710        1.16747963066793        0.21715263952139
C            2.86252655058880        1.38892321276063        0.70380199769889
C            1.54964867937001        1.01022039914352        0.52378327648854
H           -0.17864119994824       -1.02463535208285       -2.59625544450424
H           -1.64089418800079       -1.46736989697234       -1.69701445940578
H           -0.12447884740700       -2.33343704205978       -1.40779205398828
H           -2.24669058785584       -1.95505906840427        1.20985244897653
H           -4.67895335569327       -2.23413161828888        1.48605814978085
H           -6.22880459094150       -0.48227849862085        0.69086751147264
H           -5.32597391367893        1.55464191976893       -0.37705203961866
H           -2.89162696179180        1.83839034747399       -0.64405655800971
H            2.02161373003238       -1.39319869654604       -1.81134310573631
H            4.33274498625240       -0.72068893352991       -1.47653951361565
H            5.40364622369129        2.27173526924918        0.21309596395611
H            5.96322510826133        0.76097436241471       -0.56788702013362
H            5.66115530370596        0.80822482801078        1.19105686378844
H            3.10452471762022        2.15801503250019        1.42277337216201
H            0.75867709929251        1.48013211900376        1.08681160817774
