31
 energy: -42.687827006188 gnorm: 0.000042205282 xtb: 6.7.1 (edcfbbe)
C           -0.55974449614772       -1.35869124756689       -1.63517587451936
C           -0.20083371415908       -0.37023339103477       -0.55758522146305
N           -1.05339944271306        0.18203692943002        0.20204653571648
C           -2.40784474787073       -0.04387262326867        0.25373958480929
C           -2.92768889864358       -1.19282077041143        0.85727872790416
C           -4.29183702592785       -1.34128830294054        1.01491547808656
C           -5.16225861091648       -0.35915652998270        0.57120369209963
C           -4.65375991401548        0.78426196859528       -0.02510235988363
C           -3.29169941896383        0.94989383387369       -0.17645531015157
C            1.20984893029937        0.00199164548886       -0.38457246090163
C            2.23696477802679       -0.60870844492674       -1.10281131247162
C            3.55313238649645       -0.23023833273236       -0.91062389782801
C            3.89001692305699        0.76544506557668       -0.00293538648785
C            5.31319241903118        1.17923914131659        0.21040779332164
C            2.86436534163992        1.37453963855583        0.71704963868385
C            1.55109784090485        1.00103164611055        0.53216422515121
H           -0.17976582276376       -1.02127188085483       -2.59791108976143
H           -1.64132159655151       -1.46573469034386       -1.69844733927717
H           -0.12443391962427       -2.33173419851452       -1.41136889962200
H           -2.24667556950982       -1.95672640765941        1.20656373673567
H           -4.67890231011667       -2.23582428568006        1.48304963552406
H           -6.22868162487744       -0.48237251166198        0.69127421453924
H           -5.32582559436164        1.55622369834934       -0.37340805886048
H           -2.89148612477341        1.84002015674909       -0.64062837142726
H            2.02108296039186       -1.38959037270079       -1.81548484368404
H            4.33233810223044       -0.71933097500661       -1.47874962502665
H            5.42267621114363        2.25266956965333        0.06003969420339
H            5.97972709048536        0.66010018071699       -0.47386759518172
H            5.62056663070070        0.95543421817557        1.23199936683579
H            3.10554523844223        2.15140663778039        1.42913330035742
H            0.75930655968858        1.47597553664906        1.09081990695919
