 Entering Gaussian System
 *********************************************
 Gaussian 98:
 frequency output generated by the xtb code
 *********************************************
                         Standard orientation:
 --------------------------------------------------------------------
  Center     Atomic     Atomic              Coordinates (Angstroms)
  Number     Number      Type              X           Y           Z
 --------------------------------------------------------------------
    1          6             0       -0.286424    3.678179   -1.070774
    2          6             0       -0.572630    2.342445   -0.455552
    3          7             0       -1.574404    2.250856    0.315090
    4          6             0       -2.085576    1.105244    0.883557
    5          6             0       -2.289309    1.065293    2.265645
    6          6             0       -2.891530   -0.030858    2.849661
    7          6             0       -3.326461   -1.092108    2.070921
    8          6             0       -3.152589   -1.047654    0.697115
    9          6             0       -2.534836    0.035484    0.103949
   10          6             0        0.361583    1.237437   -0.767225
   11          6             0        0.868533    1.075016   -2.076373
   12          6             0        1.718463    0.049109   -2.372809
   13          6             0        2.125499   -0.869738   -1.381691
   14          6             0        3.002141   -1.939605   -1.656554
   15          6             0        3.372752   -2.808648   -0.668117
   16          6             0        2.883983   -2.648394    0.638956
   17          6             0        2.033680   -1.620856    0.937589
   18          6             0        1.632202   -0.706854   -0.060312
   19          6             0        0.750629    0.355547    0.214310
   20          1             0       -0.566535    3.668496   -2.123481
   21          1             0       -0.870529    4.444159   -0.568378
   22          1             0        0.774169    3.911756   -1.002098
   23          1             0       -1.948958    1.895399    2.868074
   24          1             0       -3.029054   -0.055755    3.921728
   25          1             0       -3.802778   -1.945212    2.531565
   26          1             0       -3.494895   -1.868067    0.081697
   27          1             0       -2.400301    0.072868   -0.968507
   28          1             0        0.561142    1.759282   -2.852900
   29          1             0        2.093446   -0.073656   -3.379469
   30          1             0        3.375498   -2.060576   -2.663928
   31          1             0        4.044843   -3.626566   -0.884891
   32          1             0        3.186853   -3.346132    1.406470
   33          1             0        1.651131   -1.493611    1.940693
   34          1             0        0.390276    0.478296    1.226036
 --------------------------------------------------------------------
     1 basis functions        1 primitive gaussians
     1 alpha electrons        1 beta electrons

 Harmonic frequencies (cm**-1), IR intensities (km*mol⁻¹),
 Raman scattering activities (A**4/amu), Raman depolarization ratios,
 reduced masses (AMU), force constants (mDyne/A) and normal coordinates:
                      1                      2                      3
                        a                      a                      a 
 Frequencies --    23.3956                29.9035                48.8340
 Red. masses --    10.1871                10.7410                 9.8234
 Frc consts  --     0.0000                 0.0000                 0.0000
 IR Inten    --     0.1441                 0.0287                 0.2734
 Raman Activ --     0.0000                 0.0000                 0.0000
 Depolar     --     0.0000                 0.0000                 0.0000
 Atom AN      X      Y      Z        X      Y      Z        X      Y      Z
   1   6    -0.12  -0.08  -0.13    -0.13   0.08  -0.10    -0.01  -0.00   0.02
   2   6    -0.04  -0.08  -0.07    -0.04   0.08  -0.06     0.02  -0.01   0.03
   3   7    -0.03  -0.08  -0.06    -0.06   0.03  -0.10     0.01  -0.01   0.02
   4   6    -0.04  -0.02   0.03     0.05  -0.01  -0.06    -0.00  -0.00   0.03
   5   6     0.03   0.06   0.04     0.10  -0.02  -0.05    -0.38   0.21  -0.02
   6   6    -0.01   0.12   0.12     0.26  -0.09  -0.02    -0.40   0.23   0.01
   7   6    -0.11   0.11   0.20     0.37  -0.16   0.01    -0.04   0.04   0.07
   8   6    -0.17   0.03   0.19     0.31  -0.15  -0.00     0.33  -0.17   0.11
   9   6    -0.14  -0.04   0.10     0.15  -0.07  -0.03     0.35  -0.19   0.09
  10   6     0.01  -0.04  -0.05     0.03   0.12  -0.00     0.04   0.01   0.03
  11   6     0.23   0.13   0.02     0.12   0.14   0.03     0.02   0.04   0.02
  12   6     0.32   0.20   0.03     0.09   0.11   0.06     0.01   0.04  -0.01
  13   6     0.18   0.09  -0.01    -0.04   0.05   0.06     0.01   0.01  -0.04
  14   6     0.27   0.15   0.01    -0.13  -0.03   0.08    -0.03  -0.01  -0.08
  15   6     0.12   0.04  -0.03    -0.28  -0.10   0.07    -0.03  -0.05  -0.12
  16   6    -0.12  -0.14  -0.10    -0.34  -0.10   0.05    -0.00  -0.06  -0.10
  17   6    -0.20  -0.21  -0.12    -0.25  -0.02   0.03     0.04  -0.04  -0.06
  18   6    -0.05  -0.09  -0.07    -0.11   0.05   0.04     0.04  -0.01  -0.03
  19   6    -0.12  -0.15  -0.09    -0.05   0.10   0.01     0.06  -0.00   0.01
  20   1    -0.07  -0.03  -0.03    -0.04   0.01  -0.03    -0.01  -0.00   0.01
  21   1    -0.03  -0.02  -0.02    -0.05   0.02  -0.04    -0.00  -0.00   0.01
  22   1    -0.04  -0.02  -0.07    -0.04   0.05  -0.03    -0.00   0.00  -0.00
  23   1     0.03   0.02  -0.01     0.00   0.01  -0.02    -0.19   0.10  -0.02
  24   1     0.01   0.05   0.04     0.09  -0.03  -0.00    -0.21   0.12  -0.01
  25   1    -0.04   0.05   0.08     0.15  -0.06   0.01    -0.02   0.02   0.02
  26   1    -0.07   0.00   0.07     0.11  -0.06   0.01     0.18  -0.09   0.04
  27   1    -0.05  -0.03   0.03     0.03  -0.02  -0.01     0.18  -0.10   0.03
  28   1     0.10   0.06   0.01     0.06   0.05   0.01     0.00   0.02   0.01
  29   1     0.14   0.10   0.02     0.05   0.04   0.03    -0.00   0.02  -0.01
  30   1     0.13   0.08   0.02    -0.02  -0.01   0.03    -0.02   0.00  -0.03
  31   1     0.05   0.03  -0.01    -0.10  -0.05   0.03    -0.02  -0.02  -0.04
  32   1    -0.07  -0.07  -0.04    -0.13  -0.04   0.01    -0.00  -0.03  -0.04
  33   1    -0.11  -0.10  -0.05    -0.09  -0.00   0.00     0.02  -0.02  -0.01
  34   1    -0.08  -0.08  -0.04    -0.03   0.03  -0.00     0.02  -0.01   0.01
                      4                      5                      6
                        a                      a                      a 
 Frequencies --    82.4663                98.3551               127.6295
 Red. masses --    10.3285                 8.7031                 7.1583
 Frc consts  --     0.0000                 0.0000                 0.0000
 IR Inten    --     0.5865                 1.5589                 0.1292
 Raman Activ --     0.0000                 0.0000                 0.0000
 Depolar     --     0.0000                 0.0000                 0.0000
 Atom AN      X      Y      Z        X      Y      Z        X      Y      Z
   1   6     0.27  -0.01   0.13     0.24   0.11   0.34    -0.06   0.08   0.10
   2   6    -0.02   0.01   0.02    -0.00   0.01  -0.01     0.02   0.01  -0.05
   3   7    -0.03   0.16   0.03    -0.20  -0.10  -0.29     0.19  -0.07   0.17
   4   6    -0.07   0.14  -0.01    -0.17  -0.08  -0.22     0.19  -0.09   0.12
   5   6    -0.08   0.12  -0.02    -0.02   0.08  -0.19     0.10  -0.11   0.11
   6   6     0.09   0.03  -0.02     0.10   0.12   0.02    -0.09  -0.04   0.04
   7   6     0.27  -0.04  -0.02     0.06   0.01   0.19    -0.17   0.03  -0.02
   8   6     0.22  -0.00  -0.03    -0.10  -0.13   0.16     0.00   0.01   0.01
   9   6     0.04   0.10  -0.03    -0.22  -0.17  -0.05     0.19  -0.06   0.08
  10   6    -0.19  -0.13  -0.03     0.05   0.03   0.02    -0.01   0.03  -0.21
  11   6    -0.18  -0.12  -0.03     0.04   0.03   0.01    -0.03  -0.06  -0.20
  12   6    -0.12  -0.08  -0.02     0.02   0.02  -0.00     0.01  -0.06  -0.12
  13   6    -0.07  -0.04  -0.01     0.01   0.01  -0.01     0.02   0.00  -0.06
  14   6     0.17   0.14   0.06    -0.04  -0.03  -0.03     0.08   0.02   0.07
  15   6     0.24   0.19   0.07    -0.04  -0.04  -0.04     0.00   0.06   0.14
  16   6     0.02   0.02   0.01     0.03   0.00  -0.02    -0.15   0.06   0.08
  17   6    -0.21  -0.16  -0.05     0.07   0.04   0.00    -0.18   0.07  -0.03
  18   6    -0.22  -0.15  -0.05     0.05   0.03   0.01    -0.06   0.04  -0.10
  19   6    -0.26  -0.19  -0.06     0.05   0.03   0.01    -0.02   0.08  -0.17
  20   1     0.11   0.03   0.03     0.33   0.06   0.03     0.33  -0.04  -0.06
  21   1     0.10   0.02   0.03    -0.08  -0.01  -0.01    -0.28  -0.05  -0.16
  22   1     0.09  -0.06   0.08     0.04   0.07   0.36    -0.07   0.18   0.36
  23   1    -0.05   0.05  -0.01     0.00   0.05  -0.10     0.04  -0.05   0.04
  24   1     0.03  -0.00  -0.01     0.07   0.07   0.01    -0.06  -0.01   0.01
  25   1     0.12  -0.04  -0.01     0.05   0.01   0.10    -0.10   0.03  -0.02
  26   1     0.10  -0.01  -0.01    -0.04  -0.06   0.09    -0.01   0.01  -0.01
  27   1     0.01   0.04  -0.01    -0.10  -0.09  -0.02     0.08  -0.02   0.03
  28   1    -0.06  -0.04  -0.01     0.01   0.01   0.00    -0.01  -0.04  -0.08
  29   1    -0.02  -0.01  -0.00    -0.00   0.00  -0.00     0.01  -0.03  -0.03
  30   1     0.09   0.07   0.03    -0.03  -0.01  -0.01     0.06  -0.00   0.03
  31   1     0.13   0.10   0.04    -0.03  -0.02  -0.02     0.02   0.02   0.07
  32   1     0.01   0.01   0.00     0.01   0.00  -0.01    -0.07   0.02   0.04
  33   1    -0.11  -0.08  -0.03     0.03   0.02   0.00    -0.09   0.03  -0.02
  34   1    -0.09  -0.07  -0.02     0.01   0.01   0.00    -0.00   0.04  -0.05
                      7                      8                      9
                        a                      a                      a 
 Frequencies --   151.5590               164.4252               182.5946
 Red. masses --     6.5091                 9.4756                10.3857
 Frc consts  --     0.0000                 0.0000                 0.0000
 IR Inten    --     0.7652                 0.7446                 1.3946
 Raman Activ --     0.0000                 0.0000                 0.0000
 Depolar     --     0.0000                 0.0000                 0.0000
 Atom AN      X      Y      Z        X      Y      Z        X      Y      Z
   1   6    -0.14  -0.14  -0.26    -0.10   0.03  -0.03    -0.15   0.12  -0.08
   2   6    -0.07  -0.02   0.01     0.01   0.01   0.00     0.11   0.13   0.05
   3   7    -0.09   0.13   0.01     0.03   0.01   0.02    -0.02  -0.06  -0.17
   4   6    -0.09   0.15   0.06     0.01   0.03   0.03     0.15  -0.11  -0.12
   5   6    -0.09   0.08   0.05    -0.01   0.01   0.02     0.22  -0.05  -0.11
   6   6     0.02  -0.02  -0.02    -0.01  -0.01   0.00     0.05   0.09  -0.06
   7   6     0.12  -0.02  -0.08     0.03  -0.01  -0.02    -0.14   0.13  -0.01
   8   6     0.05   0.10  -0.08     0.03   0.02  -0.02    -0.02  -0.03   0.00
   9   6    -0.06   0.19  -0.01     0.01   0.04   0.01     0.15  -0.16  -0.06
  10   6    -0.02  -0.05   0.16     0.02   0.02   0.00     0.18   0.15   0.22
  11   6    -0.07  -0.05   0.14     0.33   0.23   0.10    -0.05   0.03   0.15
  12   6    -0.00   0.02   0.11     0.09   0.05   0.03    -0.27  -0.11   0.06
  13   6     0.07   0.03   0.07    -0.20  -0.17  -0.06    -0.20  -0.08   0.04
  14   6     0.05   0.04  -0.04    -0.26  -0.22  -0.07    -0.02   0.09  -0.01
  15   6     0.02  -0.08  -0.14     0.05   0.02   0.02     0.22   0.17  -0.03
  16   6     0.05  -0.15  -0.12     0.31   0.22   0.09     0.05  -0.06  -0.06
  17   6     0.12  -0.12  -0.00     0.06   0.03   0.01    -0.15  -0.23  -0.02
  18   6     0.10  -0.02   0.09    -0.21  -0.17  -0.07    -0.13  -0.11   0.08
  19   6     0.07  -0.03   0.15    -0.26  -0.21  -0.08     0.07   0.04   0.18
  20   1     0.30  -0.21  -0.16     0.07  -0.03  -0.03    -0.05  -0.01  -0.02
  21   1    -0.31  -0.07  -0.34    -0.12  -0.02  -0.07    -0.09   0.01  -0.04
  22   1    -0.10   0.13   0.23    -0.05   0.08   0.08    -0.06   0.10  -0.04
  23   1    -0.04   0.02   0.03    -0.01   0.00   0.01     0.09  -0.01  -0.05
  24   1     0.01  -0.03  -0.00    -0.01  -0.01  -0.00     0.01   0.05  -0.02
  25   1     0.07  -0.03  -0.03     0.01  -0.01  -0.01    -0.10   0.08   0.01
  26   1     0.03   0.03  -0.04     0.01   0.01  -0.01    -0.03  -0.01   0.02
  27   1    -0.03   0.08  -0.00     0.01   0.02   0.00     0.06  -0.07  -0.02
  28   1    -0.04  -0.03   0.04     0.20   0.14   0.05    -0.02   0.02   0.05
  29   1    -0.01   0.01   0.03     0.07   0.05   0.02    -0.12  -0.06   0.00
  30   1     0.00   0.04  -0.02    -0.12  -0.10  -0.03     0.00   0.06  -0.00
  31   1    -0.01  -0.03  -0.06     0.04   0.02   0.01     0.14   0.11  -0.01
  32   1     0.00  -0.07  -0.05     0.19   0.14   0.06     0.03  -0.02  -0.03
  33   1     0.05  -0.06   0.01     0.05   0.03   0.01    -0.07  -0.12  -0.01
  34   1     0.03  -0.02   0.05    -0.12  -0.10  -0.04     0.05   0.02   0.06
                     10                     11                     12
                        a                      a                      a 
 Frequencies --   233.2552               278.2005               342.6796
 Red. masses --     9.8471                 9.6660                10.3372
 Frc consts  --     0.0000                 0.0000                 0.0000
 IR Inten    --     0.4980                 1.0829                 2.3106
 Raman Activ --     0.0000                 0.0000                 0.0000
 Depolar     --     0.0000                 0.0000                 0.0000
 Atom AN      X      Y      Z        X      Y      Z        X      Y      Z
   1   6    -0.32   0.20   0.15     0.38  -0.21  -0.30    -0.02   0.03  -0.05
   2   6     0.10   0.06   0.06     0.13   0.00   0.04     0.24   0.01   0.02
   3   7     0.10  -0.04   0.05     0.11  -0.06   0.02     0.35  -0.14   0.11
   4   6    -0.13   0.08   0.03    -0.03  -0.03   0.05     0.13  -0.11  -0.08
   5   6    -0.27   0.12   0.01    -0.17  -0.07   0.04    -0.09   0.03  -0.10
   6   6    -0.04  -0.01   0.02    -0.11  -0.13   0.05    -0.05   0.07  -0.03
   7   6     0.21  -0.12   0.03     0.02  -0.21   0.09     0.14  -0.07   0.05
   8   6    -0.05   0.04  -0.00    -0.09  -0.08   0.08    -0.08  -0.01   0.02
   9   6    -0.26   0.15  -0.01    -0.17  -0.02   0.09    -0.12  -0.02  -0.07
  10   6     0.22   0.14  -0.04     0.19   0.11   0.03     0.10  -0.01  -0.04
  11   6     0.11  -0.04  -0.07     0.10   0.14  -0.00     0.05   0.05  -0.04
  12   6    -0.05  -0.19  -0.10    -0.07   0.03  -0.07    -0.19  -0.13  -0.02
  13   6     0.01  -0.16  -0.09    -0.15   0.01  -0.06    -0.07   0.10   0.12
  14   6     0.11  -0.13   0.02    -0.13   0.04  -0.04     0.11   0.29   0.06
  15   6     0.17  -0.02   0.10     0.04   0.19   0.04    -0.18  -0.00  -0.11
  16   6    -0.02  -0.07   0.04    -0.07   0.10   0.01    -0.08  -0.05  -0.06
  17   6    -0.08  -0.09  -0.07    -0.19   0.01  -0.03     0.21   0.13   0.15
  18   6     0.06  -0.05  -0.09    -0.04   0.05  -0.03    -0.07   0.00   0.14
  19   6     0.22   0.09  -0.07     0.17   0.17   0.05    -0.30  -0.18  -0.02
  20   1    -0.16   0.07   0.06     0.15  -0.16  -0.10    -0.02  -0.04  -0.01
  21   1    -0.13  -0.01   0.10     0.14   0.03  -0.20    -0.06  -0.02  -0.03
  22   1    -0.11   0.14  -0.02     0.12  -0.12  -0.07    -0.02   0.08  -0.03
  23   1    -0.11   0.05   0.00    -0.07  -0.02   0.03    -0.05   0.03  -0.05
  24   1    -0.01  -0.01   0.01    -0.03  -0.03   0.01    -0.04   0.05  -0.01
  25   1     0.15  -0.08   0.01     0.05  -0.08   0.03     0.09  -0.04   0.03
  26   1    -0.01   0.01  -0.00    -0.03  -0.01   0.01    -0.05   0.00   0.02
  27   1    -0.11   0.07  -0.01    -0.07  -0.01   0.02    -0.08  -0.01  -0.02
  28   1     0.04  -0.01  -0.03     0.03   0.05   0.01     0.03   0.03  -0.00
  29   1    -0.05  -0.08  -0.04    -0.04  -0.01  -0.02    -0.09  -0.11  -0.01
  30   1     0.05  -0.05   0.01    -0.04  -0.00  -0.01     0.08   0.15   0.03
  31   1     0.09   0.02   0.06     0.06   0.09   0.03    -0.09  -0.02  -0.06
  32   1    -0.03  -0.02   0.02    -0.02   0.03   0.00    -0.03  -0.05  -0.04
  33   1    -0.06  -0.03  -0.03    -0.09  -0.01  -0.02     0.14   0.07   0.07
  34   1     0.08   0.04  -0.02     0.06   0.07   0.02    -0.17  -0.07  -0.03
                     13                     14                     15
                        a                      a                      a 
 Frequencies --   353.6683               370.5335               378.4034
 Red. masses --    10.0080                 9.1630                10.1889
 Frc consts  --     0.0000                 0.0000                 0.0000
 IR Inten    --     0.9154                 0.8942                 0.6201
 Raman Activ --     0.0000                 0.0000                 0.0000
 Depolar     --     0.0000                 0.0000                 0.0000
 Atom AN      X      Y      Z        X      Y      Z        X      Y      Z
   1   6     0.05  -0.01  -0.06     0.02   0.07  -0.01    -0.09  -0.17   0.04
   2   6    -0.02   0.10   0.15    -0.03   0.04  -0.08     0.16  -0.08   0.25
   3   7    -0.23   0.11  -0.09    -0.03   0.03  -0.07     0.14  -0.10   0.18
   4   6    -0.09   0.07   0.02    -0.01   0.04   0.02     0.05  -0.14  -0.12
   5   6     0.07  -0.06   0.04     0.36  -0.21   0.08     0.12   0.03  -0.13
   6   6     0.01  -0.05   0.01    -0.38   0.13  -0.03    -0.06   0.21  -0.05
   7   6    -0.11   0.01  -0.00    -0.04  -0.04   0.01     0.13   0.11  -0.02
   8   6     0.06  -0.04   0.02     0.36  -0.19   0.06     0.07  -0.03  -0.03
   9   6     0.04  -0.01   0.05    -0.36   0.20   0.01    -0.15   0.00  -0.19
  10   6     0.06   0.11   0.19     0.00   0.03  -0.05    -0.01  -0.12   0.18
  11   6     0.10   0.14   0.19     0.04  -0.01  -0.04    -0.23  -0.06   0.10
  12   6    -0.26  -0.10  -0.14     0.01  -0.05   0.03     0.06   0.23  -0.07
  13   6     0.07  -0.10  -0.25    -0.02  -0.02   0.06     0.12   0.11  -0.18
  14   6     0.29  -0.03   0.03    -0.00   0.01   0.01    -0.05  -0.06  -0.04
  15   6    -0.04  -0.10   0.14     0.03  -0.02  -0.04    -0.12   0.05   0.11
  16   6    -0.18  -0.04   0.08     0.02  -0.04  -0.04     0.00   0.16   0.15
  17   6     0.13   0.23  -0.07     0.03  -0.03   0.02    -0.15   0.05  -0.07
  18   6     0.11   0.00  -0.25    -0.01   0.01   0.06     0.02  -0.05  -0.19
  19   6    -0.07  -0.20  -0.07    -0.02   0.04  -0.02     0.08  -0.13   0.08
  20   1     0.02  -0.06  -0.02     0.01   0.05  -0.00    -0.05  -0.15   0.02
  21   1     0.03   0.04  -0.07     0.02   0.02   0.01    -0.08  -0.06  -0.04
  22   1     0.02  -0.02  -0.03     0.01   0.00   0.00    -0.04   0.04  -0.03
  23   1     0.04  -0.04   0.03     0.22  -0.13   0.05     0.06   0.03  -0.08
  24   1     0.01  -0.02   0.00    -0.23   0.09  -0.02    -0.06   0.10  -0.02
  25   1    -0.06   0.02  -0.01    -0.01  -0.01  -0.00     0.06   0.03   0.02
  26   1     0.05  -0.02  -0.00     0.24  -0.11   0.02     0.02  -0.04   0.03
  27   1     0.03  -0.01   0.02    -0.21   0.11  -0.01    -0.10   0.02  -0.06
  28   1     0.06   0.08   0.08     0.03  -0.01  -0.02    -0.14  -0.02   0.05
  29   1    -0.18  -0.02  -0.08     0.01  -0.03   0.01     0.01   0.13  -0.03
  30   1     0.18  -0.02   0.05    -0.01   0.02  -0.00    -0.02  -0.09  -0.00
  31   1    -0.02  -0.05   0.07     0.01  -0.00  -0.02    -0.06  -0.01   0.05
  32   1    -0.11  -0.02   0.04     0.01  -0.02  -0.02     0.02   0.08   0.06
  33   1     0.06   0.16  -0.02     0.02  -0.02   0.01    -0.10   0.05  -0.05
  34   1    -0.05  -0.17  -0.01    -0.01   0.02  -0.01     0.07  -0.06   0.04
                     16                     17                     18
                        a                      a                      a 
 Frequencies --   404.3859               447.2105               459.4698
 Red. masses --    10.5257                 8.9112                10.9587
 Frc consts  --     0.0000                 0.0000                 0.0000
 IR Inten    --     0.4542                 1.8186                 5.5687
 Raman Activ --     0.0000                 0.0000                 0.0000
 Depolar     --     0.0000                 0.0000                 0.0000
 Atom AN      X      Y      Z        X      Y      Z        X      Y      Z
   1   6     0.08   0.33  -0.19     0.00   0.00  -0.02     0.01  -0.01  -0.05
   2   6     0.12   0.37   0.08    -0.04   0.06   0.06    -0.11   0.11   0.15
   3   7     0.06   0.19   0.01     0.03   0.08   0.18     0.08   0.20   0.45
   4   6     0.05   0.04  -0.08    -0.00  -0.04  -0.08    -0.10  -0.06  -0.19
   5   6    -0.08  -0.11  -0.08     0.00  -0.03  -0.09     0.01  -0.06  -0.19
   6   6    -0.04  -0.12  -0.01     0.01   0.03  -0.00     0.06   0.05   0.01
   7   6    -0.09  -0.18   0.12     0.01   0.01   0.03    -0.04   0.07   0.06
   8   6    -0.09  -0.07   0.13    -0.01  -0.02   0.02     0.02  -0.06   0.05
   9   6    -0.03  -0.08   0.09    -0.03  -0.05  -0.07    -0.04  -0.12  -0.18
  10   6    -0.02   0.16   0.04    -0.18  -0.05  -0.04    -0.23   0.03  -0.10
  11   6    -0.23  -0.16  -0.00    -0.04  -0.03   0.01     0.12   0.10   0.01
  12   6     0.12   0.07   0.10     0.16   0.11   0.08    -0.08  -0.10   0.07
  13   6     0.22   0.04   0.04    -0.35  -0.31  -0.10     0.06  -0.04   0.07
  14   6     0.09  -0.09   0.02     0.17   0.06   0.05    -0.09  -0.18  -0.01
  15   6    -0.05  -0.22  -0.03     0.02  -0.06  -0.01     0.25   0.01   0.02
  16   6     0.20   0.06   0.03    -0.12  -0.11  -0.06    -0.05  -0.11  -0.08
  17   6    -0.03  -0.07  -0.08     0.21   0.15   0.02     0.02  -0.03  -0.04
  18   6    -0.13  -0.10  -0.07    -0.27  -0.18  -0.09     0.24   0.24   0.09
  19   6    -0.11  -0.03  -0.07     0.18   0.18   0.03    -0.10   0.06  -0.11
  20   1     0.01   0.00  -0.05     0.00  -0.04  -0.01     0.01  -0.10  -0.01
  21   1     0.02   0.13  -0.11     0.00   0.02  -0.04     0.01   0.05  -0.09
  22   1     0.02   0.11  -0.09     0.00  -0.00  -0.01     0.01  -0.02  -0.03
  23   1    -0.04  -0.04  -0.00     0.00   0.01  -0.04     0.03  -0.00  -0.10
  24   1     0.01  -0.00   0.00     0.00   0.03  -0.00     0.05   0.04   0.01
  25   1    -0.02  -0.05   0.04     0.00   0.01   0.02    -0.02   0.03   0.03
  26   1    -0.03  -0.01   0.02    -0.01  -0.01   0.02     0.01  -0.05   0.05
  27   1    -0.03  -0.07   0.02    -0.03  -0.03  -0.02    -0.02  -0.08  -0.05
  28   1    -0.12  -0.11  -0.04     0.07   0.04   0.01     0.10   0.03  -0.02
  29   1     0.04   0.04   0.03     0.20   0.15   0.07    -0.05  -0.06   0.01
  30   1     0.00  -0.04  -0.00     0.20   0.13   0.05    -0.10  -0.08  -0.03
  31   1    -0.08  -0.11  -0.02     0.08   0.04   0.02     0.10   0.02   0.02
  32   1     0.10   0.07   0.04    -0.01  -0.00   0.00    -0.11  -0.08  -0.03
  33   1    -0.00  -0.03  -0.02     0.21   0.14   0.05    -0.06  -0.09  -0.03
  34   1    -0.01  -0.02  -0.01     0.20   0.16   0.05    -0.08  -0.02  -0.05
                     19                     20                     21
                        a                      a                      a 
 Frequencies --   478.4271               498.6145               513.3572
 Red. masses --     9.8427                11.2306                10.4913
 Frc consts  --     0.0000                 0.0000                 0.0000
 IR Inten    --     2.8494                 0.0221                 0.7215
 Raman Activ --     0.0000                 0.0000                 0.0000
 Depolar     --     0.0000                 0.0000                 0.0000
 Atom AN      X      Y      Z        X      Y      Z        X      Y      Z
   1   6     0.04   0.12  -0.05     0.02   0.03  -0.04    -0.04   0.16  -0.03
   2   6    -0.20   0.05  -0.24    -0.04   0.03  -0.02     0.19  -0.02  -0.19
   3   7    -0.03  -0.07  -0.05    -0.05   0.01  -0.03     0.23   0.16  -0.13
   4   6     0.44  -0.22   0.07     0.10  -0.04   0.02    -0.00   0.22  -0.09
   5   6     0.03  -0.00   0.02     0.01  -0.00   0.01    -0.05  -0.06  -0.10
   6   6    -0.20   0.10  -0.02    -0.05   0.02  -0.01     0.02  -0.13  -0.08
   7   6     0.28  -0.13   0.01     0.06  -0.03   0.00    -0.18  -0.16   0.09
   8   6    -0.19   0.11  -0.04    -0.05   0.03  -0.01     0.03  -0.03   0.13
   9   6     0.03   0.00   0.01     0.01  -0.00   0.01    -0.01   0.03   0.15
  10   6    -0.18  -0.02   0.12    -0.04   0.03  -0.10    -0.09  -0.29   0.07
  11   6    -0.01  -0.02   0.22    -0.19   0.33  -0.19    -0.06  -0.09   0.08
  12   6    -0.03   0.00   0.07    -0.18   0.29  -0.09     0.09   0.11  -0.09
  13   6     0.04  -0.08  -0.05    -0.11   0.15  -0.10    -0.10   0.00  -0.11
  14   6     0.02  -0.14  -0.04    -0.12   0.03   0.23    -0.18  -0.03  -0.08
  15   6     0.14  -0.03   0.03     0.02  -0.04   0.18     0.08   0.25   0.08
  16   6    -0.08  -0.00  -0.06     0.16  -0.37   0.26    -0.19  -0.11   0.02
  17   6     0.01   0.08  -0.10     0.20  -0.25   0.05     0.09   0.09   0.08
  18   6     0.07   0.13  -0.06     0.14  -0.14   0.02     0.19   0.05   0.01
  19   6    -0.07   0.00   0.10     0.11  -0.08  -0.19    -0.01  -0.19   0.14
  20   1     0.06   0.14  -0.03     0.02   0.02  -0.01    -0.03   0.12  -0.00
  21   1     0.06   0.04   0.03     0.01   0.02  -0.02    -0.08  -0.06   0.07
  22   1     0.03  -0.05   0.05     0.01  -0.01   0.01    -0.04   0.15  -0.00
  23   1    -0.11   0.06  -0.01    -0.03   0.01  -0.00     0.00  -0.06   0.02
  24   1    -0.19   0.09  -0.02    -0.05   0.02  -0.01     0.06  -0.01  -0.02
  25   1     0.11  -0.05   0.00     0.02  -0.01   0.00    -0.05  -0.05   0.03
  26   1    -0.19   0.10  -0.03    -0.05   0.02  -0.01     0.06  -0.00  -0.00
  27   1    -0.10   0.07  -0.01    -0.02   0.01  -0.00     0.01  -0.05   0.04
  28   1     0.02   0.01   0.07    -0.06   0.11  -0.04    -0.01   0.04   0.08
  29   1    -0.03   0.05   0.01    -0.04   0.08  -0.02     0.07   0.09  -0.01
  30   1    -0.01  -0.06  -0.01    -0.01  -0.04   0.08    -0.06  -0.05  -0.02
  31   1     0.06  -0.00   0.04     0.02   0.02  -0.04     0.08   0.11   0.03
  32   1    -0.08  -0.01  -0.00     0.04  -0.12   0.06    -0.12  -0.10  -0.03
  33   1    -0.02   0.01  -0.04     0.03  -0.04   0.00    -0.01   0.03   0.00
  34   1     0.00  -0.04   0.04     0.02   0.00  -0.06     0.02  -0.06   0.05
                     22                     23                     24
                        a                      a                      a 
 Frequencies --   560.9108               576.9975               590.5556
 Red. masses --    10.5764                11.2084                11.1956
 Frc consts  --     0.0000                 0.0000                 0.0000
 IR Inten    --     1.2218                 6.5043                 0.4049
 Raman Activ --     0.0000                 0.0000                 0.0000
 Depolar     --     0.0000                 0.0000                 0.0000
 Atom AN      X      Y      Z        X      Y      Z        X      Y      Z
   1   6     0.02  -0.01   0.03     0.04   0.04  -0.04    -0.02  -0.01   0.01
   2   6     0.20   0.13   0.39     0.07   0.01  -0.04    -0.04  -0.01  -0.02
   3   7    -0.24  -0.08  -0.21     0.15  -0.26  -0.00     0.06   0.12   0.13
   4   6     0.04  -0.06   0.12    -0.10  -0.02   0.11     0.05   0.09   0.08
   5   6     0.09   0.10   0.13    -0.02   0.21   0.14     0.16   0.32   0.03
   6   6    -0.04   0.06  -0.06     0.14   0.02  -0.08     0.10   0.12  -0.45
   7   6     0.11  -0.00  -0.08    -0.07   0.12  -0.13    -0.03  -0.12  -0.11
   8   6    -0.09  -0.05  -0.09     0.03  -0.20  -0.11    -0.18  -0.38  -0.10
   9   6     0.03  -0.03   0.10    -0.13  -0.03   0.08    -0.10  -0.13   0.36
  10   6     0.04   0.08  -0.09     0.05   0.07   0.06    -0.13  -0.07  -0.04
  11   6    -0.12  -0.10  -0.15    -0.08  -0.07   0.02     0.06   0.09   0.04
  12   6     0.16   0.04   0.13     0.07   0.09  -0.08    -0.11  -0.05   0.05
  13   6    -0.01  -0.09   0.06    -0.07   0.08  -0.00     0.03  -0.04  -0.00
  14   6    -0.12  -0.11  -0.15    -0.12  -0.09   0.27     0.11   0.04  -0.07
  15   6     0.15   0.19  -0.00     0.24  -0.19   0.08    -0.11  -0.01  -0.03
  16   6    -0.21  -0.06  -0.09     0.00  -0.15  -0.07     0.06   0.09   0.03
  17   6     0.10   0.12   0.18     0.14   0.08  -0.34    -0.09  -0.06   0.07
  18   6     0.08  -0.01   0.07    -0.14   0.21  -0.06     0.06  -0.05   0.02
  19   6    -0.10  -0.11  -0.21    -0.24   0.10   0.17     0.12   0.02  -0.04
  20   1    -0.04  -0.18   0.02     0.01   0.01  -0.01    -0.00   0.00   0.00
  21   1    -0.01   0.05  -0.09     0.02   0.02  -0.02    -0.01  -0.01   0.01
  22   1    -0.00   0.05  -0.08     0.01   0.00  -0.01    -0.01  -0.00   0.01
  23   1    -0.02   0.04   0.04     0.05   0.03   0.05     0.02   0.06   0.05
  24   1    -0.07  -0.00  -0.02     0.08  -0.07  -0.02     0.01   0.01  -0.13
  25   1     0.03   0.01   0.00     0.00   0.05   0.01     0.00   0.03   0.10
  26   1    -0.06   0.01  -0.04     0.07  -0.09  -0.02    -0.04  -0.07  -0.08
  27   1     0.00   0.05   0.03     0.04   0.02   0.03    -0.03  -0.00   0.10
  28   1    -0.02  -0.06  -0.08    -0.07  -0.02   0.02     0.06   0.05   0.01
  29   1     0.10   0.01   0.06     0.02   0.04  -0.03    -0.03  -0.01   0.01
  30   1    -0.06  -0.03  -0.05    -0.05  -0.01   0.07     0.03   0.00  -0.02
  31   1     0.09   0.08   0.04     0.09  -0.02  -0.02    -0.06  -0.03   0.00
  32   1    -0.10  -0.08  -0.06    -0.08  -0.00   0.05     0.04   0.02  -0.00
  33   1     0.03   0.02   0.05     0.06   0.01  -0.09    -0.04  -0.02   0.02
  34   1    -0.04  -0.02  -0.07    -0.08   0.02   0.05     0.05   0.01  -0.01
                     25                     26                     27
                        a                      a                      a 
 Frequencies --   600.5575               652.1629               656.6180
 Red. masses --    10.9474                10.1194                10.9392
 Frc consts  --     0.0000                 0.0000                 0.0000
 IR Inten    --     2.7312                 3.2077                 4.6625
 Raman Activ --     0.0000                 0.0000                 0.0000
 Depolar     --     0.0000                 0.0000                 0.0000
 Atom AN      X      Y      Z        X      Y      Z        X      Y      Z
   1   6    -0.06  -0.19   0.14     0.05   0.12  -0.04    -0.04  -0.29   0.12
   2   6     0.15  -0.06   0.25     0.25   0.10   0.17     0.12  -0.20  -0.05
   3   7    -0.18   0.28  -0.12    -0.03  -0.19  -0.25     0.11  -0.00  -0.13
   4   6     0.08   0.12  -0.07     0.15  -0.12   0.06     0.16   0.11  -0.07
   5   6     0.14  -0.09  -0.11    -0.15   0.04   0.07    -0.05  -0.01  -0.15
   6   6    -0.14   0.03  -0.12     0.11  -0.10   0.14     0.05  -0.07  -0.12
   7   6     0.09  -0.20   0.08    -0.10   0.11  -0.03    -0.13  -0.11   0.08
   8   6    -0.13   0.11   0.08     0.16  -0.01  -0.01     0.10   0.10   0.12
   9   6     0.15  -0.01   0.11    -0.11   0.09  -0.04    -0.00   0.13   0.08
  10   6    -0.04  -0.14  -0.05    -0.39  -0.29  -0.12     0.05   0.11  -0.04
  11   6     0.16  -0.06  -0.08     0.03   0.10   0.03    -0.21   0.26  -0.03
  12   6     0.06  -0.10  -0.24    -0.16  -0.06   0.04    -0.18   0.16   0.37
  13   6    -0.08   0.11   0.02    -0.06  -0.06  -0.00     0.06  -0.08   0.10
  14   6    -0.06   0.09   0.24     0.14   0.06   0.04     0.10  -0.18  -0.01
  15   6     0.03  -0.13   0.01    -0.05  -0.10  -0.03     0.18  -0.19  -0.02
  16   6     0.10  -0.02  -0.02     0.11   0.11   0.01    -0.08   0.09  -0.13
  17   6     0.01  -0.01  -0.24    -0.10  -0.04  -0.05    -0.03   0.11  -0.04
  18   6    -0.09   0.16  -0.01     0.14   0.13   0.04    -0.08   0.03  -0.01
  19   6    -0.07   0.12   0.15     0.04   0.05  -0.00    -0.03   0.06  -0.13
  20   1    -0.07  -0.15   0.05    -0.03  -0.07   0.00    -0.03  -0.03   0.04
  21   1    -0.07  -0.08   0.01    -0.03   0.02  -0.05    -0.05  -0.15   0.09
  22   1    -0.04   0.04  -0.03    -0.00   0.13  -0.07    -0.03  -0.03   0.04
  23   1    -0.03  -0.02  -0.00    -0.08   0.03   0.01    -0.04  -0.02  -0.01
  24   1    -0.09   0.08  -0.04     0.00  -0.04   0.03     0.04   0.04  -0.03
  25   1     0.01  -0.05   0.02    -0.06   0.03  -0.04    -0.05  -0.03   0.01
  26   1    -0.09   0.09  -0.02     0.03  -0.00   0.00     0.04   0.06  -0.01
  27   1    -0.03  -0.01   0.02    -0.05   0.06  -0.01    -0.04   0.01   0.02
  28   1     0.07   0.02   0.00     0.18   0.15   0.05    -0.08   0.02  -0.05
  29   1     0.04  -0.04  -0.05     0.08   0.08   0.04    -0.08   0.03   0.09
  30   1    -0.04   0.04   0.06    -0.02  -0.02  -0.01     0.02  -0.02  -0.01
  31   1    -0.01  -0.03  -0.05    -0.08  -0.08  -0.02     0.06  -0.06   0.06
  32   1    -0.01   0.03   0.04    -0.03  -0.00  -0.00    -0.04   0.06   0.01
  33   1    -0.01  -0.02  -0.07    -0.12  -0.09  -0.04     0.02   0.02   0.00
  34   1    -0.01   0.07   0.04     0.11   0.09   0.02    -0.03   0.03  -0.05
                     28                     29                     30
                        a                      a                      a 
 Frequencies --   666.5592               724.0372               753.5047
 Red. masses --     9.2533                11.2595                 3.9402
 Frc consts  --     0.0000                 0.0000                 0.0000
 IR Inten    --     1.4729                 0.0406                 4.5900
 Raman Activ --     0.0000                 0.0000                 0.0000
 Depolar     --     0.0000                 0.0000                 0.0000
 Atom AN      X      Y      Z        X      Y      Z        X      Y      Z
   1   6    -0.04  -0.07   0.05     0.01   0.03  -0.01    -0.03  -0.07   0.02
   2   6    -0.13   0.01   0.04     0.04   0.01   0.02    -0.09  -0.01  -0.03
   3   7    -0.15   0.16   0.07     0.00  -0.02  -0.03    -0.02   0.00   0.06
   4   6     0.42  -0.15   0.02    -0.01  -0.01   0.01     0.04   0.00  -0.01
   5   6    -0.17   0.09  -0.10    -0.01  -0.00   0.02    -0.01   0.01  -0.05
   6   6     0.28  -0.12  -0.05    -0.01  -0.00   0.02    -0.00   0.01  -0.06
   7   6    -0.22   0.05   0.00     0.01   0.01  -0.01    -0.03  -0.02   0.02
   8   6     0.27  -0.13   0.07    -0.01  -0.00  -0.01    -0.00   0.04   0.03
   9   6    -0.18   0.12   0.02    -0.00  -0.00  -0.01    -0.01   0.03   0.01
  10   6     0.12   0.08   0.04    -0.19  -0.15  -0.06     0.16   0.16   0.06
  11   6     0.08  -0.12  -0.03     0.15   0.12   0.05    -0.08  -0.09  -0.02
  12   6     0.13  -0.05  -0.14    -0.16  -0.11  -0.04    -0.04  -0.06  -0.03
  13   6     0.01   0.06  -0.01     0.43   0.32   0.12    -0.08  -0.06  -0.03
  14   6    -0.09   0.04   0.00    -0.12  -0.10  -0.04     0.14   0.12   0.04
  15   6    -0.03   0.09   0.01     0.16   0.12   0.05     0.10   0.10   0.03
  16   6    -0.02  -0.07   0.02    -0.15  -0.11  -0.04     0.10   0.05   0.04
  17   6     0.05  -0.01   0.02     0.15   0.11   0.04     0.17   0.11   0.05
  18   6    -0.05  -0.06  -0.01    -0.43  -0.32  -0.12    -0.10  -0.08  -0.03
  19   6    -0.01  -0.02   0.02     0.13   0.10   0.04    -0.09  -0.06  -0.04
  20   1     0.00  -0.02   0.01    -0.01  -0.00  -0.00     0.02   0.01  -0.00
  21   1     0.02   0.01  -0.00    -0.01   0.00  -0.00     0.02   0.00   0.00
  22   1    -0.00  -0.07   0.02    -0.00   0.03  -0.01     0.00  -0.08   0.03
  23   1    -0.25   0.12  -0.05     0.01  -0.00   0.01     0.03  -0.02  -0.00
  24   1    -0.06   0.06  -0.03     0.00  -0.01   0.01     0.05   0.00  -0.01
  25   1    -0.23   0.10  -0.01     0.01  -0.00  -0.00     0.04  -0.03   0.01
  26   1    -0.07   0.05  -0.01     0.01  -0.01   0.00     0.04  -0.00   0.00
  27   1    -0.25   0.12  -0.02     0.01  -0.00  -0.00     0.03  -0.02   0.01
  28   1    -0.04  -0.07  -0.02     0.02   0.02   0.01     0.13   0.09   0.03
  29   1    -0.01  -0.06  -0.05    -0.07  -0.05  -0.02     0.19   0.14   0.05
  30   1    -0.00   0.02   0.01    -0.12  -0.09  -0.03    -0.29  -0.21  -0.08
  31   1     0.02   0.05  -0.02    -0.03  -0.03  -0.01    -0.33  -0.24  -0.10
  32   1     0.03  -0.01   0.00    -0.03  -0.02  -0.01    -0.31  -0.24  -0.09
  33   1     0.04   0.03   0.01     0.06   0.05   0.02    -0.28  -0.20  -0.08
  34   1    -0.03  -0.04  -0.00     0.12   0.09   0.03     0.15   0.11   0.04
                     31                     32                     33
                        a                      a                      a 
 Frequencies --   756.3087               799.8731               820.7279
 Red. masses --     5.2273                10.5537                10.0216
 Frc consts  --     0.0000                 0.0000                 0.0000
 IR Inten    --    31.5692                 5.3912                49.6081
 Raman Activ --     0.0000                 0.0000                 0.0000
 Depolar     --     0.0000                 0.0000                 0.0000
 Atom AN      X      Y      Z        X      Y      Z        X      Y      Z
   1   6     0.03   0.04  -0.05    -0.01  -0.01   0.01    -0.04   0.02   0.04
   2   6     0.08  -0.07  -0.09    -0.00   0.01  -0.01    -0.09   0.08   0.06
   3   7     0.11   0.05   0.01     0.05  -0.12  -0.01     0.05  -0.46   0.04
   4   6    -0.35   0.13  -0.02    -0.08   0.05  -0.01    -0.18   0.07  -0.01
   5   6     0.14  -0.08   0.11     0.02   0.00  -0.02     0.06   0.05  -0.11
   6   6     0.08  -0.05   0.13     0.02  -0.01  -0.06     0.06   0.00  -0.30
   7   6     0.19  -0.00  -0.02     0.01  -0.05   0.02    -0.03  -0.21   0.10
   8   6     0.06  -0.14  -0.06     0.04   0.05   0.04     0.14   0.26   0.17
   9   6     0.13  -0.15  -0.03     0.04   0.02   0.02     0.11   0.12   0.05
  10   6     0.08  -0.03   0.00    -0.07   0.06  -0.00    -0.09   0.11   0.00
  11   6    -0.06   0.06  -0.04     0.05  -0.15   0.20    -0.03  -0.08   0.05
  12   6    -0.05   0.04   0.04    -0.01  -0.15   0.39    -0.03  -0.05  -0.15
  13   6    -0.01  -0.02   0.00    -0.03   0.01   0.14     0.11   0.04  -0.07
  14   6     0.05  -0.02   0.01    -0.21   0.21   0.15     0.04  -0.07  -0.16
  15   6     0.06  -0.04  -0.00    -0.17   0.20   0.04    -0.07   0.04   0.01
  16   6    -0.01   0.05  -0.03     0.03  -0.09   0.09     0.02  -0.12   0.09
  17   6     0.00   0.04   0.02     0.08   0.03  -0.40    -0.00  -0.10   0.10
  18   6    -0.03  -0.01   0.01     0.08  -0.01  -0.23    -0.00   0.06   0.06
  19   6    -0.01  -0.02   0.04     0.16  -0.09  -0.31    -0.16   0.10   0.05
  20   1    -0.00   0.05  -0.01     0.00  -0.01   0.00     0.03  -0.09   0.00
  21   1    -0.02  -0.04   0.03     0.01   0.00   0.00     0.06   0.12  -0.09
  22   1    -0.00   0.06  -0.01     0.00  -0.01  -0.00     0.02  -0.11   0.00
  23   1    -0.24   0.13  -0.02    -0.01   0.00  -0.00     0.00  -0.00  -0.01
  24   1    -0.31   0.11  -0.00    -0.03   0.03  -0.02    -0.03   0.11  -0.08
  25   1    -0.39   0.22  -0.05    -0.07   0.02  -0.01    -0.17   0.02  -0.00
  26   1    -0.32   0.10  -0.02    -0.02   0.04  -0.01    -0.00   0.15  -0.03
  27   1    -0.27   0.13  -0.04    -0.03   0.02   0.00    -0.03   0.05   0.01
  28   1    -0.01   0.04   0.01     0.09  -0.09  -0.02     0.13   0.08   0.05
  29   1     0.02   0.03   0.02     0.02  -0.06   0.12     0.08   0.11  -0.02
  30   1    -0.04  -0.04  -0.01    -0.07   0.09   0.04     0.08  -0.03  -0.02
  31   1    -0.04  -0.06   0.00    -0.03   0.10  -0.10     0.05   0.06   0.03
  32   1    -0.06  -0.02  -0.01    -0.00   0.01   0.05     0.12   0.00   0.01
  33   1    -0.04  -0.03  -0.01    -0.02   0.10  -0.14     0.06   0.00   0.05
  34   1     0.01   0.02   0.01     0.09  -0.09  -0.06     0.03   0.11   0.03
                     34                     35                     36
                        a                      a                      a 
 Frequencies --   831.7340               860.0777               866.5405
 Red. masses --     5.2700                10.4479                 3.3435
 Frc consts  --     0.0000                 0.0000                 0.0000
 IR Inten    --    20.0235                 4.2561                 1.3068
 Raman Activ --     0.0000                 0.0000                 0.0000
 Depolar     --     0.0000                 0.0000                 0.0000
 Atom AN      X      Y      Z        X      Y      Z        X      Y      Z
   1   6     0.01   0.05   0.01    -0.02   0.17  -0.07    -0.00   0.01  -0.00
   2   6     0.01   0.03   0.05    -0.12   0.02   0.06    -0.01   0.00   0.00
   3   7     0.02  -0.17  -0.02    -0.07  -0.15   0.10     0.00  -0.01   0.01
   4   6    -0.05   0.01  -0.00    -0.05  -0.03   0.02    -0.01  -0.02   0.00
   5   6     0.01   0.02  -0.02    -0.00   0.05  -0.04     0.20  -0.09   0.02
   6   6     0.02  -0.00  -0.08     0.02   0.02  -0.16     0.17  -0.08  -0.00
   7   6    -0.01  -0.07   0.03    -0.02  -0.09   0.05     0.05  -0.04   0.01
   8   6     0.04   0.09   0.05     0.06   0.12   0.08    -0.14   0.09  -0.00
   9   6     0.03   0.04   0.01     0.04   0.04  -0.01    -0.26   0.15  -0.02
  10   6    -0.20  -0.09  -0.05     0.06  -0.15   0.05     0.00  -0.01   0.00
  11   6     0.21   0.13   0.09    -0.01   0.02  -0.07    -0.00   0.00  -0.00
  12   6     0.22   0.15   0.03     0.00   0.02  -0.12    -0.00  -0.00  -0.00
  13   6    -0.17  -0.14  -0.08    -0.09   0.08   0.08    -0.01   0.00   0.01
  14   6     0.08   0.03  -0.03    -0.12   0.07   0.35    -0.00   0.01   0.03
  15   6     0.01   0.05   0.02     0.21  -0.22  -0.07     0.02  -0.01  -0.00
  16   6     0.11   0.02   0.06    -0.12   0.27  -0.29    -0.01   0.01  -0.02
  17   6     0.09   0.03   0.04    -0.13   0.10   0.12    -0.01   0.00   0.00
  18   6    -0.09  -0.04  -0.01     0.08  -0.15   0.01     0.01  -0.01  -0.00
  19   6     0.06   0.12   0.05     0.29  -0.21  -0.08     0.02  -0.01  -0.01
  20   1    -0.00  -0.05   0.00     0.04   0.04  -0.03     0.00   0.00  -0.00
  21   1     0.01   0.04  -0.04     0.06   0.13  -0.07     0.00   0.01  -0.00
  22   1     0.00   0.01  -0.03     0.01  -0.04   0.01     0.00  -0.01   0.00
  23   1     0.01  -0.00   0.00     0.06  -0.02  -0.00    -0.38   0.19  -0.05
  24   1    -0.01   0.03  -0.02     0.04   0.03  -0.04    -0.34   0.17  -0.05
  25   1    -0.06   0.01  -0.01    -0.05  -0.00   0.01    -0.09   0.04  -0.01
  26   1     0.00   0.05  -0.01    -0.00   0.06  -0.01     0.28  -0.13   0.02
  27   1     0.00   0.01   0.00    -0.02   0.03  -0.00     0.53  -0.26   0.06
  28   1    -0.39  -0.30  -0.10    -0.02   0.05   0.02    -0.00   0.00   0.00
  29   1    -0.37  -0.25  -0.11     0.06  -0.02  -0.01     0.01   0.00   0.00
  30   1    -0.02  -0.04  -0.02    -0.12   0.07   0.06    -0.02  -0.00   0.00
  31   1    -0.14  -0.09  -0.04     0.02  -0.09  -0.02    -0.00  -0.01  -0.00
  32   1    -0.17  -0.16  -0.05    -0.07   0.10  -0.04    -0.00   0.01  -0.00
  33   1    -0.12  -0.10  -0.03     0.02   0.02   0.05     0.01   0.01   0.00
  34   1    -0.14  -0.08  -0.03    -0.01  -0.21  -0.04    -0.00  -0.02  -0.00
                     37                     38                     39
                        a                      a                      a 
 Frequencies --   870.7924               880.4836               882.4776
 Red. masses --     3.6974                 3.9029                 3.8638
 Frc consts  --     0.0000                 0.0000                 0.0000
 IR Inten    --     2.2536                 0.6196                 6.4279
 Raman Activ --     0.0000                 0.0000                 0.0000
 Depolar     --     0.0000                 0.0000                 0.0000
 Atom AN      X      Y      Z        X      Y      Z        X      Y      Z
   1   6    -0.01   0.01  -0.01     0.00  -0.02   0.01    -0.01  -0.02  -0.00
   2   6    -0.02  -0.00  -0.00     0.01   0.01   0.00    -0.00   0.00  -0.00
   3   7    -0.01  -0.00   0.02    -0.01   0.05  -0.02    -0.02   0.05  -0.00
   4   6    -0.01   0.00   0.00     0.09  -0.03   0.00     0.07  -0.02   0.00
   5   6     0.02  -0.01  -0.00    -0.18   0.08  -0.02    -0.18   0.07  -0.03
   6   6     0.00   0.00  -0.01    -0.02   0.00   0.03    -0.02   0.01   0.03
   7   6    -0.01   0.00   0.00     0.22  -0.09   0.02     0.22  -0.08   0.01
   8   6    -0.00   0.01   0.00     0.03  -0.05  -0.01     0.03  -0.04  -0.01
   9   6     0.00   0.00   0.00    -0.14   0.05  -0.01    -0.13   0.05  -0.00
  10   6     0.03   0.00   0.02    -0.00  -0.00  -0.01     0.00   0.02   0.01
  11   6     0.04   0.03   0.01    -0.07  -0.04  -0.03     0.07   0.04   0.03
  12   6     0.01   0.01  -0.02    -0.07  -0.05  -0.00     0.07   0.05  -0.00
  13   6     0.06   0.07   0.03     0.04   0.01   0.00    -0.03  -0.01  -0.00
  14   6    -0.22  -0.13   0.01    -0.07  -0.08  -0.07     0.06   0.07   0.06
  15   6    -0.11  -0.15  -0.06    -0.05   0.00   0.00     0.04  -0.01  -0.00
  16   6     0.09   0.12  -0.02     0.07   0.02   0.05    -0.07  -0.02  -0.04
  17   6     0.17   0.16   0.08     0.10   0.06   0.00    -0.09  -0.05   0.00
  18   6     0.00  -0.04  -0.00    -0.08  -0.03  -0.02     0.08   0.04   0.02
  19   6    -0.11  -0.16  -0.07     0.17   0.17   0.08    -0.19  -0.18  -0.09
  20   1     0.01   0.02  -0.01    -0.01  -0.01   0.01     0.00   0.02  -0.00
  21   1     0.01   0.01  -0.00    -0.01  -0.02   0.01    -0.00  -0.02   0.01
  22   1     0.00  -0.02   0.01    -0.00   0.01  -0.00    -0.00  -0.01   0.01
  23   1    -0.03   0.02  -0.01     0.33  -0.17   0.04     0.32  -0.17   0.04
  24   1    -0.00   0.00  -0.00    -0.02   0.01   0.01    -0.01  -0.00   0.01
  25   1     0.02  -0.01   0.00    -0.33   0.17  -0.04    -0.33   0.17  -0.04
  26   1     0.02  -0.01   0.00    -0.13   0.05  -0.01    -0.12   0.04  -0.01
  27   1    -0.00   0.00  -0.00     0.24  -0.12   0.03     0.23  -0.12   0.03
  28   1    -0.03  -0.02  -0.00     0.08   0.06   0.01    -0.07  -0.05  -0.01
  29   1    -0.07  -0.06  -0.02     0.15   0.11   0.05    -0.15  -0.11  -0.05
  30   1     0.37   0.30   0.12     0.18   0.11   0.04    -0.16  -0.10  -0.03
  31   1     0.22   0.15   0.06     0.02   0.02   0.01     0.00  -0.01  -0.01
  32   1    -0.13  -0.08  -0.04    -0.09  -0.08  -0.02     0.09   0.08   0.02
  33   1    -0.39  -0.28  -0.10    -0.15  -0.11  -0.05     0.13   0.09   0.04
  34   1     0.32   0.22   0.08    -0.37  -0.26  -0.09     0.41   0.29   0.10
                     40                     41                     42
                        a                      a                      a 
 Frequencies --   910.4072               917.8027               922.1258
 Red. masses --     3.5415                 3.8562                 4.0021
 Frc consts  --     0.0000                 0.0000                 0.0000
 IR Inten    --     0.2860                 1.1413                 0.0543
 Raman Activ --     0.0000                 0.0000                 0.0000
 Depolar     --     0.0000                 0.0000                 0.0000
 Atom AN      X      Y      Z        X      Y      Z        X      Y      Z
   1   6    -0.00   0.01   0.00    -0.00  -0.00   0.00     0.00  -0.02   0.01
   2   6     0.00  -0.00   0.00     0.00   0.00  -0.00     0.01   0.01  -0.01
   3   7     0.00  -0.00  -0.00     0.00   0.00  -0.00     0.01   0.01  -0.01
   4   6     0.00   0.00  -0.00    -0.00   0.00  -0.00     0.01   0.02  -0.01
   5   6     0.00  -0.00   0.00     0.00  -0.01  -0.00    -0.21   0.08  -0.03
   6   6    -0.00   0.00   0.00    -0.01   0.00   0.00     0.29  -0.14   0.06
   7   6    -0.00   0.00  -0.00     0.00   0.00  -0.00    -0.02   0.03  -0.01
   8   6     0.00  -0.00  -0.00     0.00  -0.01  -0.00    -0.24   0.09  -0.04
   9   6     0.00   0.00   0.00    -0.01   0.00   0.00     0.16  -0.09   0.03
  10   6    -0.00   0.01   0.00     0.01   0.02   0.01    -0.01   0.02   0.00
  11   6     0.20   0.15   0.06     0.17   0.12   0.06     0.01  -0.02   0.04
  12   6    -0.18  -0.14  -0.05    -0.17  -0.13  -0.06    -0.00  -0.00  -0.02
  13   6    -0.03  -0.02  -0.01     0.02   0.02   0.00    -0.00   0.01  -0.01
  14   6     0.14   0.11   0.04    -0.17  -0.12  -0.04    -0.01   0.00   0.01
  15   6    -0.14  -0.11  -0.04     0.13   0.10   0.04     0.01  -0.01  -0.01
  16   6    -0.10  -0.08  -0.03     0.14   0.11   0.03     0.00   0.00  -0.01
  17   6     0.12   0.09   0.04    -0.17  -0.13  -0.04    -0.01  -0.01   0.03
  18   6     0.01   0.01   0.00     0.06   0.04   0.02     0.00   0.00   0.00
  19   6    -0.01  -0.01  -0.00    -0.07  -0.06  -0.03    -0.00   0.01  -0.03
  20   1     0.00  -0.00   0.00     0.00   0.00   0.00    -0.00  -0.01   0.00
  21   1    -0.00   0.00   0.00     0.00  -0.00   0.00    -0.01  -0.01   0.01
  22   1    -0.00   0.00  -0.01    -0.00  -0.00  -0.00    -0.00   0.00   0.00
  23   1    -0.00   0.00  -0.00    -0.01   0.00  -0.00     0.34  -0.18   0.05
  24   1     0.00  -0.00   0.00     0.01  -0.01   0.00    -0.52   0.25  -0.05
  25   1     0.00  -0.00  -0.00    -0.00   0.00  -0.00     0.07  -0.03   0.00
  26   1    -0.00   0.00  -0.00    -0.01   0.00  -0.00     0.36  -0.19   0.04
  27   1    -0.00   0.00  -0.00     0.01  -0.00   0.00    -0.24   0.12  -0.02
  28   1    -0.39  -0.29  -0.10    -0.31  -0.23  -0.08    -0.01  -0.01   0.01
  29   1     0.35   0.26   0.10     0.32   0.23   0.09     0.00   0.02  -0.01
  30   1    -0.24  -0.18  -0.07     0.26   0.19   0.08     0.00   0.01   0.00
  31   1     0.26   0.19   0.07    -0.23  -0.17  -0.07    -0.00  -0.00  -0.01
  32   1     0.19   0.14   0.05    -0.24  -0.18  -0.07    -0.00  -0.01  -0.01
  33   1    -0.19  -0.14  -0.05     0.28   0.20   0.08     0.01  -0.00   0.01
  34   1    -0.03  -0.02  -0.01     0.09   0.06   0.02     0.00   0.00  -0.01
                     43                     44                     45
                        a                      a                      a 
 Frequencies --   925.3439               928.1087               928.5737
 Red. masses --     2.8450                 3.5929                10.0888
 Frc consts  --     0.0000                 0.0000                 0.0000
 IR Inten    --     0.0456                 0.1334                 3.0941
 Raman Activ --     0.0000                 0.0000                 0.0000
 Depolar     --     0.0000                 0.0000                 0.0000
 Atom AN      X      Y      Z        X      Y      Z        X      Y      Z
   1   6    -0.00   0.01  -0.00    -0.00   0.04  -0.02    -0.02   0.18  -0.08
   2   6    -0.00  -0.00   0.00    -0.01  -0.01   0.02    -0.07  -0.06   0.08
   3   7     0.00  -0.01   0.00    -0.03  -0.00   0.02    -0.13   0.00   0.10
   4   6    -0.08   0.03  -0.00    -0.00  -0.02   0.01    -0.01  -0.07   0.04
   5   6    -0.02   0.02   0.00    -0.00   0.01   0.00    -0.01   0.06   0.00
   6   6     0.14  -0.07   0.00     0.01  -0.00  -0.02     0.04   0.00  -0.10
   7   6    -0.21   0.10  -0.02    -0.01  -0.01   0.01    -0.02  -0.06   0.03
   8   6     0.25  -0.11   0.03    -0.00   0.02   0.01    -0.00   0.08   0.05
   9   6    -0.07   0.04  -0.02     0.00   0.00  -0.01     0.02   0.01  -0.05
  10   6     0.00  -0.00   0.00     0.04  -0.05  -0.00     0.20  -0.24  -0.01
  11   6    -0.00   0.00  -0.01     0.02   0.06  -0.09    -0.03   0.21  -0.42
  12   6    -0.00   0.00   0.00    -0.02  -0.01   0.04    -0.04  -0.02   0.21
  13   6     0.00  -0.00   0.00    -0.06  -0.06   0.00     0.04  -0.06   0.10
  14   6    -0.00  -0.00  -0.00    -0.06  -0.07  -0.05     0.09  -0.03  -0.15
  15   6    -0.00   0.00   0.00     0.19   0.18   0.07    -0.14   0.07   0.05
  16   6    -0.00   0.00   0.00    -0.23  -0.17  -0.05     0.04   0.02   0.09
  17   6    -0.00   0.00  -0.01     0.10   0.08  -0.03     0.02   0.02  -0.29
  18   6     0.00  -0.00  -0.00     0.07   0.05   0.01    -0.00  -0.01  -0.03
  19   6    -0.00  -0.01   0.00    -0.02  -0.04   0.08    -0.05  -0.13   0.37
  20   1     0.00  -0.00  -0.00     0.01   0.01  -0.01     0.04   0.07  -0.03
  21   1     0.00   0.01  -0.00     0.01   0.02  -0.01     0.05   0.11  -0.05
  22   1     0.00  -0.00  -0.00     0.00  -0.00   0.00     0.01  -0.02   0.01
  23   1     0.15  -0.08   0.02     0.01  -0.00   0.00     0.06  -0.01   0.00
  24   1    -0.35   0.18  -0.05    -0.01   0.01  -0.01    -0.02   0.03  -0.03
  25   1     0.43  -0.22   0.05    -0.00  -0.00   0.00    -0.01  -0.01   0.01
  26   1    -0.52   0.26  -0.05     0.01  -0.00   0.00     0.05  -0.00   0.01
  27   1     0.24  -0.12   0.02    -0.00   0.00  -0.00    -0.01   0.02  -0.02
  28   1     0.00   0.00  -0.00    -0.05  -0.03  -0.04    -0.00   0.04  -0.13
  29   1    -0.00  -0.00   0.00     0.04  -0.02   0.03     0.08  -0.17   0.11
  30   1     0.00   0.00  -0.00     0.21   0.14   0.05    -0.00  -0.07  -0.04
  31   1    -0.00   0.00   0.00    -0.41  -0.30  -0.10     0.06   0.08   0.08
  32   1    -0.00   0.00   0.00     0.44   0.34   0.14    -0.13  -0.05   0.03
  33   1     0.00   0.00  -0.00    -0.23  -0.16  -0.09     0.04   0.10  -0.08
  34   1     0.01   0.01   0.00     0.02   0.01   0.03     0.04  -0.00   0.12
                     46                     47                     48
                        a                      a                      a 
 Frequencies --   977.8196              1000.1105              1027.7159
 Red. masses --     9.7638                 5.3181                 6.8131
 Frc consts  --     0.0000                 0.0000                 0.0000
 IR Inten    --     7.7274                 9.5968                18.1999
 Raman Activ --     0.0000                 0.0000                 0.0000
 Depolar     --     0.0000                 0.0000                 0.0000
 Atom AN      X      Y      Z        X      Y      Z        X      Y      Z
   1   6     0.11  -0.05  -0.14     0.18   0.11   0.35     0.38   0.09  -0.18
   2   6     0.07  -0.05   0.04    -0.20  -0.06  -0.33    -0.12  -0.18   0.04
   3   7    -0.07   0.12   0.03     0.05   0.06  -0.02    -0.20  -0.10   0.18
   4   6    -0.03  -0.14   0.07     0.03  -0.01  -0.01    -0.08  -0.15   0.08
   5   6     0.10   0.34   0.35     0.02   0.10   0.11    -0.05  -0.15  -0.18
   6   6     0.01  -0.03  -0.17    -0.01  -0.02   0.01     0.03   0.04  -0.10
   7   6    -0.15  -0.28   0.15    -0.03  -0.07   0.02     0.05   0.10  -0.05
   8   6     0.03   0.10   0.12    -0.00   0.01   0.02     0.04   0.09   0.03
   9   6     0.02  -0.08  -0.50     0.00  -0.02  -0.11    -0.00   0.06   0.24
  10   6    -0.01   0.05   0.00     0.07  -0.01  -0.00     0.03   0.06   0.02
  11   6     0.00  -0.03   0.06    -0.02   0.01   0.01    -0.00  -0.02   0.00
  12   6     0.01  -0.00  -0.02    -0.03   0.02   0.03     0.00  -0.01  -0.02
  13   6     0.00   0.00  -0.01    -0.00   0.01  -0.01     0.00  -0.00   0.01
  14   6    -0.00   0.00  -0.00    -0.01   0.00   0.02     0.01  -0.00  -0.01
  15   6     0.00  -0.00  -0.00     0.01  -0.01  -0.00    -0.00   0.00   0.00
  16   6     0.01  -0.02   0.01    -0.01   0.02  -0.01     0.01  -0.01   0.01
  17   6    -0.00  -0.01   0.02    -0.00   0.00   0.00     0.00   0.00   0.00
  18   6    -0.02   0.02   0.01     0.02  -0.03  -0.01    -0.02   0.02   0.01
  19   6    -0.02   0.04  -0.07     0.01  -0.05   0.05    -0.02   0.03  -0.04
  20   1    -0.02   0.18  -0.02    -0.17  -0.58   0.14    -0.13   0.10   0.01
  21   1    -0.08  -0.20   0.14    -0.09   0.14  -0.24    -0.18  -0.30   0.13
  22   1    -0.01   0.16   0.01     0.02   0.24  -0.28    -0.01   0.51  -0.15
  23   1     0.03   0.06   0.15     0.01   0.01   0.05     0.02  -0.01  -0.11
  24   1    -0.03  -0.07  -0.05    -0.02  -0.04   0.00     0.04   0.07  -0.03
  25   1    -0.05  -0.07   0.05    -0.01  -0.02  -0.01     0.02   0.03  -0.01
  26   1    -0.00  -0.02   0.10    -0.00  -0.01   0.02     0.04   0.06  -0.05
  27   1    -0.02  -0.08  -0.14    -0.01  -0.04  -0.03     0.03   0.08   0.08
  28   1    -0.01  -0.00   0.02     0.02   0.00  -0.01    -0.00   0.01   0.01
  29   1    -0.01   0.03  -0.01    -0.01   0.01   0.01     0.01   0.01  -0.00
  30   1    -0.00   0.00  -0.00    -0.00   0.00   0.00     0.00   0.00  -0.00
  31   1     0.00   0.00  -0.01     0.00  -0.00   0.00    -0.00   0.00  -0.00
  32   1     0.01  -0.01  -0.00    -0.01   0.01   0.00     0.00  -0.01   0.00
  33   1     0.00  -0.01   0.01    -0.00   0.01  -0.00     0.00  -0.01   0.00
  34   1    -0.01   0.04  -0.03     0.03  -0.00   0.02    -0.01   0.02  -0.02
                     49                     50                     51
                        a                      a                      a 
 Frequencies --  1076.3524              1080.5089              1103.3818
 Red. masses --     6.8636                 6.6475                 7.4723
 Frc consts  --     0.0000                 0.0000                 0.0000
 IR Inten    --     1.5844                 0.8576                55.2733
 Raman Activ --     0.0000                 0.0000                 0.0000
 Depolar     --     0.0000                 0.0000                 0.0000
 Atom AN      X      Y      Z        X      Y      Z        X      Y      Z
   1   6    -0.01   0.04  -0.01    -0.01  -0.01   0.01     0.08  -0.25   0.03
   2   6     0.01  -0.05   0.01     0.01   0.01  -0.01    -0.05   0.35  -0.08
   3   7    -0.02   0.01   0.01     0.01   0.02  -0.01     0.09  -0.11  -0.03
   4   6     0.00  -0.01   0.01     0.01   0.01   0.00    -0.00   0.06  -0.08
   5   6     0.00   0.00  -0.01    -0.07  -0.13   0.06     0.03   0.05   0.03
   6   6     0.00   0.01   0.01    -0.01  -0.11  -0.35    -0.01  -0.01   0.07
   7   6    -0.01  -0.01   0.01     0.20   0.36  -0.18    -0.01  -0.02  -0.04
   8   6    -0.00  -0.01  -0.01     0.06   0.19   0.29     0.01   0.01   0.00
   9   6     0.00   0.01  -0.00    -0.07  -0.12   0.06    -0.01  -0.02   0.03
  10   6     0.04  -0.04  -0.02     0.00  -0.00  -0.00    -0.27   0.23   0.20
  11   6     0.01  -0.02   0.02     0.00  -0.00   0.00    -0.00   0.11  -0.26
  12   6     0.00  -0.01   0.01    -0.00   0.00   0.00     0.06  -0.05  -0.06
  13   6    -0.06   0.06   0.05    -0.00   0.00   0.00     0.01  -0.02   0.01
  14   6     0.01   0.06  -0.23     0.00   0.00  -0.01    -0.03   0.02   0.04
  15   6     0.26  -0.25  -0.26     0.01  -0.01  -0.01     0.03  -0.02  -0.04
  16   6     0.01  -0.16   0.42    -0.00  -0.01   0.01    -0.00  -0.00   0.01
  17   6    -0.13   0.11   0.14    -0.00   0.00   0.00    -0.04   0.01   0.09
  18   6    -0.02   0.05  -0.07     0.00   0.00  -0.00     0.08  -0.05  -0.12
  19   6     0.01  -0.01  -0.01     0.00  -0.00   0.00    -0.01  -0.03   0.19
  20   1     0.01   0.00  -0.00     0.00  -0.01   0.00    -0.05  -0.01   0.03
  21   1     0.01   0.03  -0.02     0.01   0.01  -0.00    -0.09  -0.23   0.12
  22   1     0.00  -0.01  -0.00     0.00  -0.02   0.00    -0.01   0.05   0.01
  23   1     0.01   0.01  -0.01    -0.13  -0.19   0.28     0.01   0.03  -0.01
  24   1     0.01   0.01   0.00    -0.12  -0.28  -0.13    -0.03  -0.05   0.02
  25   1    -0.00  -0.00   0.01     0.06   0.11  -0.04    -0.01  -0.04  -0.07
  26   1     0.00   0.00  -0.01    -0.07  -0.09   0.33     0.01   0.02  -0.03
  27   1     0.01   0.02   0.00    -0.15  -0.29  -0.00    -0.05  -0.08   0.00
  28   1    -0.01   0.01   0.03    -0.00   0.00   0.00     0.10  -0.06  -0.20
  29   1     0.00  -0.00   0.00     0.00  -0.00   0.00     0.15  -0.23   0.05
  30   1    -0.19   0.32  -0.18    -0.01   0.01  -0.01    -0.03   0.04  -0.00
  31   1     0.08  -0.03  -0.23     0.00  -0.00  -0.01     0.01   0.01  -0.06
  32   1    -0.09   0.03   0.24    -0.00   0.00   0.01     0.03  -0.03  -0.03
  33   1    -0.23   0.34  -0.07    -0.01   0.01  -0.00    -0.04   0.06   0.01
  34   1    -0.01   0.01  -0.01    -0.00  -0.00  -0.00     0.19  -0.32   0.16
                     52                     53                     54
                        a                      a                      a 
 Frequencies --  1117.3520              1145.5584              1176.4132
 Red. masses --     4.1443                 5.5096                 1.9675
 Frc consts  --     0.0000                 0.0000                 0.0000
 IR Inten    --     2.6855                 9.9787                 0.8448
 Raman Activ --     0.0000                 0.0000                 0.0000
 Depolar     --     0.0000                 0.0000                 0.0000
 Atom AN      X      Y      Z        X      Y      Z        X      Y      Z
   1   6    -0.03   0.03  -0.02    -0.02   0.07  -0.02     0.00   0.00   0.01
   2   6     0.01  -0.05   0.02     0.04  -0.12   0.03    -0.01  -0.02  -0.00
   3   7    -0.01   0.05   0.03    -0.03   0.04   0.01     0.01  -0.00  -0.00
   4   6    -0.02  -0.10  -0.13    -0.01  -0.04   0.02     0.01   0.02  -0.01
   5   6     0.09   0.22   0.04    -0.00   0.00  -0.01     0.00   0.00   0.00
   6   6    -0.03  -0.02   0.16     0.00  -0.00  -0.02     0.00   0.00   0.01
   7   6    -0.01  -0.08  -0.20     0.00   0.00  -0.01    -0.00  -0.00   0.00
   8   6     0.07   0.16   0.11     0.00   0.02   0.01    -0.00  -0.00  -0.01
   9   6    -0.08  -0.10   0.23    -0.00  -0.00   0.01    -0.00  -0.00  -0.00
  10   6     0.05  -0.04  -0.03     0.06  -0.03  -0.07     0.00  -0.02   0.05
  11   6     0.00  -0.02   0.04     0.03  -0.03  -0.04    -0.07   0.07   0.05
  12   6    -0.01   0.01   0.00    -0.06   0.00   0.21     0.06  -0.05  -0.07
  13   6    -0.01   0.01   0.01     0.11  -0.05  -0.25    -0.02  -0.01   0.12
  14   6     0.01  -0.00  -0.02    -0.07  -0.00   0.26     0.04  -0.08   0.06
  15   6    -0.00   0.00   0.01     0.02   0.01  -0.08    -0.01   0.03  -0.03
  16   6    -0.00   0.00   0.00     0.04  -0.03  -0.06     0.05  -0.05  -0.04
  17   6     0.01  -0.00  -0.02    -0.12   0.07   0.23    -0.04   0.05   0.02
  18   6    -0.01   0.01   0.03     0.03   0.04  -0.20    -0.01   0.04  -0.06
  19   6     0.01   0.00  -0.03    -0.09   0.05   0.17    -0.02   0.06  -0.11
  20   1     0.02   0.02  -0.01     0.02   0.02  -0.01    -0.01  -0.01   0.00
  21   1     0.02   0.03  -0.01     0.03   0.05  -0.01    -0.00   0.02  -0.04
  22   1     0.00  -0.02   0.01     0.00  -0.01   0.00     0.00   0.00  -0.01
  23   1     0.17   0.24  -0.32     0.02   0.02  -0.03    -0.01  -0.01   0.02
  24   1    -0.13  -0.25   0.03    -0.00  -0.01  -0.01     0.01   0.02   0.00
  25   1    -0.05  -0.18  -0.40     0.00  -0.00  -0.01    -0.00   0.00   0.00
  26   1     0.09   0.16  -0.16     0.00   0.00   0.00     0.00   0.01  -0.02
  27   1    -0.19  -0.37   0.03     0.00   0.01   0.00    -0.01  -0.03  -0.00
  28   1    -0.02   0.02   0.04     0.18  -0.16  -0.21    -0.31   0.29   0.36
  29   1    -0.02   0.03  -0.01    -0.12   0.17  -0.00     0.25  -0.38   0.11
  30   1     0.00  -0.00  -0.00     0.09  -0.17   0.13     0.09  -0.14   0.06
  31   1    -0.00  -0.00   0.02     0.02   0.12  -0.40    -0.00   0.01  -0.01
  32   1    -0.01   0.01   0.02     0.22  -0.19  -0.26     0.25  -0.22  -0.29
  33   1     0.01  -0.01  -0.00    -0.13   0.18   0.01    -0.19   0.30  -0.10
  34   1    -0.03   0.05  -0.03    -0.05   0.06   0.03    -0.04   0.07  -0.05
                     55                     56                     57
                        a                      a                      a 
 Frequencies --  1178.6620              1180.5019              1191.4367
 Red. masses --     1.7393                 1.3747                 1.9979
 Frc consts  --     0.0000                 0.0000                 0.0000
 IR Inten    --     0.1676                 0.1864                 9.4360
 Raman Activ --     0.0000                 0.0000                 0.0000
 Depolar     --     0.0000                 0.0000                 0.0000
 Atom AN      X      Y      Z        X      Y      Z        X      Y      Z
   1   6     0.00  -0.01  -0.00     0.01   0.00  -0.00    -0.02  -0.01   0.02
   2   6    -0.00   0.03  -0.00    -0.01  -0.01   0.01     0.05   0.01  -0.04
   3   7     0.00  -0.00   0.00    -0.00  -0.01   0.01     0.04   0.07  -0.04
   4   6    -0.00  -0.00   0.00     0.02   0.04   0.05    -0.05  -0.08   0.06
   5   6    -0.00  -0.00  -0.00     0.04   0.07  -0.03     0.02   0.03  -0.09
   6   6     0.00  -0.00  -0.00     0.02   0.05   0.02    -0.04  -0.10  -0.09
   7   6     0.00   0.00  -0.00    -0.01  -0.04  -0.08    -0.01  -0.02   0.00
   8   6     0.00   0.00   0.00    -0.01  -0.02   0.02    -0.02  -0.01   0.14
   9   6    -0.00  -0.00   0.00    -0.05  -0.08   0.03     0.04   0.08   0.02
  10   6    -0.00  -0.01   0.03     0.00  -0.00   0.00    -0.02   0.02  -0.00
  11   6     0.04  -0.04  -0.05     0.00  -0.00  -0.00    -0.01   0.01   0.01
  12   6    -0.04   0.05  -0.02    -0.00   0.00   0.00     0.01  -0.01  -0.01
  13   6     0.02  -0.05   0.07     0.00  -0.00  -0.00    -0.01   0.02   0.01
  14   6    -0.03   0.03   0.02    -0.00   0.00   0.00     0.01  -0.01  -0.00
  15   6    -0.02  -0.02   0.12    -0.00   0.00  -0.00     0.00  -0.00  -0.00
  16   6     0.04  -0.03  -0.08     0.00  -0.00  -0.00    -0.00  -0.00   0.01
  17   6     0.02  -0.01  -0.05    -0.00   0.00  -0.00     0.00  -0.01   0.01
  18   6     0.07  -0.08  -0.04     0.00  -0.00   0.00    -0.02   0.03  -0.03
  19   6    -0.03   0.03   0.05    -0.00  -0.00   0.00    -0.00   0.01  -0.01
  20   1     0.00  -0.00   0.00    -0.00   0.00  -0.00     0.01  -0.02   0.00
  21   1    -0.00  -0.01   0.01    -0.00  -0.00   0.00     0.01   0.01  -0.01
  22   1    -0.00  -0.00   0.00    -0.00   0.01  -0.00     0.00  -0.04   0.01
  23   1     0.00   0.00  -0.00    -0.07  -0.09   0.18     0.16   0.21  -0.39
  24   1    -0.00  -0.00  -0.00     0.21   0.44   0.04    -0.16  -0.33  -0.05
  25   1    -0.00  -0.00  -0.00    -0.08  -0.30  -0.65    -0.01  -0.03  -0.06
  26   1     0.00   0.00  -0.00    -0.13  -0.19   0.32    -0.16  -0.23   0.42
  27   1     0.00   0.00   0.00     0.04   0.08   0.02     0.23   0.47   0.05
  28   1     0.09  -0.08  -0.11     0.00  -0.00  -0.00    -0.02   0.02   0.02
  29   1    -0.14   0.22  -0.08    -0.00   0.01  -0.00     0.03  -0.04   0.01
  30   1    -0.24   0.37  -0.12     0.00  -0.00   0.00    -0.00   0.01  -0.01
  31   1    -0.03  -0.16   0.55     0.00   0.00  -0.00    -0.00  -0.01   0.03
  32   1     0.25  -0.22  -0.31    -0.00   0.00   0.00     0.02  -0.02  -0.02
  33   1    -0.15   0.24  -0.10    -0.00   0.00  -0.00     0.01  -0.02   0.01
  34   1    -0.05   0.07  -0.01    -0.01   0.01  -0.00     0.05  -0.07   0.02
                     58                     59                     60
                        a                      a                      a 
 Frequencies --  1205.8476              1228.0448              1252.9608
 Red. masses --     5.8309                 6.0722                 9.1830
 Frc consts  --     0.0000                 0.0000                 0.0000
 IR Inten    --    49.4598                 0.5725                26.8842
 Raman Activ --     0.0000                 0.0000                 0.0000
 Depolar     --     0.0000                 0.0000                 0.0000
 Atom AN      X      Y      Z        X      Y      Z        X      Y      Z
   1   6     0.03  -0.16   0.03     0.01  -0.01   0.01     0.01   0.17  -0.05
   2   6    -0.09   0.39  -0.07    -0.01  -0.01   0.00    -0.01  -0.46   0.14
   3   7     0.02  -0.06   0.01     0.00  -0.02   0.00    -0.02  -0.12   0.02
   4   6    -0.02  -0.01  -0.02     0.02   0.03  -0.02     0.17   0.29  -0.11
   5   6     0.00  -0.00  -0.00     0.01   0.01  -0.01     0.05   0.07  -0.06
   6   6    -0.00  -0.01  -0.01    -0.00  -0.00   0.01    -0.03  -0.03   0.11
   7   6    -0.00   0.00  -0.00    -0.00  -0.00   0.00    -0.02  -0.03   0.03
   8   6    -0.00   0.00   0.02    -0.00  -0.01  -0.01    -0.04  -0.08  -0.07
   9   6     0.01   0.01   0.02     0.00   0.01  -0.01     0.03   0.07  -0.05
  10   6     0.04  -0.10   0.05    -0.02  -0.00   0.06    -0.20   0.19   0.24
  11   6     0.02  -0.02  -0.01     0.01   0.06  -0.18     0.00   0.00  -0.05
  12   6    -0.02   0.04  -0.03     0.04  -0.02  -0.10     0.00   0.06  -0.17
  13   6     0.05  -0.07   0.02     0.29  -0.45   0.18    -0.00  -0.05   0.15
  14   6    -0.04   0.05   0.01    -0.03  -0.00   0.10    -0.01   0.04  -0.06
  15   6    -0.01   0.01   0.02    -0.11   0.09   0.13    -0.01   0.00   0.02
  16   6     0.01   0.04  -0.13     0.02  -0.02  -0.03     0.05  -0.03  -0.09
  17   6     0.01   0.03  -0.12    -0.06   0.10  -0.06    -0.00   0.02  -0.06
  18   6     0.17  -0.31   0.21     0.03  -0.06   0.02     0.04  -0.14   0.20
  19   6     0.01  -0.05   0.06    -0.07   0.10  -0.02    -0.03   0.07  -0.09
  20   1    -0.04  -0.02   0.02    -0.01   0.00   0.00     0.03   0.04  -0.02
  21   1    -0.06  -0.14   0.07    -0.00   0.01  -0.03     0.06   0.11  -0.06
  22   1    -0.00  -0.01   0.02     0.00   0.01  -0.00    -0.00   0.08  -0.03
  23   1     0.01   0.02  -0.03    -0.00   0.00   0.00    -0.01   0.00   0.02
  24   1    -0.02  -0.04  -0.01    -0.01  -0.02   0.00    -0.07  -0.14   0.02
  25   1    -0.00  -0.00  -0.00    -0.00  -0.00   0.00    -0.01  -0.01   0.01
  26   1    -0.01  -0.01   0.03    -0.01  -0.01   0.02    -0.06  -0.11   0.12
  27   1     0.03   0.08   0.01     0.00   0.00  -0.00    -0.03  -0.08  -0.03
  28   1     0.00  -0.01  -0.01    -0.22   0.22   0.21     0.12  -0.10  -0.15
  29   1    -0.04   0.07  -0.03    -0.16   0.26  -0.13     0.01  -0.00  -0.04
  30   1     0.08  -0.13   0.06    -0.18   0.27  -0.06     0.10  -0.15   0.04
  31   1     0.00   0.05  -0.13    -0.01   0.14  -0.35    -0.00   0.01  -0.01
  32   1    -0.14   0.13   0.13     0.00  -0.00  -0.01    -0.07   0.06   0.07
  33   1    -0.16   0.27  -0.13     0.07  -0.10   0.03    -0.13   0.21  -0.09
  34   1    -0.30   0.43  -0.14     0.07  -0.10   0.04     0.02  -0.03  -0.00
                     61                     62                     63
                        a                      a                      a 
 Frequencies --  1261.5842              1269.6983              1280.4541
 Red. masses --     4.7418                 9.2808                 4.6532
 Frc consts  --     0.0000                 0.0000                 0.0000
 IR Inten    --     1.3313               100.5557                29.5077
 Raman Activ --     0.0000                 0.0000                 0.0000
 Depolar     --     0.0000                 0.0000                 0.0000
 Atom AN      X      Y      Z        X      Y      Z        X      Y      Z
   1   6    -0.01  -0.05   0.02     0.08  -0.06  -0.05    -0.04   0.04   0.00
   2   6     0.01   0.14  -0.05    -0.22   0.17   0.13     0.08  -0.12  -0.03
   3   7     0.00   0.05  -0.01    -0.10  -0.26   0.12     0.04   0.12  -0.01
   4   6    -0.06  -0.10   0.05     0.18   0.32  -0.34    -0.10  -0.28  -0.26
   5   6    -0.02  -0.03   0.03     0.08   0.12  -0.09     0.03   0.06  -0.02
   6   6     0.01   0.01  -0.04     0.00   0.05   0.18     0.07   0.15   0.02
   7   6     0.01   0.01  -0.01    -0.03  -0.05   0.05     0.02   0.05   0.07
   8   6     0.01   0.03   0.02    -0.06  -0.13  -0.02    -0.02  -0.00   0.19
   9   6    -0.01  -0.02   0.01     0.04   0.09  -0.01    -0.06  -0.12   0.06
  10   6     0.06  -0.03  -0.15     0.18  -0.15  -0.19    -0.07   0.07   0.08
  11   6     0.04  -0.04  -0.03     0.01  -0.02   0.02    -0.00   0.01  -0.01
  12   6     0.02  -0.01  -0.05     0.01  -0.06   0.11    -0.01   0.02  -0.05
  13   6    -0.14   0.07   0.29    -0.05   0.09  -0.04     0.02  -0.03   0.02
  14   6     0.07  -0.06  -0.07     0.03  -0.05   0.02    -0.01   0.02  -0.01
  15   6     0.00   0.03  -0.09     0.01  -0.00  -0.05    -0.01   0.00   0.02
  16   6     0.02  -0.03   0.01    -0.04   0.02   0.08     0.02  -0.01  -0.03
  17   6     0.02   0.00  -0.09     0.01  -0.01   0.01    -0.00   0.00  -0.00
  18   6    -0.15   0.11   0.25    -0.09   0.14  -0.05     0.03  -0.05   0.02
  19   6     0.07  -0.07  -0.06     0.06  -0.09   0.03    -0.02   0.04  -0.02
  20   1    -0.01  -0.02   0.01    -0.04   0.07   0.00     0.02  -0.01  -0.01
  21   1    -0.02  -0.03   0.02    -0.04  -0.07   0.03     0.02   0.04  -0.01
  22   1     0.00  -0.03   0.01    -0.01   0.10  -0.00     0.00  -0.04   0.00
  23   1     0.00  -0.00  -0.01    -0.08  -0.09   0.21    -0.13  -0.18   0.34
  24   1     0.03   0.06  -0.01    -0.15  -0.30   0.03    -0.11  -0.24  -0.02
  25   1     0.00   0.01  -0.00    -0.02  -0.05  -0.05    -0.02  -0.09  -0.20
  26   1     0.02   0.04  -0.04    -0.04  -0.07   0.05     0.13   0.20  -0.30
  27   1     0.01   0.02   0.01     0.04   0.06  -0.01     0.21   0.42   0.06
  28   1    -0.02   0.02   0.03    -0.05   0.04   0.07     0.02  -0.02  -0.03
  29   1    -0.22   0.35  -0.14    -0.08   0.11  -0.01     0.03  -0.04   0.00
  30   1     0.20  -0.30   0.08    -0.00   0.00  -0.00     0.00  -0.01   0.00
  31   1     0.00   0.00  -0.01     0.00  -0.01   0.01    -0.00   0.00  -0.00
  32   1     0.04  -0.03  -0.04     0.06  -0.06  -0.07    -0.02   0.02   0.02
  33   1    -0.15   0.25  -0.11     0.04  -0.07   0.03    -0.02   0.03  -0.01
  34   1     0.26  -0.37   0.11     0.01   0.01  -0.00     0.01  -0.01   0.00
                     64                     65                     66
                        a                      a                      a 
 Frequencies --  1316.8175              1329.6976              1364.7259
 Red. masses --    11.3933                 7.2560                10.5476
 Frc consts  --     0.0000                 0.0000                 0.0000
 IR Inten    --     3.4257                 0.6651                 8.6745
 Raman Activ --     0.0000                 0.0000                 0.0000
 Depolar     --     0.0000                 0.0000                 0.0000
 Atom AN      X      Y      Z        X      Y      Z        X      Y      Z
   1   6     0.01  -0.01   0.01     0.00  -0.03   0.00     0.01   0.00  -0.00
   2   6    -0.02   0.03   0.00     0.02  -0.05   0.04    -0.04   0.11  -0.02
   3   7     0.00  -0.01  -0.00    -0.03  -0.01   0.01    -0.01  -0.02   0.02
   4   6     0.04   0.17   0.37     0.01   0.02  -0.01     0.00   0.01  -0.00
   5   6     0.13   0.17  -0.36     0.01   0.01  -0.01     0.00   0.00  -0.00
   6   6    -0.13  -0.29  -0.04    -0.00   0.00   0.01     0.00   0.01   0.00
   7   6     0.05   0.19   0.41    -0.00  -0.01   0.00    -0.00  -0.00   0.00
   8   6     0.10   0.15  -0.26    -0.00  -0.00  -0.01    -0.00  -0.00  -0.00
   9   6    -0.19  -0.39  -0.06     0.01   0.01  -0.00     0.00   0.01   0.00
  10   6     0.01  -0.01  -0.01     0.01   0.10  -0.25     0.13  -0.25   0.18
  11   6     0.00  -0.00  -0.00     0.11  -0.12  -0.07     0.19  -0.21  -0.10
  12   6     0.00  -0.00   0.01    -0.03  -0.05   0.21    -0.20   0.25   0.06
  13   6    -0.01   0.01   0.00     0.07  -0.02  -0.20     0.01  -0.02   0.02
  14   6     0.00  -0.00   0.00    -0.16   0.19   0.07    -0.14   0.27  -0.23
  15   6     0.00  -0.00  -0.01     0.01   0.01  -0.08     0.09  -0.20   0.19
  16   6    -0.00   0.00   0.01     0.08  -0.04  -0.17     0.15  -0.20  -0.02
  17   6     0.00  -0.00   0.00     0.06  -0.15   0.19    -0.24   0.32  -0.01
  18   6    -0.00   0.01  -0.01     0.17  -0.17  -0.15     0.03  -0.04   0.02
  19   6     0.00  -0.01   0.00    -0.21   0.22   0.14    -0.10   0.19  -0.18
  20   1    -0.01  -0.01   0.00    -0.00   0.05  -0.00    -0.02  -0.02   0.01
  21   1    -0.01  -0.01   0.00     0.02   0.03  -0.04    -0.03  -0.03   0.02
  22   1     0.00   0.00  -0.00    -0.01   0.04  -0.01     0.01  -0.03   0.01
  23   1    -0.02  -0.02   0.02    -0.00  -0.01   0.01    -0.00  -0.00   0.00
  24   1    -0.06  -0.12  -0.01    -0.00  -0.01   0.00    -0.00  -0.01   0.00
  25   1    -0.01  -0.05  -0.11    -0.00  -0.00   0.00    -0.00  -0.00  -0.00
  26   1     0.05   0.06  -0.12    -0.01  -0.01   0.01    -0.00  -0.00   0.00
  27   1     0.03   0.05  -0.00    -0.00  -0.01  -0.00    -0.00  -0.00  -0.00
  28   1    -0.01   0.00   0.01    -0.19   0.16   0.24     0.01  -0.03   0.02
  29   1    -0.01   0.01  -0.00    -0.04   0.05   0.04     0.02  -0.06   0.07
  30   1     0.00  -0.00   0.00     0.04  -0.08   0.07     0.11  -0.16   0.02
  31   1     0.00  -0.00   0.00    -0.01  -0.08   0.26     0.03  -0.06   0.04
  32   1     0.00  -0.00  -0.00    -0.20   0.18   0.22     0.08  -0.09  -0.04
  33   1     0.00  -0.00   0.00    -0.11   0.15  -0.02     0.10  -0.17   0.10
  34   1    -0.00   0.00  -0.00     0.10  -0.17   0.12     0.08  -0.09  -0.00
                     67                     68                     69
                        a                      a                      a 
 Frequencies --  1380.0610              1398.6320              1424.6955
 Red. masses --     3.4614                 9.7612                10.2100
 Frc consts  --     0.0000                 0.0000                 0.0000
 IR Inten    --    20.9967                 0.9821                 1.2567
 Raman Activ --     0.0000                 0.0000                 0.0000
 Depolar     --     0.0000                 0.0000                 0.0000
 Atom AN      X      Y      Z        X      Y      Z        X      Y      Z
   1   6     0.08   0.39  -0.22    -0.00  -0.00   0.02     0.01   0.00   0.02
   2   6    -0.01  -0.07   0.03     0.01  -0.01  -0.02     0.00  -0.01  -0.02
   3   7    -0.01  -0.01   0.01     0.02   0.00  -0.01     0.03   0.00  -0.02
   4   6     0.01   0.01  -0.01     0.00  -0.00  -0.00     0.01   0.01   0.00
   5   6     0.01   0.01  -0.02    -0.01  -0.01   0.01    -0.01  -0.02   0.03
   6   6     0.00   0.01   0.02     0.00  -0.00  -0.01    -0.00  -0.01  -0.02
   7   6    -0.01  -0.01   0.00     0.00   0.00  -0.01     0.01   0.02  -0.00
   8   6    -0.00  -0.01  -0.02    -0.00  -0.00   0.01    -0.01  -0.01   0.03
   9   6     0.01   0.03   0.00    -0.00  -0.01  -0.00    -0.01  -0.02  -0.01
  10   6     0.00   0.01  -0.01    -0.06  -0.05   0.31    -0.09   0.04   0.19
  11   6    -0.00   0.01  -0.01     0.11  -0.06  -0.22    -0.12   0.20  -0.12
  12   6     0.01  -0.02   0.01     0.00   0.00  -0.02     0.22  -0.31   0.07
  13   6     0.01  -0.01   0.00    -0.13   0.02   0.41     0.18  -0.17  -0.20
  14   6    -0.01  -0.00   0.02     0.02  -0.04   0.05    -0.21   0.27   0.02
  15   6    -0.01   0.02  -0.03     0.03   0.07  -0.31     0.05  -0.00  -0.16
  16   6     0.00   0.00  -0.01    -0.10   0.06   0.18     0.15  -0.20   0.02
  17   6     0.02  -0.03   0.02     0.05  -0.10   0.09    -0.13   0.16   0.04
  18   6     0.00   0.01  -0.03     0.13   0.01  -0.49    -0.22   0.25   0.11
  19   6    -0.01   0.01   0.01    -0.05   0.07  -0.03     0.19  -0.24  -0.03
  20   1    -0.19  -0.48   0.03     0.00   0.02   0.00    -0.01   0.02   0.01
  21   1    -0.15  -0.31   0.33    -0.01   0.01  -0.03    -0.03   0.01  -0.04
  22   1     0.09  -0.40   0.33     0.00  -0.00  -0.02     0.01  -0.02  -0.01
  23   1    -0.01  -0.01   0.02     0.00   0.01  -0.01     0.01   0.01  -0.02
  24   1    -0.01  -0.02   0.00     0.00   0.01  -0.00     0.01   0.01  -0.00
  25   1    -0.00  -0.00   0.00     0.00   0.00  -0.00     0.00   0.00  -0.01
  26   1    -0.01  -0.01   0.01     0.00   0.01  -0.01     0.01   0.01  -0.02
  27   1    -0.01  -0.02  -0.00     0.00   0.01   0.00     0.01   0.02  -0.00
  28   1    -0.03   0.02   0.03    -0.04   0.05   0.02    -0.06   0.08  -0.01
  29   1    -0.00   0.01  -0.00    -0.12   0.18  -0.07    -0.06   0.10  -0.06
  30   1    -0.00  -0.00   0.01     0.11  -0.18   0.08     0.07  -0.12   0.08
  31   1    -0.00  -0.00   0.02    -0.00  -0.04   0.12    -0.00  -0.09   0.25
  32   1    -0.02   0.02   0.02    -0.01  -0.00   0.03    -0.01  -0.01   0.07
  33   1    -0.01   0.02  -0.00     0.08  -0.13   0.06     0.01  -0.03   0.04
  34   1     0.00  -0.00   0.00    -0.12   0.18  -0.07    -0.08   0.12  -0.07
                     70                     71                     72
                        a                      a                      a 
 Frequencies --  1433.7164              1448.0772              1454.7622
 Red. masses --     9.0122                 9.2472                 2.4508
 Frc consts  --     0.0000                 0.0000                 0.0000
 IR Inten    --     7.7876                 8.7060                12.3723
 Raman Activ --     0.0000                 0.0000                 0.0000
 Depolar     --     0.0000                 0.0000                 0.0000
 Atom AN      X      Y      Z        X      Y      Z        X      Y      Z
   1   6    -0.01  -0.00  -0.01     0.02  -0.01  -0.04     0.06  -0.15  -0.15
   2   6    -0.00  -0.02   0.01     0.03  -0.11   0.02    -0.06   0.03   0.00
   3   7     0.01   0.03   0.04     0.02   0.01  -0.03     0.05   0.01  -0.04
   4   6    -0.03  -0.16  -0.33     0.01   0.02   0.00     0.03   0.05  -0.02
   5   6     0.14   0.29  -0.01    -0.01  -0.02   0.03    -0.02  -0.02   0.07
   6   6    -0.17  -0.31   0.18    -0.00  -0.01  -0.02    -0.02  -0.05  -0.03
   7   6    -0.03  -0.11  -0.23     0.01   0.02   0.00     0.02   0.04  -0.02
   8   6     0.18   0.32  -0.16    -0.01  -0.02   0.03    -0.02  -0.02   0.07
   9   6    -0.12  -0.18   0.24    -0.00  -0.01  -0.02    -0.02  -0.06  -0.03
  10   6    -0.01   0.02   0.00    -0.20   0.31  -0.11     0.05  -0.08   0.03
  11   6    -0.00   0.00  -0.01     0.09  -0.08  -0.13    -0.02   0.02   0.03
  12   6     0.01  -0.01   0.00     0.08  -0.16   0.14    -0.02   0.04  -0.04
  13   6     0.00  -0.00  -0.00    -0.13   0.21  -0.09     0.03  -0.05   0.03
  14   6    -0.01   0.01  -0.01    -0.04   0.10  -0.13     0.01  -0.02   0.03
  15   6     0.01  -0.01  -0.00     0.12  -0.18   0.06    -0.03   0.04  -0.02
  16   6    -0.00  -0.00   0.01    -0.16   0.14   0.21     0.04  -0.04  -0.05
  17   6    -0.01   0.01  -0.01    -0.06   0.16  -0.22     0.01  -0.03   0.05
  18   6    -0.00  -0.00   0.00     0.18  -0.29   0.14    -0.04   0.07  -0.03
  19   6     0.01  -0.01   0.00     0.04  -0.11   0.18    -0.01   0.02  -0.05
  20   1     0.00  -0.00  -0.00    -0.12  -0.02   0.03    -0.45  -0.05   0.11
  21   1     0.02   0.01   0.01     0.07   0.07  -0.02     0.32   0.25  -0.06
  22   1    -0.01   0.01   0.02    -0.02   0.06   0.15    -0.11   0.31   0.59
  23   1    -0.02  -0.00   0.15     0.01   0.01  -0.02     0.02   0.03  -0.05
  24   1     0.08   0.19   0.08     0.01   0.01  -0.00     0.03   0.05  -0.00
  25   1     0.04   0.15   0.32     0.00  -0.00  -0.01     0.01   0.01  -0.01
  26   1    -0.05  -0.05   0.21     0.01   0.01  -0.02     0.02   0.04  -0.05
  27   1     0.05   0.12   0.09     0.01   0.01  -0.00     0.03   0.05  -0.00
  28   1    -0.00   0.01   0.00    -0.12   0.11   0.14     0.03  -0.05  -0.05
  29   1    -0.00   0.01  -0.00    -0.08   0.12  -0.02     0.02  -0.03   0.00
  30   1     0.01  -0.01   0.00     0.05  -0.06  -0.01    -0.01   0.01   0.00
  31   1     0.00  -0.00   0.00     0.04  -0.02  -0.08    -0.01   0.01   0.02
  32   1     0.01  -0.01  -0.00     0.15  -0.13  -0.18    -0.03   0.03   0.04
  33   1     0.01  -0.01   0.00     0.11  -0.15   0.01    -0.02   0.03   0.00
  34   1    -0.00   0.01  -0.00    -0.06   0.06   0.02     0.01  -0.01  -0.01
                     73                     74                     75
                        a                      a                      a 
 Frequencies --  1463.4828              1466.7197              1500.0694
 Red. masses --     1.9758                 8.3248                10.6095
 Frc consts  --     0.0000                 0.0000                 0.0000
 IR Inten    --     9.1460                22.9580                 2.1297
 Raman Activ --     0.0000                 0.0000                 0.0000
 Depolar     --     0.0000                 0.0000                 0.0000
 Atom AN      X      Y      Z        X      Y      Z        X      Y      Z
   1   6     0.20   0.04   0.08     0.04  -0.06   0.01     0.02   0.00  -0.00
   2   6     0.01  -0.03   0.04     0.06   0.03  -0.06    -0.01   0.00   0.03
   3   7     0.01  -0.01  -0.00     0.04   0.09  -0.03    -0.02  -0.01   0.01
   4   6     0.04   0.06  -0.05    -0.19  -0.33   0.19     0.02   0.03  -0.01
   5   6    -0.01  -0.00   0.06     0.06   0.05  -0.30    -0.00   0.00   0.02
   6   6    -0.03  -0.06  -0.02     0.12   0.26   0.12    -0.01  -0.02  -0.01
   7   6     0.02   0.03  -0.03    -0.10  -0.18   0.11     0.01   0.02  -0.00
   8   6    -0.01  -0.01   0.06     0.06   0.06  -0.31    -0.01  -0.01   0.02
   9   6    -0.03  -0.06  -0.02     0.12   0.25   0.13    -0.00  -0.01  -0.01
  10   6    -0.01  -0.01   0.02    -0.02   0.01   0.01     0.10   0.01  -0.34
  11   6     0.02  -0.02  -0.01    -0.02   0.02   0.01    -0.19   0.13   0.32
  12   6    -0.01   0.01   0.01     0.01  -0.01  -0.02    -0.02   0.11  -0.22
  13   6    -0.02   0.04  -0.02     0.01  -0.02   0.01     0.18  -0.30   0.18
  14   6     0.03  -0.03  -0.00    -0.02   0.02   0.00    -0.14   0.15   0.09
  15   6    -0.01   0.00   0.04     0.01   0.00  -0.03     0.07   0.03  -0.34
  16   6    -0.00   0.01  -0.03    -0.00  -0.01   0.02    -0.09   0.03   0.26
  17   6     0.02  -0.03   0.01    -0.01   0.02  -0.01    -0.06   0.14  -0.14
  18   6    -0.00   0.00   0.01     0.00  -0.00   0.00     0.14  -0.19   0.02
  19   6    -0.01   0.02  -0.02     0.01  -0.01   0.01    -0.08   0.06   0.12
  20   1    -0.41   0.35   0.12    -0.18   0.08   0.05    -0.02   0.03   0.00
  21   1    -0.47  -0.04  -0.49    -0.02   0.07  -0.14    -0.04  -0.02  -0.02
  22   1     0.10  -0.35   0.04    -0.01  -0.01   0.13     0.01  -0.03  -0.01
  23   1     0.02   0.03  -0.03    -0.09  -0.15   0.19     0.01   0.01  -0.01
  24   1     0.02   0.05  -0.00    -0.11  -0.21   0.01     0.01   0.01  -0.00
  25   1     0.01   0.02   0.00    -0.03  -0.06   0.03     0.00   0.00  -0.00
  26   1     0.02   0.03  -0.03    -0.09  -0.14   0.18     0.01   0.01  -0.01
  27   1     0.03   0.05  -0.00    -0.12  -0.22   0.01     0.01   0.01  -0.00
  28   1     0.02  -0.02  -0.02     0.01  -0.01  -0.02     0.09  -0.09  -0.09
  29   1     0.00  -0.00   0.01     0.00   0.00  -0.01     0.08  -0.10  -0.01
  30   1    -0.01   0.02  -0.01     0.01  -0.01   0.01     0.06  -0.11   0.08
  31   1    -0.00   0.01  -0.03     0.00  -0.01   0.02     0.01  -0.06   0.14
  32   1    -0.01   0.01  -0.00     0.01  -0.01  -0.00     0.06  -0.07  -0.03
  33   1    -0.01   0.02  -0.01     0.01  -0.01   0.00     0.08  -0.11   0.02
  34   1     0.01  -0.01   0.00    -0.01   0.01  -0.00     0.03  -0.05   0.06
                     76                     77                     78
                        a                      a                      a 
 Frequencies --  1559.0542              1568.7137              1593.3259
 Red. masses --    11.6359                11.4218                11.4747
 Frc consts  --     0.0000                 0.0000                 0.0000
 IR Inten    --     1.4143                 2.5139                81.3450
 Raman Activ --     0.0000                 0.0000                 0.0000
 Depolar     --     0.0000                 0.0000                 0.0000
 Atom AN      X      Y      Z        X      Y      Z        X      Y      Z
   1   6    -0.01   0.00   0.00     0.00  -0.00   0.00     0.00   0.00   0.00
   2   6    -0.01   0.02  -0.01    -0.00   0.01  -0.00     0.07  -0.02  -0.04
   3   7     0.01   0.00  -0.00    -0.00  -0.01  -0.02    -0.08  -0.02   0.05
   4   6    -0.00   0.00   0.02     0.05   0.19   0.39     0.10   0.17  -0.13
   5   6     0.00  -0.00  -0.02     0.03  -0.01  -0.29    -0.17  -0.28   0.28
   6   6     0.01   0.02   0.01     0.10   0.25   0.23     0.20   0.38  -0.08
   7   6    -0.01  -0.02  -0.03    -0.07  -0.26  -0.51    -0.09  -0.15   0.12
   8   6     0.00   0.01   0.01     0.01   0.07   0.30     0.17   0.27  -0.32
   9   6    -0.01  -0.02  -0.01    -0.12  -0.27  -0.16    -0.19  -0.34   0.10
  10   6     0.02  -0.15   0.29     0.00   0.00  -0.02    -0.05   0.08  -0.06
  11   6     0.13  -0.11  -0.17    -0.01   0.01   0.01     0.08  -0.10  -0.03
  12   6    -0.09   0.08   0.10     0.01  -0.02  -0.01    -0.09   0.13  -0.01
  13   6     0.13  -0.04  -0.36    -0.01   0.01   0.02     0.04  -0.06   0.02
  14   6     0.00  -0.08   0.20    -0.00   0.01  -0.01    -0.00  -0.01   0.02
  15   6     0.04   0.08  -0.35    -0.00  -0.01   0.02    -0.00   0.02  -0.03
  16   6    -0.22   0.19   0.28     0.01  -0.01  -0.01     0.01  -0.01   0.00
  17   6     0.14  -0.14  -0.14    -0.01   0.01   0.01     0.00  -0.00   0.00
  18   6    -0.08  -0.03   0.37     0.01  -0.01  -0.02    -0.05   0.06   0.00
  19   6    -0.09   0.19  -0.21    -0.00  -0.00   0.01     0.07  -0.11   0.05
  20   1     0.00  -0.01  -0.00    -0.00  -0.01   0.00    -0.01  -0.01   0.00
  21   1     0.01   0.00   0.01     0.00  -0.00   0.00     0.00   0.01  -0.01
  22   1    -0.00   0.01   0.00    -0.00   0.01  -0.00     0.00  -0.01   0.01
  23   1    -0.00  -0.00   0.00    -0.04  -0.06   0.04     0.02   0.02  -0.10
  24   1    -0.00  -0.00   0.00    -0.04  -0.06   0.05    -0.04  -0.09  -0.04
  25   1     0.00   0.00   0.01     0.01   0.06   0.14    -0.02  -0.05   0.01
  26   1     0.00   0.00   0.00     0.03   0.06   0.00    -0.03  -0.04   0.10
  27   1     0.00   0.01   0.00     0.05   0.08  -0.02     0.04   0.07   0.04
  28   1    -0.02   0.02   0.02     0.00  -0.00  -0.00    -0.01   0.00   0.03
  29   1     0.01  -0.03   0.04    -0.00   0.00  -0.00     0.02  -0.03   0.02
  30   1    -0.04   0.04   0.03     0.00  -0.00  -0.00    -0.00  -0.00   0.01
  31   1    -0.00  -0.02   0.06     0.00   0.00  -0.00    -0.00  -0.00   0.01
  32   1     0.04  -0.04  -0.06    -0.00   0.00   0.00    -0.00   0.00   0.01
  33   1    -0.00   0.02  -0.06     0.00  -0.00   0.00    -0.00   0.00   0.00
  34   1     0.07  -0.08  -0.00    -0.00   0.00   0.00    -0.02   0.03  -0.00
                     79                     80                     81
                        a                      a                      a 
 Frequencies --  1597.3952              1608.1055              1703.6814
 Red. masses --    11.5017                11.4124                12.7375
 Frc consts  --     0.0000                 0.0000                 0.0000
 IR Inten    --    13.1984                 0.2408               310.3709
 Raman Activ --     0.0000                 0.0000                 0.0000
 Depolar     --     0.0000                 0.0000                 0.0000
 Atom AN      X      Y      Z        X      Y      Z        X      Y      Z
   1   6     0.00  -0.01   0.00    -0.00  -0.00   0.00     0.03   0.03  -0.03
   2   6     0.05  -0.02  -0.02     0.01   0.01  -0.01    -0.56  -0.07   0.44
   3   7    -0.03  -0.01   0.02    -0.01  -0.00   0.01     0.51   0.14  -0.40
   4   6    -0.02  -0.03   0.05    -0.00  -0.00   0.00    -0.04  -0.08   0.03
   5   6     0.06   0.09  -0.10     0.01   0.01  -0.01    -0.03  -0.04   0.04
   6   6    -0.06  -0.12   0.03    -0.01  -0.01   0.00     0.03   0.05  -0.01
   7   6     0.03   0.04  -0.05     0.00   0.00  -0.00    -0.01  -0.02   0.01
   8   6    -0.06  -0.09   0.11    -0.01  -0.01   0.01     0.02   0.03  -0.03
   9   6     0.06   0.11  -0.04     0.01   0.01  -0.00    -0.02  -0.05   0.01
  10   6    -0.15   0.26  -0.15     0.01  -0.01   0.00     0.02   0.01  -0.04
  11   6     0.27  -0.31  -0.12    -0.01   0.01   0.01     0.04  -0.04  -0.02
  12   6    -0.29   0.40  -0.02    -0.02   0.04  -0.04    -0.03   0.04  -0.00
  13   6     0.10  -0.15   0.04     0.14  -0.21   0.05     0.01  -0.02   0.01
  14   6     0.02  -0.06   0.08    -0.22   0.38  -0.23    -0.00   0.01  -0.00
  15   6    -0.03   0.08  -0.11     0.12  -0.26   0.27     0.00  -0.00   0.00
  16   6     0.04  -0.05   0.01    -0.25   0.30   0.07    -0.00   0.00  -0.00
  17   6    -0.02   0.02   0.01     0.29  -0.40   0.05     0.00  -0.01   0.01
  18   6    -0.15   0.18   0.03    -0.12   0.20  -0.10    -0.02   0.03  -0.01
  19   6     0.22  -0.34   0.16     0.03  -0.04  -0.00     0.02  -0.04   0.03
  20   1    -0.01   0.00   0.00    -0.00  -0.00   0.00     0.04   0.03  -0.01
  21   1     0.00   0.00  -0.01     0.00   0.00  -0.00    -0.03  -0.05   0.03
  22   1     0.00  -0.01   0.00    -0.00  -0.00   0.00    -0.00   0.03  -0.06
  23   1    -0.01  -0.01   0.03    -0.00  -0.00   0.00     0.00   0.00  -0.01
  24   1     0.01   0.03   0.01     0.00   0.00   0.00    -0.00  -0.01  -0.01
  25   1     0.01   0.02  -0.00     0.00   0.00  -0.00    -0.00  -0.00   0.00
  26   1     0.01   0.01  -0.03     0.00   0.00  -0.00    -0.00   0.00   0.01
  27   1    -0.01  -0.02  -0.01    -0.00  -0.00  -0.00    -0.00   0.01   0.01
  28   1    -0.04   0.02   0.10     0.01  -0.01  -0.01    -0.00   0.00   0.01
  29   1     0.04  -0.08   0.07     0.02  -0.02   0.00     0.00  -0.01   0.01
  30   1    -0.01   0.01   0.02     0.07  -0.09   0.00     0.00  -0.00   0.00
  31   1    -0.01   0.00   0.04     0.04  -0.02  -0.10     0.00  -0.00  -0.00
  32   1    -0.01   0.00   0.03     0.04  -0.01  -0.11    -0.00   0.00   0.00
  33   1    -0.01   0.01   0.01    -0.04   0.09  -0.06    -0.00   0.00   0.00
  34   1    -0.07   0.09  -0.02    -0.01   0.02  -0.01    -0.00   0.01   0.00
                     82                     83                     84
                        a                      a                      a 
 Frequencies --  3006.5857              3027.6353              3057.0018
 Red. masses --     1.8333                 1.5772                 1.7415
 Frc consts  --     0.0000                 0.0000                 0.0000
 IR Inten    --    11.5557                19.4486                22.4202
 Raman Activ --     0.0000                 0.0000                 0.0000
 Depolar     --     0.0000                 0.0000                 0.0000
 Atom AN      X      Y      Z        X      Y      Z        X      Y      Z
   1   6    -0.11  -0.03  -0.25     0.22   0.06  -0.03    -0.16   0.17   0.11
   2   6     0.00   0.00  -0.01     0.01   0.00  -0.00    -0.01   0.01   0.00
   3   7    -0.00  -0.00   0.00    -0.00   0.00   0.00     0.00  -0.00  -0.00
   4   6     0.00   0.00   0.00    -0.00  -0.00  -0.00    -0.00  -0.00   0.00
   5   6    -0.00   0.00   0.00    -0.00  -0.00  -0.00    -0.00  -0.00  -0.00
   6   6    -0.00   0.00  -0.00     0.00  -0.00  -0.00    -0.00   0.00   0.00
   7   6     0.00   0.00  -0.00     0.00   0.00  -0.00     0.00   0.00  -0.00
   8   6     0.00   0.00   0.00     0.00   0.00   0.00    -0.00  -0.00  -0.00
   9   6    -0.00  -0.00   0.00    -0.00   0.00   0.00    -0.00  -0.00   0.01
  10   6    -0.00  -0.00  -0.00    -0.00  -0.00  -0.00     0.00  -0.00  -0.00
  11   6     0.00  -0.01   0.01     0.00  -0.00   0.00    -0.00   0.00  -0.00
  12   6     0.00   0.00  -0.00     0.00  -0.00  -0.00    -0.00   0.00   0.00
  13   6     0.00  -0.00  -0.00     0.00  -0.00   0.00    -0.00   0.00   0.00
  14   6    -0.00   0.00   0.00    -0.00   0.00   0.00    -0.00   0.00   0.00
  15   6     0.00  -0.00   0.00     0.00  -0.00   0.00    -0.00   0.00   0.00
  16   6     0.00  -0.00  -0.00     0.00  -0.00  -0.00    -0.00   0.00  -0.00
  17   6     0.00   0.00  -0.00     0.00  -0.00  -0.00     0.00  -0.00  -0.00
  18   6     0.00  -0.00   0.00     0.00  -0.00   0.00     0.00  -0.00  -0.00
  19   6    -0.00   0.00   0.00    -0.00   0.00   0.00     0.00  -0.00  -0.00
  20   1     0.24   0.02   0.91     0.09   0.01   0.21    -0.01   0.02   0.06
  21   1    -0.05   0.04  -0.00     0.06  -0.04  -0.03     0.52  -0.67  -0.45
  22   1     0.20   0.04  -0.02    -0.92  -0.19  -0.07     0.06   0.04   0.02
  23   1    -0.00  -0.00  -0.00     0.00   0.00   0.00     0.00   0.01   0.01
  24   1    -0.00  -0.00   0.00    -0.00  -0.00   0.00     0.00   0.00  -0.01
  25   1    -0.00  -0.00   0.00    -0.00  -0.00   0.00    -0.00  -0.01   0.00
  26   1    -0.00  -0.00  -0.00    -0.00  -0.00  -0.00     0.01   0.02   0.01
  27   1     0.00   0.00  -0.00     0.00   0.00  -0.00     0.00   0.00  -0.03
  28   1    -0.01   0.02  -0.02    -0.01   0.02  -0.01     0.00  -0.01   0.01
  29   1    -0.00   0.00   0.00    -0.00   0.00   0.00     0.00  -0.00  -0.01
  30   1     0.00  -0.00  -0.00     0.00  -0.00  -0.00     0.00  -0.00  -0.00
  31   1    -0.00   0.00   0.00    -0.00   0.00   0.00     0.00  -0.00  -0.00
  32   1     0.00  -0.00   0.00     0.00  -0.00   0.00     0.00  -0.00   0.00
  33   1    -0.00  -0.00   0.00    -0.00   0.00   0.00    -0.00   0.00   0.01
  34   1     0.00  -0.00  -0.00     0.00  -0.00  -0.00    -0.00   0.00   0.01
                     85                     86                     87
                        a                      a                      a 
 Frequencies --  3059.3632              3063.6547              3065.6200
 Red. masses --     1.7615                 1.7658                 1.7715
 Frc consts  --     0.0000                 0.0000                 0.0000
 IR Inten    --    21.2803                13.0423                 0.3649
 Raman Activ --     0.0000                 0.0000                 0.0000
 Depolar     --     0.0000                 0.0000                 0.0000
 Atom AN      X      Y      Z        X      Y      Z        X      Y      Z
   1   6     0.01  -0.01  -0.00    -0.00   0.00   0.00    -0.00   0.00   0.00
   2   6     0.00   0.00  -0.00    -0.00   0.00   0.00    -0.00   0.00  -0.00
   3   7    -0.00  -0.00  -0.00     0.00   0.00  -0.00     0.00  -0.00  -0.00
   4   6    -0.00  -0.00   0.01     0.00   0.00   0.00    -0.00  -0.00   0.00
   5   6     0.00   0.01   0.01     0.03   0.07   0.05     0.00   0.00   0.00
   6   6     0.00   0.00   0.00     0.03   0.01  -0.23     0.00   0.00  -0.00
   7   6     0.02   0.03  -0.02    -0.04  -0.07   0.04    -0.00  -0.00   0.00
   8   6    -0.06  -0.14  -0.11     0.00   0.00   0.01    -0.00  -0.00  -0.00
   9   6    -0.02  -0.01   0.17    -0.00  -0.00   0.04    -0.00  -0.00   0.00
  10   6    -0.00   0.00  -0.00     0.00  -0.00  -0.00     0.00  -0.00   0.00
  11   6     0.00  -0.00   0.00     0.00  -0.00   0.00     0.01  -0.02   0.02
  12   6    -0.00   0.00   0.00     0.00  -0.00  -0.00     0.05  -0.02  -0.13
  13   6    -0.00   0.00   0.00     0.00  -0.00  -0.00     0.00  -0.00   0.00
  14   6    -0.00   0.00   0.00     0.00  -0.00  -0.00    -0.06   0.02   0.16
  15   6     0.00  -0.00  -0.00    -0.00   0.00   0.00     0.07  -0.08  -0.02
  16   6    -0.00   0.00  -0.00     0.00  -0.00   0.00    -0.02   0.05  -0.05
  17   6     0.00  -0.00  -0.00     0.00  -0.00  -0.00    -0.02   0.01   0.06
  18   6     0.00  -0.00   0.00     0.00  -0.00  -0.00    -0.00   0.00   0.00
  19   6    -0.00   0.00   0.01    -0.00   0.00   0.00     0.00  -0.00  -0.01
  20   1    -0.00  -0.00  -0.00    -0.00   0.00  -0.00    -0.00  -0.00  -0.01
  21   1    -0.02   0.03   0.02     0.00  -0.01  -0.00     0.00  -0.00  -0.00
  22   1    -0.00  -0.00  -0.00     0.00   0.00   0.00     0.00   0.00   0.00
  23   1    -0.01  -0.03  -0.02    -0.11  -0.26  -0.19    -0.00  -0.00  -0.00
  24   1     0.00  -0.00  -0.01    -0.11  -0.02   0.82    -0.00  -0.00   0.01
  25   1    -0.08  -0.14   0.08     0.15   0.27  -0.14     0.00   0.00  -0.00
  26   1     0.22   0.52   0.39    -0.01  -0.03  -0.02     0.00   0.00   0.00
  27   1     0.08   0.02  -0.64     0.02   0.00  -0.12     0.00   0.00  -0.00
  28   1    -0.00   0.00  -0.00    -0.00   0.00  -0.00    -0.04   0.08  -0.09
  29   1     0.00  -0.00  -0.01    -0.00   0.00   0.01    -0.17   0.06   0.46
  30   1     0.00  -0.00  -0.00    -0.00   0.00   0.00     0.21  -0.07  -0.56
  31   1    -0.00   0.00   0.00     0.00  -0.00  -0.00    -0.26   0.32   0.08
  32   1     0.00  -0.00   0.00    -0.00   0.01  -0.01     0.08  -0.18   0.20
  33   1    -0.00   0.00   0.00    -0.01   0.00   0.02     0.08  -0.03  -0.22
  34   1     0.01  -0.00  -0.02     0.00  -0.00  -0.01    -0.01   0.00   0.02
                     88                     89                     90
                        a                      a                      a 
 Frequencies --  3066.3933              3068.7873              3070.1865
 Red. masses --     1.7846                 1.7859                 1.8530
 Frc consts  --     0.0000                 0.0000                 0.0000
 IR Inten    --    20.8804                25.1050               117.9172
 Raman Activ --     0.0000                 0.0000                 0.0000
 Depolar     --     0.0000                 0.0000                 0.0000
 Atom AN      X      Y      Z        X      Y      Z        X      Y      Z
   1   6    -0.00  -0.00   0.00     0.00  -0.00  -0.00    -0.00   0.00  -0.00
   2   6    -0.00  -0.00   0.00     0.00  -0.00   0.00     0.00  -0.00  -0.00
   3   7     0.00  -0.00  -0.00    -0.00   0.00   0.00    -0.00  -0.00   0.00
   4   6    -0.00   0.00  -0.00     0.00   0.00  -0.00     0.00   0.01  -0.00
   5   6    -0.00  -0.00  -0.00     0.00   0.00   0.00     0.01   0.02   0.02
   6   6    -0.00  -0.00   0.00    -0.00  -0.00   0.00     0.01   0.00  -0.07
   7   6     0.00   0.00  -0.00    -0.00  -0.00   0.00     0.04   0.08  -0.04
   8   6    -0.00  -0.00  -0.00     0.00   0.00   0.00    -0.05  -0.12  -0.09
   9   6     0.00   0.00  -0.00    -0.00  -0.00  -0.00     0.02   0.01  -0.19
  10   6    -0.00  -0.00   0.00    -0.00   0.00  -0.00    -0.00  -0.00  -0.00
  11   6     0.01  -0.02   0.02    -0.01   0.03  -0.03    -0.00   0.00  -0.00
  12   6     0.05  -0.02  -0.13    -0.06   0.02   0.16    -0.00   0.00   0.00
  13   6     0.00  -0.00  -0.00    -0.00   0.00   0.01    -0.00   0.00   0.00
  14   6    -0.01   0.00   0.03    -0.05   0.01   0.13    -0.00   0.00   0.00
  15   6    -0.02   0.02   0.01     0.06  -0.07  -0.02     0.00  -0.00  -0.00
  16   6     0.03  -0.07   0.08     0.01  -0.02   0.02    -0.00   0.00  -0.00
  17   6     0.07  -0.02  -0.17     0.04  -0.01  -0.09    -0.00   0.00  -0.00
  18   6     0.00  -0.00  -0.00     0.00  -0.00  -0.00    -0.00   0.00  -0.00
  19   6    -0.01   0.00   0.03    -0.01   0.00   0.03     0.00  -0.00  -0.01
  20   1    -0.00  -0.00  -0.01     0.00   0.00   0.01     0.00   0.00   0.00
  21   1     0.00  -0.00  -0.00    -0.00   0.01   0.00     0.00  -0.00  -0.00
  22   1     0.01   0.00   0.00    -0.00  -0.00  -0.00    -0.00  -0.00  -0.00
  23   1     0.00   0.00   0.00    -0.00  -0.01  -0.01    -0.03  -0.08  -0.06
  24   1     0.00   0.00  -0.01     0.00   0.00  -0.01    -0.03  -0.01   0.23
  25   1    -0.01  -0.01   0.01     0.00   0.01  -0.00    -0.16  -0.28   0.15
  26   1     0.00   0.01   0.00    -0.00  -0.01  -0.01     0.17   0.40   0.30
  27   1    -0.00  -0.00   0.01    -0.00   0.00   0.00    -0.08  -0.02   0.66
  28   1    -0.04   0.09  -0.10     0.05  -0.12   0.14     0.00  -0.01   0.01
  29   1    -0.17   0.06   0.45     0.21  -0.07  -0.57     0.00  -0.00  -0.01
  30   1     0.04  -0.01  -0.10     0.17  -0.06  -0.46     0.00  -0.00  -0.00
  31   1     0.06  -0.07  -0.02    -0.22   0.26   0.07    -0.00   0.00   0.00
  32   1    -0.12   0.28  -0.31    -0.03   0.08  -0.08     0.00  -0.00   0.00
  33   1    -0.24   0.08   0.62    -0.13   0.04   0.33     0.00  -0.00  -0.00
  34   1     0.03  -0.01  -0.10     0.04  -0.01  -0.10    -0.01   0.00   0.03
                     91                     92                     93
                        a                      a                      a 
 Frequencies --  3075.9682              3077.1031              3078.6270
 Red. masses --     1.8517                 1.8368                 1.8369
 Frc consts  --     0.0000                 0.0000                 0.0000
 IR Inten    --    50.2366               176.7795                59.2871
 Raman Activ --     0.0000                 0.0000                 0.0000
 Depolar     --     0.0000                 0.0000                 0.0000
 Atom AN      X      Y      Z        X      Y      Z        X      Y      Z
   1   6     0.00  -0.00  -0.00    -0.00   0.00   0.00     0.00  -0.00  -0.00
   2   6     0.00   0.00  -0.00    -0.00  -0.00   0.00     0.00   0.00  -0.00
   3   7    -0.00  -0.00   0.00     0.00  -0.00  -0.00    -0.00  -0.00   0.00
   4   6    -0.00  -0.00   0.00     0.00   0.00  -0.00     0.00   0.00  -0.00
   5   6    -0.01  -0.03  -0.02     0.05   0.11   0.08     0.05   0.12   0.09
   6   6     0.00   0.00  -0.01    -0.00  -0.00   0.04    -0.00  -0.00   0.03
   7   6    -0.01  -0.01   0.01     0.03   0.06  -0.04     0.05   0.08  -0.05
   8   6    -0.00  -0.01  -0.01     0.01   0.04   0.03     0.02   0.05   0.04
   9   6     0.00   0.00  -0.00    -0.00  -0.00   0.01    -0.01  -0.00   0.03
  10   6     0.00  -0.00  -0.00    -0.00   0.00   0.00     0.00  -0.00  -0.00
  11   6    -0.00   0.01  -0.01     0.00  -0.01   0.01    -0.00   0.01  -0.01
  12   6    -0.00   0.00   0.01    -0.00   0.00   0.00     0.00  -0.00  -0.00
  13   6     0.00  -0.00   0.00     0.00  -0.00  -0.00    -0.00   0.00   0.00
  14   6    -0.04   0.01   0.12    -0.02   0.00   0.05     0.01  -0.00  -0.02
  15   6    -0.07   0.09   0.02    -0.05   0.06   0.01     0.03  -0.03  -0.01
  16   6     0.04  -0.10   0.10     0.01  -0.02   0.02     0.00  -0.00   0.00
  17   6    -0.04   0.01   0.10    -0.02   0.01   0.06     0.01  -0.00  -0.03
  18   6    -0.00   0.00  -0.00    -0.00  -0.00   0.01     0.00   0.00  -0.01
  19   6     0.04  -0.01  -0.10    -0.06   0.02   0.16     0.06  -0.02  -0.16
  20   1     0.00  -0.00   0.00    -0.00   0.00  -0.00     0.00  -0.00   0.00
  21   1    -0.00   0.00   0.00     0.01  -0.01  -0.01    -0.00   0.00   0.00
  22   1    -0.00  -0.00  -0.00    -0.00   0.00   0.00    -0.00  -0.00  -0.00
  23   1     0.04   0.10   0.07    -0.16  -0.40  -0.29    -0.18  -0.43  -0.32
  24   1    -0.00  -0.00   0.03     0.01   0.00  -0.12     0.01   0.00  -0.10
  25   1     0.03   0.05  -0.03    -0.12  -0.22   0.12    -0.16  -0.29   0.16
  26   1     0.01   0.02   0.02    -0.05  -0.12  -0.09    -0.07  -0.16  -0.12
  27   1    -0.00  -0.00  -0.00     0.00   0.00  -0.04     0.01   0.00  -0.10
  28   1     0.02  -0.03   0.04    -0.01   0.02  -0.02     0.01  -0.02   0.03
  29   1     0.02  -0.00  -0.05     0.01  -0.00  -0.02    -0.00   0.00   0.01
  30   1     0.15  -0.05  -0.40     0.06  -0.02  -0.16    -0.02   0.01   0.07
  31   1     0.26  -0.32  -0.08     0.16  -0.19  -0.05    -0.09   0.11   0.03
  32   1    -0.15   0.34  -0.37    -0.03   0.08  -0.09    -0.00   0.00  -0.00
  33   1     0.12  -0.04  -0.32     0.08  -0.03  -0.22    -0.04   0.01   0.11
  34   1    -0.13   0.04   0.36     0.20  -0.07  -0.57    -0.20   0.07   0.56
                     94                     95                     96
                        a                      a                      a 
 Frequencies --  3086.2322              3086.4222              3090.4999
 Red. masses --     1.9108                 1.9125                 1.8595
 Frc consts  --     0.0000                 0.0000                 0.0000
 IR Inten    --    75.5489               117.0737                42.4168
 Raman Activ --     0.0000                 0.0000                 0.0000
 Depolar     --     0.0000                 0.0000                 0.0000
 Atom AN      X      Y      Z        X      Y      Z        X      Y      Z
   1   6     0.00  -0.00  -0.00    -0.00   0.00   0.00     0.00   0.00  -0.01
   2   6     0.00  -0.00  -0.00     0.00   0.00  -0.00    -0.00   0.00  -0.00
   3   7    -0.00  -0.00   0.00    -0.00  -0.00   0.00     0.00   0.00  -0.00
   4   6     0.00   0.00  -0.00     0.00   0.00  -0.00    -0.00  -0.00   0.00
   5   6     0.02   0.06   0.04     0.03   0.08   0.06     0.00   0.00   0.00
   6   6    -0.01  -0.00   0.07    -0.01  -0.00   0.10    -0.00  -0.00   0.01
   7   6    -0.05  -0.08   0.04    -0.07  -0.13   0.07    -0.00  -0.01   0.00
   8   6    -0.02  -0.04  -0.03    -0.03  -0.06  -0.05    -0.00  -0.00  -0.00
   9   6     0.00   0.00  -0.03     0.01   0.00  -0.05     0.00   0.00  -0.00
  10   6    -0.00   0.00  -0.00     0.00  -0.00   0.00    -0.01   0.01   0.00
  11   6    -0.01   0.03  -0.04     0.01  -0.03   0.03    -0.07   0.16  -0.18
  12   6     0.00  -0.00  -0.01    -0.00   0.00   0.01     0.03  -0.01  -0.08
  13   6     0.00  -0.00   0.00    -0.00   0.00  -0.00     0.00  -0.00   0.00
  14   6    -0.02   0.01   0.07     0.02  -0.00  -0.05     0.01  -0.00  -0.03
  15   6    -0.09   0.11   0.03     0.06  -0.07  -0.02     0.03  -0.03  -0.01
  16   6    -0.04   0.10  -0.10     0.03  -0.06   0.07     0.01  -0.03   0.03
  17   6     0.03  -0.01  -0.07    -0.02   0.01   0.04    -0.01   0.00   0.02
  18   6     0.00  -0.00  -0.00    -0.00   0.00   0.00    -0.00   0.00   0.00
  19   6     0.01  -0.00  -0.03    -0.00   0.00  -0.00    -0.01   0.00   0.02
  20   1     0.00  -0.00   0.01    -0.00   0.00  -0.00     0.01   0.00   0.03
  21   1    -0.00   0.00   0.00     0.01  -0.01  -0.00    -0.00   0.00   0.00
  22   1    -0.00  -0.00  -0.00    -0.00   0.00   0.00    -0.01  -0.00  -0.00
  23   1    -0.08  -0.19  -0.14    -0.11  -0.27  -0.20    -0.01  -0.01  -0.01
  24   1     0.03   0.00  -0.22     0.04   0.01  -0.33     0.00   0.00  -0.02
  25   1     0.16   0.28  -0.15     0.24   0.44  -0.24     0.01   0.02  -0.01
  26   1     0.05   0.12   0.09     0.08   0.20   0.15     0.01   0.01   0.01
  27   1    -0.01  -0.00   0.09    -0.02  -0.01   0.15     0.00   0.00  -0.00
  28   1     0.05  -0.11   0.13    -0.05   0.10  -0.12     0.25  -0.57   0.64
  29   1    -0.00   0.00   0.01     0.01  -0.00  -0.01    -0.09   0.03   0.25
  30   1     0.08  -0.03  -0.22    -0.05   0.02   0.15    -0.03   0.01   0.09
  31   1     0.30  -0.37  -0.10    -0.20   0.24   0.06    -0.08   0.10   0.03
  32   1     0.14  -0.32   0.35    -0.09   0.21  -0.23    -0.04   0.08  -0.09
  33   1    -0.09   0.03   0.23     0.05  -0.02  -0.14     0.03  -0.01  -0.07
  34   1    -0.04   0.01   0.10     0.00  -0.00   0.00     0.03  -0.01  -0.08
