34
 energy: -49.113582947776 gnorm: 0.000032179540 xtb: 6.7.1 (edcfbbe)
C           -0.28643906955777        3.67817896936414       -1.07076827367730
C           -0.57264037821595        2.34244255243407       -0.45554967842407
N           -1.57441630120176        2.25084741735337        0.31508812896629
C           -2.08558417973709        1.10523183287643        0.88355203299765
C           -2.28932219863422        1.06527656030844        2.26563885403622
C           -2.89153963010007       -0.03087822288062        2.84965102655931
C           -3.32646229304917       -1.09212888009151        2.07090688574636
C           -3.15258602008103       -1.04767196925589        0.69710238264901
C           -2.53483654010413        0.03547087549338        0.10394052843948
C            0.36157871354269        1.23743992064386       -0.76722153708323
C            0.86853496329293        1.07502375707353       -2.07636805500064
C            1.71847122840250        0.04912248025570       -2.37280219723847
C            2.12550854650097       -0.86972409885064       -1.38168488873263
C            3.00215628651476       -1.93958613838354       -1.65654663928671
C            3.37276849697157       -2.80862867916827       -0.66811044403119
C            2.88399391859027       -2.64837940857114        0.63896130448890
C            2.03368462088012       -1.62084721044268        0.93759361649695
C            1.63220592509351       -0.70684502358996       -0.06030781065289
C            0.75062671236181        0.35555056366405        0.21431290182727
H           -0.56654634697967        3.66849613948491       -2.12347682506552
H           -0.87055017230144        4.44415521293864       -0.56837351931539
H            0.77415158146877        3.91176101483366       -1.00208874152389
H           -1.94897814609662        1.89538403624842        2.86806976663913
H           -3.02906719281684       -0.05577757077738        3.92171701656758
H           -3.80277659385891       -1.94523565761999        2.53154764777279
H           -3.49488557764136       -1.86808567676761        0.08168127872552
H           -2.40029803524046        0.07285676614652       -0.96851533002436
H            0.56114220069029        1.75928953762352       -2.85289493116072
H            2.09345776848588       -0.07363876181431       -3.37946137050597
H            3.37551790868680       -2.06055338368193       -2.66391951813971
H            4.04486429752103       -3.62654324899375       -0.88488277087022
H            3.18686490166087       -3.34611746294389        1.40647558824116
H            1.65113181133916       -1.49360547707544        1.94069557449498
H            0.39026879351420        0.47829544687548        1.22603799608586
