36
Literature coordinates 10.1021/acs.inorgchem.3c03822 SI pages 45; not recalculated
C -4.61552474959046 -0.40820491978595 -0.02635024897933
C -3.72863856661945 -1.47823970839156 -0.12229237633348
C -4.10737462151984 0.87965563948017 0.16036427429044
C -2.72807894945612 1.05203647388707 0.24558181139814
N -1.86923288679892 0.02294470011971 0.15346991323625
C -2.35491546049507 -1.23370366301741 -0.02982819172820
C -1.31783734122486 -2.26630203462947 -0.11476014348968
N -0.03059283375461 -1.80345249883862 0.00904190286539
C -1.59181510496072 -3.62208661996073 -0.30672212012205
H -4.10068605978958 -2.49068227448401 -0.26744067826224
H -5.69003695228809 -0.57909015566802 -0.09631621523286
H -4.76525638827404 1.74391937191299 0.24109885169289
H -2.26769348127167 2.03026116131476 0.39247202196157
C -0.54621462215391 -4.53782718959666 -0.37748531025210
H -2.62365014837879 -3.95466674839762 -0.40185760058784
C 0.76083429072327 -4.06483227668604 -0.24861699315621
H -0.74893797943295 -5.59764439970670 -0.53012073480382
C 0.97619672750969 -2.70539351223914 -0.05698498691241
H 1.61765094190659 -4.73551345318947 -0.29496494038394
H 1.98004705809560 -2.30169034744210 0.04981950954527
Ni 0.16234107641474 0.09889849071909 0.24904737767362
C 2.05614649374364 0.02530819031639 0.32342145921998
C 2.81987742328163 0.04040534545161 -0.86358693651356
C 2.69781525198323 -0.12110193019746 1.56117132874437
C 4.08765439274844 -0.28849961241472 1.63476320203166
C 4.84713410809256 -0.29489637651518 0.46268476503540
C 4.21249937067158 -0.12363619615000 -0.77180026289198
C 2.16081080030590 0.20799695695103 -2.20967886848379
H 4.80479637759795 -0.11790695941085 -1.69112304882718
H 5.93020649022922 -0.42503762439778 0.50692029497482
H 2.11305620978332 -0.11475517001698 2.48412311361511
H 4.57000427527191 -0.41257428601997 2.60672600803576
Cl 0.29814965924915 2.25547791884270 0.50930425751090
H 2.90477361625169 0.24939664727056 -3.01746331878626
H 1.55933202607025 1.12911005799778 -2.23766251611451
H 1.47079855607869 -0.62472799710739 -2.42047359997013
