31
Literature coordinates 10.1021/acs.inorgchem.3c03822 SI pages 47; not recalculated
Ni -0.01103117652357 -0.01418090143263 0.11506774356940
Cl 2.14925586412638 -0.04521724242918 0.28498921636674
C -0.20512451075398 1.87785786274046 0.14674556292513
N -1.84562041328474 -0.01082811972732 -0.03671203937219
C 0.76787642010726 2.87772743832449 0.25678682545166
N -0.27858449625194 -1.97908799003754 0.04613610644544
C 0.40706588910746 4.23342482584581 0.26420054967040
C -0.93435257659201 4.62056510198634 0.16189117547416
C -1.92690616781578 3.64592729013373 0.05136071510854
C -1.56738723663318 2.29085847017269 0.04408622190700
C -2.50404809757859 1.18167353249793 -0.06261429209395
C -3.89795436954511 1.19685159761799 -0.17922146984213
C -4.58966758515179 -0.01256762474759 -0.26679977071424
C -3.89435696882500 -1.22461866142900 -0.23810513126240
C -2.50335219350083 -1.19442872025220 -0.12093186474315
C -1.59228667009129 -2.34022634866180 -0.07207149814790
C -1.97960025430166 -3.67939541969995 -0.13591126845262
C -1.00217447021527 -4.67168690201289 -0.07571619354048
C 0.33735316116038 -4.29679699536492 0.04565368376272
C 0.65751545104306 -2.94200166033455 0.10271255018075
H 1.81993099432305 2.60306268063177 0.33776155753278
H 1.18524939758338 4.99485050023774 0.35121878609848
H -1.20390117102639 5.67753325636629 0.16849563770241
H -2.97578261170013 3.93976152796975 -0.02781984942884
H -4.43062905912764 2.14668064742618 -0.20020456993644
H -5.67589223451593 -0.01307046789785 -0.35806990824491
H -4.42303577063430 -2.17388003967309 -0.30464333010386
H -3.03275363362856 -3.94020494264937 -0.23139559088037
H -1.28424997117624 -5.72362253856772 -0.12347551454153
H 1.13242277080386 -5.03971576016491 0.09613886000590
H 1.68489242261941 -2.58771383186871 0.19638593510349
