28
Literature coordinates 10.1021/ja800793t SI pages 2,3; not recalculated
C 0.46203 0.68962 -1.81080
N -0.47106 1.28061 -1.15505
C 1.56417 1.40039 -2.57229
C -0.85982 5.42329 -0.45972
C 0.26021 4.74010 0.02165
C 0.42210 3.37611 -0.23121
C -0.54732 2.66973 -0.96624
C -1.68672 3.35568 -1.42324
C -1.82985 4.72237 -1.18464
C 0.35237 -3.62240 -1.87329
C 1.43360 -2.94665 -2.44058
C 1.47281 -1.54960 -2.43037
C 0.43395 -0.80496 -1.84669
C -0.64827 -1.49992 -1.27482
C -0.68983 -2.89132 -1.29067
H 1.39405 2.47779 -2.59763
H 2.54424 1.22101 -2.11279
H 1.61638 1.02957 -3.60241
H -0.98195 6.48508 -0.26294
H 1.01528 5.26967 0.59792
H 1.28572 2.84450 0.15977
H -2.45000 2.80321 -1.96438
H -2.71056 5.24037 -1.55647
H 0.31974 -4.70903 -1.88358
H 2.24973 -3.50417 -2.89306
H 2.32587 -1.04788 -2.87562
H -1.44951 -0.92572 -0.82200
H -1.53646 -3.40963 -0.84749
