      -----------------------------------------------------------      
     |                   =====================                   |     
     |                           x T B                           |     
     |                   =====================                   |     
     |                         S. Grimme                         |     
     |          Mulliken Center for Theoretical Chemistry        |     
     |                    University of Bonn                     |     
      -----------------------------------------------------------      

   * xtb version 6.7.1 (edcfbbe) compiled by 'VssAdministrator@runnervm171ch' on 2026-06-10

   xtb is free software: you can redistribute it and/or modify it under
   the terms of the GNU Lesser General Public License as published by
   the Free Software Foundation, either version 3 of the License, or
   (at your option) any later version.
   
   xtb is distributed in the hope that it will be useful,
   but WITHOUT ANY WARRANTY; without even the implied warranty of
   MERCHANTABILITY or FITNESS FOR A PARTICULAR PURPOSE.  See the
   GNU Lesser General Public License for more details.
   
   Cite this work as:
   * C. Bannwarth, E. Caldeweyher, S. Ehlert, A. Hansen, P. Pracht,
     J. Seibert, S. Spicher, S. Grimme, WIREs Comput. Mol. Sci., 2020, 11,
     e01493. DOI: 10.1002/wcms.1493
   
   for GFN2-xTB:
   * C. Bannwarth, S. Ehlert and S. Grimme., J. Chem. Theory Comput., 2019,
     15, 1652-1671. DOI: 10.1021/acs.jctc.8b01176
   for GFN1-xTB:
   * S. Grimme, C. Bannwarth, P. Shushkov, J. Chem. Theory Comput., 2017,
     13, 1989-2009. DOI: 10.1021/acs.jctc.7b00118
   for GFN0-xTB:
   * P. Pracht, E. Caldeweyher, S. Ehlert, S. Grimme, ChemRxiv, 2019, preprint.
     DOI: 10.26434/chemrxiv.8326202.v1
   for GFN-FF:
   * S. Spicher and S. Grimme, Angew. Chem. Int. Ed., 2020, 59, 15665-15673.
     DOI: 10.1002/anie.202004239
   
   for ALPB and GBSA implicit solvation:
   * S. Ehlert, M. Stahn, S. Spicher, S. Grimme, J. Chem. Theory Comput.,
     2021, 17, 4250-4261. DOI: 10.1021/acs.jctc.1c00471
   
   for ddCOSMO and CPCM-X implicit solvation:
   * M. Stahn, S. Ehlert, S. Grimme, J. Phys. Chem. A,
     2023, XX, XXXX-XXXX. DOI: 10.1021/acs.jpca.3c04382
   
   for DFT-D4:
   * E. Caldeweyher, C. Bannwarth and S. Grimme, J. Chem. Phys., 2017,
     147, 034112. DOI: 10.1063/1.4993215
   * E. Caldeweyher, S. Ehlert, A. Hansen, H. Neugebauer, S. Spicher,
     C. Bannwarth and S. Grimme, J. Chem. Phys., 2019, 150, 154122.
     DOI: 10.1063/1.5090222
   * E. Caldeweyher, J.-M. Mewes, S. Ehlert and S. Grimme, Phys. Chem. Chem. Phys.
     2020, 22, 8499-8512. DOI: 10.1039/D0CP00502A
   
   for sTDA-xTB:
   * S. Grimme and C. Bannwarth, J. Chem. Phys., 2016, 145, 054103.
     DOI: 10.1063/1.4959605
   
   in the mass-spec context:
   * V. Asgeirsson, C. Bauer and S. Grimme, Chem. Sci., 2017, 8, 4879.
     DOI: 10.1039/c7sc00601b
   * J. Koopman and S. Grimme, ACS Omega 2019, 4, 12, 15120-15133.
     DOI: 10.1021/acsomega.9b02011
   
   for metadynamics refer to:
   * S. Grimme, J. Chem. Theory Comput., 2019, 155, 2847-2862
     DOI: 10.1021/acs.jctc.9b00143
   
   for SPH calculations refer to:
   * S. Spicher and S. Grimme, J. Chem. Theory Comput., 2021, 17, 1701-1714
     DOI: 10.1021/acs.jctc.0c01306
   
   for ONIOM refer to:
   * C. Plett, A. Katbashev, S. Ehlert, S. Grimme, M. Bursch,
     Phys. Chem. Chem. Phys., 2023, 25, 17860-17868. DOI: 10.1039/D3CP02178E
   
   for DIPRO refer to:
   * J. Kohn, N. Gildemeister, S. Grimme, D. Fazzi, A. Hansen,
     J. Chem. Phys., 2023, just accepted.
   
   for PTB refer to:
   * S. Grimme, M. Mueller, A. Hansen, J. Chem. Phys., 2023, 158, 124111.
     DOI: 10.1063/5.0137838
   
   with help from (in alphabetical order)
   P. Atkinson, C. Bannwarth, F. Bohle, G. Brandenburg, E. Caldeweyher
   M. Checinski, S. Dohm, S. Ehlert, S. Ehrlich, I. Gerasimov, C. Hölzer
   A. Katbashev, J. Kohn, J. Koopman, C. Lavigne, S. Lehtola, F. März, M. Müller,
   F. Musil, H. Neugebauer, J. Pisarek, C. Plett, P. Pracht, F. Pultar,
   J. Seibert, P. Shushkov, S. Spicher, M. Stahn, M. Steiner, T. Strunk,
   J. Stückrath, T. Rose, and J. Unsleber
   
 * started run on 2026/09/10 at 23:56:57.576     
   ID    Z sym.   atoms
    1    8 O      1, 3, 4, 17, 88, 90, 99, 100
    2   15 P      2
    3    6 C      5-16, 18-37, 59, 60, 62-73, 87, 89, 91-93, 95-98, 101, 102
    4    1 H      38-58, 74-86, 103-117
    5    7 N      61, 94

           -------------------------------------------------
          |                Calculation Setup                |
           -------------------------------------------------

          program call               : C:\Users\HUIWEI\miniconda3\envs\phase2ff\Library\bin\xtb.exe input.xyz --gfn 2 --chrg 0 --uhf 0 --alpb toluene --acc 0.2 --opt vtight
          coordinate file            : input.xyz
          omp threads                :                     1


           -------------------------------------------------
          |                 G F N 2 - x T B                 |
           -------------------------------------------------

        Reference                      10.1021/acs.jctc.8b01176
      * Hamiltonian:
        H0-scaling (s, p, d)           1.850000    2.230000    2.230000
        zeta-weighting                 0.500000
      * Dispersion:
        s8                             2.700000
        a1                             0.520000
        a2                             5.000000
        s9                             5.000000
      * Repulsion:
        kExp                           1.500000    1.000000
        rExp                           1.000000
      * Coulomb:
        alpha                          2.000000
        third order                    shell-resolved
        anisotropic                    true
        a3                             3.000000
        a5                             4.000000
        cn-shift                       1.200000
        cn-exp                         4.000000
        max-rad                        5.000000

      * Solvation model:               ALPB
        Solvent                        toluene
        Parameter file                 internal GFN2-xTB/ALPB
        Dielectric constant                7.0000E+00
        Reference state                gsolv [1 M gas/solution]
        Free energy shift                  2.2081E-03 Eh       1.3856E+00 kcal/mol
        Temperature                        2.9815E+02 K
        Density                            8.6700E-01 kg/L
        Solvent mass                       7.8110E+01 g/mol
        Interaction kernel             P16
        Born radius scaling (c1)           1.7172E+00
        Born radii integrator          GBOBC
        Born offset                        0.0000E+00 a0       0.0000E+00 AA
        H-bond correction              false
        Ion screening                  false
        Surface tension                    1.0000E-05 Eh       1.5569E+01 dyn/cm
        Grid points                               230 per atom

          ...................................................
          :                      SETUP                      :
          :.................................................:
          :  # basis functions                 327          :
          :  # atomic orbitals                 326          :
          :  # shells                          186          :
          :  # electrons                       340          :
          :  max. iterations                   250          :
          :  Hamiltonian                  GFN2-xTB          :
          :  restarted?                      false          :
          :  GBSA solvation                   true          :
          :  PC potential                    false          :
          :  electronic temp.          300.0000000     K    :
          :  accuracy                    0.2000000          :
          :  -> integral cutoff          0.3198970E+02      :
          :  -> integral neglect         0.2000000E-08      :
          :  -> SCF convergence          0.2000000E-06 Eh   :
          :  -> wf. convergence          0.2000000E-04 e    :
          :  Broyden damping             0.4000000          :
          :  net charge                          0          :
          :  unpaired electrons                  0          :
          ...................................................

 iter      E             dE          RMSdq      gap      omega  full diag
   1   -188.2713623 -0.188271E+03  0.467E+00    0.05       0.0  T
   2   -187.8637794  0.407583E+00  0.403E+00    0.76       1.0  T
   3   -188.1825669 -0.318788E+00  0.237E+00    0.15       1.0  T
   4   -188.5961426 -0.413576E+00  0.170E+00    0.21       1.0  T
   5   -189.0712663 -0.475124E+00  0.840E-01    0.10       1.0  T
   6   -189.0601235  0.111428E-01  0.717E-01    0.18       1.0  T
   7   -188.9209746  0.139149E+00  0.913E-01    0.22       1.0  T
   8   -189.0969848 -0.176010E+00  0.455E-01    0.16       1.0  T
   9   -189.0690238  0.279609E-01  0.537E-01    0.10       1.0  T
  10   -189.1445757 -0.755519E-01  0.173E-01    0.09       1.0  T
  11   -189.1468774 -0.230169E-02  0.107E-01    0.06       1.0  T
  12   -189.1450719  0.180551E-02  0.122E-01    0.07       1.0  T
  13   -189.1487600 -0.368812E-02  0.379E-02    0.05       1.0  T
  14   -189.1480567  0.703296E-03  0.600E-02    0.05       1.0  T
  15   -189.1487255 -0.668839E-03  0.293E-02    0.05       1.0  T
  16   -189.1489439 -0.218329E-03  0.117E-02    0.05       1.0  T
  17   -189.1489434  0.437104E-06  0.107E-02    0.05       1.0  T
  18   -189.1489630 -0.196142E-04  0.387E-03    0.05       2.4  T
  19   -189.1489642 -0.119967E-05  0.291E-03    0.05       3.2  T
  20   -189.1489660 -0.177711E-05  0.826E-04    0.05      11.2  T
  21   -189.1489662 -0.132862E-06  0.331E-04    0.05      27.9  T
  22   -189.1489662 -0.180641E-07  0.134E-04    0.05      68.8  T
  23   -189.1489662 -0.230489E-08  0.396E-05    0.05     233.6  T

   *** convergence criteria satisfied after 23 iterations ***

         #    Occupation            Energy/Eh            Energy/eV
      -------------------------------------------------------------
         1        2.0000           -0.9673669             -26.3234
       ...           ...                  ...                  ...
       164        2.0000           -0.4635184             -12.6130
       165        2.0000           -0.4531991             -12.3322
       166        2.0000           -0.4519174             -12.2973
       167        2.0000           -0.4366524             -11.8819
       168        2.0000           -0.4011210             -10.9151
       169        2.0000           -0.3980535             -10.8316
       170        1.4408           -0.3680472             -10.0151 (HOMO)
       171        0.5402           -0.3662036              -9.9649 (LUMO)
       172        0.0191           -0.3627375              -9.8706
       173        0.0000           -0.3525278              -9.5928
       174                         -0.3466136              -9.4318
       175                         -0.3347411              -9.1088
       ...                                ...                  ...
       326                          3.2947116              89.6537
      -------------------------------------------------------------
                  HL-Gap            0.0018436 Eh            0.0502 eV
             Fermi-level           -0.3671481 Eh           -9.9906 eV

 SCC (total)                   0 d,  0 h,  0 min,  0.937 sec
 SCC setup                      ...        0 min,  0.007 sec (  0.759%)
 Dispersion                     ...        0 min,  0.004 sec (  0.415%)
 classical contributions        ...        0 min,  0.001 sec (  0.119%)
 integral evaluation            ...        0 min,  0.063 sec (  6.714%)
 iterations                     ...        0 min,  0.590 sec ( 62.953%)
 molecular gradient             ...        0 min,  0.268 sec ( 28.578%)
 printout                       ...        0 min,  0.004 sec (  0.459%)

         :::::::::::::::::::::::::::::::::::::::::::::::::::::
         ::                     SUMMARY                     ::
         :::::::::::::::::::::::::::::::::::::::::::::::::::::
         :: total energy            -185.880065410696 Eh    ::
         :: total w/o Gsasa/hb      -185.814478291163 Eh    ::
         :: gradient norm              1.294865028787 Eh/a0 ::
         :: HOMO-LUMO gap              0.050166400870 eV    ::
         ::.................................................::
         :: SCC energy              -189.139364012353 Eh    ::
         :: -> isotropic ES            0.338693579412 Eh    ::
         :: -> anisotropic ES          0.023652416832 Eh    ::
         :: -> anisotropic XC          0.074463377443 Eh    ::
         :: -> dispersion             -0.197621415760 Eh    ::
         :: -> Gsolv                  -0.195847564072 Eh    ::
         ::    -> Gelec               -0.130260444540 Eh    ::
         ::    -> Gsasa               -0.067795262671 Eh    ::
         ::    -> Ghb                  0.000000000000 Eh    ::
         ::    -> Gshift               0.002208143139 Eh    ::
         :: repulsion energy           3.259298601658 Eh    ::
         :: add. restraining           0.000000000000 Eh    ::
         :: total charge              -0.000000000001 e     ::
         :::::::::::::::::::::::::::::::::::::::::::::::::::::

      ----------------------------------------------------------- 
     |                   =====================                   |
     |                        A N C O P T                        |
     |                   =====================                   |
     |               Approximate Normal Coordinate               |
     |                Rational Function Optimizer                |
      ----------------------------------------------------------- 
      ----------------------------------------------------------- 
     |                   =====================                   |
     |                        A N C O P T                        |
     |                   =====================                   |
     |               Approximate Normal Coordinate               |
     |                Rational Function Optimizer                |
      ----------------------------------------------------------- 

          ...................................................
          :                      SETUP                      :
          :.................................................:
          :   optimization level         verytight          :
          :   max. optcycles                  2340          :
          :   ANC micro-cycles                  20          :
          :   degrees of freedom               345          :
          :.................................................:
          :   RF solver                   davidson          :
          :   write xtbopt.log                true          :
          :   linear?                        false          :
          :   energy convergence         0.1000000E-06 Eh   :
          :   grad. convergence          0.2000000E-03 Eh/α :
          :   maxmium RF displ.          1.0000000          :
          :   Hlow (freq-cutoff)         0.1000000E-01      :
          :   Hmax (freq-cutoff)         5.0000000          :
          :   S6 in model hess.         20.0000000          :
          ...................................................

generating ANC from exact Hessian ...
Using Lindh-Hessian (1995)
 Shifting diagonal of input Hessian by    9.7844506525704700E-003
 Lowest  eigenvalues of input Hessian
    0.000000    0.000000    0.000000    0.000000    0.000000    0.000000
    0.010000    0.010160    0.010253    0.010341    0.010557    0.010718
    0.010865    0.010919    0.011319    0.011596    0.011810    0.012073
 Highest eigenvalues
    2.733174    2.863141    2.940486    3.177347    3.876579    3.911910


........................................................................
.............................. CYCLE    1 ..............................
........................................................................

 iter      E             dE          RMSdq      gap      omega  full diag
   1   -189.1489662 -0.189149E+03  0.223E-05    0.05       0.0  T
   2   -189.1489662  0.258791E-08  0.105E-04    0.05      88.3  T
   3   -189.1489662 -0.148259E-08  0.634E-05    0.05     145.8  T
     SCC iter.                  ...        0 min,  0.068 sec
     gradient                   ...        0 min,  0.261 sec
 * total energy  :  -185.8800654 Eh     change        0.1005702E-08 Eh
   gradient norm :     1.2948672 Eh/α   predicted     0.0000000E+00 (-100.00%)
   displ. norm   :     0.5998638 α      lambda       -0.6567453E+00
   maximum displ.:     0.1316891 α      in ANC's #341, #343, #287, ...

........................................................................
.............................. CYCLE    2 ..............................
........................................................................

 iter      E             dE          RMSdq      gap      omega  full diag
   1   -189.2683242 -0.189268E+03  0.845E-01    0.21       0.0  T
   2   -188.2339321  0.103439E+01  0.195E+00    0.21       1.0  T
   3   -189.3989939 -0.116506E+01  0.415E-01    0.08       1.0  T
   4   -189.3621470  0.368469E-01  0.487E-01    0.13       1.0  T
   5   -189.3603984  0.174865E-02  0.463E-01    0.09       1.0  T
   6   -189.3894388 -0.290404E-01  0.303E-01    0.11       1.0  T
   7   -189.4063353 -0.168965E-01  0.187E-01    0.02       1.0  T
   8   -189.4140318 -0.769646E-02  0.106E-01    0.05       1.0  T
   9   -189.4171225 -0.309070E-02  0.384E-02    0.03       1.0  T
  10   -189.4172733 -0.150811E-03  0.251E-02    0.03       1.0  T
  11   -189.4173964 -0.123109E-03  0.130E-02    0.03       1.0  T
  12   -189.4174194 -0.229812E-04  0.621E-03    0.03       1.5  T
  13   -189.4174200 -0.599837E-06  0.442E-03    0.03       2.1  T
  14   -189.4174230 -0.296836E-05  0.201E-03    0.03       4.6  T
  15   -189.4174229  0.102084E-06  0.183E-03    0.03       5.0  T
  16   -189.4174237 -0.823221E-06  0.745E-04    0.03      12.4  T
  17   -189.4174238 -0.117101E-06  0.168E-04    0.03      55.0  T
  18   -189.4174238  0.727880E-09  0.141E-04    0.03      65.5  T
     SCC iter.                  ...        0 min,  0.396 sec
     gradient                   ...        0 min,  0.246 sec
 * total energy  :  -186.3789447 Eh     change       -0.4988793E+00 Eh
   gradient norm :     0.6794547 Eh/α   predicted    -0.4466650E+00 ( -10.47%)
   displ. norm   :     0.6762087 α      lambda       -0.4067907E+00
   maximum displ.:     0.1526307 α      in ANC's #248, #201, #287, ...

........................................................................
.............................. CYCLE    3 ..............................
........................................................................

 iter      E             dE          RMSdq      gap      omega  full diag
   1   -189.5784260 -0.189578E+03  0.875E-01    0.23       0.0  T
   2   -189.1312010  0.447225E+00  0.150E+00    0.06       1.0  T
   3   -189.5832692 -0.452068E+00  0.627E-01    0.24       1.0  T
   4   -189.5382375  0.450317E-01  0.733E-01    0.28       1.0  T
   5   -189.6956453 -0.157408E+00  0.272E-01    0.05       1.0  T
   6   -189.6966766 -0.103125E-02  0.223E-01    0.04       1.0  T
   7   -189.7015771 -0.490058E-02  0.133E-01    0.02       1.0  T
   8   -189.6995491  0.202800E-02  0.146E-01    0.05       1.0  T
   9   -189.7061110 -0.656183E-02  0.393E-02    0.01       1.0  T
  10   -189.7061768 -0.658010E-04  0.289E-02    0.01       1.0  T
  11   -189.7063849 -0.208130E-03  0.802E-03    0.01       1.2  T
  12   -189.7063528  0.320687E-04  0.118E-02    0.02       1.0  T
  13   -189.7063895 -0.366716E-04  0.492E-03    0.01       1.9  T
  14   -189.7063852  0.430066E-05  0.560E-03    0.01       1.6  T
  15   -189.7063941 -0.887818E-05  0.189E-03    0.02       4.9  T
  16   -189.7063950 -0.941471E-06  0.518E-04    0.01      17.9  T
  17   -189.7063951 -0.461473E-07  0.199E-04    0.01      46.5  T
  18   -189.7063951  0.657320E-08  0.201E-04    0.01      46.0  T
  19   -189.7063951 -0.384162E-08  0.153E-04    0.01      60.2  T
     SCC iter.                  ...        0 min,  0.432 sec
     gradient                   ...        0 min,  0.268 sec
 * total energy  :  -186.7193123 Eh     change       -0.3403676E+00 Eh
   gradient norm :     0.4647524 Eh/α   predicted    -0.2963998E+00 ( -12.92%)
   displ. norm   :     0.7667348 α      lambda       -0.3310632E+00
   maximum displ.:     0.1606685 α      in ANC's #287, #248, #201, ...

........................................................................
.............................. CYCLE    4 ..............................
........................................................................

 iter      E             dE          RMSdq      gap      omega  full diag
   1   -189.8413130 -0.189841E+03  0.894E-01    0.19       0.0  T
   2   -189.2936038  0.547709E+00  0.161E+00    0.03       1.0  T
   3   -189.8541869 -0.560583E+00  0.736E-01    0.12       1.0  T
   4   -189.8851048 -0.309179E-01  0.583E-01    0.36       1.0  T
   5   -189.9651977 -0.800929E-01  0.288E-01    0.09       1.0  T
   6   -189.9628260  0.237176E-02  0.242E-01    0.16       1.0  T
   7   -189.9625872  0.238745E-03  0.219E-01    0.06       1.0  T
   8   -189.9728142 -0.102270E-01  0.144E-01    0.13       1.0  T
   9   -189.9779807 -0.516655E-02  0.376E-02    0.10       1.0  T
  10   -189.9777731  0.207629E-03  0.406E-02    0.10       1.0  T
  11   -189.9781091 -0.335979E-03  0.222E-02    0.09       1.0  T
  12   -189.9782331 -0.124023E-03  0.678E-03    0.10       1.4  T
  13   -189.9782414 -0.827862E-05  0.278E-03    0.09       3.3  T
  14   -189.9782425 -0.112201E-05  0.154E-03    0.09       6.0  T
  15   -189.9782429 -0.416982E-06  0.101E-03    0.09       9.1  T
  16   -189.9782431 -0.217419E-06  0.419E-04    0.09      22.1  T
  17   -189.9782432 -0.205642E-07  0.249E-04    0.09      37.1  T
  18   -189.9782432 -0.748784E-08  0.120E-04    0.09      76.8  T
  19   -189.9782432 -0.190070E-08  0.654E-05    0.09     141.4  T
     SCC iter.                  ...        0 min,  0.452 sec
     gradient                   ...        0 min,  0.254 sec
 * total energy  :  -187.0023026 Eh     change       -0.2829903E+00 Eh
   gradient norm :     0.3678597 Eh/α   predicted    -0.2628451E+00 (  -7.12%)
   displ. norm   :     0.7989143 α      lambda       -0.2619713E+00
   maximum displ.:     0.1575495 α      in ANC's #287, #191, #248, ...

........................................................................
.............................. CYCLE    5 ..............................
........................................................................

 iter      E             dE          RMSdq      gap      omega  full diag
   1   -190.1424782 -0.190142E+03  0.640E-01    0.07       0.0  T
   2   -189.9855402  0.156938E+00  0.963E-01    0.33       1.0  T
   3   -190.1373518 -0.151812E+00  0.508E-01    0.11       1.0  T
   4   -190.1664414 -0.290896E-01  0.345E-01    0.19       1.0  T
   5   -190.1936864 -0.272450E-01  0.173E-01    0.07       1.0  T
   6   -190.1920185  0.166794E-02  0.155E-01    0.12       1.0  T
   7   -190.1852287  0.678974E-02  0.224E-01    0.06       1.0  T
   8   -190.1964530 -0.112243E-01  0.344E-02    0.10       1.0  T
   9   -190.1964034  0.496270E-04  0.261E-02    0.10       1.0  T
  10   -190.1965665 -0.163106E-03  0.102E-02    0.09       1.0  T
  11   -190.1965780 -0.115507E-04  0.568E-03    0.09       1.6  T
  12   -190.1965674  0.105939E-04  0.772E-03    0.09       1.2  T
  13   -190.1965861 -0.186676E-04  0.203E-03    0.09       4.6  T
  14   -190.1965858  0.318376E-06  0.181E-03    0.09       5.1  T
  15   -190.1965867 -0.900586E-06  0.420E-04    0.09      22.0  T
  16   -190.1965867 -0.951442E-08  0.240E-04    0.09      38.4  T
  17   -190.1965867  0.117162E-07  0.242E-04    0.09      38.2  T
  18   -190.1965867 -0.167889E-07  0.717E-05    0.09     128.9  T
  19   -190.1965867 -0.102571E-08  0.451E-05    0.09     205.2  T
     SCC iter.                  ...        0 min,  0.424 sec
     gradient                   ...        0 min,  0.268 sec
 * total energy  :  -187.2235533 Eh     change       -0.2212507E+00 Eh
   gradient norm :     0.3011151 Eh/α   predicted    -0.2145891E+00 (  -3.01%)
   displ. norm   :     0.7874952 α      lambda       -0.1944141E+00
   maximum displ.:     0.1529221 α      in ANC's #191, #287, #75, ...

........................................................................
.............................. CYCLE    6 ..............................
........................................................................

 iter      E             dE          RMSdq      gap      omega  full diag
   1   -190.3209990 -0.190321E+03  0.564E-01    0.09       0.0  T
   2   -190.1648785  0.156121E+00  0.962E-01    0.28       1.0  T
   3   -190.3051661 -0.140288E+00  0.461E-01    0.09       1.0  T
   4   -190.3404809 -0.353147E-01  0.226E-01    0.11       1.0  T
   5   -190.3429117 -0.243082E-02  0.181E-01    0.06       1.0  T
   6   -190.3323142  0.105975E-01  0.253E-01    0.15       1.0  T
   7   -190.3487259 -0.164117E-01  0.759E-02    0.10       1.0  T
   8   -190.3492327 -0.506747E-03  0.384E-02    0.10       1.0  T
   9   -190.3495887 -0.356059E-03  0.192E-02    0.09       1.0  T
  10   -190.3496813 -0.925143E-04  0.726E-03    0.09       1.3  T
  11   -190.3496845 -0.325541E-05  0.562E-03    0.09       1.6  T
  12   -190.3496890 -0.452438E-05  0.191E-03    0.09       4.8  T
  13   -190.3496886  0.459061E-06  0.224E-03    0.09       4.1  T
  14   -190.3496894 -0.806642E-06  0.976E-04    0.09       9.5  T
  15   -190.3496896 -0.178351E-06  0.378E-04    0.09      24.4  T
  16   -190.3496896 -0.256737E-07  0.103E-04    0.09      89.5  T
  17   -190.3496896  0.387774E-08  0.142E-04    0.09      65.3  T
     SCC iter.                  ...        0 min,  0.396 sec
     gradient                   ...        0 min,  0.248 sec
 * total energy  :  -187.3897882 Eh     change       -0.1662349E+00 Eh
   gradient norm :     0.2455154 Eh/α   predicted    -0.1574900E+00 (  -5.26%)
   displ. norm   :     0.7931599 α      lambda       -0.1516493E+00
   maximum displ.:     0.1518570 α      in ANC's #191, #75, #249, ...

........................................................................
.............................. CYCLE    7 ..............................
........................................................................

 iter      E             dE          RMSdq      gap      omega  full diag
   1   -190.4286167 -0.190429E+03  0.539E-01    0.24       0.0  T
   2   -190.2149539  0.213663E+00  0.958E-01    0.14       1.0  T
   3   -190.4380611 -0.223107E+00  0.323E-01    0.27       1.0  T
   4   -190.4430432 -0.498209E-02  0.302E-01    0.18       1.0  T
   5   -190.4525213 -0.947808E-02  0.214E-01    0.07       1.0  T
   6   -190.4581055 -0.558417E-02  0.119E-01    0.18       1.0  T
   7   -190.4614028 -0.329732E-02  0.504E-02    0.12       1.0  T
   8   -190.4618403 -0.437493E-03  0.186E-02    0.12       1.0  T
   9   -190.4618347  0.555830E-05  0.131E-02    0.13       1.0  T
  10   -190.4618820 -0.472543E-04  0.403E-03    0.12       2.3  T
  11   -190.4618840 -0.202204E-05  0.193E-03    0.12       4.8  T
  12   -190.4618841 -0.120228E-06  0.155E-03    0.12       6.0  T
  13   -190.4618846 -0.426790E-06  0.708E-04    0.12      13.1  T
  14   -190.4618846 -0.867902E-07  0.218E-04    0.12      42.3  T
  15   -190.4618847 -0.726061E-08  0.102E-04    0.12      91.1  T
  16   -190.4618847 -0.481577E-09  0.609E-05    0.12     151.8  T
     SCC iter.                  ...        0 min,  0.388 sec
     gradient                   ...        0 min,  0.263 sec
 * total energy  :  -187.5208053 Eh     change       -0.1310171E+00 Eh
   gradient norm :     0.2090318 Eh/α   predicted    -0.1235263E+00 (  -5.72%)
   displ. norm   :     0.8121592 α      lambda       -0.1269956E+00
   maximum displ.:     0.1588002 α      in ANC's #191, #75, #249, ...

........................................................................
.............................. CYCLE    8 ..............................
........................................................................

 iter      E             dE          RMSdq      gap      omega  full diag
   1   -190.5280660 -0.190528E+03  0.550E-01    0.50       0.0  T
   2   -190.1271540  0.400912E+00  0.116E+00    0.15       1.0  T
   3   -190.5343227 -0.407169E+00  0.385E-01    0.48       1.0  T
   4   -190.5514998 -0.171771E-01  0.233E-01    0.42       1.0  T
   5   -190.5506751  0.824638E-03  0.210E-01    0.47       1.0  T
   6   -190.5556116 -0.493646E-02  0.125E-01    0.38       1.0  T
   7   -190.5569567 -0.134515E-02  0.990E-02    0.31       1.0  T
   8   -190.5578624 -0.905676E-03  0.697E-02    0.24       1.0  T
   9   -190.5575797  0.282751E-03  0.664E-02    0.12       1.0  T
  10   -190.5589141 -0.133444E-02  0.209E-02    0.17       1.0  T
  11   -190.5590143 -0.100204E-03  0.412E-03    0.16       2.2  T
  12   -190.5590162 -0.192599E-05  0.252E-03    0.16       3.7  T
  13   -190.5590169 -0.703476E-06  0.116E-03    0.15       7.9  T
  14   -190.5590170 -0.565102E-07  0.771E-04    0.15      12.0  T
  15   -190.5590171 -0.152254E-06  0.189E-04    0.15      48.9  T
  16   -190.5590171 -0.496669E-09  0.113E-04    0.15      81.6  T
     SCC iter.                  ...        0 min,  0.389 sec
     gradient                   ...        0 min,  0.254 sec
 * total energy  :  -187.6351170 Eh     change       -0.1143117E+00 Eh
   gradient norm :     0.2062981 Eh/α   predicted    -0.1053811E+00 (  -7.81%)
   displ. norm   :     0.8423182 α      lambda       -0.1220227E+00
   maximum displ.:     0.1744500 α      in ANC's #191, #249, #64, ...

........................................................................
.............................. CYCLE    9 ..............................
........................................................................

 iter      E             dE          RMSdq      gap      omega  full diag
   1   -190.6454163 -0.190645E+03  0.461E-01    0.73       0.0  T
   2   -190.6431834  0.223289E-02  0.379E-01    0.30       1.0  T
   3   -190.6577909 -0.146075E-01  0.179E-01    0.39       1.0  T
   4   -190.6588030 -0.101208E-02  0.671E-02    0.32       1.0  T
   5   -190.6591664 -0.363365E-03  0.246E-02    0.29       1.0  T
   6   -190.6592176 -0.512055E-04  0.127E-02    0.31       1.0  T
   7   -190.6592276 -0.100792E-04  0.489E-03    0.31       1.9  T
   8   -190.6592283 -0.695826E-06  0.236E-03    0.31       3.9  T
   9   -190.6592286 -0.268989E-06  0.117E-03    0.31       7.9  T
  10   -190.6592286 -0.325520E-07  0.564E-04    0.31      16.4  T
  11   -190.6592287 -0.310835E-07  0.242E-04    0.31      38.2  T
  12   -190.6592287 -0.348842E-08  0.121E-04    0.31      76.7  T
  13   -190.6592287 -0.548141E-09  0.599E-05    0.31     154.4  T
     SCC iter.                  ...        0 min,  0.299 sec
     gradient                   ...        0 min,  0.253 sec
 * total energy  :  -187.7409360 Eh     change       -0.1058191E+00 Eh
   gradient norm :     0.1924547 Eh/α   predicted    -0.1042989E+00 (  -1.44%)
   displ. norm   :     0.7815934 α      lambda       -0.9639579E-01
   maximum displ.:     0.1478764 α      in ANC's #191, #249, #64, ...

........................................................................
.............................. CYCLE   10 ..............................
........................................................................

 iter      E             dE          RMSdq      gap      omega  full diag
   1   -190.7370544 -0.190737E+03  0.299E-01    0.88       0.0  T
   2   -190.7376044 -0.550011E-03  0.180E-01    0.85       1.0  T
   3   -190.7378892 -0.284794E-03  0.134E-01    0.85       1.0  T
   4   -190.7390707 -0.118149E-02  0.296E-02    0.82       1.0  T
   5   -190.7391273 -0.566106E-04  0.130E-02    0.82       1.0  T
   6   -190.7391337 -0.632785E-05  0.746E-03    0.82       1.2  T
   7   -190.7391371 -0.346573E-05  0.234E-03    0.82       4.0  T
   8   -190.7391375 -0.313374E-06  0.104E-03    0.82       8.9  T
   9   -190.7391375 -0.291840E-07  0.526E-04    0.82      17.6  T
  10   -190.7391375 -0.954856E-08  0.205E-04    0.82      45.1  T
  11   -190.7391375 -0.272746E-08  0.957E-05    0.82      96.6  T
  12   -190.7391375 -0.276714E-09  0.535E-05    0.82     172.9  T
     SCC iter.                  ...        0 min,  0.293 sec
     gradient                   ...        0 min,  0.283 sec
 * total energy  :  -187.8214234 Eh     change       -0.8048737E-01 Eh
   gradient norm :     0.1903530 Eh/α   predicted    -0.7764143E-01 (  -3.54%)
   displ. norm   :     0.7324285 α      lambda       -0.7795946E-01
   maximum displ.:     0.1388748 α      in ANC's #64, #53, #44, ...

........................................................................
.............................. CYCLE   11 ..............................
........................................................................

 iter      E             dE          RMSdq      gap      omega  full diag
   1   -190.7953597 -0.190795E+03  0.245E-01    1.29       0.0  T
   2   -190.7958314 -0.471690E-03  0.142E-01    1.28       1.0  T
   3   -190.7952588  0.572605E-03  0.107E-01    1.28       1.0  T
   4   -190.7962954 -0.103664E-02  0.220E-02    1.26       1.0  T
   5   -190.7963193 -0.238716E-04  0.982E-03    1.26       1.0  T
   6   -190.7963240 -0.468740E-05  0.489E-03    1.26       1.9  T
   7   -190.7963251 -0.112200E-05  0.192E-03    1.26       4.8  T
   8   -190.7963253 -0.266589E-06  0.682E-04    1.26      13.6  T
   9   -190.7963254 -0.764541E-08  0.357E-04    1.26      25.9  T
  10   -190.7963254 -0.401144E-08  0.162E-04    1.26      57.1  T
  11   -190.7963254 -0.195686E-08  0.618E-05    1.26     149.5  T
     SCC iter.                  ...        0 min,  0.322 sec
     gradient                   ...        0 min,  0.336 sec
 * total energy  :  -187.8884117 Eh     change       -0.6698832E-01 Eh
   gradient norm :     0.1705010 Eh/α   predicted    -0.5989046E-01 ( -10.60%)
   displ. norm   :     0.7303110 α      lambda       -0.7150534E-01
   maximum displ.:     0.1459573 α      in ANC's #53, #64, #35, ...

........................................................................
.............................. CYCLE   12 ..............................
........................................................................

 iter      E             dE          RMSdq      gap      omega  full diag
   1   -190.8498926 -0.190850E+03  0.226E-01    1.53       0.0  T
   2   -190.8504661 -0.573480E-03  0.131E-01    1.52       1.0  T
   3   -190.8499852  0.480917E-03  0.913E-02    1.53       1.0  T
   4   -190.8507467 -0.761521E-03  0.241E-02    1.51       1.0  T
   5   -190.8507878 -0.410376E-04  0.818E-03    1.51       1.1  T
   6   -190.8507906 -0.288565E-05  0.415E-03    1.51       2.2  T
   7   -190.8507915 -0.851943E-06  0.154E-03    1.51       6.0  T
   8   -190.8507917 -0.172474E-06  0.643E-04    1.51      14.4  T
   9   -190.8507917 -0.146440E-07  0.331E-04    1.51      27.9  T
  10   -190.8507917 -0.307043E-08  0.154E-04    1.51      60.1  T
  11   -190.8507917 -0.119923E-08  0.632E-05    1.51     146.3  T
     SCC iter.                  ...        0 min,  0.398 sec
     gradient                   ...        0 min,  0.400 sec
 * total energy  :  -187.9474895 Eh     change       -0.5907781E-01 Eh
   gradient norm :     0.1317145 Eh/α   predicted    -0.5482151E-01 (  -7.20%)
   displ. norm   :     0.7172993 α      lambda       -0.5363920E-01
   maximum displ.:     0.1776814 α      in ANC's #53, #35, #64, ...

........................................................................
.............................. CYCLE   13 ..............................
........................................................................

 iter      E             dE          RMSdq      gap      omega  full diag
   1   -190.8986056 -0.190899E+03  0.197E-01    1.60       0.0  T
   2   -190.8989618 -0.356240E-03  0.113E-01    1.61       1.0  T
   3   -190.8986357  0.326101E-03  0.750E-02    1.61       1.0  T
   4   -190.8991238 -0.488070E-03  0.193E-02    1.60       1.0  T
   5   -190.8991532 -0.294560E-04  0.724E-03    1.61       1.3  T
   6   -190.8991560 -0.280741E-05  0.346E-03    1.61       2.7  T
   7   -190.8991566 -0.605505E-06  0.121E-03    1.61       7.6  T
   8   -190.8991567 -0.738078E-07  0.621E-04    1.61      14.9  T
   9   -190.8991567 -0.115048E-07  0.337E-04    1.61      27.4  T
  10   -190.8991567 -0.373782E-08  0.145E-04    1.61      63.9  T
  11   -190.8991567 -0.772104E-09  0.663E-05    1.61     139.5  T
     SCC iter.                  ...        0 min,  0.503 sec
     gradient                   ...        0 min,  0.390 sec
 * total energy  :  -187.9923032 Eh     change       -0.4481366E-01 Eh
   gradient norm :     0.1109420 Eh/α   predicted    -0.4061881E-01 (  -9.36%)
   displ. norm   :     0.7431979 α      lambda       -0.4435916E-01
   maximum displ.:     0.1995942 α      in ANC's #53, #35, #25, ...

........................................................................
.............................. CYCLE   14 ..............................
........................................................................

 iter      E             dE          RMSdq      gap      omega  full diag
   1   -190.9395141 -0.190940E+03  0.195E-01    1.67       0.0  T
   2   -190.9397123 -0.198176E-03  0.112E-01    1.68       1.0  T
   3   -190.9393622  0.350089E-03  0.734E-02    1.69       1.0  T
   4   -190.9398436 -0.481459E-03  0.153E-02    1.68       1.0  T
   5   -190.9398598 -0.161722E-04  0.691E-03    1.68       1.3  T
   6   -190.9398627 -0.292471E-05  0.296E-03    1.68       3.1  T
   7   -190.9398631 -0.362616E-06  0.112E-03    1.68       8.2  T
   8   -190.9398631 -0.587448E-07  0.615E-04    1.68      15.0  T
   9   -190.9398632 -0.127283E-07  0.307E-04    1.68      30.1  T
  10   -190.9398632 -0.347515E-08  0.125E-04    1.68      73.7  T
  11   -190.9398632 -0.568775E-09  0.640E-05    1.68     144.4  T
     SCC iter.                  ...        0 min,  0.445 sec
     gradient                   ...        0 min,  0.397 sec
 * total energy  :  -188.0302179 Eh     change       -0.3791472E-01 Eh
   gradient norm :     0.0937996 Eh/α   predicted    -0.3443033E-01 (  -9.19%)
   displ. norm   :     0.7590414 α      lambda       -0.3697487E-01
   maximum displ.:     0.2009998 α      in ANC's #53, #35, #25, ...

........................................................................
.............................. CYCLE   15 ..............................
........................................................................

 iter      E             dE          RMSdq      gap      omega  full diag
   1   -190.9716895 -0.190972E+03  0.193E-01    1.74       0.0  T
   2   -190.9717886 -0.991122E-04  0.113E-01    1.74       1.0  T
   3   -190.9714075  0.381140E-03  0.731E-02    1.75       1.0  T
   4   -190.9719007 -0.493249E-03  0.123E-02    1.74       1.0  T
   5   -190.9719119 -0.112321E-04  0.564E-03    1.74       1.6  T
   6   -190.9719137 -0.175454E-05  0.212E-03    1.74       4.4  T
   7   -190.9719138 -0.125287E-06  0.948E-04    1.74       9.8  T
   8   -190.9719139 -0.496778E-07  0.471E-04    1.74      19.6  T
   9   -190.9719139 -0.767406E-08  0.240E-04    1.74      38.6  T
  10   -190.9719139 -0.221056E-08  0.997E-05    1.74      92.7  T
  11   -190.9719139 -0.445880E-09  0.490E-05    1.74     188.7  T
     SCC iter.                  ...        0 min,  0.342 sec
     gradient                   ...        0 min,  0.355 sec
 * total energy  :  -188.0615966 Eh     change       -0.3137867E-01 Eh
   gradient norm :     0.0752231 Eh/α   predicted    -0.2913885E-01 (  -7.14%)
   displ. norm   :     0.7613959 α      lambda       -0.2884210E-01
   maximum displ.:     0.2050879 α      in ANC's #35, #53, #25, ...

........................................................................
.............................. CYCLE   16 ..............................
........................................................................

 iter      E             dE          RMSdq      gap      omega  full diag
   1   -190.9974197 -0.190997E+03  0.180E-01    1.80       0.0  T
   2   -190.9974876 -0.678852E-04  0.106E-01    1.79       1.0  T
   3   -190.9971690  0.318598E-03  0.627E-02    1.80       1.0  T
   4   -190.9975581 -0.389079E-03  0.984E-03    1.79       1.0  T
   5   -190.9975655 -0.741097E-05  0.481E-03    1.79       1.9  T
   6   -190.9975669 -0.139261E-05  0.173E-03    1.79       5.4  T
   7   -190.9975670 -0.789480E-07  0.758E-04    1.79      12.2  T
   8   -190.9975670 -0.352358E-07  0.323E-04    1.79      28.6  T
   9   -190.9975670 -0.342951E-08  0.171E-04    1.79      54.1  T
  10   -190.9975670 -0.108568E-08  0.687E-05    1.79     134.6  T
     SCC iter.                  ...        0 min,  0.357 sec
     gradient                   ...        0 min,  0.323 sec
 * total energy  :  -188.0859463 Eh     change       -0.2434973E-01 Eh
   gradient norm :     0.0590992 Eh/α   predicted    -0.2278128E-01 (  -6.44%)
   displ. norm   :     0.7577157 α      lambda       -0.2189698E-01
   maximum displ.:     0.2004313 α      in ANC's #35, #25, #24, ...

........................................................................
.............................. CYCLE   17 ..............................
........................................................................

 iter      E             dE          RMSdq      gap      omega  full diag
   1   -191.0182020 -0.191018E+03  0.169E-01    1.84       0.0  T
   2   -191.0182564 -0.544200E-04  0.100E-01    1.83       1.0  T
   3   -191.0179933  0.263067E-03  0.524E-02    1.83       1.0  T
   4   -191.0183002 -0.306874E-03  0.852E-03    1.82       1.1  T
   5   -191.0183055 -0.529839E-05  0.431E-03    1.82       2.1  T
   6   -191.0183068 -0.130082E-05  0.164E-03    1.83       5.6  T
   7   -191.0183069 -0.969848E-07  0.687E-04    1.83      13.5  T
   8   -191.0183069 -0.294673E-07  0.281E-04    1.83      32.8  T
   9   -191.0183069 -0.218378E-08  0.150E-04    1.83      61.7  T
  10   -191.0183069 -0.108889E-08  0.491E-05    1.83     188.2  T
     SCC iter.                  ...        0 min,  0.322 sec
     gradient                   ...        0 min,  0.330 sec
 * total energy  :  -188.1043561 Eh     change       -0.1840980E-01 Eh
   gradient norm :     0.0533639 Eh/α   predicted    -0.1723438E-01 (  -6.38%)
   displ. norm   :     0.7553509 α      lambda       -0.1674005E-01
   maximum displ.:     0.2069145 α      in ANC's #35, #23, #25, ...

........................................................................
.............................. CYCLE   18 ..............................
........................................................................

 iter      E             dE          RMSdq      gap      omega  full diag
   1   -191.0351687 -0.191035E+03  0.154E-01    1.86       0.0  T
   2   -191.0351971 -0.284614E-04  0.913E-02    1.84       1.0  T
   3   -191.0349678  0.229326E-03  0.457E-02    1.85       1.0  T
   4   -191.0352269 -0.259064E-03  0.705E-03    1.84       1.3  T
   5   -191.0352304 -0.354683E-05  0.339E-03    1.84       2.7  T
   6   -191.0352311 -0.655305E-06  0.146E-03    1.84       6.3  T
   7   -191.0352312 -0.118032E-06  0.612E-04    1.84      15.1  T
   8   -191.0352312 -0.183082E-07  0.264E-04    1.84      35.0  T
   9   -191.0352312 -0.187759E-08  0.139E-04    1.84      66.7  T
  10   -191.0352312 -0.105706E-08  0.418E-05    1.84     220.9  T
     SCC iter.                  ...        0 min,  0.282 sec
     gradient                   ...        0 min,  0.323 sec
 * total energy  :  -188.1185700 Eh     change       -0.1421385E-01 Eh
   gradient norm :     0.0532685 Eh/α   predicted    -0.1314557E-01 (  -7.52%)
   displ. norm   :     0.7518707 α      lambda       -0.1390565E-01
   maximum displ.:     0.2168497 α      in ANC's #23, #18, #35, ...

........................................................................
.............................. CYCLE   19 ..............................
........................................................................

 iter      E             dE          RMSdq      gap      omega  full diag
   1   -191.0489287 -0.191049E+03  0.149E-01    1.88       0.0  T
   2   -191.0489746 -0.459718E-04  0.878E-02    1.87       1.0  T
   3   -191.0487853  0.189337E-03  0.415E-02    1.87       1.0  T
   4   -191.0489957 -0.210379E-03  0.774E-03    1.86       1.2  T
   5   -191.0490014 -0.575942E-05  0.295E-03    1.87       3.1  T
   6   -191.0490020 -0.538451E-06  0.150E-03    1.87       6.2  T
   7   -191.0490021 -0.100549E-06  0.607E-04    1.87      15.2  T
   8   -191.0490021 -0.202737E-07  0.252E-04    1.87      36.7  T
   9   -191.0490021 -0.159230E-08  0.133E-04    1.87      69.5  T
  10   -191.0490021 -0.886388E-09  0.456E-05    1.87     202.8  T
     SCC iter.                  ...        0 min,  0.275 sec
     gradient                   ...        0 min,  0.291 sec
 * total energy  :  -188.1303712 Eh     change       -0.1180128E-01 Eh
   gradient norm :     0.0495925 Eh/α   predicted    -0.1088333E-01 (  -7.78%)
   displ. norm   :     0.7576971 α      lambda       -0.1228138E-01
   maximum displ.:     0.2651073 α      in ANC's #23, #35, #25, ...

........................................................................
.............................. CYCLE   20 ..............................
........................................................................

 iter      E             dE          RMSdq      gap      omega  full diag
   1   -191.0642937 -0.191064E+03  0.145E-01    1.89       0.0  T
   2   -191.0643335 -0.397183E-04  0.855E-02    1.87       1.0  T
   3   -191.0641132  0.220223E-03  0.454E-02    1.88       1.0  T
   4   -191.0643614 -0.248209E-03  0.686E-03    1.88       1.3  T
   5   -191.0643657 -0.428452E-05  0.270E-03    1.88       3.4  T
   6   -191.0643661 -0.393500E-06  0.140E-03    1.88       6.6  T
   7   -191.0643662 -0.776005E-07  0.687E-04    1.88      13.5  T
   8   -191.0643662 -0.237580E-07  0.250E-04    1.88      36.9  T
   9   -191.0643662 -0.195902E-08  0.141E-04    1.88      65.6  T
  10   -191.0643662 -0.107175E-08  0.445E-05    1.88     207.6  T
     SCC iter.                  ...        0 min,  0.311 sec
     gradient                   ...        0 min,  0.263 sec
 * total energy  :  -188.1406047 Eh     change       -0.1023341E-01 Eh
   gradient norm :     0.0461869 Eh/α   predicted    -0.9666107E-02 (  -5.54%)
   displ. norm   :     0.7350700 α      lambda       -0.1092327E-01
   maximum displ.:     0.2746088 α      in ANC's #23, #18, #25, ...
 * RMSD in coord.:     1.1019859 α      energy gain  -0.2260539E+01 Eh

generating ANC from exact Hessian ...
Using Lindh-Hessian (1995)
 Shifting diagonal of input Hessian by    9.9717918659888542E-003
 Lowest  eigenvalues of input Hessian
    0.000000    0.000000    0.000000    0.000000    0.000000    0.000000
    0.010000    0.010038    0.010100    0.010174    0.010244    0.010384
    0.010413    0.010556    0.010659    0.010836    0.010855    0.010907
 Highest eigenvalues
    2.153180    2.233651    2.297422    2.383575    2.445063    3.146512


........................................................................
.............................. CYCLE   21 ..............................
........................................................................

 iter      E             dE          RMSdq      gap      omega  full diag
   1   -191.0749023 -0.191075E+03  0.142E-01    1.91       0.0  T
   2   -191.0749887 -0.863877E-04  0.836E-02    1.92       1.0  T
   3   -191.0748078  0.180971E-03  0.453E-02    1.91       1.0  T
   4   -191.0750175 -0.209706E-03  0.974E-03    1.91       1.0  T
   5   -191.0750279 -0.104756E-04  0.293E-03    1.91       3.2  T
   6   -191.0750285 -0.596673E-06  0.146E-03    1.91       6.3  T
   7   -191.0750286 -0.859631E-07  0.741E-04    1.91      12.5  T
   8   -191.0750287 -0.226302E-07  0.234E-04    1.91      39.5  T
   9   -191.0750287 -0.167643E-08  0.127E-04    1.91      72.6  T
  10   -191.0750287 -0.789811E-09  0.521E-05    1.91     177.5  T
     SCC iter.                  ...        0 min,  0.282 sec
     gradient                   ...        0 min,  0.323 sec
 * total energy  :  -188.1494747 Eh     change       -0.8870068E-02 Eh
   gradient norm :     0.0417210 Eh/α   predicted     0.0000000E+00 (-100.00%)
   displ. norm   :     0.5785620 α      lambda       -0.1386638E-01
   maximum displ.:     0.2296738 α      in ANC's #25, #19, #18, ...

........................................................................
.............................. CYCLE   22 ..............................
........................................................................

 iter      E             dE          RMSdq      gap      omega  full diag
   1   -191.0928958 -0.191093E+03  0.127E-01    1.94       0.0  T
   2   -191.0929530 -0.571363E-04  0.740E-02    1.94       1.0  T
   3   -191.0928531  0.998370E-04  0.369E-02    1.95       1.0  T
   4   -191.0929703 -0.117147E-03  0.998E-03    1.95       1.0  T
   5   -191.0929783 -0.801182E-05  0.331E-03    1.95       2.8  T
   6   -191.0929788 -0.490840E-06  0.174E-03    1.95       5.3  T
   7   -191.0929790 -0.249923E-06  0.554E-04    1.95      16.7  T
   8   -191.0929790 -0.173046E-07  0.278E-04    1.95      33.3  T
   9   -191.0929790 -0.191361E-08  0.139E-04    1.95      66.6  T
  10   -191.0929790 -0.864787E-09  0.557E-05    1.95     166.1  T
     SCC iter.                  ...        0 min,  0.287 sec
     gradient                   ...        0 min,  0.317 sec
 * total energy  :  -188.1600940 Eh     change       -0.1061930E-01 Eh
   gradient norm :     0.0209852 Eh/α   predicted    -0.9254092E-02 ( -12.86%)
   displ. norm   :     0.6996143 α      lambda       -0.9123677E-02
   maximum displ.:     0.2804081 α      in ANC's #19, #25, #18, ...

........................................................................
.............................. CYCLE   23 ..............................
........................................................................

 iter      E             dE          RMSdq      gap      omega  full diag
   1   -191.1014063 -0.191101E+03  0.111E-01    1.97       0.0  T
   2   -191.1014509 -0.446312E-04  0.645E-02    1.97       1.0  T
   3   -191.1013571  0.938703E-04  0.360E-02    1.98       1.0  T
   4   -191.1014717 -0.114598E-03  0.866E-03    1.97       1.1  T
   5   -191.1014772 -0.551441E-05  0.318E-03    1.97       2.9  T
   6   -191.1014777 -0.485673E-06  0.167E-03    1.97       5.5  T
   7   -191.1014779 -0.223579E-06  0.499E-04    1.97      18.5  T
   8   -191.1014779 -0.126761E-07  0.249E-04    1.97      37.2  T
   9   -191.1014779 -0.155543E-08  0.122E-04    1.97      76.0  T
  10   -191.1014779 -0.697895E-09  0.500E-05    1.97     184.8  T
     SCC iter.                  ...        0 min,  0.322 sec
     gradient                   ...        0 min,  0.335 sec
 * total energy  :  -188.1675915 Eh     change       -0.7497496E-02 Eh
   gradient norm :     0.0137713 Eh/α   predicted    -0.6794677E-02 (  -9.37%)
   displ. norm   :     0.7729190 α      lambda       -0.7073941E-02
   maximum displ.:     0.3236293 α      in ANC's #19, #25, #18, ...

........................................................................
.............................. CYCLE   24 ..............................
........................................................................

 iter      E             dE          RMSdq      gap      omega  full diag
   1   -191.1061082 -0.191106E+03  0.107E-01    2.01       0.0  T
   2   -191.1061355 -0.273164E-04  0.623E-02    2.01       1.0  T
   3   -191.1060393  0.962200E-04  0.332E-02    2.01       1.0  T
   4   -191.1061519 -0.112635E-03  0.718E-03    2.01       1.3  T
   5   -191.1061564 -0.445142E-05  0.270E-03    2.01       3.4  T
   6   -191.1061567 -0.348460E-06  0.140E-03    2.01       6.6  T
   7   -191.1061569 -0.146780E-06  0.482E-04    2.01      19.2  T
   8   -191.1061569 -0.140779E-07  0.220E-04    2.01      42.0  T
   9   -191.1061569 -0.922654E-09  0.116E-04    2.01      79.5  T
  10   -191.1061569 -0.716142E-09  0.430E-05    2.01     215.0  T
     SCC iter.                  ...        0 min,  0.298 sec
     gradient                   ...        0 min,  0.330 sec
 * total energy  :  -188.1737529 Eh     change       -0.6161353E-02 Eh
   gradient norm :     0.0134364 Eh/α   predicted    -0.5649973E-02 (  -8.30%)
   displ. norm   :     0.8183076 α      lambda       -0.6104453E-02
   maximum displ.:     0.3431394 α      in ANC's #19, #25, #18, ...

........................................................................
.............................. CYCLE   25 ..............................
........................................................................

 iter      E             dE          RMSdq      gap      omega  full diag
   1   -191.1106490 -0.191111E+03  0.111E-01    2.05       0.0  T
   2   -191.1106665 -0.175365E-04  0.651E-02    2.04       1.0  T
   3   -191.1105543  0.112228E-03  0.340E-02    2.05       1.0  T
   4   -191.1106839 -0.129625E-03  0.589E-03    2.04       1.6  T
   5   -191.1106871 -0.320567E-05  0.250E-03    2.04       3.7  T
   6   -191.1106875 -0.379733E-06  0.119E-03    2.04       7.8  T
   7   -191.1106875 -0.724636E-07  0.473E-04    2.04      19.5  T
   8   -191.1106876 -0.140462E-07  0.203E-04    2.04      45.5  T
   9   -191.1106876 -0.103358E-08  0.106E-04    2.04      87.5  T
  10   -191.1106876 -0.572612E-09  0.387E-05    2.04     239.0  T
     SCC iter.                  ...        0 min,  0.269 sec
     gradient                   ...        0 min,  0.276 sec
 * total energy  :  -188.1791520 Eh     change       -0.5399116E-02 Eh
   gradient norm :     0.0127862 Eh/α   predicted    -0.5096084E-02 (  -5.61%)
   displ. norm   :     0.8313447 α      lambda       -0.5173570E-02
   maximum displ.:     0.3410628 α      in ANC's #19, #25, #18, ...

........................................................................
.............................. CYCLE   26 ..............................
........................................................................

 iter      E             dE          RMSdq      gap      omega  full diag
   1   -191.1152156 -0.191115E+03  0.113E-01    2.07       0.0  T
   2   -191.1152300 -0.144064E-04  0.666E-02    2.07       1.0  T
   3   -191.1151058  0.124227E-03  0.357E-02    2.07       1.0  T
   4   -191.1152506 -0.144844E-03  0.517E-03    2.07       1.8  T
   5   -191.1152533 -0.272106E-05  0.227E-03    2.07       4.1  T
   6   -191.1152537 -0.333112E-06  0.106E-03    2.07       8.7  T
   7   -191.1152537 -0.284876E-07  0.478E-04    2.07      19.4  T
   8   -191.1152537 -0.161879E-07  0.171E-04    2.07      54.0  T
   9   -191.1152537 -0.112877E-08  0.894E-05    2.07     103.4  T
     SCC iter.                  ...        0 min,  0.254 sec
     gradient                   ...        0 min,  0.290 sec
 * total energy  :  -188.1837333 Eh     change       -0.4581323E-02 Eh
   gradient norm :     0.0110074 Eh/α   predicted    -0.4374602E-02 (  -4.51%)
   displ. norm   :     0.8334607 α      lambda       -0.4303824E-02
   maximum displ.:     0.3242307 α      in ANC's #19, #12, #25, ...

........................................................................
.............................. CYCLE   27 ..............................
........................................................................

 iter      E             dE          RMSdq      gap      omega  full diag
   1   -191.1193798 -0.191119E+03  0.112E-01    2.09       0.0  T
   2   -191.1193959 -0.160876E-04  0.664E-02    2.09       1.0  T
   3   -191.1192693  0.126578E-03  0.373E-02    2.09       1.0  T
   4   -191.1194211 -0.151791E-03  0.514E-03    2.09       1.8  T
   5   -191.1194240 -0.289617E-05  0.214E-03    2.09       4.3  T
   6   -191.1194243 -0.287758E-06  0.105E-03    2.09       8.8  T
   7   -191.1194243 -0.127382E-07  0.496E-04    2.09      18.6  T
   8   -191.1194243 -0.183074E-07  0.156E-04    2.09      59.3  T
   9   -191.1194243 -0.141651E-08  0.790E-05    2.09     117.0  T
     SCC iter.                  ...        0 min,  0.269 sec
     gradient                   ...        0 min,  0.310 sec
 * total energy  :  -188.1875422 Eh     change       -0.3808860E-02 Eh
   gradient norm :     0.0090194 Eh/α   predicted    -0.3646754E-02 (  -4.26%)
   displ. norm   :     0.8314855 α      lambda       -0.3561469E-02
   maximum displ.:     0.2989728 α      in ANC's #19, #12, #3, ...

........................................................................
.............................. CYCLE   28 ..............................
........................................................................

 iter      E             dE          RMSdq      gap      omega  full diag
   1   -191.1227675 -0.191123E+03  0.108E-01    2.10       0.0  T
   2   -191.1227862 -0.187137E-04  0.645E-02    2.10       1.0  T
   3   -191.1226676  0.118583E-03  0.376E-02    2.10       1.0  T
   4   -191.1228152 -0.147527E-03  0.536E-03    2.10       1.7  T
   5   -191.1228183 -0.316642E-05  0.209E-03    2.10       4.4  T
   6   -191.1228186 -0.265139E-06  0.105E-03    2.10       8.8  T
   7   -191.1228186 -0.104649E-07  0.487E-04    2.10      19.0  T
   8   -191.1228186 -0.157161E-07  0.170E-04    2.10      54.4  T
   9   -191.1228186 -0.173179E-08  0.837E-05    2.10     110.5  T
     SCC iter.                  ...        0 min,  0.283 sec
     gradient                   ...        0 min,  0.361 sec
 * total energy  :  -188.1906922 Eh     change       -0.3150039E-02 Eh
   gradient norm :     0.0085697 Eh/α   predicted    -0.3011878E-02 (  -4.39%)
   displ. norm   :     0.8257537 α      lambda       -0.2968780E-02
   maximum displ.:     0.2739661 α      in ANC's #12, #19, #3, ...

........................................................................
.............................. CYCLE   29 ..............................
........................................................................

 iter      E             dE          RMSdq      gap      omega  full diag
   1   -191.1253940 -0.191125E+03  0.103E-01    2.11       0.0  T
   2   -191.1254143 -0.203456E-04  0.622E-02    2.11       1.0  T
   3   -191.1253060  0.108332E-03  0.370E-02    2.11       1.0  T
   4   -191.1254450 -0.139048E-03  0.557E-03    2.11       1.7  T
   5   -191.1254483 -0.328092E-05  0.204E-03    2.11       4.5  T
   6   -191.1254485 -0.244438E-06  0.103E-03    2.11       9.0  T
   7   -191.1254486 -0.116940E-07  0.466E-04    2.11      19.8  T
   8   -191.1254486 -0.115026E-07  0.182E-04    2.11      50.9  T
   9   -191.1254486 -0.176729E-08  0.844E-05    2.11     109.5  T
     SCC iter.                  ...        0 min,  0.242 sec
     gradient                   ...        0 min,  0.308 sec
 * total energy  :  -188.1933217 Eh     change       -0.2629485E-02 Eh
   gradient norm :     0.0092162 Eh/α   predicted    -0.2496553E-02 (  -5.06%)
   displ. norm   :     0.8182633 α      lambda       -0.2522754E-02
   maximum displ.:     0.2787773 α      in ANC's #12, #3, #7, ...

........................................................................
.............................. CYCLE   30 ..............................
........................................................................

 iter      E             dE          RMSdq      gap      omega  full diag
   1   -191.1277682 -0.191128E+03  0.991E-02    2.12       0.0  T
   2   -191.1277886 -0.203735E-04  0.602E-02    2.12       1.0  T
   3   -191.1276853  0.103288E-03  0.361E-02    2.12       1.0  T
   4   -191.1278185 -0.133129E-03  0.560E-03    2.12       1.7  T
   5   -191.1278216 -0.312526E-05  0.201E-03    2.12       4.6  T
   6   -191.1278218 -0.230876E-06  0.101E-03    2.12       9.1  T
   7   -191.1278218 -0.122682E-07  0.471E-04    2.12      19.6  T
   8   -191.1278218 -0.104582E-07  0.195E-04    2.12      47.3  T
   9   -191.1278218 -0.215988E-08  0.850E-05    2.12     108.7  T
     SCC iter.                  ...        0 min,  0.264 sec
     gradient                   ...        0 min,  0.317 sec
 * total energy  :  -188.1955533 Eh     change       -0.2231564E-02 Eh
   gradient norm :     0.0095592 Eh/α   predicted    -0.2105944E-02 (  -5.63%)
   displ. norm   :     0.8075149 α      lambda       -0.2172726E-02
   maximum displ.:     0.2936366 α      in ANC's #3, #12, #7, ...

........................................................................
.............................. CYCLE   31 ..............................
........................................................................

 iter      E             dE          RMSdq      gap      omega  full diag
   1   -191.1295904 -0.191130E+03  0.978E-02    2.13       0.0  T
   2   -191.1296099 -0.194702E-04  0.594E-02    2.14       1.0  T
   3   -191.1295038  0.106069E-03  0.354E-02    2.14       1.0  T
   4   -191.1296374 -0.133561E-03  0.543E-03    2.13       1.7  T
   5   -191.1296401 -0.275239E-05  0.197E-03    2.13       4.7  T
   6   -191.1296404 -0.220692E-06  0.101E-03    2.13       9.2  T
   7   -191.1296404 -0.137992E-07  0.472E-04    2.13      19.6  T
   8   -191.1296404 -0.106885E-07  0.200E-04    2.13      46.3  T
   9   -191.1296404 -0.259561E-08  0.825E-05    2.13     112.0  T
     SCC iter.                  ...        0 min,  0.263 sec
     gradient                   ...        0 min,  0.343 sec
 * total energy  :  -188.1974728 Eh     change       -0.1919541E-02 Eh
   gradient norm :     0.0094864 Eh/α   predicted    -0.1794769E-02 (  -6.50%)
   displ. norm   :     0.7984086 α      lambda       -0.1905047E-02
   maximum displ.:     0.3113252 α      in ANC's #3, #12, #7, ...

........................................................................
.............................. CYCLE   32 ..............................
........................................................................

 iter      E             dE          RMSdq      gap      omega  full diag
   1   -191.1317645 -0.191132E+03  0.993E-02    2.14       0.0  T
   2   -191.1317821 -0.176035E-04  0.600E-02    2.15       1.0  T
   3   -191.1316696  0.112495E-03  0.348E-02    2.15       1.0  T
   4   -191.1318064 -0.136827E-03  0.509E-03    2.15       1.8  T
   5   -191.1318087 -0.225640E-05  0.195E-03    2.15       4.7  T
   6   -191.1318089 -0.209371E-06  0.102E-03    2.15       9.1  T
   7   -191.1318089 -0.184208E-07  0.463E-04    2.15      20.0  T
   8   -191.1318089 -0.107094E-07  0.198E-04    2.15      46.7  T
   9   -191.1318089 -0.263839E-08  0.824E-05    2.15     112.2  T
     SCC iter.                  ...        0 min,  0.311 sec
     gradient                   ...        0 min,  0.330 sec
 * total energy  :  -188.1991474 Eh     change       -0.1674626E-02 Eh
   gradient norm :     0.0093393 Eh/α   predicted    -0.1559736E-02 (  -6.86%)
   displ. norm   :     0.7905059 α      lambda       -0.1682459E-02
   maximum displ.:     0.3322788 α      in ANC's #3, #12, #23, ...

........................................................................
.............................. CYCLE   33 ..............................
........................................................................

 iter      E             dE          RMSdq      gap      omega  full diag
   1   -191.1318860 -0.191132E+03  0.100E-01    2.16       0.0  T
   2   -191.1319015 -0.155374E-04  0.601E-02    2.17       1.0  T
   3   -191.1317885  0.113034E-03  0.338E-02    2.17       1.0  T
   4   -191.1319226 -0.134115E-03  0.462E-03    2.17       2.0  T
   5   -191.1319243 -0.172062E-05  0.192E-03    2.17       4.8  T
   6   -191.1319245 -0.182031E-06  0.101E-03    2.17       9.2  T
   7   -191.1319246 -0.240232E-07  0.420E-04    2.17      22.0  T
   8   -191.1319246 -0.971608E-08  0.188E-04    2.17      49.3  T
   9   -191.1319246 -0.215130E-08  0.796E-05    2.17     116.1  T
     SCC iter.                  ...        0 min,  0.235 sec
     gradient                   ...        0 min,  0.311 sec
 * total energy  :  -188.2006123 Eh     change       -0.1464893E-02 Eh
   gradient norm :     0.0097882 Eh/α   predicted    -0.1366917E-02 (  -6.69%)
   displ. norm   :     0.7819914 α      lambda       -0.1572800E-02
   maximum displ.:     0.3435453 α      in ANC's #3, #23, #12, ...

........................................................................
.............................. CYCLE   34 ..............................
........................................................................

 iter      E             dE          RMSdq      gap      omega  full diag
   1   -191.1352065 -0.191135E+03  0.103E-01    2.18       0.0  T
   2   -191.1352202 -0.136788E-04  0.612E-02    2.18       1.0  T
   3   -191.1351122  0.107985E-03  0.317E-02    2.19       1.0  T
   4   -191.1352372 -0.124998E-03  0.416E-03    2.19       2.2  T
   5   -191.1352383 -0.110911E-05  0.200E-03    2.19       4.6  T
   6   -191.1352385 -0.138712E-06  0.110E-03    2.19       8.4  T
   7   -191.1352385 -0.480679E-07  0.413E-04    2.19      22.4  T
   8   -191.1352385 -0.839171E-08  0.206E-04    2.19      44.8  T
   9   -191.1352385 -0.202601E-08  0.875E-05    2.19     105.7  T
  10   -191.1352385 -0.364821E-09  0.378E-05    2.19     244.5  T
     SCC iter.                  ...        0 min,  0.267 sec
     gradient                   ...        0 min,  0.280 sec
 * total energy  :  -188.2019194 Eh     change       -0.1307087E-02 Eh
   gradient norm :     0.0105256 Eh/α   predicted    -0.1267295E-02 (  -3.04%)
   displ. norm   :     0.7737737 α      lambda       -0.1491030E-02
   maximum displ.:     0.3608589 α      in ANC's #3, #23, #4, ...

........................................................................
.............................. CYCLE   35 ..............................
........................................................................

 iter      E             dE          RMSdq      gap      omega  full diag
   1   -191.1332503 -0.191133E+03  0.999E-02    2.19       0.0  T
   2   -191.1332613 -0.110284E-04  0.587E-02    2.20       1.0  T
   3   -191.1331791  0.822195E-04  0.274E-02    2.20       1.0  T
   4   -191.1332730 -0.939465E-04  0.375E-03    2.20       2.5  T
   5   -191.1332737 -0.703006E-06  0.195E-03    2.20       4.7  T
   6   -191.1332739 -0.122015E-06  0.953E-04    2.20       9.7  T
   7   -191.1332739 -0.483794E-07  0.355E-04    2.20      26.1  T
   8   -191.1332739 -0.548383E-08  0.196E-04    2.20      47.2  T
   9   -191.1332739 -0.188192E-08  0.788E-05    2.20     117.4  T
     SCC iter.                  ...        0 min,  0.226 sec
     gradient                   ...        0 min,  0.308 sec
 * total energy  :  -188.2031690 Eh     change       -0.1249561E-02 Eh
   gradient norm :     0.0090686 Eh/α   predicted    -0.1191876E-02 (  -4.62%)
   displ. norm   :     0.7523587 α      lambda       -0.1350391E-02
   maximum displ.:     0.3567984 α      in ANC's #3, #23, #4, ...

........................................................................
.............................. CYCLE   36 ..............................
........................................................................

 iter      E             dE          RMSdq      gap      omega  full diag
   1   -191.1337223 -0.191134E+03  0.995E-02    2.22       0.0  T
   2   -191.1337336 -0.113158E-04  0.580E-02    2.22       1.0  T
   3   -191.1336708  0.628180E-04  0.235E-02    2.22       1.0  T
   4   -191.1337422 -0.714799E-04  0.362E-03    2.23       2.6  T
   5   -191.1337427 -0.487372E-06  0.195E-03    2.23       4.8  T
   6   -191.1337429 -0.131719E-06  0.938E-04    2.23       9.9  T
   7   -191.1337429 -0.510914E-07  0.377E-04    2.23      24.5  T
   8   -191.1337429 -0.584168E-08  0.206E-04    2.23      44.9  T
   9   -191.1337429 -0.171016E-08  0.880E-05    2.23     105.1  T
  10   -191.1337429 -0.536289E-09  0.335E-05    2.23     276.1  T
     SCC iter.                  ...        0 min,  0.324 sec
     gradient                   ...        0 min,  0.350 sec
 * total energy  :  -188.2043591 Eh     change       -0.1190133E-02 Eh
   gradient norm :     0.0097139 Eh/α   predicted    -0.1057388E-02 ( -11.15%)
   displ. norm   :     0.7656509 α      lambda       -0.1395669E-02
   maximum displ.:     0.3708311 α      in ANC's #3, #23, #4, ...

........................................................................
.............................. CYCLE   37 ..............................
........................................................................

 iter      E             dE          RMSdq      gap      omega  full diag
   1   -191.1360410 -0.191136E+03  0.100E-01    2.23       0.0  T
   2   -191.1360520 -0.110306E-04  0.587E-02    2.23       1.0  T
   3   -191.1360047  0.473252E-04  0.205E-02    2.24       1.0  T
   4   -191.1360584 -0.536991E-04  0.366E-03    2.24       2.5  T
   5   -191.1360589 -0.531193E-06  0.189E-03    2.24       4.9  T
   6   -191.1360591 -0.150991E-06  0.869E-04    2.24      10.6  T
   7   -191.1360591 -0.417714E-07  0.396E-04    2.24      23.4  T
   8   -191.1360591 -0.802544E-08  0.186E-04    2.24      49.6  T
   9   -191.1360591 -0.976002E-09  0.939E-05    2.24      98.4  T
     SCC iter.                  ...        0 min,  0.284 sec
     gradient                   ...        0 min,  0.313 sec
 * total energy  :  -188.2055475 Eh     change       -0.1188400E-02 Eh
   gradient norm :     0.0120529 Eh/α   predicted    -0.1106930E-02 (  -6.86%)
   displ. norm   :     0.7813847 α      lambda       -0.1345620E-02
   maximum displ.:     0.3804621 α      in ANC's #3, #4, #23, ...

........................................................................
.............................. CYCLE   38 ..............................
........................................................................

 iter      E             dE          RMSdq      gap      omega  full diag
   1   -191.1317458 -0.191132E+03  0.107E-01    2.25       0.0  T
   2   -191.1317684 -0.226294E-04  0.630E-02    2.26       1.0  T
   3   -191.1317039  0.644723E-04  0.240E-02    2.25       1.0  T
   4   -191.1317773 -0.733482E-04  0.453E-03    2.26       2.0  T
   5   -191.1317789 -0.164477E-05  0.193E-03    2.26       4.8  T
   6   -191.1317790 -0.129549E-06  0.102E-03    2.26       9.0  T
   7   -191.1317791 -0.384638E-07  0.478E-04    2.26      19.4  T
   8   -191.1317791 -0.128307E-07  0.196E-04    2.26      47.3  T
   9   -191.1317791 -0.891447E-09  0.986E-05    2.26      93.8  T
     SCC iter.                  ...        0 min,  0.278 sec
     gradient                   ...        0 min,  0.331 sec
 * total energy  :  -188.2066550 Eh     change       -0.1107465E-02 Eh
   gradient norm :     0.0145676 Eh/α   predicted    -0.1083606E-02 (  -2.15%)
   displ. norm   :     0.7253148 α      lambda       -0.1222037E-02
   maximum displ.:     0.3633494 α      in ANC's #3, #8, #4, ...

........................................................................
.............................. CYCLE   39 ..............................
........................................................................

 iter      E             dE          RMSdq      gap      omega  full diag
   1   -191.1343180 -0.191134E+03  0.945E-02    2.25       0.0  T
   2   -191.1343269 -0.886986E-05  0.558E-02    2.25       1.0  T
   3   -191.1342785  0.484232E-04  0.206E-02    2.26       1.0  T
   4   -191.1343330 -0.544630E-04  0.299E-03    2.26       3.1  T
   5   -191.1343335 -0.565154E-06  0.150E-03    2.26       6.1  T
   6   -191.1343336 -0.867693E-07  0.779E-04    2.26      11.9  T
   7   -191.1343336 -0.253596E-07  0.348E-04    2.26      26.5  T
   8   -191.1343336 -0.657266E-08  0.146E-04    2.26      63.2  T
   9   -191.1343336 -0.687407E-09  0.787E-05    2.26     117.5  T
     SCC iter.                  ...        0 min,  0.303 sec
     gradient                   ...        0 min,  0.312 sec
 * total energy  :  -188.2076782 Eh     change       -0.1023183E-02 Eh
   gradient norm :     0.0117583 Eh/α   predicted    -0.9324655E-03 (  -8.87%)
   displ. norm   :     0.7338188 α      lambda       -0.1094790E-02
   maximum displ.:     0.3776060 α      in ANC's #3, #8, #4, ...

........................................................................
.............................. CYCLE   40 ..............................
........................................................................

 iter      E             dE          RMSdq      gap      omega  full diag
   1   -191.1305986 -0.191131E+03  0.941E-02    2.26       0.0  T
   2   -191.1306065 -0.791823E-05  0.560E-02    2.26       1.0  T
   3   -191.1305587  0.477754E-04  0.203E-02    2.26       1.0  T
   4   -191.1306122 -0.535095E-04  0.313E-03    2.26       3.0  T
   5   -191.1306128 -0.555482E-06  0.163E-03    2.26       5.7  T
   6   -191.1306129 -0.109522E-06  0.915E-04    2.26      10.1  T
   7   -191.1306129 -0.400315E-07  0.331E-04    2.26      28.0  T
   8   -191.1306129 -0.510028E-08  0.178E-04    2.26      52.1  T
   9   -191.1306129 -0.131342E-08  0.714E-05    2.26     129.5  T
     SCC iter.                  ...        0 min,  0.232 sec
     gradient                   ...        0 min,  0.330 sec
 * total energy  :  -188.2085633 Eh     change       -0.8850969E-03 Eh
   gradient norm :     0.0112803 Eh/α   predicted    -0.8421661E-03 (  -4.85%)
   displ. norm   :     0.7049482 α      lambda       -0.1189643E-02
   maximum displ.:     0.3682598 α      in ANC's #3, #8, #2, ...

........................................................................
.............................. CYCLE   41 ..............................
........................................................................

 iter      E             dE          RMSdq      gap      omega  full diag
   1   -191.1404543 -0.191140E+03  0.942E-02    2.26       0.0  T
   2   -191.1404682 -0.139536E-04  0.560E-02    2.26       1.0  T
   3   -191.1404296  0.386528E-04  0.190E-02    2.26       1.0  T
   4   -191.1404728 -0.432477E-04  0.446E-03    2.26       2.1  T
   5   -191.1404745 -0.172151E-05  0.191E-03    2.26       4.8  T
   6   -191.1404747 -0.154877E-06  0.107E-03    2.26       8.7  T
   7   -191.1404748 -0.717175E-07  0.422E-04    2.26      21.9  T
   8   -191.1404748 -0.111197E-07  0.189E-04    2.26      48.8  T
   9   -191.1404748 -0.245961E-09  0.906E-05    2.26     102.1  T
     SCC iter.                  ...        0 min,  0.254 sec
     gradient                   ...        0 min,  0.286 sec
 * total energy  :  -188.2092407 Eh     change       -0.6774181E-03 Eh
   gradient norm :     0.0140631 Eh/α   predicted    -0.8904220E-03 (  31.44%)
   displ. norm   :     0.6036007 α      lambda       -0.9533394E-03
   maximum displ.:     0.3205263 α      in ANC's #3, #8, #4, ...

........................................................................
.............................. CYCLE   42 ..............................
........................................................................

 iter      E             dE          RMSdq      gap      omega  full diag
   1   -191.1348253 -0.191135E+03  0.769E-02    2.27       0.0  T
   2   -191.1348332 -0.792139E-05  0.459E-02    2.27       1.0  T
   3   -191.1347891  0.440730E-04  0.197E-02    2.27       1.0  T
   4   -191.1348385 -0.494121E-04  0.290E-03    2.27       3.2  T
   5   -191.1348392 -0.668692E-06  0.129E-03    2.27       7.2  T
   6   -191.1348392 -0.456471E-07  0.783E-04    2.27      11.8  T
   7   -191.1348393 -0.241535E-07  0.352E-04    2.27      26.3  T
   8   -191.1348393 -0.692430E-08  0.132E-04    2.27      69.9  T
   9   -191.1348393 -0.356522E-09  0.692E-05    2.27     133.5  T
     SCC iter.                  ...        0 min,  0.264 sec
     gradient                   ...        0 min,  0.366 sec
 * total energy  :  -188.2099404 Eh     change       -0.6996922E-03 Eh
   gradient norm :     0.0093800 Eh/α   predicted    -0.6503377E-03 (  -7.05%)
   displ. norm   :     0.6134903 α      lambda       -0.7537078E-03
   maximum displ.:     0.3303538 α      in ANC's #3, #8, #4, ...
 * RMSD in coord.:     1.2374061 α      energy gain  -0.6933571E-01 Eh

generating ANC from exact Hessian ...
Using Lindh-Hessian (1995)
 Shifting diagonal of input Hessian by    9.9349895967879697E-003
 Lowest  eigenvalues of input Hessian
    0.000000    0.000000    0.000000    0.000000    0.000000    0.000000
    0.010000    0.010021    0.010069    0.010096    0.010124    0.010222
    0.010325    0.010394    0.010469    0.010562    0.010632    0.010751
 Highest eigenvalues
    2.155760    2.161276    2.334024    2.343226    2.350745    3.070915


........................................................................
.............................. CYCLE   43 ..............................
........................................................................

 iter      E             dE          RMSdq      gap      omega  full diag
   1   -191.1325154 -0.191133E+03  0.778E-02    2.27       0.0  T
   2   -191.1325202 -0.479990E-05  0.462E-02    2.27       1.0  T
   3   -191.1324920  0.281991E-04  0.152E-02    2.27       1.0  T
   4   -191.1325230 -0.309773E-04  0.272E-03    2.27       3.4  T
   5   -191.1325237 -0.704416E-06  0.106E-03    2.27       8.7  T
   6   -191.1325237 -0.417920E-07  0.616E-04    2.27      15.0  T
   7   -191.1325238 -0.114469E-07  0.249E-04    2.27      37.1  T
   8   -191.1325238 -0.301648E-08  0.114E-04    2.27      81.2  T
   9   -191.1325238 -0.687407E-09  0.478E-05    2.27     193.5  T
     SCC iter.                  ...        0 min,  0.240 sec
     gradient                   ...        0 min,  0.356 sec
 * total energy  :  -188.2105156 Eh     change       -0.5752630E-03 Eh
   gradient norm :     0.0096518 Eh/α   predicted     0.0000000E+00 (-100.00%)
   displ. norm   :     0.1243643 α      lambda       -0.3551477E-03
   maximum displ.:     0.0358695 α      in ANC's #4, #19, #5, ...

........................................................................
.............................. CYCLE   44 ..............................
........................................................................

 iter      E             dE          RMSdq      gap      omega  full diag
   1   -191.1386348 -0.191139E+03  0.247E-02    2.27       0.0  T
   2   -191.1386361 -0.129403E-05  0.145E-02    2.28       1.0  T
   3   -191.1386345  0.160631E-05  0.440E-03    2.28       2.1  T
   4   -191.1386363 -0.187258E-05  0.117E-03    2.28       7.9  T
   5   -191.1386364 -0.109364E-06  0.443E-04    2.28      20.9  T
   6   -191.1386364 -0.544279E-08  0.214E-04    2.28      43.2  T
   7   -191.1386364 -0.243580E-08  0.890E-05    2.28     103.9  T
   8   -191.1386364 -0.461057E-09  0.429E-05    2.28     215.3  T
     SCC iter.                  ...        0 min,  0.231 sec
     gradient                   ...        0 min,  0.281 sec
 * total energy  :  -188.2107965 Eh     change       -0.2808354E-03 Eh
   gradient norm :     0.0039534 Eh/α   predicted    -0.1803212E-03 ( -35.79%)
   displ. norm   :     0.3183464 α      lambda       -0.5073324E-03
   maximum displ.:     0.0991144 α      in ANC's #19, #4, #5, ...

........................................................................
.............................. CYCLE   45 ..............................
........................................................................

 iter      E             dE          RMSdq      gap      omega  full diag
   1   -191.1447156 -0.191145E+03  0.558E-02    2.28       0.0  T
   2   -191.1447194 -0.382666E-05  0.325E-02    2.28       1.0  T
   3   -191.1447124  0.705734E-05  0.874E-03    2.28       1.1  T
   4   -191.1447206 -0.818704E-05  0.202E-03    2.28       4.6  T
   5   -191.1447208 -0.278121E-06  0.832E-04    2.28      11.1  T
   6   -191.1447209 -0.180341E-07  0.423E-04    2.28      21.8  T
   7   -191.1447209 -0.135076E-07  0.171E-04    2.28      54.1  T
   8   -191.1447209 -0.164385E-08  0.875E-05    2.28     105.7  T
     SCC iter.                  ...        0 min,  0.224 sec
     gradient                   ...        0 min,  0.314 sec
 * total energy  :  -188.2111724 Eh     change       -0.3758964E-03 Eh
   gradient norm :     0.0059083 Eh/α   predicted    -0.2793809E-03 ( -25.68%)
   displ. norm   :     0.4274701 α      lambda       -0.4526692E-03
   maximum displ.:     0.1386859 α      in ANC's #19, #4, #5, ...

........................................................................
.............................. CYCLE   46 ..............................
........................................................................

 iter      E             dE          RMSdq      gap      omega  full diag
   1   -191.1453798 -0.191145E+03  0.729E-02    2.28       0.0  T
   2   -191.1453828 -0.298702E-05  0.425E-02    2.28       1.0  T
   3   -191.1453748  0.796528E-05  0.881E-03    2.28       1.0  T
   4   -191.1453841 -0.927373E-05  0.182E-03    2.28       5.1  T
   5   -191.1453843 -0.147041E-06  0.869E-04    2.28      10.6  T
   6   -191.1453843 -0.270549E-07  0.452E-04    2.28      20.4  T
   7   -191.1453843 -0.179423E-07  0.165E-04    2.28      55.9  T
   8   -191.1453843 -0.108705E-08  0.907E-05    2.28     101.9  T
     SCC iter.                  ...        0 min,  0.198 sec
     gradient                   ...        0 min,  0.358 sec
 * total energy  :  -188.2115480 Eh     change       -0.3755970E-03 Eh
   gradient norm :     0.0090605 Eh/α   predicted    -0.2677365E-03 ( -28.72%)
   displ. norm   :     0.5997766 α      lambda       -0.5815279E-03
   maximum displ.:     0.1980270 α      in ANC's #19, #15, #4, ...

........................................................................
.............................. CYCLE   47 ..............................
........................................................................

 iter      E             dE          RMSdq      gap      omega  full diag
   1   -191.1412276 -0.191141E+03  0.102E-01    2.29       0.0  T
   2   -191.1412311 -0.354589E-05  0.594E-02    2.29       1.0  T
   3   -191.1412196  0.115280E-04  0.102E-02    2.29       1.0  T
   4   -191.1412331 -0.135000E-04  0.188E-03    2.29       4.9  T
   5   -191.1412332 -0.106477E-06  0.105E-03    2.29       8.8  T
   6   -191.1412333 -0.561608E-07  0.478E-04    2.29      19.3  T
   7   -191.1412333 -0.159946E-07  0.186E-04    2.29      49.6  T
   8   -191.1412333 -0.161174E-08  0.982E-05    2.29      94.1  T
     SCC iter.                  ...        0 min,  0.214 sec
     gradient                   ...        0 min,  0.309 sec
 * total energy  :  -188.2120209 Eh     change       -0.4729584E-03 Eh
   gradient norm :     0.0093769 Eh/α   predicted    -0.3953620E-03 ( -16.41%)
   displ. norm   :     0.5868395 α      lambda       -0.5384990E-03
   maximum displ.:     0.1981601 α      in ANC's #15, #19, #4, ...

........................................................................
.............................. CYCLE   48 ..............................
........................................................................

 iter      E             dE          RMSdq      gap      omega  full diag
   1   -191.1363022 -0.191136E+03  0.976E-02    2.29       0.0  T
   2   -191.1363054 -0.315677E-05  0.574E-02    2.29       1.0  T
   3   -191.1362951  0.102960E-04  0.955E-03    2.29       1.0  T
   4   -191.1363070 -0.119063E-04  0.168E-03    2.29       5.5  T
   5   -191.1363072 -0.177092E-06  0.895E-04    2.29      10.3  T
   6   -191.1363072 -0.365610E-07  0.459E-04    2.29      20.2  T
   7   -191.1363072 -0.754588E-08  0.173E-04    2.29      53.3  T
   8   -191.1363072 -0.264373E-08  0.685E-05    2.29     135.0  T
     SCC iter.                  ...        0 min,  0.240 sec
     gradient                   ...        0 min,  0.335 sec
 * total energy  :  -188.2124445 Eh     change       -0.4235921E-03 Eh
   gradient norm :     0.0086210 Eh/α   predicted    -0.3619741E-03 ( -14.55%)
   displ. norm   :     0.4965111 α      lambda       -0.4999743E-03
   maximum displ.:     0.1695706 α      in ANC's #15, #7, #5, ...

........................................................................
.............................. CYCLE   49 ..............................
........................................................................

 iter      E             dE          RMSdq      gap      omega  full diag
   1   -191.1352466 -0.191135E+03  0.796E-02    2.29       0.0  T
   2   -191.1352502 -0.366327E-05  0.471E-02    2.29       1.0  T
   3   -191.1352390  0.112110E-04  0.101E-02    2.29       1.0  T
   4   -191.1352515 -0.124746E-04  0.209E-03    2.29       4.4  T
   5   -191.1352519 -0.422851E-06  0.888E-04    2.29      10.4  T
   6   -191.1352520 -0.412323E-07  0.476E-04    2.29      19.4  T
   7   -191.1352520 -0.645537E-08  0.188E-04    2.29      49.2  T
   8   -191.1352520 -0.255707E-08  0.819E-05    2.29     112.8  T
     SCC iter.                  ...        0 min,  0.237 sec
     gradient                   ...        0 min,  0.329 sec
 * total energy  :  -188.2128345 Eh     change       -0.3899715E-03 Eh
   gradient norm :     0.0085030 Eh/α   predicted    -0.3116501E-03 ( -20.08%)
   displ. norm   :     0.4906233 α      lambda       -0.4819031E-03
   maximum displ.:     0.1741196 α      in ANC's #7, #15, #4, ...

........................................................................
.............................. CYCLE   50 ..............................
........................................................................

 iter      E             dE          RMSdq      gap      omega  full diag
   1   -191.1370241 -0.191137E+03  0.764E-02    2.29       0.0  T
   2   -191.1370279 -0.378394E-05  0.452E-02    2.29       1.0  T
   3   -191.1370098  0.181087E-04  0.127E-02    2.29       1.0  T
   4   -191.1370298 -0.199654E-04  0.240E-03    2.29       3.8  T
   5   -191.1370302 -0.487610E-06  0.107E-03    2.29       8.7  T
   6   -191.1370303 -0.541578E-07  0.577E-04    2.29      16.0  T
   7   -191.1370303 -0.123817E-07  0.224E-04    2.29      41.3  T
   8   -191.1370303 -0.306198E-08  0.108E-04    2.29      86.0  T
   9   -191.1370303 -0.293568E-09  0.426E-05    2.29     216.8  T
     SCC iter.                  ...        0 min,  0.280 sec
     gradient                   ...        0 min,  0.374 sec
 * total energy  :  -188.2132242 Eh     change       -0.3896870E-03 Eh
   gradient norm :     0.0092177 Eh/α   predicted    -0.2989533E-03 ( -23.28%)
   displ. norm   :     0.5733808 α      lambda       -0.5013006E-03
   maximum displ.:     0.2057121 α      in ANC's #7, #15, #4, ...

........................................................................
.............................. CYCLE   51 ..............................
........................................................................

 iter      E             dE          RMSdq      gap      omega  full diag
   1   -191.1386376 -0.191139E+03  0.888E-02    2.29       0.0  T
   2   -191.1386416 -0.394297E-05  0.524E-02    2.29       1.0  T
   3   -191.1386102  0.313767E-04  0.162E-02    2.29       1.0  T
   4   -191.1386449 -0.347319E-04  0.234E-03    2.29       3.9  T
   5   -191.1386453 -0.326507E-06  0.119E-03    2.29       7.8  T
   6   -191.1386453 -0.558640E-07  0.655E-04    2.29      14.1  T
   7   -191.1386453 -0.126474E-07  0.272E-04    2.29      34.0  T
   8   -191.1386453 -0.432922E-08  0.125E-04    2.29      74.1  T
   9   -191.1386453 -0.417486E-09  0.463E-05    2.29     199.6  T
     SCC iter.                  ...        0 min,  0.354 sec
     gradient                   ...        0 min,  0.336 sec
 * total energy  :  -188.2136325 Eh     change       -0.4083530E-03 Eh
   gradient norm :     0.0089681 Eh/α   predicted    -0.3330624E-03 ( -18.44%)
   displ. norm   :     0.5535306 α      lambda       -0.4672992E-03
   maximum displ.:     0.2020414 α      in ANC's #7, #15, #5, ...

........................................................................
.............................. CYCLE   52 ..............................
........................................................................

 iter      E             dE          RMSdq      gap      omega  full diag
   1   -191.1426169 -0.191143E+03  0.855E-02    2.29       0.0  T
   2   -191.1426210 -0.409940E-05  0.504E-02    2.29       1.0  T
   3   -191.1425843  0.367261E-04  0.174E-02    2.29       1.0  T
   4   -191.1426250 -0.407088E-04  0.224E-03    2.29       4.1  T
   5   -191.1426253 -0.286933E-06  0.118E-03    2.29       7.8  T
   6   -191.1426253 -0.441867E-07  0.654E-04    2.29      14.1  T
   7   -191.1426254 -0.942651E-08  0.289E-04    2.29      32.0  T
   8   -191.1426254 -0.501586E-08  0.116E-04    2.29      79.7  T
   9   -191.1426254 -0.400661E-09  0.495E-05    2.29     186.9  T
     SCC iter.                  ...        0 min,  0.283 sec
     gradient                   ...        0 min,  0.323 sec
 * total energy  :  -188.2139899 Eh     change       -0.3573418E-03 Eh
   gradient norm :     0.0078528 Eh/α   predicted    -0.3052398E-03 ( -14.58%)
   displ. norm   :     0.6976635 α      lambda       -0.4224074E-03
   maximum displ.:     0.2567995 α      in ANC's #15, #7, #4, ...

........................................................................
.............................. CYCLE   53 ..............................
........................................................................

 iter      E             dE          RMSdq      gap      omega  full diag
   1   -191.1354277 -0.191135E+03  0.110E-01    2.29       0.0  T
   2   -191.1354337 -0.604938E-05  0.643E-02    2.29       1.0  T
   3   -191.1354053  0.283588E-04  0.154E-02    2.29       1.0  T
   4   -191.1354369 -0.315449E-04  0.261E-03    2.29       3.5  T
   5   -191.1354374 -0.546422E-06  0.121E-03    2.29       7.6  T
   6   -191.1354375 -0.519989E-07  0.662E-04    2.29      14.0  T
   7   -191.1354375 -0.958195E-08  0.243E-04    2.29      38.1  T
   8   -191.1354375 -0.452650E-08  0.831E-05    2.29     111.3  T
   9   -191.1354375 -0.330772E-09  0.397E-05    2.29     232.8  T
     SCC iter.                  ...        0 min,  0.296 sec
     gradient                   ...        0 min,  0.313 sec
 * total energy  :  -188.2142320 Eh     change       -0.2421217E-03 Eh
   gradient norm :     0.0110547 Eh/α   predicted    -0.3140040E-03 (  29.69%)
   displ. norm   :     0.3907872 α      lambda       -0.5092670E-03
   maximum displ.:     0.1615916 α      in ANC's #21, #7, #5, ...

........................................................................
.............................. CYCLE   54 ..............................
........................................................................

 iter      E             dE          RMSdq      gap      omega  full diag
   1   -191.1448173 -0.191145E+03  0.627E-02    2.29       0.0  T
   2   -191.1448230 -0.560880E-05  0.368E-02    2.29       1.0  T
   3   -191.1448103  0.126348E-04  0.110E-02    2.29       1.0  T
   4   -191.1448241 -0.137969E-04  0.309E-03    2.29       3.0  T
   5   -191.1448250 -0.925523E-06  0.114E-03    2.29       8.1  T
   6   -191.1448251 -0.498954E-07  0.587E-04    2.29      15.8  T
   7   -191.1448251 -0.851983E-08  0.265E-04    2.29      34.9  T
   8   -191.1448251 -0.382582E-08  0.110E-04    2.29      84.1  T
   9   -191.1448251 -0.282085E-09  0.484E-05    2.29     191.0  T
     SCC iter.                  ...        0 min,  0.355 sec
     gradient                   ...        0 min,  0.330 sec
 * total energy  :  -188.2145360 Eh     change       -0.3040294E-03 Eh
   gradient norm :     0.0077016 Eh/α   predicted    -0.2935201E-03 (  -3.46%)
   displ. norm   :     0.5023737 α      lambda       -0.2821550E-03
   maximum displ.:     0.1801455 α      in ANC's #15, #5, #7, ...

........................................................................
.............................. CYCLE   55 ..............................
........................................................................

 iter      E             dE          RMSdq      gap      omega  full diag
   1   -191.1413198 -0.191141E+03  0.770E-02    2.29       0.0  T
   2   -191.1413223 -0.253442E-05  0.452E-02    2.29       1.0  T
   3   -191.1413154  0.694323E-05  0.802E-03    2.29       1.2  T
   4   -191.1413235 -0.809992E-05  0.175E-03    2.29       5.3  T
   5   -191.1413237 -0.148098E-06  0.948E-04    2.29       9.8  T
   6   -191.1413237 -0.513353E-07  0.386E-04    2.29      23.9  T
   7   -191.1413237 -0.550349E-08  0.165E-04    2.29      55.9  T
   8   -191.1413237 -0.826446E-09  0.874E-05    2.29     105.8  T
     SCC iter.                  ...        0 min,  0.234 sec
     gradient                   ...        0 min,  0.284 sec
 * total energy  :  -188.2147602 Eh     change       -0.2241561E-03 Eh
   gradient norm :     0.0071194 Eh/α   predicted    -0.1767018E-03 ( -21.17%)
   displ. norm   :     0.5303825 α      lambda       -0.3825061E-03
   maximum displ.:     0.1873605 α      in ANC's #21, #5, #4, ...

........................................................................
.............................. CYCLE   56 ..............................
........................................................................

 iter      E             dE          RMSdq      gap      omega  full diag
   1   -191.1401364 -0.191140E+03  0.779E-02    2.30       0.0  T
   2   -191.1401418 -0.538058E-05  0.457E-02    2.30       1.0  T
   3   -191.1401300  0.117441E-04  0.109E-02    2.30       1.0  T
   4   -191.1401435 -0.134347E-04  0.274E-03    2.30       3.4  T
   5   -191.1401439 -0.457766E-06  0.128E-03    2.30       7.2  T
   6   -191.1401440 -0.652316E-07  0.597E-04    2.30      15.5  T
   7   -191.1401440 -0.215755E-07  0.245E-04    2.30      37.7  T
   8   -191.1401440 -0.219148E-08  0.128E-04    2.30      72.0  T
   9   -191.1401440 -0.500762E-09  0.555E-05    2.30     166.5  T
     SCC iter.                  ...        0 min,  0.260 sec
     gradient                   ...        0 min,  0.319 sec
 * total energy  :  -188.2150171 Eh     change       -0.2569236E-03 Eh
   gradient norm :     0.0062254 Eh/α   predicted    -0.2450549E-03 (  -4.62%)
   displ. norm   :     0.4782334 α      lambda       -0.2409990E-03
   maximum displ.:     0.1779849 α      in ANC's #5, #15, #21, ...

........................................................................
.............................. CYCLE   57 ..............................
........................................................................

 iter      E             dE          RMSdq      gap      omega  full diag
   1   -191.1382260 -0.191138E+03  0.722E-02    2.29       0.0  T
   2   -191.1382307 -0.465020E-05  0.425E-02    2.30       1.0  T
   3   -191.1382231  0.759044E-05  0.903E-03    2.29       1.0  T
   4   -191.1382317 -0.860536E-05  0.239E-03    2.30       3.9  T
   5   -191.1382321 -0.455977E-06  0.102E-03    2.30       9.0  T
   6   -191.1382322 -0.475710E-07  0.531E-04    2.30      17.4  T
   7   -191.1382322 -0.124212E-07  0.185E-04    2.30      50.0  T
   8   -191.1382322 -0.102881E-08  0.994E-05    2.30      93.0  T
     SCC iter.                  ...        0 min,  0.256 sec
     gradient                   ...        0 min,  0.329 sec
 * total energy  :  -188.2151697 Eh     change       -0.1526223E-03 Eh
   gradient norm :     0.0067206 Eh/α   predicted    -0.1480609E-03 (  -2.99%)
   displ. norm   :     0.3628833 α      lambda       -0.1925587E-03
   maximum displ.:     0.1377132 α      in ANC's #5, #21, #6, ...

........................................................................
.............................. CYCLE   58 ..............................
........................................................................

 iter      E             dE          RMSdq      gap      omega  full diag
   1   -191.1394981 -0.191139E+03  0.542E-02    2.30       0.0  T
   2   -191.1395005 -0.247063E-05  0.321E-02    2.30       1.0  T
   3   -191.1394949  0.563239E-05  0.774E-03    2.30       1.2  T
   4   -191.1395012 -0.632903E-05  0.184E-03    2.30       5.0  T
   5   -191.1395015 -0.280838E-06  0.804E-04    2.30      11.5  T
   6   -191.1395015 -0.273533E-07  0.410E-04    2.30      22.6  T
   7   -191.1395015 -0.543392E-08  0.153E-04    2.30      60.3  T
   8   -191.1395015 -0.102168E-08  0.759E-05    2.30     121.8  T
     SCC iter.                  ...        0 min,  0.281 sec
     gradient                   ...        0 min,  0.287 sec
 * total energy  :  -188.2153000 Eh     change       -0.1302698E-03 Eh
   gradient norm :     0.0059661 Eh/α   predicted    -0.1089598E-03 ( -16.36%)
   displ. norm   :     0.4132421 α      lambda       -0.1836379E-03
   maximum displ.:     0.1708559 α      in ANC's #5, #21, #6, ...

........................................................................
.............................. CYCLE   59 ..............................
........................................................................

 iter      E             dE          RMSdq      gap      omega  full diag
   1   -191.1391091 -0.191139E+03  0.625E-02    2.30       0.0  T
   2   -191.1391116 -0.245994E-05  0.369E-02    2.30       1.0  T
   3   -191.1391063  0.530637E-05  0.724E-03    2.30       1.3  T
   4   -191.1391123 -0.607594E-05  0.160E-03    2.30       5.8  T
   5   -191.1391125 -0.204797E-06  0.712E-04    2.30      13.0  T
   6   -191.1391126 -0.201166E-07  0.376E-04    2.30      24.6  T
   7   -191.1391126 -0.465681E-08  0.134E-04    2.30      69.1  T
   8   -191.1391126 -0.474159E-09  0.730E-05    2.30     126.7  T
     SCC iter.                  ...        0 min,  0.298 sec
     gradient                   ...        0 min,  0.323 sec
 * total energy  :  -188.2154045 Eh     change       -0.1045460E-03 Eh
   gradient norm :     0.0066303 Eh/α   predicted    -0.1074996E-03 (   2.83%)
   displ. norm   :     0.2634438 α      lambda       -0.1605414E-03
   maximum displ.:     0.1129214 α      in ANC's #5, #2, #6, ...

........................................................................
.............................. CYCLE   60 ..............................
........................................................................

 iter      E             dE          RMSdq      gap      omega  full diag
   1   -191.1454832 -0.191145E+03  0.415E-02    2.31       0.0  T
   2   -191.1454854 -0.219636E-05  0.245E-02    2.30       1.0  T
   3   -191.1454809  0.454319E-05  0.672E-03    2.30       1.4  T
   4   -191.1454860 -0.507214E-05  0.163E-03    2.30       5.7  T
   5   -191.1454862 -0.245044E-06  0.575E-04    2.30      16.1  T
   6   -191.1454862 -0.128659E-07  0.281E-04    2.30      32.8  T
   7   -191.1454862 -0.247226E-08  0.139E-04    2.30      66.6  T
   8   -191.1454862 -0.951530E-09  0.495E-05    2.30     186.9  T
     SCC iter.                  ...        0 min,  0.288 sec
     gradient                   ...        0 min,  0.298 sec
 * total energy  :  -188.2154808 Eh     change       -0.7626507E-04 Eh
   gradient norm :     0.0063355 Eh/α   predicted    -0.8584387E-04 (  12.56%)
   displ. norm   :     0.3872664 α      lambda       -0.1677291E-03
   maximum displ.:     0.1734965 α      in ANC's #5, #15, #7, ...

........................................................................
.............................. CYCLE   61 ..............................
........................................................................

 iter      E             dE          RMSdq      gap      omega  full diag
   1   -191.1392427 -0.191139E+03  0.613E-02    2.30       0.0  T
   2   -191.1392445 -0.183955E-05  0.360E-02    2.30       1.0  T
   3   -191.1392381  0.645927E-05  0.737E-03    2.30       1.3  T
   4   -191.1392454 -0.731373E-05  0.143E-03    2.30       6.5  T
   5   -191.1392455 -0.158178E-06  0.716E-04    2.30      12.9  T
   6   -191.1392456 -0.186954E-07  0.352E-04    2.30      26.3  T
   7   -191.1392456 -0.496806E-08  0.153E-04    2.30      60.5  T
   8   -191.1392456 -0.129555E-08  0.600E-05    2.30     154.2  T
     SCC iter.                  ...        0 min,  0.284 sec
     gradient                   ...        0 min,  0.417 sec
 * total energy  :  -188.2155549 Eh     change       -0.7406698E-04 Eh
   gradient norm :     0.0068084 Eh/α   predicted    -0.9644351E-04 (  30.21%)
   displ. norm   :     0.1456055 α      lambda       -0.1395460E-03
   maximum displ.:     0.0633612 α      in ANC's #5, #10, #20, ...

........................................................................
.............................. CYCLE   62 ..............................
........................................................................

 iter      E             dE          RMSdq      gap      omega  full diag
   1   -191.1416441 -0.191142E+03  0.228E-02    2.30       0.0  T
   2   -191.1416450 -0.936798E-06  0.135E-02    2.30       1.0  T
   3   -191.1416428  0.220275E-05  0.442E-03    2.30       2.1  T
   4   -191.1416453 -0.243197E-05  0.108E-03    2.30       8.6  T
   5   -191.1416454 -0.106104E-06  0.457E-04    2.30      20.3  T
   6   -191.1416454 -0.120729E-07  0.224E-04    2.30      41.2  T
   7   -191.1416454 -0.302273E-08  0.905E-05    2.30     102.2  T
   8   -191.1416454 -0.324007E-09  0.408E-05    2.30     226.5  T
     SCC iter.                  ...        0 min,  0.239 sec
     gradient                   ...        0 min,  0.375 sec
 * total energy  :  -188.2156449 Eh     change       -0.9001898E-04 Eh
   gradient norm :     0.0049983 Eh/α   predicted    -0.7125421E-04 ( -20.85%)
   displ. norm   :     0.2695640 α      lambda       -0.1559292E-03
   maximum displ.:     0.1403189 α      in ANC's #5, #2, #10, ...

........................................................................
.............................. CYCLE   63 ..............................
........................................................................

 iter      E             dE          RMSdq      gap      omega  full diag
   1   -191.1414750 -0.191141E+03  0.398E-02    2.31       0.0  T
   2   -191.1414776 -0.263757E-05  0.235E-02    2.31       1.0  T
   3   -191.1414714  0.618320E-05  0.763E-03    2.31       1.2  T
   4   -191.1414784 -0.694047E-05  0.164E-03    2.31       5.6  T
   5   -191.1414786 -0.236612E-06  0.698E-04    2.31      13.2  T
   6   -191.1414786 -0.326267E-07  0.338E-04    2.31      27.4  T
   7   -191.1414786 -0.586869E-08  0.132E-04    2.31      70.0  T
   8   -191.1414786 -0.816470E-09  0.578E-05    2.31     160.1  T
     SCC iter.                  ...        0 min,  0.307 sec
     gradient                   ...        0 min,  0.302 sec
 * total energy  :  -188.2157206 Eh     change       -0.7575467E-04 Eh
   gradient norm :     0.0054290 Eh/α   predicted    -0.8363038E-04 (  10.40%)
   displ. norm   :     0.2563112 α      lambda       -0.1116709E-03
   maximum displ.:     0.1332225 α      in ANC's #5, #2, #10, ...

........................................................................
.............................. CYCLE   64 ..............................
........................................................................

 iter      E             dE          RMSdq      gap      omega  full diag
   1   -191.1424776 -0.191142E+03  0.362E-02    2.31       0.0  T
   2   -191.1424790 -0.138272E-05  0.214E-02    2.31       1.0  T
   3   -191.1424742  0.471013E-05  0.666E-03    2.31       1.4  T
   4   -191.1424795 -0.522433E-05  0.131E-03    2.31       7.1  T
   5   -191.1424796 -0.129251E-06  0.583E-04    2.31      15.9  T
   6   -191.1424796 -0.199909E-07  0.278E-04    2.31      33.2  T
   7   -191.1424796 -0.324991E-08  0.109E-04    2.31      85.0  T
   8   -191.1424796 -0.449916E-09  0.439E-05    2.31     210.5  T
     SCC iter.                  ...        0 min,  0.306 sec
     gradient                   ...        0 min,  0.360 sec
 * total energy  :  -188.2157784 Eh     change       -0.5774807E-04 Eh
   gradient norm :     0.0057073 Eh/α   predicted    -0.5950682E-04 (   3.05%)
   displ. norm   :     0.2416479 α      lambda       -0.1052006E-03
   maximum displ.:     0.1285985 α      in ANC's #5, #2, #10, ...

........................................................................
.............................. CYCLE   65 ..............................
........................................................................

 iter      E             dE          RMSdq      gap      omega  full diag
   1   -191.1420794 -0.191142E+03  0.340E-02    2.31       0.0  T
   2   -191.1420810 -0.162768E-05  0.200E-02    2.31       1.0  T
   3   -191.1420783  0.276063E-05  0.538E-03    2.31       1.7  T
   4   -191.1420813 -0.305232E-05  0.143E-03    2.31       6.5  T
   5   -191.1420815 -0.181670E-06  0.536E-04    2.31      17.2  T
   6   -191.1420815 -0.165549E-07  0.257E-04    2.31      36.0  T
   7   -191.1420815 -0.156203E-08  0.121E-04    2.31      76.6  T
   8   -191.1420815 -0.890793E-09  0.383E-05    2.31     241.6  T
     SCC iter.                  ...        0 min,  0.335 sec
     gradient                   ...        0 min,  0.366 sec
 * total energy  :  -188.2158462 Eh     change       -0.6782141E-04 Eh
   gradient norm :     0.0036262 Eh/α   predicted    -0.5567251E-04 ( -17.91%)
   displ. norm   :     0.2181927 α      lambda       -0.7493069E-04
   maximum displ.:     0.1230870 α      in ANC's #5, #2, #10, ...

........................................................................
.............................. CYCLE   66 ..............................
........................................................................

 iter      E             dE          RMSdq      gap      omega  full diag
   1   -191.1426218 -0.191143E+03  0.276E-02    2.31       0.0  T
   2   -191.1426227 -0.920495E-06  0.163E-02    2.31       1.0  T
   3   -191.1426210  0.175094E-05  0.430E-03    2.31       2.2  T
   4   -191.1426229 -0.199795E-05  0.105E-03    2.31       8.8  T
   5   -191.1426230 -0.826371E-07  0.452E-04    2.31      20.4  T
   6   -191.1426230 -0.802720E-08  0.229E-04    2.31      40.4  T
   7   -191.1426230 -0.167651E-08  0.108E-04    2.31      85.2  T
   8   -191.1426230 -0.734047E-09  0.403E-05    2.31     229.2  T
     SCC iter.                  ...        0 min,  0.300 sec
     gradient                   ...        0 min,  0.340 sec
 * total energy  :  -188.2159021 Eh     change       -0.5588334E-04 Eh
   gradient norm :     0.0033505 Eh/α   predicted    -0.3925289E-04 ( -29.76%)
   displ. norm   :     0.2901630 α      lambda       -0.8773486E-04
   maximum displ.:     0.1660002 α      in ANC's #5, #2, #10, ...
 * RMSD in coord.:     0.7505378 α      energy gain  -0.5961723E-02 Eh

generating ANC from exact Hessian ...
Using Lindh-Hessian (1995)
 Shifting diagonal of input Hessian by    9.9455507835518701E-003
 Lowest  eigenvalues of input Hessian
    0.000000    0.000000    0.000000    0.000000    0.000000    0.000000
    0.010000    0.010030    0.010048    0.010086    0.010138    0.010207
    0.010292    0.010337    0.010378    0.010610    0.010615    0.010750
 Highest eigenvalues
    2.154878    2.178549    2.337386    2.345530    2.376371    3.095241


........................................................................
.............................. CYCLE   67 ..............................
........................................................................

 iter      E             dE          RMSdq      gap      omega  full diag
   1   -191.1427748 -0.191143E+03  0.352E-02    2.31       0.0  T
   2   -191.1427762 -0.138434E-05  0.207E-02    2.31       1.0  T
   3   -191.1427745  0.172872E-05  0.446E-03    2.31       2.1  T
   4   -191.1427765 -0.196388E-05  0.136E-03    2.31       6.8  T
   5   -191.1427766 -0.147490E-06  0.556E-04    2.31      16.6  T
   6   -191.1427766 -0.117122E-07  0.295E-04    2.31      31.3  T
   7   -191.1427766 -0.488103E-08  0.988E-05    2.31      93.6  T
   8   -191.1427766 -0.387132E-09  0.487E-05    2.31     189.8  T
     SCC iter.                  ...        0 min,  0.273 sec
     gradient                   ...        0 min,  0.290 sec
 * total energy  :  -188.2159601 Eh     change       -0.5800826E-04 Eh
   gradient norm :     0.0033661 Eh/α   predicted     0.0000000E+00 (-100.00%)
   displ. norm   :     0.0358157 α      lambda       -0.3337843E-04
   maximum displ.:     0.0120626 α      in ANC's #4, #2, #18, ...

........................................................................
.............................. CYCLE   68 ..............................
........................................................................

 iter      E             dE          RMSdq      gap      omega  full diag
   1   -191.1429686 -0.191143E+03  0.733E-03    2.31       0.0  T
   2   -191.1429688 -0.134736E-06  0.436E-03    2.31       2.1  T
   3   -191.1429685  0.313719E-06  0.177E-03    2.31       5.2  T
   4   -191.1429688 -0.352258E-06  0.396E-04    2.31      23.4  T
   5   -191.1429688 -0.132520E-07  0.153E-04    2.31      60.4  T
   6   -191.1429688 -0.117859E-08  0.838E-05    2.31     110.4  T
     SCC iter.                  ...        0 min,  0.241 sec
     gradient                   ...        0 min,  0.315 sec
 * total energy  :  -188.2159856 Eh     change       -0.2548663E-04 Eh
   gradient norm :     0.0014852 Eh/α   predicted    -0.1682129E-04 ( -34.00%)
   displ. norm   :     0.1285916 α      lambda       -0.4013053E-04
   maximum displ.:     0.0468310 α      in ANC's #4, #2, #18, ...

........................................................................
.............................. CYCLE   69 ..............................
........................................................................

 iter      E             dE          RMSdq      gap      omega  full diag
   1   -191.1430193 -0.191143E+03  0.205E-02    2.31       0.0  T
   2   -191.1430201 -0.856908E-06  0.121E-02    2.31       1.0  T
   3   -191.1430175  0.263620E-05  0.507E-03    2.31       1.8  T
   4   -191.1430205 -0.296804E-05  0.934E-04    2.31       9.9  T
   5   -191.1430205 -0.663233E-07  0.389E-04    2.31      23.8  T
   6   -191.1430205 -0.933898E-08  0.203E-04    2.31      45.5  T
   7   -191.1430205 -0.174862E-08  0.952E-05    2.31      97.1  T
   8   -191.1430205 -0.504230E-09  0.346E-05    2.31     267.5  T
     SCC iter.                  ...        0 min,  0.260 sec
     gradient                   ...        0 min,  0.269 sec
 * total energy  :  -188.2160186 Eh     change       -0.3302991E-04 Eh
   gradient norm :     0.0030530 Eh/α   predicted    -0.2021288E-04 ( -38.80%)
   displ. norm   :     0.0716626 α      lambda       -0.2343658E-04
   maximum displ.:     0.0276924 α      in ANC's #4, #2, #18, ...

........................................................................
.............................. CYCLE   70 ..............................
........................................................................

 iter      E             dE          RMSdq      gap      omega  full diag
   1   -191.1428663 -0.191143E+03  0.100E-02    2.31       0.0  T
   2   -191.1428664 -0.912452E-07  0.589E-03    2.31       1.6  T
   3   -191.1428660  0.386405E-06  0.184E-03    2.31       5.0  T
   4   -191.1428664 -0.431473E-06  0.286E-04    2.31      32.4  T
   5   -191.1428664 -0.466380E-08  0.142E-04    2.31      65.0  T
   6   -191.1428664 -0.130987E-08  0.691E-05    2.31     133.9  T
     SCC iter.                  ...        0 min,  0.208 sec
     gradient                   ...        0 min,  0.334 sec
 * total energy  :  -188.2160402 Eh     change       -0.2156134E-04 Eh
   gradient norm :     0.0028104 Eh/α   predicted    -0.1198179E-04 ( -44.43%)
   displ. norm   :     0.2929348 α      lambda       -0.9151926E-04
   maximum displ.:     0.1139927 α      in ANC's #4, #2, #18, ...

........................................................................
.............................. CYCLE   71 ..............................
........................................................................

 iter      E             dE          RMSdq      gap      omega  full diag
   1   -191.1420327 -0.191142E+03  0.397E-02    2.31       0.0  T
   2   -191.1420338 -0.111616E-05  0.233E-02    2.31       1.0  T
   3   -191.1420293  0.448184E-05  0.623E-03    2.31       1.5  T
   4   -191.1420343 -0.502734E-05  0.991E-04    2.31       9.3  T
   5   -191.1420344 -0.489872E-07  0.518E-04    2.31      17.8  T
   6   -191.1420344 -0.175901E-07  0.244E-04    2.31      37.8  T
   7   -191.1420344 -0.233462E-08  0.106E-04    2.31      86.8  T
   8   -191.1420344 -0.601631E-09  0.467E-05    2.31     197.9  T
     SCC iter.                  ...        0 min,  0.271 sec
     gradient                   ...        0 min,  0.290 sec
 * total energy  :  -188.2161043 Eh     change       -0.6409233E-04 Eh
   gradient norm :     0.0022741 Eh/α   predicted    -0.4973272E-04 ( -22.40%)
   displ. norm   :     0.2239073 α      lambda       -0.4084019E-04
   maximum displ.:     0.0916912 α      in ANC's #4, #2, #9, ...

........................................................................
.............................. CYCLE   72 ..............................
........................................................................

 iter      E             dE          RMSdq      gap      omega  full diag
   1   -191.1417603 -0.191142E+03  0.285E-02    2.31       0.0  T
   2   -191.1417608 -0.458108E-06  0.168E-02    2.31       1.0  T
   3   -191.1417593  0.151662E-05  0.364E-03    2.31       2.5  T
   4   -191.1417610 -0.171401E-05  0.646E-04    2.31      14.3  T
   5   -191.1417610 -0.193909E-07  0.349E-04    2.31      26.5  T
   6   -191.1417610 -0.817474E-08  0.161E-04    2.31      57.5  T
   7   -191.1417610 -0.945818E-09  0.690E-05    2.31     134.0  T
     SCC iter.                  ...        0 min,  0.194 sec
     gradient                   ...        0 min,  0.294 sec
 * total energy  :  -188.2161341 Eh     change       -0.2983380E-04 Eh
   gradient norm :     0.0024687 Eh/α   predicted    -0.2144491E-04 ( -28.12%)
   displ. norm   :     0.1796110 α      lambda       -0.3295438E-04
   maximum displ.:     0.0779415 α      in ANC's #4, #2, #9, ...

........................................................................
.............................. CYCLE   73 ..............................
........................................................................

 iter      E             dE          RMSdq      gap      omega  full diag
   1   -191.1422538 -0.191142E+03  0.209E-02    2.31       0.0  T
   2   -191.1422541 -0.272777E-06  0.123E-02    2.31       1.0  T
   3   -191.1422535  0.546498E-06  0.225E-03    2.31       4.1  T
   4   -191.1422541 -0.618400E-06  0.549E-04    2.31      16.8  T
   5   -191.1422542 -0.218527E-07  0.248E-04    2.31      37.2  T
   6   -191.1422542 -0.329305E-08  0.126E-04    2.31      73.6  T
   7   -191.1422542 -0.705768E-09  0.540E-05    2.31     171.1  T
     SCC iter.                  ...        0 min,  0.209 sec
     gradient                   ...        0 min,  0.303 sec
 * total energy  :  -188.2161611 Eh     change       -0.2696632E-04 Eh
   gradient norm :     0.0019866 Eh/α   predicted    -0.1701142E-04 ( -36.92%)
   displ. norm   :     0.3344012 α      lambda       -0.4545879E-04
   maximum displ.:     0.1524320 α      in ANC's #2, #4, #9, ...

........................................................................
.............................. CYCLE   74 ..............................
........................................................................

 iter      E             dE          RMSdq      gap      omega  full diag
   1   -191.1433726 -0.191143E+03  0.355E-02    2.31       0.0  T
   2   -191.1433736 -0.102645E-05  0.208E-02    2.31       1.0  T
   3   -191.1433712  0.236966E-05  0.472E-03    2.31       2.0  T
   4   -191.1433738 -0.261762E-05  0.120E-03    2.31       7.7  T
   5   -191.1433740 -0.118346E-06  0.459E-04    2.31      20.1  T
   6   -191.1433740 -0.850918E-08  0.249E-04    2.31      37.1  T
   7   -191.1433740 -0.316544E-08  0.105E-04    2.31      87.9  T
   8   -191.1433740 -0.608082E-09  0.415E-05    2.31     222.8  T
     SCC iter.                  ...        0 min,  0.313 sec
     gradient                   ...        0 min,  0.278 sec
 * total energy  :  -188.2162076 Eh     change       -0.4652694E-04 Eh
   gradient norm :     0.0020398 Eh/α   predicted    -0.2385976E-04 ( -48.72%)
   displ. norm   :     0.1625572 α      lambda       -0.2885983E-04
   maximum displ.:     0.0780852 α      in ANC's #2, #4, #9, ...

........................................................................
.............................. CYCLE   75 ..............................
........................................................................

 iter      E             dE          RMSdq      gap      omega  full diag
   1   -191.1432878 -0.191143E+03  0.158E-02    2.31       0.0  T
   2   -191.1432879 -0.111897E-06  0.924E-03    2.32       1.0  T
   3   -191.1432874  0.565903E-06  0.220E-03    2.32       4.2  T
   4   -191.1432880 -0.623782E-06  0.445E-04    2.32      20.8  T
   5   -191.1432880 -0.148133E-07  0.204E-04    2.32      45.3  T
   6   -191.1432880 -0.171389E-08  0.990E-05    2.32      93.4  T
   7   -191.1432880 -0.448381E-09  0.359E-05    2.32     257.5  T
     SCC iter.                  ...        0 min,  0.188 sec
     gradient                   ...        0 min,  0.348 sec
 * total energy  :  -188.2162329 Eh     change       -0.2533968E-04 Eh
   gradient norm :     0.0021701 Eh/α   predicted    -0.1481610E-04 ( -41.53%)
   displ. norm   :     0.2962038 α      lambda       -0.6200716E-04
   maximum displ.:     0.1442889 α      in ANC's #2, #4, #9, ...

........................................................................
.............................. CYCLE   76 ..............................
........................................................................

 iter      E             dE          RMSdq      gap      omega  full diag
   1   -191.1434334 -0.191143E+03  0.279E-02    2.32       0.0  T
   2   -191.1434337 -0.311842E-06  0.164E-02    2.32       1.0  T
   3   -191.1434316  0.208602E-05  0.418E-03    2.32       2.2  T
   4   -191.1434339 -0.230589E-05  0.761E-04    2.32      12.1  T
   5   -191.1434339 -0.378010E-07  0.407E-04    2.32      22.7  T
   6   -191.1434339 -0.834171E-08  0.172E-04    2.32      53.8  T
   7   -191.1434339 -0.116520E-08  0.594E-05    2.32     155.6  T
     SCC iter.                  ...        0 min,  0.226 sec
     gradient                   ...        0 min,  0.352 sec
 * total energy  :  -188.2162815 Eh     change       -0.4860217E-04 Eh
   gradient norm :     0.0024518 Eh/α   predicted    -0.3372547E-04 ( -30.61%)
   displ. norm   :     0.3277565 α      lambda       -0.5445486E-04
   maximum displ.:     0.1636408 α      in ANC's #2, #4, #9, ...

........................................................................
.............................. CYCLE   77 ..............................
........................................................................

 iter      E             dE          RMSdq      gap      omega  full diag
   1   -191.1427004 -0.191143E+03  0.302E-02    2.32       0.0  T
   2   -191.1427008 -0.410832E-06  0.177E-02    2.32       1.0  T
   3   -191.1426988  0.201423E-05  0.405E-03    2.32       2.3  T
   4   -191.1427010 -0.222766E-05  0.791E-04    2.32      11.7  T
   5   -191.1427011 -0.484484E-07  0.429E-04    2.32      21.5  T
   6   -191.1427011 -0.998293E-08  0.190E-04    2.32      48.6  T
   7   -191.1427011 -0.114630E-08  0.598E-05    2.32     154.5  T
     SCC iter.                  ...        0 min,  0.276 sec
     gradient                   ...        0 min,  0.279 sec
 * total energy  :  -188.2163226 Eh     change       -0.4104158E-04 Eh
   gradient norm :     0.0026341 Eh/α   predicted    -0.3015354E-04 ( -26.53%)
   displ. norm   :     0.2643662 α      lambda       -0.4660656E-04
   maximum displ.:     0.1362945 α      in ANC's #2, #4, #9, ...

........................................................................
.............................. CYCLE   78 ..............................
........................................................................

 iter      E             dE          RMSdq      gap      omega  full diag
   1   -191.1427297 -0.191143E+03  0.245E-02    2.32       0.0  T
   2   -191.1427300 -0.313113E-06  0.143E-02    2.32       1.0  T
   3   -191.1427287  0.133069E-05  0.331E-03    2.32       2.8  T
   4   -191.1427302 -0.147993E-05  0.632E-04    2.32      14.6  T
   5   -191.1427302 -0.325088E-07  0.342E-04    2.32      27.0  T
   6   -191.1427302 -0.675507E-08  0.156E-04    2.32      59.2  T
   7   -191.1427302 -0.751868E-09  0.633E-05    2.32     146.1  T
     SCC iter.                  ...        0 min,  0.244 sec
     gradient                   ...        0 min,  0.372 sec
 * total energy  :  -188.2163591 Eh     change       -0.3656895E-04 Eh
   gradient norm :     0.0018525 Eh/α   predicted    -0.2493313E-04 ( -31.82%)
   displ. norm   :     0.4593657 α      lambda       -0.5403879E-04
   maximum displ.:     0.2438044 α      in ANC's #2, #4, #9, ...

........................................................................
.............................. CYCLE   79 ..............................
........................................................................

 iter      E             dE          RMSdq      gap      omega  full diag
   1   -191.1415324 -0.191142E+03  0.408E-02    2.32       0.0  T
   2   -191.1415337 -0.126440E-05  0.239E-02    2.32       1.0  T
   3   -191.1415285  0.514923E-05  0.668E-03    2.32       1.4  T
   4   -191.1415342 -0.570988E-05  0.120E-03    2.32       7.7  T
   5   -191.1415344 -0.127840E-06  0.525E-04    2.32      17.6  T
   6   -191.1415344 -0.102445E-07  0.270E-04    2.32      34.3  T
   7   -191.1415344 -0.223670E-08  0.119E-04    2.32      78.0  T
   8   -191.1415344 -0.875900E-09  0.466E-05    2.32     198.2  T
     SCC iter.                  ...        0 min,  0.347 sec
     gradient                   ...        0 min,  0.327 sec
 * total energy  :  -188.2164165 Eh     change       -0.5733486E-04 Eh
   gradient norm :     0.0027600 Eh/α   predicted    -0.2955918E-04 ( -48.44%)
   displ. norm   :     0.2362735 α      lambda       -0.6820239E-04
   maximum displ.:     0.1255286 α      in ANC's #2, #4, #9, ...

........................................................................
.............................. CYCLE   80 ..............................
........................................................................

 iter      E             dE          RMSdq      gap      omega  full diag
   1   -191.1431000 -0.191143E+03  0.246E-02    2.32       0.0  T
   2   -191.1431006 -0.559702E-06  0.144E-02    2.32       1.0  T
   3   -191.1430979  0.265929E-05  0.507E-03    2.32       1.8  T
   4   -191.1431009 -0.297581E-05  0.845E-04    2.32      10.9  T
   5   -191.1431009 -0.486370E-07  0.364E-04    2.32      25.4  T
   6   -191.1431009 -0.290342E-08  0.201E-04    2.32      45.9  T
   7   -191.1431009 -0.150214E-08  0.831E-05    2.32     111.2  T
   8   -191.1431009 -0.363656E-09  0.365E-05    2.32     253.3  T
     SCC iter.                  ...        0 min,  0.226 sec
     gradient                   ...        0 min,  0.310 sec
 * total energy  :  -188.2164601 Eh     change       -0.4364607E-04 Eh
   gradient norm :     0.0034070 Eh/α   predicted    -0.3601315E-04 ( -17.49%)
   displ. norm   :     0.3714933 α      lambda       -0.7430361E-04
   maximum displ.:     0.2034775 α      in ANC's #2, #4, #9, ...

........................................................................
.............................. CYCLE   81 ..............................
........................................................................

 iter      E             dE          RMSdq      gap      omega  full diag
   1   -191.1423754 -0.191142E+03  0.349E-02    2.32       0.0  T
   2   -191.1423760 -0.657833E-06  0.205E-02    2.32       1.0  T
   3   -191.1423713  0.469377E-05  0.650E-03    2.32       1.4  T
   4   -191.1423766 -0.520723E-05  0.922E-04    2.32      10.0  T
   5   -191.1423766 -0.569321E-07  0.416E-04    2.32      22.2  T
   6   -191.1423766 -0.434298E-08  0.228E-04    2.32      40.6  T
   7   -191.1423766 -0.200279E-08  0.789E-05    2.32     117.2  T
   8   -191.1423766 -0.372125E-09  0.387E-05    2.32     238.8  T
     SCC iter.                  ...        0 min,  0.236 sec
     gradient                   ...        0 min,  0.311 sec
 * total energy  :  -188.2165195 Eh     change       -0.5936753E-04 Eh
   gradient norm :     0.0038097 Eh/α   predicted    -0.4227926E-04 ( -28.78%)
   displ. norm   :     0.3755627 α      lambda       -0.7534083E-04
   maximum displ.:     0.2082690 α      in ANC's #2, #4, #5, ...

........................................................................
.............................. CYCLE   82 ..............................
........................................................................

 iter      E             dE          RMSdq      gap      omega  full diag
   1   -191.1419676 -0.191142E+03  0.375E-02    2.32       0.0  T
   2   -191.1419683 -0.722949E-06  0.221E-02    2.32       1.0  T
   3   -191.1419636  0.471167E-05  0.663E-03    2.32       1.4  T
   4   -191.1419688 -0.519486E-05  0.110E-03    2.32       8.4  T
   5   -191.1419689 -0.945406E-07  0.433E-04    2.32      21.3  T
   6   -191.1419689 -0.406743E-08  0.257E-04    2.32      36.0  T
   7   -191.1419689 -0.235144E-08  0.921E-05    2.32     100.3  T
   8   -191.1419689 -0.594667E-09  0.434E-05    2.32     213.1  T
     SCC iter.                  ...        0 min,  0.335 sec
     gradient                   ...        0 min,  0.329 sec
 * total energy  :  -188.2165755 Eh     change       -0.5597894E-04 Eh
   gradient norm :     0.0038882 Eh/α   predicted    -0.4298720E-04 ( -23.21%)
   displ. norm   :     0.2750707 α      lambda       -0.6781803E-04
   maximum displ.:     0.1533144 α      in ANC's #2, #4, #5, ...

........................................................................
.............................. CYCLE   83 ..............................
........................................................................

 iter      E             dE          RMSdq      gap      omega  full diag
   1   -191.1428537 -0.191143E+03  0.307E-02    2.31       0.0  T
   2   -191.1428545 -0.799347E-06  0.182E-02    2.31       1.0  T
   3   -191.1428515  0.296014E-05  0.544E-03    2.31       1.7  T
   4   -191.1428547 -0.322368E-05  0.124E-03    2.31       7.5  T
   5   -191.1428549 -0.139016E-06  0.385E-04    2.31      24.0  T
   6   -191.1428549 -0.363170E-08  0.238E-04    2.31      38.9  T
   7   -191.1428549 -0.173387E-08  0.101E-04    2.31      91.8  T
   8   -191.1428549 -0.580883E-09  0.448E-05    2.31     206.3  T
     SCC iter.                  ...        0 min,  0.301 sec
     gradient                   ...        0 min,  0.370 sec
 * total energy  :  -188.2166247 Eh     change       -0.4926952E-04 Eh
   gradient norm :     0.0023581 Eh/α   predicted    -0.3647499E-04 ( -25.97%)
   displ. norm   :     0.2669909 α      lambda       -0.4915357E-04
   maximum displ.:     0.1550847 α      in ANC's #2, #4, #5, ...

........................................................................
.............................. CYCLE   84 ..............................
........................................................................

 iter      E             dE          RMSdq      gap      omega  full diag
   1   -191.1429585 -0.191143E+03  0.272E-02    2.31       0.0  T
   2   -191.1429591 -0.619038E-06  0.161E-02    2.31       1.0  T
   3   -191.1429568  0.228439E-05  0.460E-03    2.31       2.0  T
   4   -191.1429593 -0.246813E-05  0.111E-03    2.31       8.3  T
   5   -191.1429594 -0.128691E-06  0.330E-04    2.31      28.0  T
   6   -191.1429594 -0.359390E-08  0.192E-04    2.31      48.1  T
   7   -191.1429594 -0.123808E-08  0.794E-05    2.31     116.5  T
     SCC iter.                  ...        0 min,  0.251 sec
     gradient                   ...        0 min,  0.335 sec
 * total energy  :  -188.2166638 Eh     change       -0.3901391E-04 Eh
   gradient norm :     0.0020189 Eh/α   predicted    -0.2632939E-04 ( -32.51%)
   displ. norm   :     0.2776011 α      lambda       -0.5399597E-04
   maximum displ.:     0.1635058 α      in ANC's #2, #4, #5, ...

........................................................................
.............................. CYCLE   85 ..............................
........................................................................

 iter      E             dE          RMSdq      gap      omega  full diag
   1   -191.1432537 -0.191143E+03  0.280E-02    2.31       0.0  T
   2   -191.1432543 -0.544965E-06  0.166E-02    2.31       1.0  T
   3   -191.1432514  0.286498E-05  0.488E-03    2.31       1.9  T
   4   -191.1432545 -0.311502E-05  0.102E-03    2.31       9.0  T
   5   -191.1432547 -0.113277E-06  0.353E-04    2.31      26.2  T
   6   -191.1432547 -0.523886E-08  0.202E-04    2.31      45.8  T
   7   -191.1432547 -0.128449E-08  0.840E-05    2.31     110.1  T
   8   -191.1432547 -0.530036E-09  0.318E-05    2.31     290.7  T
     SCC iter.                  ...        0 min,  0.297 sec
     gradient                   ...        0 min,  0.344 sec
 * total energy  :  -188.2167066 Eh     change       -0.4288637E-04 Eh
   gradient norm :     0.0023657 Eh/α   predicted    -0.2908049E-04 ( -32.19%)
   displ. norm   :     0.3445635 α      lambda       -0.5682501E-04
   maximum displ.:     0.2048015 α      in ANC's #2, #4, #5, ...

........................................................................
.............................. CYCLE   86 ..............................
........................................................................

 iter      E             dE          RMSdq      gap      omega  full diag
   1   -191.1425216 -0.191143E+03  0.341E-02    2.31       0.0  T
   2   -191.1425221 -0.519347E-06  0.201E-02    2.31       1.0  T
   3   -191.1425173  0.474584E-05  0.604E-03    2.31       1.5  T
   4   -191.1425226 -0.521195E-05  0.917E-04    2.31      10.1  T
   5   -191.1425226 -0.764987E-07  0.413E-04    2.31      22.4  T
   6   -191.1425226 -0.656792E-08  0.231E-04    2.31      40.0  T
   7   -191.1425226 -0.134673E-08  0.947E-05    2.31      97.6  T
   8   -191.1425226 -0.779295E-09  0.312E-05    2.31     296.6  T
     SCC iter.                  ...        0 min,  0.296 sec
     gradient                   ...        0 min,  0.357 sec
 * total energy  :  -188.2167527 Eh     change       -0.4607494E-04 Eh
   gradient norm :     0.0027991 Eh/α   predicted    -0.3178781E-04 ( -31.01%)
   displ. norm   :     0.3470244 α      lambda       -0.6082979E-04
   maximum displ.:     0.2086046 α      in ANC's #2, #4, #5, ...

........................................................................
.............................. CYCLE   87 ..............................
........................................................................

 iter      E             dE          RMSdq      gap      omega  full diag
   1   -191.1424890 -0.191142E+03  0.358E-02    2.31       0.0  T
   2   -191.1424896 -0.613897E-06  0.211E-02    2.31       1.0  T
   3   -191.1424834  0.621034E-05  0.694E-03    2.31       1.3  T
   4   -191.1424902 -0.686718E-05  0.860E-04    2.31      10.8  T
   5   -191.1424903 -0.513079E-07  0.446E-04    2.31      20.7  T
   6   -191.1424903 -0.620847E-08  0.249E-04    2.31      37.1  T
   7   -191.1424903 -0.210949E-08  0.104E-04    2.31      88.9  T
   8   -191.1424903 -0.825850E-09  0.383E-05    2.31     241.7  T
     SCC iter.                  ...        0 min,  0.335 sec
     gradient                   ...        0 min,  0.345 sec
 * total energy  :  -188.2168003 Eh     change       -0.4763399E-04 Eh
   gradient norm :     0.0024585 Eh/α   predicted    -0.3407894E-04 ( -28.46%)
   displ. norm   :     0.3842068 α      lambda       -0.5784921E-04
   maximum displ.:     0.2342020 α      in ANC's #2, #4, #5, ...

........................................................................
.............................. CYCLE   88 ..............................
........................................................................

 iter      E             dE          RMSdq      gap      omega  full diag
   1   -191.1414283 -0.191141E+03  0.393E-02    2.31       0.0  T
   2   -191.1414291 -0.840533E-06  0.232E-02    2.31       1.0  T
   3   -191.1414213  0.780666E-05  0.790E-03    2.31       1.2  T
   4   -191.1414300 -0.866188E-05  0.971E-04    2.31       9.5  T
   5   -191.1414300 -0.574265E-07  0.510E-04    2.31      18.1  T
   6   -191.1414300 -0.607753E-08  0.294E-04    2.31      31.5  T
   7   -191.1414300 -0.354464E-08  0.125E-04    2.31      74.1  T
   8   -191.1414300 -0.103694E-08  0.507E-05    2.31     182.3  T
     SCC iter.                  ...        0 min,  0.295 sec
     gradient                   ...        0 min,  0.339 sec
 * total energy  :  -188.2168458 Eh     change       -0.4546006E-04 Eh
   gradient norm :     0.0021918 Eh/α   predicted    -0.3319927E-04 ( -26.97%)
   displ. norm   :     0.3570739 α      lambda       -0.6111294E-04
   maximum displ.:     0.2186447 α      in ANC's #2, #4, #5, ...

........................................................................
.............................. CYCLE   89 ..............................
........................................................................

 iter      E             dE          RMSdq      gap      omega  full diag
   1   -191.1419266 -0.191142E+03  0.389E-02    2.31       0.0  T
   2   -191.1419277 -0.106249E-05  0.229E-02    2.31       1.0  T
   3   -191.1419199  0.770663E-05  0.799E-03    2.31       1.2  T
   4   -191.1419285 -0.859205E-05  0.109E-03    2.31       8.5  T
   5   -191.1419286 -0.722316E-07  0.554E-04    2.31      16.7  T
   6   -191.1419286 -0.647177E-08  0.330E-04    2.31      28.0  T
   7   -191.1419286 -0.472147E-08  0.139E-04    2.31      66.3  T
   8   -191.1419286 -0.100292E-08  0.639E-05    2.31     144.7  T
     SCC iter.                  ...        0 min,  0.305 sec
     gradient                   ...        0 min,  0.342 sec
 * total energy  :  -188.2168926 Eh     change       -0.4677806E-04 Eh
   gradient norm :     0.0022176 Eh/α   predicted    -0.3445687E-04 ( -26.34%)
   displ. norm   :     0.3422741 α      lambda       -0.5238877E-04
   maximum displ.:     0.2120556 α      in ANC's #2, #4, #5, ...

........................................................................
.............................. CYCLE   90 ..............................
........................................................................

 iter      E             dE          RMSdq      gap      omega  full diag
   1   -191.1418243 -0.191142E+03  0.371E-02    2.31       0.0  T
   2   -191.1418251 -0.831413E-06  0.219E-02    2.31       1.0  T
   3   -191.1418192  0.586466E-05  0.697E-03    2.31       1.3  T
   4   -191.1418258 -0.655394E-05  0.963E-04    2.31       9.6  T
   5   -191.1418258 -0.470994E-07  0.520E-04    2.31      17.8  T
   6   -191.1418258 -0.590640E-08  0.302E-04    2.31      30.6  T
   7   -191.1418258 -0.371574E-08  0.121E-04    2.31      76.1  T
   8   -191.1418258 -0.692324E-09  0.579E-05    2.31     159.8  T
     SCC iter.                  ...        0 min,  0.309 sec
     gradient                   ...        0 min,  0.293 sec
 * total energy  :  -188.2169358 Eh     change       -0.4318706E-04 Eh
   gradient norm :     0.0026568 Eh/α   predicted    -0.2926431E-04 ( -32.24%)
   displ. norm   :     0.3443358 α      lambda       -0.6316781E-04
   maximum displ.:     0.2103297 α      in ANC's #2, #4, #10, ...

........................................................................
.............................. CYCLE   91 ..............................
........................................................................

 iter      E             dE          RMSdq      gap      omega  full diag
   1   -191.1427479 -0.191143E+03  0.396E-02    2.31       0.0  T
   2   -191.1427488 -0.953742E-06  0.234E-02    2.31       1.0  T
   3   -191.1427441  0.478423E-05  0.635E-03    2.31       1.5  T
   4   -191.1427494 -0.538863E-05  0.104E-03    2.31       8.9  T
   5   -191.1427495 -0.548336E-07  0.570E-04    2.31      16.2  T
   6   -191.1427495 -0.909631E-08  0.323E-04    2.31      28.6  T
   7   -191.1427495 -0.380385E-08  0.120E-04    2.31      77.0  T
   8   -191.1427495 -0.590859E-09  0.596E-05    2.31     155.1  T
     SCC iter.                  ...        0 min,  0.278 sec
     gradient                   ...        0 min,  0.376 sec
 * total energy  :  -188.2169861 Eh     change       -0.5033812E-04 Eh
   gradient norm :     0.0026416 Eh/α   predicted    -0.3533084E-04 ( -29.81%)
   displ. norm   :     0.3717005 α      lambda       -0.5819162E-04
   maximum displ.:     0.2288051 α      in ANC's #2, #4, #5, ...

........................................................................
.............................. CYCLE   92 ..............................
........................................................................

 iter      E             dE          RMSdq      gap      omega  full diag
   1   -191.1423385 -0.191142E+03  0.419E-02    2.30       0.0  T
   2   -191.1423395 -0.945717E-06  0.247E-02    2.30       1.0  T
   3   -191.1423351  0.433541E-05  0.607E-03    2.31       1.5  T
   4   -191.1423400 -0.489410E-05  0.110E-03    2.30       8.4  T
   5   -191.1423401 -0.704378E-07  0.592E-04    2.30      15.6  T
   6   -191.1423401 -0.110955E-07  0.320E-04    2.30      28.9  T
   7   -191.1423401 -0.348808E-08  0.114E-04    2.30      81.1  T
   8   -191.1423401 -0.657650E-09  0.548E-05    2.30     168.6  T
     SCC iter.                  ...        0 min,  0.258 sec
     gradient                   ...        0 min,  0.327 sec
 * total energy  :  -188.2170318 Eh     change       -0.4571618E-04 Eh
   gradient norm :     0.0022454 Eh/α   predicted    -0.3311906E-04 ( -27.56%)
   displ. norm   :     0.3162936 α      lambda       -0.4676263E-04
   maximum displ.:     0.1927744 α      in ANC's #2, #4, #10, ...
 * RMSD in coord.:     0.5988798 α      energy gain  -0.1129744E-02 Eh

generating ANC from exact Hessian ...
Using Lindh-Hessian (1995)
 Shifting diagonal of input Hessian by    9.9560401595690483E-003
 Lowest  eigenvalues of input Hessian
    0.000000    0.000000    0.000000    0.000000    0.000000    0.000000
    0.010000    0.010033    0.010062    0.010092    0.010144    0.010210
    0.010287    0.010390    0.010464    0.010646    0.010677    0.010770
 Highest eigenvalues
    2.154742    2.175591    2.333493    2.346206    2.381106    3.116149


........................................................................
.............................. CYCLE   93 ..............................
........................................................................

 iter      E             dE          RMSdq      gap      omega  full diag
   1   -191.1427148 -0.191143E+03  0.362E-02    2.30       0.0  T
   2   -191.1427155 -0.726330E-06  0.213E-02    2.30       1.0  T
   3   -191.1427127  0.279004E-05  0.492E-03    2.30       1.9  T
   4   -191.1427159 -0.313536E-05  0.103E-03    2.30       9.0  T
   5   -191.1427159 -0.785852E-07  0.502E-04    2.30      18.4  T
   6   -191.1427159 -0.821709E-08  0.278E-04    2.30      33.2  T
   7   -191.1427159 -0.284533E-08  0.940E-05    2.30      98.4  T
   8   -191.1427159 -0.469868E-09  0.459E-05    2.30     201.5  T
     SCC iter.                  ...        0 min,  0.229 sec
     gradient                   ...        0 min,  0.309 sec
 * total energy  :  -188.2170682 Eh     change       -0.3636767E-04 Eh
   gradient norm :     0.0017592 Eh/α   predicted     0.0000000E+00 (-100.00%)
   displ. norm   :     0.0405487 α      lambda       -0.1436508E-04
   maximum displ.:     0.0146127 α      in ANC's #2, #36, #9, ...

........................................................................
.............................. CYCLE   94 ..............................
........................................................................

 iter      E             dE          RMSdq      gap      omega  full diag
   1   -191.1426226 -0.191143E+03  0.817E-03    2.30       0.0  T
   2   -191.1426227 -0.103211E-06  0.485E-03    2.30       1.9  T
   3   -191.1426226  0.104121E-06  0.104E-03    2.30       8.9  T
   4   -191.1426227 -0.118608E-06  0.326E-04    2.30      28.4  T
   5   -191.1426227 -0.108295E-07  0.131E-04    2.30      70.7  T
   6   -191.1426227 -0.341998E-09  0.728E-05    2.30     127.0  T
     SCC iter.                  ...        0 min,  0.182 sec
     gradient                   ...        0 min,  0.365 sec
 * total energy  :  -188.2170861 Eh     change       -0.1788266E-04 Eh
   gradient norm :     0.0007449 Eh/α   predicted    -0.7569590E-05 ( -57.67%)
   displ. norm   :     0.1088458 α      lambda       -0.2377018E-04
   maximum displ.:     0.0427996 α      in ANC's #2, #9, #4, ...

........................................................................
.............................. CYCLE   95 ..............................
........................................................................

 iter      E             dE          RMSdq      gap      omega  full diag
   1   -191.1425049 -0.191143E+03  0.190E-02    2.30       0.0  T
   2   -191.1425053 -0.369741E-06  0.112E-02    2.30       1.0  T
   3   -191.1425048  0.540188E-06  0.232E-03    2.30       4.0  T
   4   -191.1425054 -0.634147E-06  0.635E-04    2.30      14.5  T
   5   -191.1425054 -0.321836E-07  0.278E-04    2.30      33.3  T
   6   -191.1425054 -0.892328E-09  0.154E-04    2.30      60.2  T
   7   -191.1425054 -0.127719E-08  0.546E-05    2.30     169.3  T
     SCC iter.                  ...        0 min,  0.286 sec
     gradient                   ...        0 min,  0.364 sec
 * total energy  :  -188.2171095 Eh     change       -0.2338281E-04 Eh
   gradient norm :     0.0012701 Eh/α   predicted    -0.1194780E-04 ( -48.90%)
   displ. norm   :     0.0982108 α      lambda       -0.1212152E-04
   maximum displ.:     0.0427393 α      in ANC's #2, #9, #4, ...

........................................................................
.............................. CYCLE   96 ..............................
........................................................................

 iter      E             dE          RMSdq      gap      omega  full diag
   1   -191.1424914 -0.191142E+03  0.156E-02    2.30       0.0  T
   2   -191.1424915 -0.153399E-06  0.919E-03    2.30       1.0  T
   3   -191.1424912  0.348960E-06  0.186E-03    2.30       5.0  T
   4   -191.1424916 -0.414784E-06  0.411E-04    2.30      22.5  T
   5   -191.1424916 -0.733596E-08  0.217E-04    2.30      42.5  T
   6   -191.1424916 -0.130709E-08  0.120E-04    2.30      77.2  T
   7   -191.1424916 -0.650033E-09  0.440E-05    2.30     210.3  T
     SCC iter.                  ...        0 min,  0.261 sec
     gradient                   ...        0 min,  0.301 sec
 * total energy  :  -188.2171238 Eh     change       -0.1438029E-04 Eh
   gradient norm :     0.0014322 Eh/α   predicted    -0.6156182E-05 ( -57.19%)
   displ. norm   :     0.1849456 α      lambda       -0.2139735E-04
   maximum displ.:     0.0822650 α      in ANC's #2, #9, #4, ...

........................................................................
.............................. CYCLE   97 ..............................
........................................................................

 iter      E             dE          RMSdq      gap      omega  full diag
   1   -191.1424612 -0.191142E+03  0.289E-02    2.30       0.0  T
   2   -191.1424616 -0.398287E-06  0.170E-02    2.30       1.0  T
   3   -191.1424607  0.898637E-06  0.301E-03    2.30       3.1  T
   4   -191.1424618 -0.108286E-05  0.650E-04    2.30      14.2  T
   5   -191.1424618 -0.148280E-07  0.367E-04    2.30      25.2  T
   6   -191.1424618 -0.526302E-08  0.187E-04    2.30      49.3  T
   7   -191.1424618 -0.124663E-08  0.732E-05    2.30     126.2  T
     SCC iter.                  ...        0 min,  0.256 sec
     gradient                   ...        0 min,  0.377 sec
 * total energy  :  -188.2171465 Eh     change       -0.2267132E-04 Eh
   gradient norm :     0.0012561 Eh/α   predicted    -0.1086168E-04 ( -52.09%)
   displ. norm   :     0.2127187 α      lambda       -0.2265357E-04
   maximum displ.:     0.0981364 α      in ANC's #2, #9, #4, ...

........................................................................
.............................. CYCLE   98 ..............................
........................................................................

 iter      E             dE          RMSdq      gap      omega  full diag
   1   -191.1425885 -0.191143E+03  0.324E-02    2.30       0.0  T
   2   -191.1425889 -0.386957E-06  0.190E-02    2.30       1.0  T
   3   -191.1425880  0.816525E-06  0.300E-03    2.30       3.1  T
   4   -191.1425890 -0.991066E-06  0.669E-04    2.30      13.8  T
   5   -191.1425891 -0.169123E-07  0.385E-04    2.30      24.0  T
   6   -191.1425891 -0.686614E-08  0.182E-04    2.30      50.8  T
   7   -191.1425891 -0.101610E-08  0.653E-05    2.30     141.5  T
     SCC iter.                  ...        0 min,  0.226 sec
     gradient                   ...        0 min,  0.357 sec
 * total energy  :  -188.2171694 Eh     change       -0.2289453E-04 Eh
   gradient norm :     0.0011891 Eh/α   predicted    -0.1155796E-04 ( -49.52%)
   displ. norm   :     0.1801540 α      lambda       -0.1740567E-04
   maximum displ.:     0.0874138 α      in ANC's #2, #9, #4, ...

........................................................................
.............................. CYCLE   99 ..............................
........................................................................

 iter      E             dE          RMSdq      gap      omega  full diag
   1   -191.1430296 -0.191143E+03  0.267E-02    2.30       0.0  T
   2   -191.1430298 -0.211809E-06  0.157E-02    2.30       1.0  T
   3   -191.1430295  0.299745E-06  0.189E-03    2.30       4.9  T
   4   -191.1430299 -0.390627E-06  0.462E-04    2.30      20.0  T
   5   -191.1430299 -0.715900E-08  0.266E-04    2.30      34.8  T
   6   -191.1430299 -0.261485E-08  0.131E-04    2.30      70.5  T
   7   -191.1430299 -0.740215E-09  0.430E-05    2.30     215.2  T
     SCC iter.                  ...        0 min,  0.237 sec
     gradient                   ...        0 min,  0.356 sec
 * total energy  :  -188.2171896 Eh     change       -0.2020244E-04 Eh
   gradient norm :     0.0013043 Eh/α   predicted    -0.8831843E-05 ( -56.28%)
   displ. norm   :     0.2127857 α      lambda       -0.2066682E-04
   maximum displ.:     0.1073971 α      in ANC's #2, #9, #4, ...

........................................................................
.............................. CYCLE  100 ..............................
........................................................................

 iter      E             dE          RMSdq      gap      omega  full diag
   1   -191.1433733 -0.191143E+03  0.305E-02    2.30       0.0  T
   2   -191.1433735 -0.218545E-06  0.179E-02    2.30       1.0  T
   3   -191.1433732  0.345433E-06  0.200E-03    2.30       4.6  T
   4   -191.1433736 -0.458663E-06  0.441E-04    2.30      21.0  T
   5   -191.1433736 -0.344136E-08  0.248E-04    2.30      37.3  T
   6   -191.1433736 -0.193293E-08  0.116E-04    2.30      79.6  T
   7   -191.1433736 -0.834660E-09  0.410E-05    2.30     225.4  T
     SCC iter.                  ...        0 min,  0.237 sec
     gradient                   ...        0 min,  0.300 sec
 * total energy  :  -188.2172131 Eh     change       -0.2344375E-04 Eh
   gradient norm :     0.0014599 Eh/α   predicted    -0.1054565E-04 ( -55.02%)
   displ. norm   :     0.2419633 α      lambda       -0.2188362E-04
   maximum displ.:     0.1260515 α      in ANC's #2, #9, #4, ...

........................................................................
.............................. CYCLE  101 ..............................
........................................................................

 iter      E             dE          RMSdq      gap      omega  full diag
   1   -191.1434129 -0.191143E+03  0.330E-02    2.30       0.0  T
   2   -191.1434132 -0.316451E-06  0.194E-02    2.30       1.0  T
   3   -191.1434126  0.690786E-06  0.267E-03    2.30       3.5  T
   4   -191.1434134 -0.834148E-06  0.557E-04    2.30      16.6  T
   5   -191.1434134 -0.144366E-07  0.322E-04    2.30      28.7  T
   6   -191.1434134 -0.426269E-08  0.158E-04    2.30      58.4  T
   7   -191.1434134 -0.100746E-08  0.472E-05    2.30     195.8  T
     SCC iter.                  ...        0 min,  0.230 sec
     gradient                   ...        0 min,  0.333 sec
 * total energy  :  -188.2172367 Eh     change       -0.2365696E-04 Eh
   gradient norm :     0.0015709 Eh/α   predicted    -0.1122764E-04 ( -52.54%)
   displ. norm   :     0.2458471 α      lambda       -0.2151933E-04
   maximum displ.:     0.1322621 α      in ANC's #2, #9, #4, ...

........................................................................
.............................. CYCLE  102 ..............................
........................................................................

 iter      E             dE          RMSdq      gap      omega  full diag
   1   -191.1433756 -0.191143E+03  0.314E-02    2.31       0.0  T
   2   -191.1433759 -0.285380E-06  0.184E-02    2.30       1.0  T
   3   -191.1433749  0.978098E-06  0.306E-03    2.30       3.0  T
   4   -191.1433760 -0.113190E-05  0.563E-04    2.30      16.4  T
   5   -191.1433761 -0.190613E-07  0.311E-04    2.30      29.8  T
   6   -191.1433761 -0.412061E-08  0.151E-04    2.30      61.2  T
   7   -191.1433761 -0.767727E-09  0.477E-05    2.30     193.9  T
     SCC iter.                  ...        0 min,  0.211 sec
     gradient                   ...        0 min,  0.306 sec
 * total energy  :  -188.2172612 Eh     change       -0.2452974E-04 Eh
   gradient norm :     0.0013496 Eh/α   predicted    -0.1105226E-04 ( -54.94%)
   displ. norm   :     0.2815115 α      lambda       -0.2439693E-04
   maximum displ.:     0.1538914 α      in ANC's #2, #9, #4, ...

........................................................................
.............................. CYCLE  103 ..............................
........................................................................

 iter      E             dE          RMSdq      gap      omega  full diag
   1   -191.1432367 -0.191143E+03  0.347E-02    2.31       0.0  T
   2   -191.1432371 -0.421228E-06  0.204E-02    2.31       1.0  T
   3   -191.1432354  0.168787E-05  0.396E-03    2.31       2.3  T
   4   -191.1432373 -0.190559E-05  0.719E-04    2.31      12.9  T
   5   -191.1432373 -0.374017E-07  0.353E-04    2.31      26.2  T
   6   -191.1432374 -0.490743E-08  0.188E-04    2.31      49.2  T
   7   -191.1432374 -0.121304E-08  0.629E-05    2.31     146.9  T
     SCC iter.                  ...        0 min,  0.179 sec
     gradient                   ...        0 min,  0.344 sec
 * total energy  :  -188.2172906 Eh     change       -0.2931110E-04 Eh
   gradient norm :     0.0011902 Eh/α   predicted    -0.1263122E-04 ( -56.91%)
   displ. norm   :     0.3449282 α      lambda       -0.2910872E-04
   maximum displ.:     0.1901276 α      in ANC's #2, #4, #9, ...

........................................................................
.............................. CYCLE  104 ..............................
........................................................................

 iter      E             dE          RMSdq      gap      omega  full diag
   1   -191.1428024 -0.191143E+03  0.420E-02    2.31       0.0  T
   2   -191.1428030 -0.622709E-06  0.247E-02    2.31       1.0  T
   3   -191.1428007  0.238863E-05  0.464E-03    2.31       2.0  T
   4   -191.1428034 -0.271934E-05  0.837E-04    2.31      11.0  T
   5   -191.1428034 -0.436838E-07  0.421E-04    2.31      22.0  T
   6   -191.1428034 -0.526313E-08  0.234E-04    2.31      39.5  T
   7   -191.1428034 -0.273852E-08  0.809E-05    2.31     114.3  T
   8   -191.1428034 -0.391736E-09  0.364E-05    2.31     253.9  T
     SCC iter.                  ...        0 min,  0.298 sec
     gradient                   ...        0 min,  0.372 sec
 * total energy  :  -188.2173243 Eh     change       -0.3370589E-04 Eh
   gradient norm :     0.0013281 Eh/α   predicted    -0.1532877E-04 ( -54.52%)
   displ. norm   :     0.3263495 α      lambda       -0.2626857E-04
   maximum displ.:     0.1824014 α      in ANC's #2, #4, #9, ...

........................................................................
.............................. CYCLE  105 ..............................
........................................................................

 iter      E             dE          RMSdq      gap      omega  full diag
   1   -191.1428077 -0.191143E+03  0.397E-02    2.31       0.0  T
   2   -191.1428082 -0.529863E-06  0.233E-02    2.31       1.0  T
   3   -191.1428064  0.176697E-05  0.398E-03    2.31       2.3  T
   4   -191.1428085 -0.203840E-05  0.729E-04    2.31      12.7  T
   5   -191.1428085 -0.264458E-07  0.378E-04    2.31      24.4  T
   6   -191.1428085 -0.358276E-08  0.207E-04    2.31      44.7  T
   7   -191.1428085 -0.234090E-08  0.716E-05    2.31     129.2  T
   8   -191.1428085 -0.276515E-09  0.349E-05    2.31     264.7  T
     SCC iter.                  ...        0 min,  0.228 sec
     gradient                   ...        0 min,  0.318 sec
 * total energy  :  -188.2173556 Eh     change       -0.3136051E-04 Eh
   gradient norm :     0.0013818 Eh/α   predicted    -0.1375796E-04 ( -56.13%)
   displ. norm   :     0.3324481 α      lambda       -0.2661170E-04
   maximum displ.:     0.1874670 α      in ANC's #2, #4, #9, ...

........................................................................
.............................. CYCLE  106 ..............................
........................................................................

 iter      E             dE          RMSdq      gap      omega  full diag
   1   -191.1425490 -0.191143E+03  0.409E-02    2.31       0.0  T
   2   -191.1425495 -0.516386E-06  0.241E-02    2.31       1.0  T
   3   -191.1425477  0.182945E-05  0.410E-03    2.31       2.3  T
   4   -191.1425498 -0.211764E-05  0.684E-04    2.31      13.5  T
   5   -191.1425499 -0.164983E-07  0.374E-04    2.31      24.7  T
   6   -191.1425499 -0.327893E-08  0.193E-04    2.31      47.9  T
   7   -191.1425499 -0.174441E-08  0.629E-05    2.31     147.0  T
     SCC iter.                  ...        0 min,  0.211 sec
     gradient                   ...        0 min,  0.304 sec
 * total energy  :  -188.2173891 Eh     change       -0.3344998E-04 Eh
   gradient norm :     0.0013788 Eh/α   predicted    -0.1396013E-04 ( -58.27%)
   displ. norm   :     0.3891481 α      lambda       -0.3402303E-04
   maximum displ.:     0.2213523 α      in ANC's #2, #4, #3, ...

........................................................................
.............................. CYCLE  107 ..............................
........................................................................

 iter      E             dE          RMSdq      gap      omega  full diag
   1   -191.1430549 -0.191143E+03  0.476E-02    2.31       0.0  T
   2   -191.1430557 -0.770327E-06  0.280E-02    2.31       1.0  T
   3   -191.1430526  0.308196E-05  0.542E-03    2.31       1.7  T
   4   -191.1430561 -0.352057E-05  0.854E-04    2.31      10.8  T
   5   -191.1430561 -0.262016E-07  0.463E-04    2.31      20.0  T
   6   -191.1430561 -0.566209E-08  0.244E-04    2.31      37.9  T
   7   -191.1430561 -0.232959E-08  0.871E-05    2.31     106.1  T
   8   -191.1430561 -0.265800E-09  0.429E-05    2.31     215.7  T
     SCC iter.                  ...        0 min,  0.241 sec
     gradient                   ...        0 min,  0.324 sec
 * total energy  :  -188.2174305 Eh     change       -0.4143799E-04 Eh
   gradient norm :     0.0014127 Eh/α   predicted    -0.1815740E-04 ( -56.18%)
   displ. norm   :     0.5028038 α      lambda       -0.4069932E-04
   maximum displ.:     0.2859862 α      in ANC's #2, #4, #3, ...

........................................................................
.............................. CYCLE  108 ..............................
........................................................................

 iter      E             dE          RMSdq      gap      omega  full diag
   1   -191.1411556 -0.191141E+03  0.616E-02    2.32       0.0  T
   2   -191.1411567 -0.113493E-05  0.362E-02    2.32       1.0  T
   3   -191.1411516  0.514980E-05  0.701E-03    2.32       1.3  T
   4   -191.1411574 -0.588026E-05  0.107E-03    2.32       8.7  T
   5   -191.1411575 -0.365645E-07  0.597E-04    2.32      15.5  T
   6   -191.1411575 -0.850579E-08  0.314E-04    2.32      29.4  T
   7   -191.1411575 -0.403327E-08  0.106E-04    2.32      87.3  T
   8   -191.1411575 -0.476319E-09  0.531E-05    2.32     174.1  T
     SCC iter.                  ...        0 min,  0.275 sec
     gradient                   ...        0 min,  0.334 sec
 * total energy  :  -188.2174776 Eh     change       -0.4706168E-04 Eh
   gradient norm :     0.0018963 Eh/α   predicted    -0.2263741E-04 ( -51.90%)
   displ. norm   :     0.5303215 α      lambda       -0.4705093E-04
   maximum displ.:     0.3030193 α      in ANC's #2, #4, #11, ...

........................................................................
.............................. CYCLE  109 ..............................
........................................................................

 iter      E             dE          RMSdq      gap      omega  full diag
   1   -191.1422984 -0.191142E+03  0.622E-02    2.32       0.0  T
   2   -191.1422998 -0.142617E-05  0.366E-02    2.32       1.0  T
   3   -191.1422930  0.676039E-05  0.795E-03    2.32       1.2  T
   4   -191.1423007 -0.766143E-05  0.120E-03    2.32       7.7  T
   5   -191.1423008 -0.524244E-07  0.655E-04    2.32      14.1  T
   6   -191.1423008 -0.118365E-07  0.346E-04    2.32      26.7  T
   7   -191.1423008 -0.454415E-08  0.126E-04    2.32      73.2  T
   8   -191.1423008 -0.668621E-09  0.616E-05    2.32     150.0  T
     SCC iter.                  ...        0 min,  0.274 sec
     gradient                   ...        0 min,  0.342 sec
 * total energy  :  -188.2175335 Eh     change       -0.5589956E-04 Eh
   gradient norm :     0.0018779 Eh/α   predicted    -0.2647128E-04 ( -52.64%)
   displ. norm   :     0.6630830 α      lambda       -0.5849063E-04
   maximum displ.:     0.3803166 α      in ANC's #2, #4, #3, ...

........................................................................
.............................. CYCLE  110 ..............................
........................................................................

 iter      E             dE          RMSdq      gap      omega  full diag
   1   -191.1402537 -0.191140E+03  0.767E-02    2.32       0.0  T
   2   -191.1402555 -0.181646E-05  0.450E-02    2.32       1.0  T
   3   -191.1402467  0.885840E-05  0.916E-03    2.32       1.0  T
   4   -191.1402568 -0.101368E-04  0.142E-03    2.32       6.5  T
   5   -191.1402569 -0.569769E-07  0.817E-04    2.32      11.3  T
   6   -191.1402569 -0.173243E-07  0.400E-04    2.32      23.1  T
   7   -191.1402569 -0.699498E-08  0.141E-04    2.32      65.7  T
   8   -191.1402569 -0.916486E-09  0.687E-05    2.32     134.7  T
     SCC iter.                  ...        0 min,  0.280 sec
     gradient                   ...        0 min,  0.301 sec
 * total energy  :  -188.2176025 Eh     change       -0.6905377E-04 Eh
   gradient norm :     0.0026702 Eh/α   predicted    -0.3496198E-04 ( -49.37%)
   displ. norm   :     0.4813482 α      lambda       -0.7553445E-04
   maximum displ.:     0.2768229 α      in ANC's #2, #4, #3, ...

........................................................................
.............................. CYCLE  111 ..............................
........................................................................

 iter      E             dE          RMSdq      gap      omega  full diag
   1   -191.1406915 -0.191141E+03  0.531E-02    2.33       0.0  T
   2   -191.1406925 -0.950607E-06  0.312E-02    2.33       1.0  T
   3   -191.1406876  0.483207E-05  0.665E-03    2.33       1.4  T
   4   -191.1406931 -0.550893E-05  0.106E-03    2.33       8.7  T
   5   -191.1406932 -0.423062E-07  0.597E-04    2.33      15.5  T
   6   -191.1406932 -0.987649E-08  0.292E-04    2.33      31.6  T
   7   -191.1406932 -0.372111E-08  0.101E-04    2.33      91.7  T
   8   -191.1406932 -0.549988E-09  0.491E-05    2.33     188.5  T
     SCC iter.                  ...        0 min,  0.228 sec
     gradient                   ...        0 min,  0.271 sec
 * total energy  :  -188.2176688 Eh     change       -0.6629126E-04 Eh
   gradient norm :     0.0024621 Eh/α   predicted    -0.4652051E-04 ( -29.82%)
   displ. norm   :     0.5826174 α      lambda       -0.1072804E-03
   maximum displ.:     0.3358679 α      in ANC's #2, #4, #3, ...

........................................................................
.............................. CYCLE  112 ..............................
........................................................................

 iter      E             dE          RMSdq      gap      omega  full diag
   1   -191.1419650 -0.191142E+03  0.628E-02    2.33       0.0  T
   2   -191.1419665 -0.155363E-05  0.368E-02    2.33       1.0  T
   3   -191.1419599  0.663466E-05  0.778E-03    2.33       1.2  T
   4   -191.1419675 -0.756229E-05  0.146E-03    2.33       6.3  T
   5   -191.1419676 -0.124264E-06  0.761E-04    2.33      12.2  T
   6   -191.1419676 -0.182195E-07  0.392E-04    2.33      23.6  T
   7   -191.1419676 -0.638192E-08  0.137E-04    2.33      67.7  T
   8   -191.1419676 -0.122449E-08  0.618E-05    2.33     149.6  T
     SCC iter.                  ...        0 min,  0.234 sec
     gradient                   ...        0 min,  0.278 sec
 * total energy  :  -188.2177601 Eh     change       -0.9125098E-04 Eh
   gradient norm :     0.0021464 Eh/α   predicted    -0.7185209E-04 ( -21.26%)
   displ. norm   :     0.6461157 α      lambda       -0.1131049E-03
   maximum displ.:     0.3756847 α      in ANC's #2, #4, #3, ...

........................................................................
.............................. CYCLE  113 ..............................
........................................................................

 iter      E             dE          RMSdq      gap      omega  full diag
   1   -191.1414611 -0.191141E+03  0.695E-02    2.33       0.0  T
   2   -191.1414632 -0.218537E-05  0.408E-02    2.33       1.0  T
   3   -191.1414557  0.751919E-05  0.831E-03    2.33       1.1  T
   4   -191.1414642 -0.848815E-05  0.188E-03    2.33       4.9  T
   5   -191.1414645 -0.284483E-06  0.860E-04    2.33      10.8  T
   6   -191.1414645 -0.238448E-07  0.476E-04    2.33      19.4  T
   7   -191.1414645 -0.100254E-07  0.159E-04    2.33      58.0  T
   8   -191.1414645 -0.170985E-08  0.725E-05    2.33     127.6  T
     SCC iter.                  ...        0 min,  0.208 sec
     gradient                   ...        0 min,  0.359 sec
 * total energy  :  -188.2178548 Eh     change       -0.9473868E-04 Eh
   gradient norm :     0.0022882 Eh/α   predicted    -0.8016758E-04 ( -15.38%)
   displ. norm   :     0.5667195 α      lambda       -0.1073047E-03
   maximum displ.:     0.3314978 α      in ANC's #2, #4, #3, ...

........................................................................
.............................. CYCLE  114 ..............................
........................................................................

 iter      E             dE          RMSdq      gap      omega  full diag
   1   -191.1430446 -0.191143E+03  0.603E-02    2.34       0.0  T
   2   -191.1430470 -0.238625E-05  0.356E-02    2.34       1.0  T
   3   -191.1430408  0.613579E-05  0.753E-03    2.34       1.2  T
   4   -191.1430475 -0.670166E-05  0.216E-03    2.34       4.3  T
   5   -191.1430480 -0.492727E-06  0.818E-04    2.34      11.3  T
   6   -191.1430481 -0.228840E-07  0.476E-04    2.34      19.4  T
   7   -191.1430481 -0.106975E-07  0.170E-04    2.34      54.3  T
   8   -191.1430481 -0.177363E-08  0.746E-05    2.34     123.9  T
     SCC iter.                  ...        0 min,  0.303 sec
     gradient                   ...        0 min,  0.264 sec
 * total energy  :  -188.2179377 Eh     change       -0.8289249E-04 Eh
   gradient norm :     0.0022714 Eh/α   predicted    -0.7088773E-04 ( -14.48%)
   displ. norm   :     0.6090401 α      lambda       -0.8657882E-04
   maximum displ.:     0.3612143 α      in ANC's #2, #4, #11, ...

........................................................................
.............................. CYCLE  115 ..............................
........................................................................

 iter      E             dE          RMSdq      gap      omega  full diag
   1   -191.1396606 -0.191140E+03  0.658E-02    2.34       0.0  T
   2   -191.1396627 -0.206480E-05  0.387E-02    2.34       1.0  T
   3   -191.1396579  0.480463E-05  0.666E-03    2.34       1.4  T
   4   -191.1396632 -0.531509E-05  0.201E-03    2.34       4.6  T
   5   -191.1396636 -0.422591E-06  0.776E-04    2.34      11.9  T
   6   -191.1396637 -0.155695E-07  0.454E-04    2.34      20.3  T
   7   -191.1396637 -0.114698E-07  0.144E-04    2.34      64.1  T
   8   -191.1396637 -0.128770E-08  0.685E-05    2.34     134.9  T
     SCC iter.                  ...        0 min,  0.202 sec
     gradient                   ...        0 min,  0.291 sec
 * total energy  :  -188.2180042 Eh     change       -0.6655036E-04 Eh
   gradient norm :     0.0031411 Eh/α   predicted    -0.5934847E-04 ( -10.82%)
   displ. norm   :     0.4361822 α      lambda       -0.9605233E-04
   maximum displ.:     0.2596383 α      in ANC's #2, #4, #11, ...

........................................................................
.............................. CYCLE  116 ..............................
........................................................................

 iter      E             dE          RMSdq      gap      omega  full diag
   1   -191.1434037 -0.191143E+03  0.467E-02    2.34       0.0  T
   2   -191.1434055 -0.184333E-05  0.277E-02    2.34       1.0  T
   3   -191.1434024  0.316452E-05  0.539E-03    2.34       1.7  T
   4   -191.1434056 -0.325558E-05  0.205E-03    2.34       4.5  T
   5   -191.1434061 -0.509196E-06  0.636E-04    2.34      14.5  T
   6   -191.1434062 -0.141228E-07  0.376E-04    2.34      24.6  T
   7   -191.1434062 -0.636388E-08  0.141E-04    2.34      65.6  T
   8   -191.1434062 -0.105749E-08  0.605E-05    2.34     152.8  T
     SCC iter.                  ...        0 min,  0.257 sec
     gradient                   ...        0 min,  0.306 sec
 * total energy  :  -188.2180698 Eh     change       -0.6556229E-04 Eh
   gradient norm :     0.0026660 Eh/α   predicted    -0.5716722E-04 ( -12.80%)
   displ. norm   :     0.5394007 α      lambda       -0.8447180E-04
   maximum displ.:     0.3253987 α      in ANC's #2, #4, #11, ...

........................................................................
.............................. CYCLE  117 ..............................
........................................................................

 iter      E             dE          RMSdq      gap      omega  full diag
   1   -191.1403563 -0.191140E+03  0.592E-02    2.34       0.0  T
   2   -191.1403575 -0.121282E-05  0.347E-02    2.34       1.0  T
   3   -191.1403552  0.229606E-05  0.468E-03    2.34       2.0  T
   4   -191.1403579 -0.270230E-05  0.144E-03    2.34       6.4  T
   5   -191.1403581 -0.175648E-06  0.663E-04    2.34      13.9  T
   6   -191.1403581 -0.148307E-07  0.372E-04    2.34      24.9  T
   7   -191.1403581 -0.821066E-08  0.112E-04    2.34      82.5  T
   8   -191.1403581 -0.711282E-09  0.536E-05    2.34     172.5  T
     SCC iter.                  ...        0 min,  0.245 sec
     gradient                   ...        0 min,  0.316 sec
 * total energy  :  -188.2181337 Eh     change       -0.6386337E-04 Eh
   gradient norm :     0.0034358 Eh/α   predicted    -0.5453136E-04 ( -14.61%)
   displ. norm   :     0.4495078 α      lambda       -0.9030644E-04
   maximum displ.:     0.2767132 α      in ANC's #2, #4, #11, ...

........................................................................
.............................. CYCLE  118 ..............................
........................................................................

 iter      E             dE          RMSdq      gap      omega  full diag
   1   -191.1405955 -0.191141E+03  0.510E-02    2.34       0.0  T
   2   -191.1405965 -0.985580E-06  0.299E-02    2.34       1.0  T
   3   -191.1405941  0.246174E-05  0.477E-03    2.34       1.9  T
   4   -191.1405970 -0.288606E-05  0.111E-03    2.34       8.3  T
   5   -191.1405970 -0.784899E-07  0.539E-04    2.34      17.2  T
   6   -191.1405970 -0.886945E-08  0.293E-04    2.34      31.5  T
   7   -191.1405970 -0.437302E-08  0.119E-04    2.34      77.4  T
   8   -191.1405970 -0.102378E-08  0.485E-05    2.34     190.8  T
     SCC iter.                  ...        0 min,  0.211 sec
     gradient                   ...        0 min,  0.267 sec
 * total energy  :  -188.2182036 Eh     change       -0.6992963E-04 Eh
   gradient norm :     0.0027007 Eh/α   predicted    -0.5428027E-04 ( -22.38%)
   displ. norm   :     0.4203425 α      lambda       -0.8403318E-04
   maximum displ.:     0.2615154 α      in ANC's #2, #4, #11, ...

........................................................................
.............................. CYCLE  119 ..............................
........................................................................

 iter      E             dE          RMSdq      gap      omega  full diag
   1   -191.1423822 -0.191142E+03  0.499E-02    2.34       0.0  T
   2   -191.1423830 -0.763132E-06  0.293E-02    2.34       1.0  T
   3   -191.1423812  0.180095E-05  0.415E-03    2.34       2.2  T
   4   -191.1423834 -0.216466E-05  0.988E-04    2.34       9.4  T
   5   -191.1423834 -0.469522E-07  0.493E-04    2.34      18.8  T
   6   -191.1423834 -0.532279E-08  0.285E-04    2.34      32.4  T
   7   -191.1423834 -0.525651E-08  0.963E-05    2.34      96.0  T
   8   -191.1423834 -0.380538E-09  0.479E-05    2.34     193.2  T
     SCC iter.                  ...        0 min,  0.273 sec
     gradient                   ...        0 min,  0.314 sec
 * total energy  :  -188.2182676 Eh     change       -0.6401466E-04 Eh
   gradient norm :     0.0026374 Eh/α   predicted    -0.4944298E-04 ( -22.76%)
   displ. norm   :     0.5067701 α      lambda       -0.8251518E-04
   maximum displ.:     0.3185513 α      in ANC's #2, #4, #11, ...

........................................................................
.............................. CYCLE  120 ..............................
........................................................................

 iter      E             dE          RMSdq      gap      omega  full diag
   1   -191.1421169 -0.191142E+03  0.563E-02    2.35       0.0  T
   2   -191.1421180 -0.109709E-05  0.330E-02    2.35       1.0  T
   3   -191.1421142  0.376922E-05  0.581E-03    2.35       1.6  T
   4   -191.1421185 -0.434702E-05  0.110E-03    2.35       8.4  T
   5   -191.1421186 -0.589396E-07  0.562E-04    2.35      16.4  T
   6   -191.1421186 -0.841524E-08  0.292E-04    2.35      31.7  T
   7   -191.1421186 -0.401289E-08  0.120E-04    2.35      77.0  T
   8   -191.1421186 -0.696900E-09  0.535E-05    2.35     172.7  T
     SCC iter.                  ...        0 min,  0.267 sec
     gradient                   ...        0 min,  0.309 sec
 * total energy  :  -188.2183364 Eh     change       -0.6879548E-04 Eh
   gradient norm :     0.0031177 Eh/α   predicted    -0.5185723E-04 ( -24.62%)
   displ. norm   :     0.5333402 α      lambda       -0.1036742E-03
   maximum displ.:     0.3377091 α      in ANC's #2, #4, #11, ...
 * RMSD in coord.:     0.9010872 α      energy gain  -0.1304582E-02 Eh

generating ANC from exact Hessian ...
Using Lindh-Hessian (1995)
 Shifting diagonal of input Hessian by    9.9652015551859006E-003
 Lowest  eigenvalues of input Hessian
    0.000000    0.000000    0.000000    0.000000    0.000000    0.000000
    0.010000    0.010039    0.010081    0.010105    0.010166    0.010232
    0.010296    0.010397    0.010478    0.010549    0.010700    0.010747
 Highest eigenvalues
    2.149703    2.161214    2.330830    2.348067    2.372025    3.144649


........................................................................
.............................. CYCLE  121 ..............................
........................................................................

 iter      E             dE          RMSdq      gap      omega  full diag
   1   -191.1434620 -0.191143E+03  0.588E-02    2.35       0.0  T
   2   -191.1434630 -0.101966E-05  0.345E-02    2.34       1.0  T
   3   -191.1434591  0.389791E-05  0.602E-03    2.35       1.5  T
   4   -191.1434637 -0.452722E-05  0.107E-03    2.34       8.7  T
   5   -191.1434637 -0.414217E-07  0.617E-04    2.34      15.0  T
   6   -191.1434637 -0.120130E-07  0.299E-04    2.34      30.9  T
   7   -191.1434637 -0.380959E-08  0.110E-04    2.34      83.8  T
   8   -191.1434637 -0.478934E-09  0.531E-05    2.34     174.1  T
     SCC iter.                  ...        0 min,  0.197 sec
     gradient                   ...        0 min,  0.283 sec
 * total energy  :  -188.2184214 Eh     change       -0.8497744E-04 Eh
   gradient norm :     0.0030702 Eh/α   predicted     0.0000000E+00 (-100.00%)
   displ. norm   :     0.0329129 α      lambda       -0.2638488E-04
   maximum displ.:     0.0103750 α      in ANC's #24, #32, #2, ...

........................................................................
.............................. CYCLE  122 ..............................
........................................................................

 iter      E             dE          RMSdq      gap      omega  full diag
   1   -191.1442766 -0.191144E+03  0.682E-03    2.35       0.0  T
   2   -191.1442767 -0.769365E-07  0.402E-03    2.35       2.3  T
   3   -191.1442764  0.267749E-06  0.172E-03    2.35       5.4  T
   4   -191.1442767 -0.313380E-06  0.320E-04    2.35      28.9  T
   5   -191.1442767 -0.706800E-08  0.135E-04    2.35      68.4  T
   6   -191.1442767 -0.496186E-09  0.794E-05    2.35     116.5  T
     SCC iter.                  ...        0 min,  0.217 sec
     gradient                   ...        0 min,  0.318 sec
 * total energy  :  -188.2184448 Eh     change       -0.2342370E-04 Eh
   gradient norm :     0.0016200 Eh/α   predicted    -0.1457091E-04 ( -37.79%)
   displ. norm   :     0.1295796 α      lambda       -0.4392685E-04
   maximum displ.:     0.0433388 α      in ANC's #2, #24, #32, ...

........................................................................
.............................. CYCLE  123 ..............................
........................................................................

 iter      E             dE          RMSdq      gap      omega  full diag
   1   -191.1454193 -0.191145E+03  0.230E-02    2.35       0.0  T
   2   -191.1454200 -0.769403E-06  0.136E-02    2.35       1.0  T
   3   -191.1454174  0.261502E-05  0.530E-03    2.35       1.7  T
   4   -191.1454204 -0.302502E-05  0.110E-03    2.35       8.4  T
   5   -191.1454205 -0.928096E-07  0.452E-04    2.35      20.4  T
   6   -191.1454205 -0.538776E-08  0.271E-04    2.35      34.1  T
   7   -191.1454205 -0.403324E-08  0.102E-04    2.35      90.3  T
   8   -191.1454205 -0.517872E-09  0.477E-05    2.35     194.0  T
     SCC iter.                  ...        0 min,  0.288 sec
     gradient                   ...        0 min,  0.313 sec
 * total energy  :  -188.2184728 Eh     change       -0.2800499E-04 Eh
   gradient norm :     0.0025054 Eh/α   predicted    -0.2212742E-04 ( -20.99%)
   displ. norm   :     0.0223803 α      lambda       -0.1083379E-04
   maximum displ.:     0.0100249 α      in ANC's #2, #1, #4, ...

........................................................................
.............................. CYCLE  124 ..............................
........................................................................

 iter      E             dE          RMSdq      gap      omega  full diag
   1   -191.1449732 -0.191145E+03  0.340E-03    2.35       0.0  T
   2   -191.1449732 -0.170043E-07  0.203E-03    2.35       4.6  T
   3   -191.1449732  0.775415E-07  0.876E-04    2.35      10.6  T
   4   -191.1449732 -0.886048E-07  0.139E-04    2.35      66.5  T
   5   -191.1449732 -0.142356E-08  0.612E-05    2.35     151.2  T
     SCC iter.                  ...        0 min,  0.182 sec
     gradient                   ...        0 min,  0.283 sec
 * total energy  :  -188.2184820 Eh     change       -0.9135500E-05 Eh
   gradient norm :     0.0015918 Eh/α   predicted    -0.5419962E-05 ( -40.67%)
   displ. norm   :     0.1314391 α      lambda       -0.2677047E-04
   maximum displ.:     0.0589419 α      in ANC's #2, #1, #4, ...

........................................................................
.............................. CYCLE  125 ..............................
........................................................................

 iter      E             dE          RMSdq      gap      omega  full diag
   1   -191.1433721 -0.191143E+03  0.179E-02    2.35       0.0  T
   2   -191.1433725 -0.367630E-06  0.106E-02    2.34       1.0  T
   3   -191.1433707  0.182404E-05  0.420E-03    2.35       2.2  T
   4   -191.1433727 -0.206702E-05  0.624E-04    2.35      14.8  T
   5   -191.1433728 -0.266147E-07  0.293E-04    2.35      31.6  T
   6   -191.1433728 -0.383207E-08  0.162E-04    2.35      57.0  T
   7   -191.1433728 -0.421636E-09  0.726E-05    2.35     127.3  T
     SCC iter.                  ...        0 min,  0.261 sec
     gradient                   ...        0 min,  0.320 sec
 * total energy  :  -188.2185006 Eh     change       -0.1860639E-04 Eh
   gradient norm :     0.0023811 Eh/α   predicted    -0.1353974E-04 ( -27.23%)
   displ. norm   :     0.0458590 α      lambda       -0.9960897E-05
   maximum displ.:     0.0215365 α      in ANC's #2, #1, #4, ...

........................................................................
.............................. CYCLE  126 ..............................
........................................................................

 iter      E             dE          RMSdq      gap      omega  full diag
   1   -191.1436464 -0.191144E+03  0.541E-03    2.35       0.0  T
   2   -191.1436464 -0.140992E-07  0.319E-03    2.35       2.9  T
   3   -191.1436463  0.770667E-07  0.851E-04    2.35      10.9  T
   4   -191.1436464 -0.856363E-07  0.154E-04    2.35      60.0  T
   5   -191.1436464 -0.156024E-08  0.730E-05    2.35     126.6  T
     SCC iter.                  ...        0 min,  0.148 sec
     gradient                   ...        0 min,  0.280 sec
 * total energy  :  -188.2185097 Eh     change       -0.9100675E-05 Eh
   gradient norm :     0.0019398 Eh/α   predicted    -0.4995436E-05 ( -45.11%)
   displ. norm   :     0.2798791 α      lambda       -0.3906827E-04
   maximum displ.:     0.1308760 α      in ANC's #2, #1, #4, ...

........................................................................
.............................. CYCLE  127 ..............................
........................................................................

 iter      E             dE          RMSdq      gap      omega  full diag
   1   -191.1452116 -0.191145E+03  0.333E-02    2.35       0.0  T
   2   -191.1452121 -0.490315E-06  0.196E-02    2.35       1.0  T
   3   -191.1452100  0.208928E-05  0.441E-03    2.35       2.1  T
   4   -191.1452124 -0.233942E-05  0.896E-04    2.35      10.3  T
   5   -191.1452124 -0.511284E-07  0.434E-04    2.35      21.3  T
   6   -191.1452124 -0.518321E-08  0.236E-04    2.35      39.2  T
   7   -191.1452124 -0.158795E-08  0.786E-05    2.35     117.6  T
   8   -191.1452124 -0.421267E-09  0.305E-05    2.35     302.7  T
     SCC iter.                  ...        0 min,  0.252 sec
     gradient                   ...        0 min,  0.357 sec
 * total energy  :  -188.2185450 Eh     change       -0.3531265E-04 Eh
   gradient norm :     0.0016160 Eh/α   predicted    -0.2021480E-04 ( -42.75%)
   displ. norm   :     0.1897071 α      lambda       -0.1435122E-04
   maximum displ.:     0.0911075 α      in ANC's #2, #1, #4, ...

........................................................................
.............................. CYCLE  128 ..............................
........................................................................

 iter      E             dE          RMSdq      gap      omega  full diag
   1   -191.1449904 -0.191145E+03  0.216E-02    2.35       0.0  T
   2   -191.1449906 -0.160389E-06  0.127E-02    2.35       1.0  T
   3   -191.1449899  0.650912E-06  0.249E-03    2.35       3.7  T
   4   -191.1449907 -0.742111E-06  0.464E-04    2.35      19.9  T
   5   -191.1449907 -0.914045E-08  0.249E-04    2.35      37.2  T
   6   -191.1449907 -0.134696E-08  0.140E-04    2.35      66.3  T
   7   -191.1449907 -0.559169E-09  0.473E-05    2.35     195.3  T
     SCC iter.                  ...        0 min,  0.240 sec
     gradient                   ...        0 min,  0.371 sec
 * total energy  :  -188.2185625 Eh     change       -0.1756077E-04 Eh
   gradient norm :     0.0014334 Eh/α   predicted    -0.7293475E-05 ( -58.47%)
   displ. norm   :     0.2200364 α      lambda       -0.1823657E-04
   maximum displ.:     0.1090885 α      in ANC's #2, #1, #4, ...

........................................................................
.............................. CYCLE  129 ..............................
........................................................................

 iter      E             dE          RMSdq      gap      omega  full diag
   1   -191.1446289 -0.191145E+03  0.240E-02    2.35       0.0  T
   2   -191.1446291 -0.179324E-06  0.141E-02    2.35       1.0  T
   3   -191.1446284  0.667892E-06  0.242E-03    2.35       3.8  T
   4   -191.1446292 -0.773596E-06  0.470E-04    2.35      19.7  T
   5   -191.1446292 -0.737188E-08  0.264E-04    2.35      35.0  T
   6   -191.1446292 -0.165937E-08  0.129E-04    2.35      71.6  T
   7   -191.1446292 -0.628006E-09  0.468E-05    2.35     197.3  T
     SCC iter.                  ...        0 min,  0.250 sec
     gradient                   ...        0 min,  0.309 sec
 * total energy  :  -188.2185836 Eh     change       -0.2104045E-04 Eh
   gradient norm :     0.0008555 Eh/α   predicted    -0.9314941E-05 ( -55.73%)
   displ. norm   :     0.2375025 α      lambda       -0.1812222E-04
   maximum displ.:     0.1212689 α      in ANC's #2, #1, #4, ...

........................................................................
.............................. CYCLE  130 ..............................
........................................................................

 iter      E             dE          RMSdq      gap      omega  full diag
   1   -191.1442156 -0.191144E+03  0.245E-02    2.35       0.0  T
   2   -191.1442158 -0.161152E-06  0.143E-02    2.35       1.0  T
   3   -191.1442148  0.101039E-05  0.292E-03    2.35       3.2  T
   4   -191.1442159 -0.114595E-05  0.475E-04    2.35      19.5  T
   5   -191.1442160 -0.669186E-08  0.265E-04    2.35      34.9  T
   6   -191.1442160 -0.190141E-08  0.130E-04    2.35      71.3  T
   7   -191.1442160 -0.106752E-08  0.472E-05    2.35     195.8  T
     SCC iter.                  ...        0 min,  0.246 sec
     gradient                   ...        0 min,  0.317 sec
 * total energy  :  -188.2186039 Eh     change       -0.2029131E-04 Eh
   gradient norm :     0.0011630 Eh/α   predicted    -0.9292331E-05 ( -54.21%)
   displ. norm   :     0.2333923 α      lambda       -0.1692006E-04
   maximum displ.:     0.1224646 α      in ANC's #2, #1, #4, ...

........................................................................
.............................. CYCLE  131 ..............................
........................................................................

 iter      E             dE          RMSdq      gap      omega  full diag
   1   -191.1438989 -0.191144E+03  0.225E-02    2.35       0.0  T
   2   -191.1438991 -0.173197E-06  0.132E-02    2.35       1.0  T
   3   -191.1438980  0.108752E-05  0.306E-03    2.35       3.0  T
   4   -191.1438992 -0.121168E-05  0.545E-04    2.35      17.0  T
   5   -191.1438992 -0.196146E-07  0.257E-04    2.35      36.0  T
   6   -191.1438992 -0.984841E-09  0.155E-04    2.35      59.8  T
   7   -191.1438992 -0.152778E-08  0.459E-05    2.35     201.5  T
     SCC iter.                  ...        0 min,  0.237 sec
     gradient                   ...        0 min,  0.304 sec
 * total energy  :  -188.2186251 Eh     change       -0.2121677E-04 Eh
   gradient norm :     0.0011778 Eh/α   predicted    -0.8669200E-05 ( -59.14%)
   displ. norm   :     0.2949438 α      lambda       -0.2346179E-04
   maximum displ.:     0.1573910 α      in ANC's #2, #1, #4, ...

........................................................................
.............................. CYCLE  132 ..............................
........................................................................

 iter      E             dE          RMSdq      gap      omega  full diag
   1   -191.1440407 -0.191144E+03  0.275E-02    2.35       0.0  T
   2   -191.1440410 -0.347968E-06  0.162E-02    2.35       1.0  T
   3   -191.1440390  0.206857E-05  0.425E-03    2.35       2.2  T
   4   -191.1440412 -0.225898E-05  0.891E-04    2.35      10.4  T
   5   -191.1440413 -0.741996E-07  0.337E-04    2.35      27.4  T
   6   -191.1440413 -0.216519E-08  0.210E-04    2.35      44.0  T
   7   -191.1440413 -0.233334E-08  0.650E-05    2.35     142.3  T
   8   -191.1440413 -0.242977E-09  0.298E-05    2.35     309.8  T
     SCC iter.                  ...        0 min,  0.305 sec
     gradient                   ...        0 min,  0.292 sec
 * total energy  :  -188.2186553 Eh     change       -0.3021464E-04 Eh
   gradient norm :     0.0011251 Eh/α   predicted    -0.1218757E-04 ( -59.66%)
   displ. norm   :     0.4286350 α      lambda       -0.3424588E-04
   maximum displ.:     0.2297401 α      in ANC's #2, #1, #4, ...

........................................................................
.............................. CYCLE  133 ..............................
........................................................................

 iter      E             dE          RMSdq      gap      omega  full diag
   1   -191.1436490 -0.191144E+03  0.403E-02    2.35       0.0  T
   2   -191.1436498 -0.786050E-06  0.237E-02    2.35       1.0  T
   3   -191.1436456  0.415501E-05  0.611E-03    2.35       1.5  T
   4   -191.1436502 -0.451814E-05  0.140E-03    2.35       6.6  T
   5   -191.1436504 -0.188975E-06  0.510E-04    2.35      18.1  T
   6   -191.1436504 -0.661544E-08  0.308E-04    2.35      30.0  T
   7   -191.1436504 -0.409014E-08  0.999E-05    2.35      92.5  T
   8   -191.1436504 -0.672486E-09  0.435E-05    2.35     212.5  T
     SCC iter.                  ...        0 min,  0.274 sec
     gradient                   ...        0 min,  0.368 sec
 * total energy  :  -188.2186979 Eh     change       -0.4256051E-04 Eh
   gradient norm :     0.0012242 Eh/α   predicted    -0.1852423E-04 ( -56.48%)
   displ. norm   :     0.5164108 α      lambda       -0.3836493E-04
   maximum displ.:     0.2769913 α      in ANC's #2, #1, #4, ...

........................................................................
.............................. CYCLE  134 ..............................
........................................................................

 iter      E             dE          RMSdq      gap      omega  full diag
   1   -191.1433426 -0.191143E+03  0.493E-02    2.35       0.0  T
   2   -191.1433437 -0.107462E-05  0.290E-02    2.35       1.0  T
   3   -191.1433381  0.559758E-05  0.714E-03    2.35       1.3  T
   4   -191.1433443 -0.616332E-05  0.155E-03    2.35       6.0  T
   5   -191.1433445 -0.212721E-06  0.631E-04    2.35      14.6  T
   6   -191.1433445 -0.120526E-07  0.368E-04    2.35      25.1  T
   7   -191.1433445 -0.532344E-08  0.121E-04    2.35      76.6  T
   8   -191.1433445 -0.100752E-08  0.519E-05    2.35     178.0  T
     SCC iter.                  ...        0 min,  0.270 sec
     gradient                   ...        0 min,  0.358 sec
 * total energy  :  -188.2187446 Eh     change       -0.4677738E-04 Eh
   gradient norm :     0.0014776 Eh/α   predicted    -0.2145953E-04 ( -54.12%)
   displ. norm   :     0.5678337 α      lambda       -0.4090126E-04
   maximum displ.:     0.3037487 α      in ANC's #2, #1, #4, ...

........................................................................
.............................. CYCLE  135 ..............................
........................................................................

 iter      E             dE          RMSdq      gap      omega  full diag
   1   -191.1431541 -0.191143E+03  0.558E-02    2.35       0.0  T
   2   -191.1431553 -0.117402E-05  0.328E-02    2.35       1.0  T
   3   -191.1431501  0.522434E-05  0.694E-03    2.35       1.3  T
   4   -191.1431560 -0.590845E-05  0.144E-03    2.35       6.4  T
   5   -191.1431561 -0.147742E-06  0.693E-04    2.35      13.3  T
   6   -191.1431561 -0.155415E-07  0.384E-04    2.35      24.0  T
   7   -191.1431561 -0.601719E-08  0.126E-04    2.35      73.1  T
   8   -191.1431561 -0.107610E-08  0.555E-05    2.35     166.5  T
     SCC iter.                  ...        0 min,  0.227 sec
     gradient                   ...        0 min,  0.334 sec
 * total energy  :  -188.2187959 Eh     change       -0.5126972E-04 Eh
   gradient norm :     0.0016349 Eh/α   predicted    -0.2338610E-04 ( -54.39%)
   displ. norm   :     0.6582248 α      lambda       -0.5177687E-04
   maximum displ.:     0.3498649 α      in ANC's #2, #1, #4, ...

........................................................................
.............................. CYCLE  136 ..............................
........................................................................

 iter      E             dE          RMSdq      gap      omega  full diag
   1   -191.1431643 -0.191143E+03  0.664E-02    2.35       0.0  T
   2   -191.1431658 -0.143595E-05  0.390E-02    2.35       1.0  T
   3   -191.1431600  0.575545E-05  0.731E-03    2.35       1.3  T
   4   -191.1431667 -0.670710E-05  0.138E-03    2.36       6.7  T
   5   -191.1431668 -0.848440E-07  0.787E-04    2.35      11.8  T
   6   -191.1431668 -0.205286E-07  0.399E-04    2.36      23.2  T
   7   -191.1431668 -0.781986E-08  0.133E-04    2.35      69.3  T
   8   -191.1431668 -0.105499E-08  0.635E-05    2.35     145.5  T
     SCC iter.                  ...        0 min,  0.236 sec
     gradient                   ...        0 min,  0.277 sec
 * total energy  :  -188.2188624 Eh     change       -0.6649666E-04 Eh
   gradient norm :     0.0018343 Eh/α   predicted    -0.3087484E-04 ( -53.57%)
   displ. norm   :     0.8007664 α      lambda       -0.7035818E-04
   maximum displ.:     0.4215487 α      in ANC's #2, #1, #4, ...

........................................................................
.............................. CYCLE  137 ..............................
........................................................................

 iter      E             dE          RMSdq      gap      omega  full diag
   1   -191.1431418 -0.191143E+03  0.835E-02    2.36       0.0  T
   2   -191.1431438 -0.205383E-05  0.489E-02    2.36       1.0  T
   3   -191.1431367  0.715361E-05  0.814E-03    2.36       1.1  T
   4   -191.1431452 -0.857481E-05  0.150E-03    2.36       6.1  T
   5   -191.1431453 -0.476626E-07  0.918E-04    2.36      10.1  T
   6   -191.1431453 -0.256045E-07  0.387E-04    2.36      23.9  T
   7   -191.1431453 -0.946949E-08  0.140E-04    2.36      66.2  T
   8   -191.1431453 -0.895568E-09  0.723E-05    2.36     127.9  T
     SCC iter.                  ...        0 min,  0.250 sec
     gradient                   ...        0 min,  0.295 sec
 * total energy  :  -188.2189527 Eh     change       -0.9028852E-04 Eh
   gradient norm :     0.0022184 Eh/α   predicted    -0.4520842E-04 ( -49.93%)
   displ. norm   :     0.5913867 α      lambda       -0.8648769E-04
   maximum displ.:     0.3104512 α      in ANC's #1, #2, #4, ...

........................................................................
.............................. CYCLE  138 ..............................
........................................................................

 iter      E             dE          RMSdq      gap      omega  full diag
   1   -191.1435657 -0.191144E+03  0.631E-02    2.37       0.0  T
   2   -191.1435669 -0.118797E-05  0.370E-02    2.37       1.0  T
   3   -191.1435628  0.409937E-05  0.611E-03    2.37       1.5  T
   4   -191.1435677 -0.490465E-05  0.111E-03    2.37       8.3  T
   5   -191.1435678 -0.254682E-07  0.697E-04    2.37      13.3  T
   6   -191.1435678 -0.111865E-07  0.293E-04    2.37      31.5  T
   7   -191.1435678 -0.605283E-08  0.109E-04    2.37      85.0  T
   8   -191.1435678 -0.575909E-09  0.551E-05    2.37     167.9  T
     SCC iter.                  ...        0 min,  0.268 sec
     gradient                   ...        0 min,  0.282 sec
 * total energy  :  -188.2190304 Eh     change       -0.7772898E-04 Eh
   gradient norm :     0.0022372 Eh/α   predicted    -0.5837307E-04 ( -24.90%)
   displ. norm   :     0.6560160 α      lambda       -0.1102408E-03
   maximum displ.:     0.3439230 α      in ANC's #1, #2, #4, ...

........................................................................
.............................. CYCLE  139 ..............................
........................................................................

 iter      E             dE          RMSdq      gap      omega  full diag
   1   -191.1448421 -0.191145E+03  0.725E-02    2.38       0.0  T
   2   -191.1448438 -0.171601E-05  0.425E-02    2.38       1.0  T
   3   -191.1448378  0.604515E-05  0.741E-03    2.38       1.2  T
   4   -191.1448450 -0.715339E-05  0.135E-03    2.38       6.9  T
   5   -191.1448450 -0.532173E-07  0.832E-04    2.38      11.1  T
   6   -191.1448450 -0.130021E-07  0.404E-04    2.38      22.9  T
   7   -191.1448450 -0.868874E-08  0.152E-04    2.38      61.0  T
   8   -191.1448450 -0.144107E-08  0.652E-05    2.38     141.8  T
     SCC iter.                  ...        0 min,  0.272 sec
     gradient                   ...        0 min,  0.376 sec
 * total energy  :  -188.2191243 Eh     change       -0.9383518E-04 Eh
   gradient norm :     0.0022621 Eh/α   predicted    -0.7884917E-04 ( -15.97%)
   displ. norm   :     0.6922169 α      lambda       -0.1018294E-03
   maximum displ.:     0.3666809 α      in ANC's #1, #2, #4, ...

........................................................................
.............................. CYCLE  140 ..............................
........................................................................

 iter      E             dE          RMSdq      gap      omega  full diag
   1   -191.1425256 -0.191143E+03  0.753E-02    2.38       0.0  T
   2   -191.1425274 -0.176572E-05  0.441E-02    2.38       1.0  T
   3   -191.1425219  0.549593E-05  0.726E-03    2.39       1.3  T
   4   -191.1425285 -0.663095E-05  0.130E-03    2.38       7.1  T
   5   -191.1425286 -0.315490E-07  0.786E-04    2.38      11.8  T
   6   -191.1425286 -0.869437E-08  0.388E-04    2.38      23.8  T
   7   -191.1425286 -0.105621E-07  0.146E-04    2.38      63.3  T
   8   -191.1425286 -0.144064E-08  0.672E-05    2.38     137.6  T
     SCC iter.                  ...        0 min,  0.258 sec
     gradient                   ...        0 min,  0.291 sec
 * total energy  :  -188.2192092 Eh     change       -0.8492959E-04 Eh
   gradient norm :     0.0025191 Eh/α   predicted    -0.7531663E-04 ( -11.32%)
   displ. norm   :     0.5105142 α      lambda       -0.1055670E-03
   maximum displ.:     0.2653215 α      in ANC's #1, #2, #4, ...

........................................................................
.............................. CYCLE  141 ..............................
........................................................................

 iter      E             dE          RMSdq      gap      omega  full diag
   1   -191.1477508 -0.191148E+03  0.604E-02    2.40       0.0  T
   2   -191.1477535 -0.271660E-05  0.357E-02    2.40       1.0  T
   3   -191.1477432  0.102930E-04  0.952E-03    2.40       1.0  T
   4   -191.1477548 -0.115900E-04  0.174E-03    2.40       5.3  T
   5   -191.1477550 -0.222787E-06  0.754E-04    2.40      12.3  T
   6   -191.1477550 -0.112228E-07  0.443E-04    2.40      20.9  T
   7   -191.1477550 -0.671102E-08  0.207E-04    2.40      44.6  T
   8   -191.1477550 -0.231293E-08  0.677E-05    2.40     136.5  T
   9   -191.1477550 -0.110077E-09  0.350E-05    2.40     263.9  T
     SCC iter.                  ...        0 min,  0.306 sec
     gradient                   ...        0 min,  0.300 sec
 * total energy  :  -188.2192664 Eh     change       -0.5717423E-04 Eh
   gradient norm :     0.0036788 Eh/α   predicted    -0.6654273E-04 (  16.39%)
   displ. norm   :     0.5976941 α      lambda       -0.8982560E-04
   maximum displ.:     0.3249768 α      in ANC's #1, #2, #4, ...

........................................................................
.............................. CYCLE  142 ..............................
........................................................................

 iter      E             dE          RMSdq      gap      omega  full diag
   1   -191.1407182 -0.191141E+03  0.621E-02    2.40       0.0  T
   2   -191.1407203 -0.203952E-05  0.364E-02    2.40       1.0  T
   3   -191.1407145  0.576430E-05  0.765E-03    2.40       1.2  T
   4   -191.1407212 -0.668613E-05  0.155E-03    2.40       6.0  T
   5   -191.1407213 -0.133644E-06  0.777E-04    2.40      11.9  T
   6   -191.1407213 -0.814529E-08  0.431E-04    2.40      21.5  T
   7   -191.1407213 -0.101208E-07  0.149E-04    2.40      61.9  T
   8   -191.1407213 -0.133278E-08  0.613E-05    2.40     150.9  T
     SCC iter.                  ...        0 min,  0.248 sec
     gradient                   ...        0 min,  0.388 sec
 * total energy  :  -188.2193247 Eh     change       -0.5839456E-04 Eh
   gradient norm :     0.0029790 Eh/α   predicted    -0.6096387E-04 (   4.40%)
   displ. norm   :     0.2295145 α      lambda       -0.4767287E-04
   maximum displ.:     0.1311138 α      in ANC's #1, #2, #4, ...

........................................................................
.............................. CYCLE  143 ..............................
........................................................................

 iter      E             dE          RMSdq      gap      omega  full diag
   1   -191.1405194 -0.191141E+03  0.231E-02    2.40       0.0  T
   2   -191.1405197 -0.248312E-06  0.135E-02    2.40       1.0  T
   3   -191.1405189  0.740446E-06  0.278E-03    2.40       3.3  T
   4   -191.1405198 -0.848270E-06  0.615E-04    2.40      15.0  T
   5   -191.1405198 -0.224513E-07  0.302E-04    2.40      30.6  T
   6   -191.1405198 -0.174137E-08  0.172E-04    2.40      53.6  T
   7   -191.1405198 -0.143419E-08  0.526E-05    2.40     175.9  T
     SCC iter.                  ...        0 min,  0.282 sec
     gradient                   ...        0 min,  0.269 sec
 * total energy  :  -188.2193664 Eh     change       -0.4161736E-04 Eh
   gradient norm :     0.0027660 Eh/α   predicted    -0.2509688E-04 ( -39.70%)
   displ. norm   :     0.3913204 α      lambda       -0.1150717E-03
   maximum displ.:     0.2269633 α      in ANC's #1, #4, #2, ...

........................................................................
.............................. CYCLE  144 ..............................
........................................................................

 iter      E             dE          RMSdq      gap      omega  full diag
   1   -191.1440051 -0.191144E+03  0.430E-02    2.40       0.0  T
   2   -191.1440060 -0.914513E-06  0.253E-02    2.40       1.0  T
   3   -191.1440030  0.299044E-05  0.572E-03    2.40       1.6  T
   4   -191.1440063 -0.336501E-05  0.134E-03    2.40       6.9  T
   5   -191.1440065 -0.112055E-06  0.599E-04    2.40      15.4  T
   6   -191.1440065 -0.632758E-08  0.345E-04    2.40      26.8  T
   7   -191.1440065 -0.436785E-08  0.103E-04    2.40      90.2  T
   8   -191.1440065 -0.898524E-09  0.393E-05    2.40     235.4  T
     SCC iter.                  ...        0 min,  0.248 sec
     gradient                   ...        0 min,  0.361 sec
 * total energy  :  -188.2194467 Eh     change       -0.8031143E-04 Eh
   gradient norm :     0.0023049 Eh/α   predicted    -0.6635147E-04 ( -17.38%)
   displ. norm   :     0.4928902 α      lambda       -0.6513215E-04
   maximum displ.:     0.2875734 α      in ANC's #1, #4, #2, ...

........................................................................
.............................. CYCLE  145 ..............................
........................................................................

 iter      E             dE          RMSdq      gap      omega  full diag
   1   -191.1427459 -0.191143E+03  0.489E-02    2.40       0.0  T
   2   -191.1427470 -0.102639E-05  0.287E-02    2.40       1.0  T
   3   -191.1427420  0.496107E-05  0.683E-03    2.40       1.4  T
   4   -191.1427477 -0.565188E-05  0.103E-03    2.40       9.0  T
   5   -191.1427477 -0.457455E-07  0.554E-04    2.40      16.7  T
   6   -191.1427477 -0.479716E-08  0.307E-04    2.40      30.1  T
   7   -191.1427477 -0.433687E-08  0.107E-04    2.40      86.8  T
   8   -191.1427477 -0.812776E-09  0.441E-05    2.40     209.4  T
     SCC iter.                  ...        0 min,  0.290 sec
     gradient                   ...        0 min,  0.299 sec
 * total energy  :  -188.2194978 Eh     change       -0.5110173E-04 Eh
   gradient norm :     0.0025278 Eh/α   predicted    -0.4047879E-04 ( -20.79%)
   displ. norm   :     0.4123080 α      lambda       -0.6024823E-04
   maximum displ.:     0.2442589 α      in ANC's #1, #4, #2, ...

........................................................................
.............................. CYCLE  146 ..............................
........................................................................

 iter      E             dE          RMSdq      gap      omega  full diag
   1   -191.1437795 -0.191144E+03  0.407E-02    2.40       0.0  T
   2   -191.1437801 -0.668660E-06  0.239E-02    2.40       1.0  T
   3   -191.1437773  0.282508E-05  0.552E-03    2.40       1.7  T
   4   -191.1437806 -0.327851E-05  0.841E-04    2.40      11.0  T
   5   -191.1437806 -0.192926E-07  0.496E-04    2.40      18.6  T
   6   -191.1437806 -0.535184E-08  0.248E-04    2.40      37.2  T
   7   -191.1437806 -0.303399E-08  0.821E-05    2.40     112.6  T
   8   -191.1437806 -0.429566E-09  0.380E-05    2.40     243.6  T
     SCC iter.                  ...        0 min,  0.307 sec
     gradient                   ...        0 min,  0.343 sec
 * total energy  :  -188.2195489 Eh     change       -0.5112936E-04 Eh
   gradient norm :     0.0025301 Eh/α   predicted    -0.3524762E-04 ( -31.06%)
   displ. norm   :     0.4689842 α      lambda       -0.7909087E-04
   maximum displ.:     0.2799689 α      in ANC's #1, #4, #2, ...

........................................................................
.............................. CYCLE  147 ..............................
........................................................................

 iter      E             dE          RMSdq      gap      omega  full diag
   1   -191.1445603 -0.191145E+03  0.451E-02    2.41       0.0  T
   2   -191.1445612 -0.970959E-06  0.266E-02    2.41       1.0  T
   3   -191.1445555  0.572447E-05  0.720E-03    2.41       1.3  T
   4   -191.1445620 -0.648357E-05  0.100E-03    2.41       9.2  T
   5   -191.1445620 -0.447034E-07  0.547E-04    2.41      16.9  T
   6   -191.1445620 -0.314432E-08  0.282E-04    2.41      32.8  T
   7   -191.1445621 -0.347237E-08  0.105E-04    2.41      87.9  T
   8   -191.1445621 -0.699487E-09  0.485E-05    2.41     190.4  T
     SCC iter.                  ...        0 min,  0.288 sec
     gradient                   ...        0 min,  0.395 sec
 * total energy  :  -188.2196145 Eh     change       -0.6554409E-04 Eh
   gradient norm :     0.0019775 Eh/α   predicted    -0.4824896E-04 ( -26.39%)
   displ. norm   :     0.7671250 α      lambda       -0.7457418E-04
   maximum displ.:     0.4586025 α      in ANC's #1, #4, #2, ...

........................................................................
.............................. CYCLE  148 ..............................
........................................................................

 iter      E             dE          RMSdq      gap      omega  full diag
   1   -191.1431998 -0.191143E+03  0.741E-02    2.42       0.0  T
   2   -191.1432026 -0.281302E-05  0.436E-02    2.41       1.0  T
   3   -191.1431925  0.101539E-04  0.101E-02    2.42       1.0  T
   4   -191.1432043 -0.118046E-04  0.160E-03    2.42       5.8  T
   5   -191.1432044 -0.944075E-07  0.906E-04    2.42      10.2  T
   6   -191.1432044 -0.397290E-08  0.531E-04    2.42      17.4  T
   7   -191.1432044 -0.154060E-07  0.166E-04    2.42      55.7  T
   8   -191.1432044 -0.184221E-08  0.746E-05    2.42     124.0  T
     SCC iter.                  ...        0 min,  0.401 sec
     gradient                   ...        0 min,  0.389 sec
 * total energy  :  -188.2196905 Eh     change       -0.7606661E-04 Eh
   gradient norm :     0.0034930 Eh/α   predicted    -0.4704142E-04 ( -38.16%)
   displ. norm   :     0.3017615 α      lambda       -0.4422185E-04
   maximum displ.:     0.1864666 α      in ANC's #1, #4, #2, ...

........................................................................
.............................. CYCLE  149 ..............................
........................................................................

 iter      E             dE          RMSdq      gap      omega  full diag
   1   -191.1443404 -0.191144E+03  0.276E-02    2.42       0.0  T
   2   -191.1443411 -0.646790E-06  0.163E-02    2.42       1.0  T
   3   -191.1443387  0.232907E-05  0.452E-03    2.42       2.0  T
   4   -191.1443414 -0.263998E-05  0.772E-04    2.42      12.0  T
   5   -191.1443414 -0.447886E-07  0.340E-04    2.42      27.2  T
   6   -191.1443414 -0.133571E-08  0.199E-04    2.42      46.6  T
   7   -191.1443414 -0.161452E-08  0.936E-05    2.42      98.8  T
     SCC iter.                  ...        0 min,  0.310 sec
     gradient                   ...        0 min,  0.356 sec
 * total energy  :  -188.2197241 Eh     change       -0.3357303E-04 Eh
   gradient norm :     0.0023418 Eh/α   predicted    -0.2412528E-04 ( -28.14%)
   displ. norm   :     0.3769350 α      lambda       -0.4567888E-04
   maximum displ.:     0.2331456 α      in ANC's #1, #4, #2, ...

........................................................................
.............................. CYCLE  150 ..............................
........................................................................

 iter      E             dE          RMSdq      gap      omega  full diag
   1   -191.1442763 -0.191144E+03  0.345E-02    2.42       0.0  T
   2   -191.1442769 -0.558069E-06  0.203E-02    2.42       1.0  T
   3   -191.1442747  0.222380E-05  0.467E-03    2.42       2.0  T
   4   -191.1442772 -0.256854E-05  0.740E-04    2.42      12.5  T
   5   -191.1442772 -0.239320E-07  0.400E-04    2.42      23.1  T
   6   -191.1442772 -0.254204E-09  0.244E-04    2.42      37.8  T
   7   -191.1442773 -0.429722E-08  0.805E-05    2.42     114.8  T
   8   -191.1442773 -0.307296E-09  0.398E-05    2.42     232.4  T
     SCC iter.                  ...        0 min,  0.281 sec
     gradient                   ...        0 min,  0.402 sec
 * total energy  :  -188.2197633 Eh     change       -0.3917006E-04 Eh
   gradient norm :     0.0020386 Eh/α   predicted    -0.2608835E-04 ( -33.40%)
   displ. norm   :     0.3992811 α      lambda       -0.5208889E-04
   maximum displ.:     0.2500818 α      in ANC's #1, #4, #2, ...
 * RMSD in coord.:     0.9560102 α      energy gain  -0.1426854E-02 Eh

generating ANC from exact Hessian ...
Using Lindh-Hessian (1995)
 Shifting diagonal of input Hessian by    9.9673043977957562E-003
 Lowest  eigenvalues of input Hessian
    0.000000    0.000000    0.000000    0.000000    0.000000    0.000000
    0.010000    0.010035    0.010071    0.010108    0.010168    0.010200
    0.010276    0.010290    0.010429    0.010554    0.010685    0.010734
 Highest eigenvalues
    2.151176    2.154642    2.330733    2.351734    2.365092    3.167245


........................................................................
.............................. CYCLE  151 ..............................
........................................................................

 iter      E             dE          RMSdq      gap      omega  full diag
   1   -191.1447876 -0.191145E+03  0.364E-02    2.42       0.0  T
   2   -191.1447883 -0.760363E-06  0.214E-02    2.42       1.0  T
   3   -191.1447850  0.336078E-05  0.575E-03    2.42       1.6  T
   4   -191.1447888 -0.381078E-05  0.931E-04    2.42       9.9  T
   5   -191.1447888 -0.480383E-07  0.446E-04    2.42      20.8  T
   6   -191.1447888 -0.195664E-08  0.273E-04    2.42      33.9  T
   7   -191.1447888 -0.404145E-08  0.862E-05    2.42     107.2  T
   8   -191.1447888 -0.349303E-09  0.441E-05    2.42     209.8  T
     SCC iter.                  ...        0 min,  0.256 sec
     gradient                   ...        0 min,  0.366 sec
 * total energy  :  -188.2198067 Eh     change       -0.4344748E-04 Eh
   gradient norm :     0.0015726 Eh/α   predicted     0.0000000E+00 (-100.00%)
   displ. norm   :     0.0423462 α      lambda       -0.1396338E-04
   maximum displ.:     0.0177673 α      in ANC's #1, #13, #4, ...

........................................................................
.............................. CYCLE  152 ..............................
........................................................................

 iter      E             dE          RMSdq      gap      omega  full diag
   1   -191.1450255 -0.191145E+03  0.633E-03    2.42       0.0  T
   2   -191.1450256 -0.103061E-06  0.377E-03    2.42       2.4  T
   3   -191.1450253  0.279753E-06  0.172E-03    2.42       5.4  T
   4   -191.1450257 -0.332475E-06  0.314E-04    2.42      29.5  T
   5   -191.1450257 -0.733419E-08  0.133E-04    2.42      69.6  T
   6   -191.1450257 -0.542002E-09  0.821E-05    2.42     112.6  T
     SCC iter.                  ...        0 min,  0.203 sec
     gradient                   ...        0 min,  0.346 sec
 * total energy  :  -188.2198241 Eh     change       -0.1738285E-04 Eh
   gradient norm :     0.0006964 Eh/α   predicted    -0.7060442E-05 ( -59.38%)
   displ. norm   :     0.1492080 α      lambda       -0.3300745E-04
   maximum displ.:     0.0632474 α      in ANC's #1, #4, #13, ...

........................................................................
.............................. CYCLE  153 ..............................
........................................................................

 iter      E             dE          RMSdq      gap      omega  full diag
   1   -191.1453088 -0.191145E+03  0.193E-02    2.42       0.0  T
   2   -191.1453093 -0.500277E-06  0.115E-02    2.42       1.0  T
   3   -191.1453071  0.220244E-05  0.461E-03    2.42       2.0  T
   4   -191.1453097 -0.254091E-05  0.720E-04    2.42      12.8  T
   5   -191.1453097 -0.302749E-07  0.351E-04    2.42      26.3  T
   6   -191.1453097 -0.336178E-08  0.218E-04    2.42      42.3  T
   7   -191.1453097 -0.274829E-08  0.887E-05    2.42     104.2  T
   8   -191.1453097 -0.406402E-09  0.357E-05    2.42     259.1  T
     SCC iter.                  ...        0 min,  0.286 sec
     gradient                   ...        0 min,  0.341 sec
 * total energy  :  -188.2198585 Eh     change       -0.3442890E-04 Eh
   gradient norm :     0.0017096 Eh/α   predicted    -0.1666767E-04 ( -51.59%)
   displ. norm   :     0.1523543 α      lambda       -0.2073164E-04
   maximum displ.:     0.0695934 α      in ANC's #1, #4, #13, ...

........................................................................
.............................. CYCLE  154 ..............................
........................................................................

 iter      E             dE          RMSdq      gap      omega  full diag
   1   -191.1452281 -0.191145E+03  0.169E-02    2.41       0.0  T
   2   -191.1452283 -0.223789E-06  0.999E-03    2.41       1.0  T
   3   -191.1452275  0.814851E-06  0.275E-03    2.41       3.4  T
   4   -191.1452285 -0.937263E-06  0.502E-04    2.41      18.4  T
   5   -191.1452285 -0.124429E-07  0.246E-04    2.41      37.7  T
   6   -191.1452285 -0.296268E-09  0.157E-04    2.41      58.9  T
   7   -191.1452285 -0.157513E-08  0.596E-05    2.41     155.2  T
     SCC iter.                  ...        0 min,  0.260 sec
     gradient                   ...        0 min,  0.343 sec
 * total energy  :  -188.2198820 Eh     change       -0.2346885E-04 Eh
   gradient norm :     0.0019387 Eh/α   predicted    -0.1047290E-04 ( -55.38%)
   displ. norm   :     0.1886243 α      lambda       -0.2293401E-04
   maximum displ.:     0.0903399 α      in ANC's #1, #4, #5, ...

........................................................................
.............................. CYCLE  155 ..............................
........................................................................

 iter      E             dE          RMSdq      gap      omega  full diag
   1   -191.1450933 -0.191145E+03  0.189E-02    2.41       0.0  T
   2   -191.1450935 -0.198910E-06  0.112E-02    2.41       1.0  T
   3   -191.1450930  0.482708E-06  0.215E-03    2.41       4.3  T
   4   -191.1450936 -0.563941E-06  0.505E-04    2.41      18.3  T
   5   -191.1450936 -0.131873E-07  0.251E-04    2.41      36.9  T
   6   -191.1450936 -0.878771E-09  0.153E-04    2.41      60.3  T
   7   -191.1450936 -0.163311E-08  0.485E-05    2.41     190.4  T
     SCC iter.                  ...        0 min,  0.232 sec
     gradient                   ...        0 min,  0.353 sec
 * total energy  :  -188.2199079 Eh     change       -0.2586282E-04 Eh
   gradient norm :     0.0015219 Eh/α   predicted    -0.1164923E-04 ( -54.96%)
   displ. norm   :     0.2218858 α      lambda       -0.2599080E-04
   maximum displ.:     0.1108883 α      in ANC's #1, #4, #5, ...

........................................................................
.............................. CYCLE  156 ..............................
........................................................................

 iter      E             dE          RMSdq      gap      omega  full diag
   1   -191.1449863 -0.191145E+03  0.200E-02    2.41       0.0  T
   2   -191.1449866 -0.259890E-06  0.118E-02    2.41       1.0  T
   3   -191.1449860  0.609808E-06  0.243E-03    2.41       3.8  T
   4   -191.1449867 -0.695240E-06  0.587E-04    2.41      15.8  T
   5   -191.1449867 -0.249948E-07  0.298E-04    2.41      31.1  T
   6   -191.1449867 -0.393860E-08  0.153E-04    2.41      60.6  T
   7   -191.1449867 -0.126471E-08  0.530E-05    2.41     174.6  T
     SCC iter.                  ...        0 min,  0.281 sec
     gradient                   ...        0 min,  0.332 sec
 * total energy  :  -188.2199358 Eh     change       -0.2793551E-04 Eh
   gradient norm :     0.0012127 Eh/α   predicted    -0.1327999E-04 ( -52.46%)
   displ. norm   :     0.2101759 α      lambda       -0.2279673E-04
   maximum displ.:     0.1098830 α      in ANC's #1, #4, #5, ...

........................................................................
.............................. CYCLE  157 ..............................
........................................................................

 iter      E             dE          RMSdq      gap      omega  full diag
   1   -191.1450283 -0.191145E+03  0.185E-02    2.41       0.0  T
   2   -191.1450286 -0.249651E-06  0.109E-02    2.41       1.0  T
   3   -191.1450279  0.667615E-06  0.253E-03    2.41       3.6  T
   4   -191.1450287 -0.748410E-06  0.584E-04    2.41      15.8  T
   5   -191.1450287 -0.276513E-07  0.282E-04    2.41      32.8  T
   6   -191.1450287 -0.391037E-08  0.139E-04    2.41      66.6  T
   7   -191.1450287 -0.908926E-09  0.551E-05    2.41     167.7  T
     SCC iter.                  ...        0 min,  0.209 sec
     gradient                   ...        0 min,  0.346 sec
 * total energy  :  -188.2199618 Eh     change       -0.2600509E-04 Eh
   gradient norm :     0.0013546 Eh/α   predicted    -0.1162325E-04 ( -55.30%)
   displ. norm   :     0.2116321 α      lambda       -0.2205764E-04
   maximum displ.:     0.1142808 α      in ANC's #1, #4, #2, ...

........................................................................
.............................. CYCLE  158 ..............................
........................................................................

 iter      E             dE          RMSdq      gap      omega  full diag
   1   -191.1453619 -0.191145E+03  0.188E-02    2.41       0.0  T
   2   -191.1453621 -0.239562E-06  0.111E-02    2.41       1.0  T
   3   -191.1453615  0.628410E-06  0.243E-03    2.41       3.8  T
   4   -191.1453622 -0.702407E-06  0.588E-04    2.41      15.7  T
   5   -191.1453622 -0.279542E-07  0.268E-04    2.41      34.5  T
   6   -191.1453623 -0.277092E-08  0.133E-04    2.41      69.3  T
   7   -191.1453623 -0.791260E-09  0.553E-05    2.41     167.1  T
     SCC iter.                  ...        0 min,  0.238 sec
     gradient                   ...        0 min,  0.330 sec
 * total energy  :  -188.2199881 Eh     change       -0.2627392E-04 Eh
   gradient norm :     0.0015553 Eh/α   predicted    -0.1125775E-04 ( -57.15%)
   displ. norm   :     0.2467577 α      lambda       -0.2511217E-04
   maximum displ.:     0.1358794 α      in ANC's #1, #4, #2, ...

........................................................................
.............................. CYCLE  159 ..............................
........................................................................

 iter      E             dE          RMSdq      gap      omega  full diag
   1   -191.1456513 -0.191146E+03  0.225E-02    2.41       0.0  T
   2   -191.1456516 -0.249908E-06  0.133E-02    2.41       1.0  T
   3   -191.1456508  0.773869E-06  0.269E-03    2.41       3.4  T
   4   -191.1456517 -0.880229E-06  0.579E-04    2.41      16.0  T
   5   -191.1456517 -0.199853E-07  0.287E-04    2.41      32.2  T
   6   -191.1456517 -0.237003E-08  0.146E-04    2.41      63.1  T
   7   -191.1456517 -0.102193E-08  0.561E-05    2.41     164.7  T
     SCC iter.                  ...        0 min,  0.206 sec
     gradient                   ...        0 min,  0.339 sec
 * total energy  :  -188.2200175 Eh     change       -0.2942819E-04 Eh
   gradient norm :     0.0016764 Eh/α   predicted    -0.1289693E-04 ( -56.17%)
   displ. norm   :     0.2865205 α      lambda       -0.2758580E-04
   maximum displ.:     0.1604492 α      in ANC's #1, #4, #2, ...

........................................................................
.............................. CYCLE  160 ..............................
........................................................................

 iter      E             dE          RMSdq      gap      omega  full diag
   1   -191.1458412 -0.191146E+03  0.264E-02    2.41       0.0  T
   2   -191.1458415 -0.274166E-06  0.156E-02    2.41       1.0  T
   3   -191.1458404  0.105321E-05  0.315E-03    2.41       2.9  T
   4   -191.1458416 -0.120228E-05  0.591E-04    2.41      15.7  T
   5   -191.1458417 -0.148299E-07  0.328E-04    2.41      28.2  T
   6   -191.1458417 -0.353884E-08  0.168E-04    2.41      55.0  T
   7   -191.1458417 -0.111001E-08  0.601E-05    2.41     153.9  T
     SCC iter.                  ...        0 min,  0.246 sec
     gradient                   ...        0 min,  0.360 sec
 * total energy  :  -188.2200490 Eh     change       -0.3155083E-04 Eh
   gradient norm :     0.0017073 Eh/α   predicted    -0.1430058E-04 ( -54.67%)
   displ. norm   :     0.3026599 α      lambda       -0.2924610E-04
   maximum displ.:     0.1725295 α      in ANC's #1, #4, #2, ...

........................................................................
.............................. CYCLE  161 ..............................
........................................................................

 iter      E             dE          RMSdq      gap      omega  full diag
   1   -191.1461019 -0.191146E+03  0.274E-02    2.41       0.0  T
   2   -191.1461022 -0.324597E-06  0.161E-02    2.41       1.0  T
   3   -191.1461009  0.131812E-05  0.345E-03    2.41       2.7  T
   4   -191.1461024 -0.150121E-05  0.665E-04    2.41      13.9  T
   5   -191.1461024 -0.208638E-07  0.364E-04    2.41      25.4  T
   6   -191.1461024 -0.358372E-08  0.194E-04    2.41      47.7  T
   7   -191.1461024 -0.167995E-08  0.650E-05    2.41     142.2  T
     SCC iter.                  ...        0 min,  0.233 sec
     gradient                   ...        0 min,  0.320 sec
 * total energy  :  -188.2200834 Eh     change       -0.3438499E-04 Eh
   gradient norm :     0.0014578 Eh/α   predicted    -0.1522314E-04 ( -55.73%)
   displ. norm   :     0.3249912 α      lambda       -0.3193703E-04
   maximum displ.:     0.1884962 α      in ANC's #1, #4, #2, ...

........................................................................
.............................. CYCLE  162 ..............................
........................................................................

 iter      E             dE          RMSdq      gap      omega  full diag
   1   -191.1461338 -0.191146E+03  0.290E-02    2.41       0.0  T
   2   -191.1461341 -0.345476E-06  0.171E-02    2.41       1.0  T
   3   -191.1461332  0.928947E-06  0.309E-03    2.41       3.0  T
   4   -191.1461343 -0.109561E-05  0.769E-04    2.41      12.0  T
   5   -191.1461343 -0.281829E-07  0.415E-04    2.41      22.3  T
   6   -191.1461343 -0.402093E-08  0.214E-04    2.41      43.1  T
   7   -191.1461343 -0.228513E-08  0.675E-05    2.41     136.9  T
   8   -191.1461343 -0.249315E-09  0.296E-05    2.41     312.1  T
     SCC iter.                  ...        0 min,  0.232 sec
     gradient                   ...        0 min,  0.351 sec
 * total energy  :  -188.2201216 Eh     change       -0.3816341E-04 Eh
   gradient norm :     0.0012444 Eh/α   predicted    -0.1672074E-04 ( -56.19%)
   displ. norm   :     0.3339850 α      lambda       -0.3175907E-04
   maximum displ.:     0.1978731 α      in ANC's #1, #2, #4, ...

........................................................................
.............................. CYCLE  163 ..............................
........................................................................

 iter      E             dE          RMSdq      gap      omega  full diag
   1   -191.1459381 -0.191146E+03  0.288E-02    2.41       0.0  T
   2   -191.1459385 -0.433464E-06  0.170E-02    2.41       1.0  T
   3   -191.1459378  0.683782E-06  0.277E-03    2.41       3.3  T
   4   -191.1459387 -0.846866E-06  0.834E-04    2.41      11.1  T
   5   -191.1459387 -0.367505E-07  0.453E-04    2.41      20.4  T
   6   -191.1459387 -0.539242E-08  0.241E-04    2.41      38.3  T
   7   -191.1459387 -0.325929E-08  0.740E-05    2.41     125.0  T
   8   -191.1459387 -0.222457E-09  0.336E-05    2.41     275.5  T
     SCC iter.                  ...        0 min,  0.292 sec
     gradient                   ...        0 min,  0.351 sec
 * total energy  :  -188.2201593 Eh     change       -0.3775270E-04 Eh
   gradient norm :     0.0013130 Eh/α   predicted    -0.1666960E-04 ( -55.85%)
   displ. norm   :     0.3150037 α      lambda       -0.2821372E-04
   maximum displ.:     0.1907594 α      in ANC's #1, #2, #4, ...

........................................................................
.............................. CYCLE  164 ..............................
........................................................................

 iter      E             dE          RMSdq      gap      omega  full diag
   1   -191.1458993 -0.191146E+03  0.268E-02    2.41       0.0  T
   2   -191.1458998 -0.441900E-06  0.159E-02    2.41       1.0  T
   3   -191.1458987  0.104034E-05  0.327E-03    2.41       2.8  T
   4   -191.1459000 -0.125638E-05  0.748E-04    2.41      12.4  T
   5   -191.1459000 -0.190332E-07  0.443E-04    2.41      20.9  T
   6   -191.1459000 -0.527751E-08  0.241E-04    2.41      38.4  T
   7   -191.1459000 -0.292650E-08  0.787E-05    2.41     117.5  T
   8   -191.1459000 -0.225214E-09  0.339E-05    2.41     272.8  T
     SCC iter.                  ...        0 min,  0.238 sec
     gradient                   ...        0 min,  0.315 sec
 * total energy  :  -188.2201939 Eh     change       -0.3457273E-04 Eh
   gradient norm :     0.0013477 Eh/α   predicted    -0.1473024E-04 ( -57.39%)
   displ. norm   :     0.3347064 α      lambda       -0.2892608E-04
   maximum displ.:     0.2058958 α      in ANC's #1, #2, #4, ...

........................................................................
.............................. CYCLE  165 ..............................
........................................................................

 iter      E             dE          RMSdq      gap      omega  full diag
   1   -191.1453496 -0.191145E+03  0.284E-02    2.41       0.0  T
   2   -191.1453502 -0.563802E-06  0.168E-02    2.41       1.0  T
   3   -191.1453486  0.159957E-05  0.397E-03    2.41       2.3  T
   4   -191.1453505 -0.190162E-05  0.756E-04    2.41      12.2  T
   5   -191.1453505 -0.177421E-07  0.442E-04    2.41      20.9  T
   6   -191.1453505 -0.406018E-08  0.255E-04    2.41      36.3  T
   7   -191.1453505 -0.311567E-08  0.933E-05    2.41      99.1  T
   8   -191.1453505 -0.417344E-09  0.377E-05    2.41     245.0  T
     SCC iter.                  ...        0 min,  0.270 sec
     gradient                   ...        0 min,  0.307 sec
 * total energy  :  -188.2202304 Eh     change       -0.3643047E-04 Eh
   gradient norm :     0.0014384 Eh/α   predicted    -0.1518808E-04 ( -58.31%)
   displ. norm   :     0.3782344 α      lambda       -0.3723277E-04
   maximum displ.:     0.2341989 α      in ANC's #1, #2, #4, ...

........................................................................
.............................. CYCLE  166 ..............................
........................................................................

 iter      E             dE          RMSdq      gap      omega  full diag
   1   -191.1461096 -0.191146E+03  0.344E-02    2.42       0.0  T
   2   -191.1461106 -0.990538E-06  0.204E-02    2.42       1.0  T
   3   -191.1461075  0.311023E-05  0.546E-03    2.42       1.7  T
   4   -191.1461111 -0.363254E-05  0.951E-04    2.42       9.7  T
   5   -191.1461111 -0.334382E-07  0.564E-04    2.42      16.4  T
   6   -191.1461112 -0.873197E-08  0.326E-04    2.42      28.4  T
   7   -191.1461112 -0.423370E-08  0.125E-04    2.42      74.2  T
   8   -191.1461112 -0.827896E-09  0.478E-05    2.42     193.6  T
     SCC iter.                  ...        0 min,  0.318 sec
     gradient                   ...        0 min,  0.357 sec
 * total energy  :  -188.2202718 Eh     change       -0.4146718E-04 Eh
   gradient norm :     0.0020656 Eh/α   predicted    -0.1980052E-04 ( -52.25%)
   displ. norm   :     0.3515467 α      lambda       -0.4870391E-04
   maximum displ.:     0.2184792 α      in ANC's #1, #2, #4, ...

........................................................................
.............................. CYCLE  167 ..............................
........................................................................

 iter      E             dE          RMSdq      gap      omega  full diag
   1   -191.1446970 -0.191145E+03  0.314E-02    2.42       0.0  T
   2   -191.1446977 -0.770056E-06  0.186E-02    2.42       1.0  T
   3   -191.1446955  0.224362E-05  0.468E-03    2.42       2.0  T
   4   -191.1446981 -0.261498E-05  0.885E-04    2.42      10.4  T
   5   -191.1446981 -0.367802E-07  0.498E-04    2.42      18.6  T
   6   -191.1446981 -0.547368E-08  0.301E-04    2.42      30.7  T
   7   -191.1446982 -0.415633E-08  0.100E-04    2.42      92.1  T
   8   -191.1446982 -0.539103E-09  0.422E-05    2.42     218.9  T
     SCC iter.                  ...        0 min,  0.278 sec
     gradient                   ...        0 min,  0.320 sec
 * total energy  :  -188.2203090 Eh     change       -0.3722335E-04 Eh
   gradient norm :     0.0018264 Eh/α   predicted    -0.2736452E-04 ( -26.49%)
   displ. norm   :     0.4355282 α      lambda       -0.3868465E-04
   maximum displ.:     0.2729965 α      in ANC's #1, #2, #4, ...

........................................................................
.............................. CYCLE  168 ..............................
........................................................................

 iter      E             dE          RMSdq      gap      omega  full diag
   1   -191.1443505 -0.191144E+03  0.409E-02    2.42       0.0  T
   2   -191.1443514 -0.838240E-06  0.242E-02    2.42       1.0  T
   3   -191.1443487  0.267533E-05  0.509E-03    2.42       1.8  T
   4   -191.1443519 -0.317599E-05  0.961E-04    2.42       9.6  T
   5   -191.1443519 -0.261249E-07  0.591E-04    2.42      15.6  T
   6   -191.1443519 -0.847919E-08  0.328E-04    2.42      28.2  T
   7   -191.1443519 -0.505929E-08  0.116E-04    2.42      80.0  T
   8   -191.1443519 -0.790862E-09  0.507E-05    2.42     182.4  T
     SCC iter.                  ...        0 min,  0.266 sec
     gradient                   ...        0 min,  0.399 sec
 * total energy  :  -188.2203552 Eh     change       -0.4614439E-04 Eh
   gradient norm :     0.0022304 Eh/α   predicted    -0.2097371E-04 ( -54.55%)
   displ. norm   :     0.2952337 α      lambda       -0.4590039E-04
   maximum displ.:     0.1863955 α      in ANC's #1, #2, #4, ...

........................................................................
.............................. CYCLE  169 ..............................
........................................................................

 iter      E             dE          RMSdq      gap      omega  full diag
   1   -191.1451062 -0.191145E+03  0.296E-02    2.42       0.0  T
   2   -191.1451066 -0.357773E-06  0.174E-02    2.42       1.0  T
   3   -191.1451055  0.112190E-05  0.332E-03    2.42       2.8  T
   4   -191.1451068 -0.133492E-05  0.668E-04    2.42      13.8  T
   5   -191.1451068 -0.125360E-07  0.411E-04    2.42      22.5  T
   6   -191.1451068 -0.474452E-08  0.207E-04    2.42      44.8  T
   7   -191.1451068 -0.213120E-08  0.702E-05    2.42     131.6  T
   8   -191.1451068 -0.279016E-09  0.331E-05    2.42     279.7  T
     SCC iter.                  ...        0 min,  0.244 sec
     gradient                   ...        0 min,  0.354 sec
 * total energy  :  -188.2203941 Eh     change       -0.3889028E-04 Eh
   gradient norm :     0.0016972 Eh/α   predicted    -0.2495111E-04 ( -35.84%)
   displ. norm   :     0.6786612 α      lambda       -0.5994190E-04
   maximum displ.:     0.4325514 α      in ANC's #1, #2, #4, ...

........................................................................
.............................. CYCLE  170 ..............................
........................................................................

 iter      E             dE          RMSdq      gap      omega  full diag
   1   -191.1449355 -0.191145E+03  0.678E-02    2.42       0.0  T
   2   -191.1449371 -0.160298E-05  0.399E-02    2.42       1.0  T
   3   -191.1449323  0.479885E-05  0.703E-03    2.42       1.3  T
   4   -191.1449381 -0.580052E-05  0.151E-03    2.42       6.1  T
   5   -191.1449382 -0.530497E-07  0.917E-04    2.42      10.1  T
   6   -191.1449382 -0.252185E-07  0.419E-04    2.42      22.1  T
   7   -191.1449382 -0.105923E-07  0.136E-04    2.42      67.8  T
   8   -191.1449382 -0.999705E-09  0.705E-05    2.42     131.2  T
     SCC iter.                  ...        0 min,  0.325 sec
     gradient                   ...        0 min,  0.371 sec
 * total energy  :  -188.2204555 Eh     change       -0.6143157E-04 Eh
   gradient norm :     0.0020833 Eh/α   predicted    -0.3610749E-04 ( -41.22%)
   displ. norm   :     0.2345318 α      lambda       -0.2987344E-04
   maximum displ.:     0.1533127 α      in ANC's #1, #2, #4, ...

........................................................................
.............................. CYCLE  171 ..............................
........................................................................

 iter      E             dE          RMSdq      gap      omega  full diag
   1   -191.1458930 -0.191146E+03  0.231E-02    2.42       0.0  T
   2   -191.1458933 -0.246122E-06  0.136E-02    2.42       1.0  T
   3   -191.1458925  0.777389E-06  0.283E-03    2.42       3.3  T
   4   -191.1458934 -0.905309E-06  0.575E-04    2.42      16.1  T
   5   -191.1458934 -0.147346E-07  0.300E-04    2.42      30.8  T
   6   -191.1458934 -0.117350E-08  0.156E-04    2.42      59.2  T
   7   -191.1458934 -0.100886E-08  0.576E-05    2.42     160.5  T
     SCC iter.                  ...        0 min,  0.198 sec
     gradient                   ...        0 min,  0.299 sec
 * total energy  :  -188.2204808 Eh     change       -0.2526144E-04 Eh
   gradient norm :     0.0016170 Eh/α   predicted    -0.1575877E-04 ( -37.62%)
   displ. norm   :     0.5819670 α      lambda       -0.4872622E-04
   maximum displ.:     0.3829096 α      in ANC's #1, #2, #4, ...

........................................................................
.............................. CYCLE  172 ..............................
........................................................................

 iter      E             dE          RMSdq      gap      omega  full diag
   1   -191.1457198 -0.191146E+03  0.556E-02    2.42       0.0  T
   2   -191.1457213 -0.150369E-05  0.327E-02    2.42       1.0  T
   3   -191.1457183  0.295157E-05  0.595E-03    2.42       1.6  T
   4   -191.1457218 -0.352146E-05  0.162E-03    2.42       5.7  T
   5   -191.1457220 -0.135466E-06  0.801E-04    2.42      11.5  T
   6   -191.1457220 -0.877321E-08  0.451E-04    2.42      20.5  T
   7   -191.1457220 -0.864242E-08  0.134E-04    2.42      68.8  T
   8   -191.1457220 -0.118993E-08  0.611E-05    2.42     151.4  T
     SCC iter.                  ...        0 min,  0.248 sec
     gradient                   ...        0 min,  0.287 sec
 * total energy  :  -188.2205355 Eh     change       -0.5468726E-04 Eh
   gradient norm :     0.0019841 Eh/α   predicted    -0.2803286E-04 ( -48.74%)
   displ. norm   :     0.4902859 α      lambda       -0.4335531E-04
   maximum displ.:     0.3247661 α      in ANC's #1, #2, #4, ...

........................................................................
.............................. CYCLE  173 ..............................
........................................................................

 iter      E             dE          RMSdq      gap      omega  full diag
   1   -191.1463250 -0.191146E+03  0.451E-02    2.42       0.0  T
   2   -191.1463267 -0.170507E-05  0.266E-02    2.42       1.0  T
   3   -191.1463222  0.456239E-05  0.706E-03    2.42       1.3  T
   4   -191.1463274 -0.519891E-05  0.149E-03    2.42       6.2  T
   5   -191.1463275 -0.131787E-06  0.669E-04    2.42      13.8  T
   6   -191.1463275 -0.714979E-08  0.397E-04    2.42      23.3  T
   7   -191.1463275 -0.536156E-08  0.167E-04    2.42      55.4  T
   8   -191.1463275 -0.171150E-08  0.545E-05    2.42     169.5  T
     SCC iter.                  ...        0 min,  0.243 sec
     gradient                   ...        0 min,  0.327 sec
 * total energy  :  -188.2205800 Eh     change       -0.4457466E-04 Eh
   gradient norm :     0.0029179 Eh/α   predicted    -0.2399850E-04 ( -46.16%)
   displ. norm   :     0.3522888 α      lambda       -0.4784079E-04
   maximum displ.:     0.2340985 α      in ANC's #1, #2, #5, ...

........................................................................
.............................. CYCLE  174 ..............................
........................................................................

 iter      E             dE          RMSdq      gap      omega  full diag
   1   -191.1459725 -0.191146E+03  0.302E-02    2.42       0.0  T
   2   -191.1459732 -0.732220E-06  0.178E-02    2.42       1.0  T
   3   -191.1459723  0.926443E-06  0.340E-03    2.42       2.7  T
   4   -191.1459734 -0.112411E-05  0.969E-04    2.42       9.5  T
   5   -191.1459735 -0.566822E-07  0.462E-04    2.42      20.0  T
   6   -191.1459735 -0.443782E-08  0.240E-04    2.42      38.5  T
   7   -191.1459735 -0.179281E-08  0.102E-04    2.42      90.9  T
   8   -191.1459735 -0.738538E-09  0.372E-05    2.42     248.2  T
     SCC iter.                  ...        0 min,  0.301 sec
     gradient                   ...        0 min,  0.344 sec
 * total energy  :  -188.2206178 Eh     change       -0.3773543E-04 Eh
   gradient norm :     0.0023974 Eh/α   predicted    -0.2689407E-04 ( -28.73%)
   displ. norm   :     0.4139764 α      lambda       -0.5516942E-04
   maximum displ.:     0.2730302 α      in ANC's #1, #2, #5, ...

........................................................................
.............................. CYCLE  175 ..............................
........................................................................

 iter      E             dE          RMSdq      gap      omega  full diag
   1   -191.1454963 -0.191145E+03  0.345E-02    2.42       0.0  T
   2   -191.1454969 -0.660551E-06  0.203E-02    2.42       1.0  T
   3   -191.1454957  0.123918E-05  0.369E-03    2.42       2.5  T
   4   -191.1454972 -0.147640E-05  0.934E-04    2.42       9.9  T
   5   -191.1454972 -0.482287E-07  0.473E-04    2.42      19.6  T
   6   -191.1454972 -0.430373E-08  0.252E-04    2.42      36.7  T
   7   -191.1454972 -0.332255E-08  0.910E-05    2.42     101.6  T
   8   -191.1454972 -0.467566E-09  0.409E-05    2.42     226.3  T
     SCC iter.                  ...        0 min,  0.224 sec
     gradient                   ...        0 min,  0.263 sec
 * total energy  :  -188.2206633 Eh     change       -0.4551230E-04 Eh
   gradient norm :     0.0026939 Eh/α   predicted    -0.3231605E-04 ( -28.99%)
   displ. norm   :     0.4962274 α      lambda       -0.7157464E-04
   maximum displ.:     0.3219390 α      in ANC's #1, #2, #5, ...

........................................................................
.............................. CYCLE  176 ..............................
........................................................................

 iter      E             dE          RMSdq      gap      omega  full diag
   1   -191.1460760 -0.191146E+03  0.412E-02    2.43       0.0  T
   2   -191.1460769 -0.924437E-06  0.243E-02    2.43       1.0  T
   3   -191.1460737  0.323596E-05  0.555E-03    2.43       1.7  T
   4   -191.1460774 -0.368714E-05  0.107E-03    2.43       8.7  T
   5   -191.1460774 -0.640599E-07  0.535E-04    2.43      17.3  T
   6   -191.1460774 -0.558830E-08  0.297E-04    2.43      31.2  T
   7   -191.1460775 -0.479167E-08  0.123E-04    2.43      74.9  T
   8   -191.1460775 -0.849781E-09  0.494E-05    2.43     187.1  T
     SCC iter.                  ...        0 min,  0.209 sec
     gradient                   ...        0 min,  0.319 sec
 * total energy  :  -188.2207185 Eh     change       -0.5518461E-04 Eh
   gradient norm :     0.0024458 Eh/α   predicted    -0.4460278E-04 ( -19.18%)
   displ. norm   :     0.5728435 α      lambda       -0.6331097E-04
   maximum displ.:     0.3803109 α      in ANC's #1, #2, #5, ...

........................................................................
.............................. CYCLE  177 ..............................
........................................................................

 iter      E             dE          RMSdq      gap      omega  full diag
   1   -191.1434446 -0.191143E+03  0.472E-02    2.43       0.0  T
   2   -191.1434458 -0.122833E-05  0.277E-02    2.43       1.0  T
   3   -191.1434441  0.173124E-05  0.434E-03    2.43       2.1  T
   4   -191.1434462 -0.211159E-05  0.128E-03    2.43       7.2  T
   5   -191.1434463 -0.102899E-06  0.619E-04    2.43      14.9  T
   6   -191.1434463 -0.171110E-08  0.366E-04    2.43      25.3  T
   7   -191.1434463 -0.843460E-08  0.124E-04    2.43      74.6  T
   8   -191.1434463 -0.795666E-09  0.639E-05    2.43     144.6  T
     SCC iter.                  ...        0 min,  0.285 sec
     gradient                   ...        0 min,  0.353 sec
 * total energy  :  -188.2207611 Eh     change       -0.4266435E-04 Eh
   gradient norm :     0.0032697 Eh/α   predicted    -0.4204492E-04 (  -1.45%)
   displ. norm   :     0.3718230 α      lambda       -0.7270790E-04
   maximum displ.:     0.2259976 α      in ANC's #1, #5, #2, ...

........................................................................
.............................. CYCLE  178 ..............................
........................................................................

 iter      E             dE          RMSdq      gap      omega  full diag
   1   -191.1468534 -0.191147E+03  0.352E-02    2.44       0.0  T
   2   -191.1468547 -0.128465E-05  0.207E-02    2.44       1.0  T
   3   -191.1468530  0.165630E-05  0.420E-03    2.44       2.2  T
   4   -191.1468549 -0.186051E-05  0.127E-03    2.44       7.3  T
   5   -191.1468550 -0.138089E-06  0.522E-04    2.44      17.7  T
   6   -191.1468550 -0.468106E-08  0.285E-04    2.44      32.5  T
   7   -191.1468551 -0.328674E-08  0.130E-04    2.44      71.1  T
   8   -191.1468551 -0.142197E-08  0.491E-05    2.44     188.3  T
     SCC iter.                  ...        0 min,  0.302 sec
     gradient                   ...        0 min,  0.322 sec
 * total energy  :  -188.2207992 Eh     change       -0.3807311E-04 Eh
   gradient norm :     0.0030847 Eh/α   predicted    -0.4138174E-04 (   8.69%)
   displ. norm   :     0.4638362 α      lambda       -0.5676276E-04
   maximum displ.:     0.3116148 α      in ANC's #1, #2, #5, ...

........................................................................
.............................. CYCLE  179 ..............................
........................................................................

 iter      E             dE          RMSdq      gap      omega  full diag
   1   -191.1448802 -0.191145E+03  0.380E-02    2.44       0.0  T
   2   -191.1448810 -0.722741E-06  0.224E-02    2.44       1.0  T
   3   -191.1448791  0.191211E-05  0.467E-03    2.44       2.0  T
   4   -191.1448813 -0.226098E-05  0.965E-04    2.44       9.6  T
   5   -191.1448814 -0.426756E-07  0.489E-04    2.44      18.9  T
   6   -191.1448814 -0.174964E-09  0.255E-04    2.44      36.3  T
   7   -191.1448814 -0.380382E-08  0.977E-05    2.44      94.6  T
   8   -191.1448814 -0.508038E-09  0.504E-05    2.44     183.4  T
     SCC iter.                  ...        0 min,  0.239 sec
     gradient                   ...        0 min,  0.348 sec
 * total energy  :  -188.2208385 Eh     change       -0.3926085E-04 Eh
   gradient norm :     0.0034503 Eh/α   predicted    -0.3448815E-04 ( -12.16%)
   displ. norm   :     0.3377009 α      lambda       -0.6454920E-04
   maximum displ.:     0.2288132 α      in ANC's #1, #2, #5, ...

........................................................................
.............................. CYCLE  180 ..............................
........................................................................

 iter      E             dE          RMSdq      gap      omega  full diag
   1   -191.1445904 -0.191145E+03  0.327E-02    2.43       0.0  T
   2   -191.1445910 -0.553315E-06  0.193E-02    2.43       1.0  T
   3   -191.1445893  0.166848E-05  0.390E-03    2.43       2.4  T
   4   -191.1445912 -0.187768E-05  0.103E-03    2.43       9.0  T
   5   -191.1445913 -0.787153E-07  0.459E-04    2.43      20.1  T
   6   -191.1445913 -0.243892E-08  0.242E-04    2.43      38.2  T
   7   -191.1445913 -0.184531E-08  0.101E-04    2.43      91.1  T
   8   -191.1445913 -0.902133E-09  0.420E-05    2.43     220.1  T
     SCC iter.                  ...        0 min,  0.333 sec
     gradient                   ...        0 min,  0.348 sec
 * total energy  :  -188.2208896 Eh     change       -0.5109500E-04 Eh
   gradient norm :     0.0034869 Eh/α   predicted    -0.3595979E-04 ( -29.62%)
   displ. norm   :     0.3444750 α      lambda       -0.8088108E-04
   maximum displ.:     0.2281256 α      in ANC's #1, #2, #5, ...

........................................................................
.............................. CYCLE  181 ..............................
........................................................................

 iter      E             dE          RMSdq      gap      omega  full diag
   1   -191.1463294 -0.191146E+03  0.413E-02    2.43       0.0  T
   2   -191.1463305 -0.103429E-05  0.244E-02    2.43       1.0  T
   3   -191.1463260  0.446650E-05  0.639E-03    2.43       1.4  T
   4   -191.1463309 -0.495374E-05  0.136E-03    2.43       6.8  T
   5   -191.1463311 -0.140464E-06  0.576E-04    2.43      16.1  T
   6   -191.1463311 -0.306690E-08  0.374E-04    2.43      24.7  T
   7   -191.1463311 -0.851185E-08  0.111E-04    2.43      83.5  T
   8   -191.1463311 -0.766363E-09  0.488E-05    2.43     189.6  T
     SCC iter.                  ...        0 min,  0.240 sec
     gradient                   ...        0 min,  0.310 sec
 * total energy  :  -188.2209416 Eh     change       -0.5206663E-04 Eh
   gradient norm :     0.0027997 Eh/α   predicted    -0.4524200E-04 ( -13.11%)
   displ. norm   :     0.5787540 α      lambda       -0.5525057E-04
   maximum displ.:     0.3958326 α      in ANC's #1, #2, #5, ...

........................................................................
.............................. CYCLE  182 ..............................
........................................................................

 iter      E             dE          RMSdq      gap      omega  full diag
   1   -191.1441436 -0.191144E+03  0.504E-02    2.43       0.0  T
   2   -191.1441448 -0.118790E-05  0.297E-02    2.43       1.0  T
   3   -191.1441437  0.109908E-05  0.369E-03    2.43       2.5  T
   4   -191.1441451 -0.141934E-05  0.137E-03    2.43       6.7  T
   5   -191.1441452 -0.111522E-06  0.645E-04    2.43      14.3  T
   6   -191.1441452 -0.263452E-08  0.364E-04    2.43      25.4  T
   7   -191.1441452 -0.688186E-08  0.119E-04    2.43      77.8  T
   8   -191.1441452 -0.924672E-09  0.527E-05    2.43     175.5  T
     SCC iter.                  ...        0 min,  0.279 sec
     gradient                   ...        0 min,  0.299 sec
 * total energy  :  -188.2209800 Eh     change       -0.3834404E-04 Eh
   gradient norm :     0.0039446 Eh/α   predicted    -0.3688266E-04 (  -3.81%)
   displ. norm   :     0.4028780 α      lambda       -0.7234904E-04
   maximum displ.:     0.2706279 α      in ANC's #1, #2, #5, ...

........................................................................
.............................. CYCLE  183 ..............................
........................................................................

 iter      E             dE          RMSdq      gap      omega  full diag
   1   -191.1462414 -0.191146E+03  0.383E-02    2.43       0.0  T
   2   -191.1462426 -0.114076E-05  0.226E-02    2.43       1.0  T
   3   -191.1462411  0.146075E-05  0.388E-03    2.43       2.4  T
   4   -191.1462427 -0.163356E-05  0.133E-03    2.43       6.9  T
   5   -191.1462429 -0.158780E-06  0.573E-04    2.43      16.1  T
   6   -191.1462429 -0.853132E-08  0.314E-04    2.43      29.4  T
   7   -191.1462429 -0.410947E-08  0.114E-04    2.43      80.9  T
   8   -191.1462429 -0.909495E-09  0.436E-05    2.43     211.9  T
     SCC iter.                  ...        0 min,  0.302 sec
     gradient                   ...        0 min,  0.301 sec
 * total energy  :  -188.2210329 Eh     change       -0.5295993E-04 Eh
   gradient norm :     0.0030674 Eh/α   predicted    -0.4205087E-04 ( -20.60%)
   displ. norm   :     0.5487877 α      lambda       -0.9348163E-04
   maximum displ.:     0.3698941 α      in ANC's #1, #5, #2, ...
 * RMSD in coord.:     0.9196905 α      energy gain  -0.1269665E-02 Eh

generating ANC from exact Hessian ...
Using Lindh-Hessian (1995)
 Shifting diagonal of input Hessian by    9.9583582407493324E-003
 Lowest  eigenvalues of input Hessian
    0.000000    0.000000    0.000000    0.000000    0.000000    0.000000
    0.010000    0.010033    0.010067    0.010081    0.010166    0.010204
    0.010271    0.010369    0.010431    0.010575    0.010674    0.010735
 Highest eigenvalues
    2.148488    2.152298    2.332807    2.343789    2.359160    3.157302


........................................................................
.............................. CYCLE  184 ..............................
........................................................................

 iter      E             dE          RMSdq      gap      omega  full diag
   1   -191.1464768 -0.191146E+03  0.497E-02    2.44       0.0  T
   2   -191.1464789 -0.209431E-05  0.293E-02    2.43       1.0  T
   3   -191.1464742  0.475455E-05  0.701E-03    2.44       1.3  T
   4   -191.1464796 -0.544004E-05  0.169E-03    2.43       5.5  T
   5   -191.1464798 -0.176231E-06  0.776E-04    2.43      11.9  T
   6   -191.1464798 -0.272527E-08  0.501E-04    2.43      18.5  T
   7   -191.1464798 -0.150490E-07  0.168E-04    2.43      55.0  T
   8   -191.1464798 -0.125814E-08  0.694E-05    2.43     133.1  T
     SCC iter.                  ...        0 min,  0.287 sec
     gradient                   ...        0 min,  0.389 sec
 * total energy  :  -188.2211014 Eh     change       -0.6843495E-04 Eh
   gradient norm :     0.0035977 Eh/α   predicted     0.0000000E+00 (-100.00%)
   displ. norm   :     0.0353595 α      lambda       -0.2478755E-04
   maximum displ.:     0.0128625 α      in ANC's #5, #13, #27, ...

........................................................................
.............................. CYCLE  185 ..............................
........................................................................

 iter      E             dE          RMSdq      gap      omega  full diag
   1   -191.1471961 -0.191147E+03  0.671E-03    2.44       0.0  T
   2   -191.1471964 -0.299150E-06  0.414E-03    2.44       2.2  T
   3   -191.1471961  0.275384E-06  0.201E-03    2.44       4.6  T
   4   -191.1471965 -0.343173E-06  0.569E-04    2.44      16.2  T
   5   -191.1471965 -0.297938E-07  0.161E-04    2.44      57.3  T
   6   -191.1471965 -0.805045E-09  0.102E-04    2.44      90.3  T
     SCC iter.                  ...        0 min,  0.250 sec
     gradient                   ...        0 min,  0.387 sec
 * total energy  :  -188.2211271 Eh     change       -0.2569134E-04 Eh
   gradient norm :     0.0015280 Eh/α   predicted    -0.1617335E-04 ( -37.05%)
   displ. norm   :     0.1479358 α      lambda       -0.4922573E-04
   maximum displ.:     0.0557029 α      in ANC's #5, #13, #27, ...

........................................................................
.............................. CYCLE  186 ..............................
........................................................................

 iter      E             dE          RMSdq      gap      omega  full diag
   1   -191.1482588 -0.191148E+03  0.236E-02    2.44       0.0  T
   2   -191.1482603 -0.150972E-05  0.142E-02    2.44       1.0  T
   3   -191.1482577  0.263675E-05  0.567E-03    2.44       1.6  T
   4   -191.1482607 -0.306476E-05  0.140E-03    2.44       6.6  T
   5   -191.1482609 -0.172670E-06  0.468E-04    2.44      19.7  T
   6   -191.1482609 -0.402406E-08  0.300E-04    2.44      30.8  T
   7   -191.1482609 -0.271885E-08  0.123E-04    2.44      75.3  T
   8   -191.1482609 -0.666773E-09  0.537E-05    2.44     172.1  T
     SCC iter.                  ...        0 min,  0.234 sec
     gradient                   ...        0 min,  0.328 sec
 * total energy  :  -188.2211661 Eh     change       -0.3904931E-04 Eh
   gradient norm :     0.0035003 Eh/α   predicted    -0.2485254E-04 ( -36.36%)
   displ. norm   :     0.0575361 α      lambda       -0.1981905E-04
   maximum displ.:     0.0222437 α      in ANC's #5, #13, #3, ...

........................................................................
.............................. CYCLE  187 ..............................
........................................................................

 iter      E             dE          RMSdq      gap      omega  full diag
   1   -191.1479707 -0.191148E+03  0.800E-03    2.44       0.0  T
   2   -191.1479708 -0.883305E-07  0.474E-03    2.44       1.9  T
   3   -191.1479704  0.366018E-06  0.195E-03    2.44       4.8  T
   4   -191.1479708 -0.411256E-06  0.358E-04    2.44      25.8  T
   5   -191.1479708 -0.852933E-08  0.149E-04    2.44      62.1  T
   6   -191.1479708 -0.488569E-09  0.925E-05    2.44      99.9  T
     SCC iter.                  ...        0 min,  0.210 sec
     gradient                   ...        0 min,  0.342 sec
 * total energy  :  -188.2211841 Eh     change       -0.1795572E-04 Eh
   gradient norm :     0.0026982 Eh/α   predicted    -0.1019345E-04 ( -43.23%)
   displ. norm   :     0.2069175 α      lambda       -0.6159972E-04
   maximum displ.:     0.0779939 α      in ANC's #5, #13, #27, ...

........................................................................
.............................. CYCLE  188 ..............................
........................................................................

 iter      E             dE          RMSdq      gap      omega  full diag
   1   -191.1467229 -0.191147E+03  0.274E-02    2.44       0.0  T
   2   -191.1467239 -0.101488E-05  0.162E-02    2.44       1.0  T
   3   -191.1467206  0.333955E-05  0.583E-03    2.44       1.6  T
   4   -191.1467243 -0.373676E-05  0.119E-03    2.44       7.8  T
   5   -191.1467244 -0.925369E-07  0.502E-04    2.44      18.4  T
   6   -191.1467244 -0.452013E-08  0.306E-04    2.44      30.2  T
   7   -191.1467244 -0.347649E-08  0.105E-04    2.44      88.0  T
   8   -191.1467244 -0.800839E-09  0.429E-05    2.44     215.7  T
     SCC iter.                  ...        0 min,  0.264 sec
     gradient                   ...        0 min,  0.362 sec
 * total energy  :  -188.2212219 Eh     change       -0.3780082E-04 Eh
   gradient norm :     0.0018048 Eh/α   predicted    -0.3213100E-04 ( -15.00%)
   displ. norm   :     0.1498468 α      lambda       -0.1751265E-04
   maximum displ.:     0.0542889 α      in ANC's #5, #13, #1, ...

........................................................................
.............................. CYCLE  189 ..............................
........................................................................

 iter      E             dE          RMSdq      gap      omega  full diag
   1   -191.1462992 -0.191146E+03  0.197E-02    2.44       0.0  T
   2   -191.1462996 -0.428616E-06  0.116E-02    2.44       1.0  T
   3   -191.1462986  0.103528E-05  0.332E-03    2.44       2.8  T
   4   -191.1462997 -0.114879E-05  0.804E-04    2.44      11.5  T
   5   -191.1462998 -0.441070E-07  0.334E-04    2.44      27.7  T
   6   -191.1462998 -0.179011E-08  0.192E-04    2.44      48.0  T
   7   -191.1462998 -0.149134E-08  0.666E-05    2.44     138.9  T
     SCC iter.                  ...        0 min,  0.269 sec
     gradient                   ...        0 min,  0.375 sec
 * total energy  :  -188.2212411 Eh     change       -0.1921072E-04 Eh
   gradient norm :     0.0024676 Eh/α   predicted    -0.8867743E-05 ( -53.84%)
   displ. norm   :     0.1406683 α      lambda       -0.3237838E-04
   maximum displ.:     0.0542584 α      in ANC's #1, #5, #13, ...

........................................................................
.............................. CYCLE  190 ..............................
........................................................................

 iter      E             dE          RMSdq      gap      omega  full diag
   1   -191.1465167 -0.191147E+03  0.192E-02    2.44       0.0  T
   2   -191.1465169 -0.272598E-06  0.113E-02    2.44       1.0  T
   3   -191.1465167  0.258999E-06  0.173E-03    2.44       5.3  T
   4   -191.1465170 -0.292430E-06  0.654E-04    2.44      14.1  T
   5   -191.1465170 -0.326206E-07  0.274E-04    2.43      33.7  T
   6   -191.1465170 -0.757069E-09  0.156E-04    2.44      59.4  T
   7   -191.1465170 -0.117495E-08  0.551E-05    2.44     167.8  T
     SCC iter.                  ...        0 min,  0.258 sec
     gradient                   ...        0 min,  0.339 sec
 * total energy  :  -188.2212684 Eh     change       -0.2728286E-04 Eh
   gradient norm :     0.0021287 Eh/α   predicted    -0.1651384E-04 ( -39.47%)
   displ. norm   :     0.2740579 α      lambda       -0.5506523E-04
   maximum displ.:     0.1126692 α      in ANC's #1, #6, #5, ...

........................................................................
.............................. CYCLE  191 ..............................
........................................................................

 iter      E             dE          RMSdq      gap      omega  full diag
   1   -191.1464202 -0.191146E+03  0.373E-02    2.43       0.0  T
   2   -191.1464210 -0.794183E-06  0.220E-02    2.43       1.0  T
   3   -191.1464200  0.956214E-06  0.313E-03    2.43       3.0  T
   4   -191.1464210 -0.105167E-05  0.121E-03    2.43       7.6  T
   5   -191.1464212 -0.127437E-06  0.482E-04    2.43      19.2  T
   6   -191.1464212 -0.155939E-08  0.267E-04    2.43      34.6  T
   7   -191.1464212 -0.382286E-08  0.880E-05    2.43     105.1  T
   8   -191.1464212 -0.482629E-09  0.371E-05    2.43     249.0  T
     SCC iter.                  ...        0 min,  0.299 sec
     gradient                   ...        0 min,  0.300 sec
 * total energy  :  -188.2213073 Eh     change       -0.3898959E-04 Eh
   gradient norm :     0.0021175 Eh/α   predicted    -0.2960141E-04 ( -24.08%)
   displ. norm   :     0.2124346 α      lambda       -0.2939828E-04
   maximum displ.:     0.0936860 α      in ANC's #1, #6, #5, ...

........................................................................
.............................. CYCLE  192 ..............................
........................................................................

 iter      E             dE          RMSdq      gap      omega  full diag
   1   -191.1462826 -0.191146E+03  0.272E-02    2.43       0.0  T
   2   -191.1462829 -0.322055E-06  0.160E-02    2.43       1.0  T
   3   -191.1462824  0.436081E-06  0.206E-03    2.43       4.5  T
   4   -191.1462829 -0.479546E-06  0.800E-04    2.43      11.6  T
   5   -191.1462830 -0.597229E-07  0.327E-04    2.43      28.3  T
   6   -191.1462830 -0.941469E-09  0.179E-04    2.43      51.7  T
   7   -191.1462830 -0.189411E-08  0.496E-05    2.43     186.6  T
     SCC iter.                  ...        0 min,  0.195 sec
     gradient                   ...        0 min,  0.273 sec
 * total energy  :  -188.2213304 Eh     change       -0.2300710E-04 Eh
   gradient norm :     0.0020996 Eh/α   predicted    -0.1536586E-04 ( -33.21%)
   displ. norm   :     0.1988327 α      lambda       -0.3284896E-04
   maximum displ.:     0.0965179 α      in ANC's #1, #6, #4, ...

........................................................................
.............................. CYCLE  193 ..............................
........................................................................

 iter      E             dE          RMSdq      gap      omega  full diag
   1   -191.1469325 -0.191147E+03  0.241E-02    2.43       0.0  T
   2   -191.1469328 -0.313467E-06  0.142E-02    2.43       1.0  T
   3   -191.1469322  0.591355E-06  0.233E-03    2.43       4.0  T
   4   -191.1469329 -0.649588E-06  0.699E-04    2.43      13.2  T
   5   -191.1469329 -0.500815E-07  0.283E-04    2.43      32.7  T
   6   -191.1469329 -0.123040E-08  0.157E-04    2.43      58.9  T
   7   -191.1469329 -0.129290E-08  0.470E-05    2.43     196.8  T
     SCC iter.                  ...        0 min,  0.206 sec
     gradient                   ...        0 min,  0.328 sec
 * total energy  :  -188.2213567 Eh     change       -0.2638418E-04 Eh
   gradient norm :     0.0016968 Eh/α   predicted    -0.1707418E-04 ( -35.29%)
   displ. norm   :     0.3729683 α      lambda       -0.3772203E-04
   maximum displ.:     0.1840941 α      in ANC's #1, #6, #4, ...

........................................................................
.............................. CYCLE  194 ..............................
........................................................................

 iter      E             dE          RMSdq      gap      omega  full diag
   1   -191.1465280 -0.191147E+03  0.414E-02    2.43       0.0  T
   2   -191.1465292 -0.113983E-05  0.245E-02    2.43       1.0  T
   3   -191.1465268  0.236812E-05  0.474E-03    2.43       1.9  T
   4   -191.1465294 -0.259780E-05  0.130E-03    2.43       7.1  T
   5   -191.1465296 -0.178543E-06  0.519E-04    2.43      17.8  T
   6   -191.1465296 -0.646736E-08  0.302E-04    2.43      30.6  T
   7   -191.1465296 -0.320895E-08  0.944E-05    2.43      97.9  T
   8   -191.1465296 -0.651028E-09  0.374E-05    2.43     247.4  T
     SCC iter.                  ...        0 min,  0.247 sec
     gradient                   ...        0 min,  0.327 sec
 * total energy  :  -188.2213955 Eh     change       -0.3878025E-04 Eh
   gradient norm :     0.0020992 Eh/α   predicted    -0.2002879E-04 ( -48.35%)
   displ. norm   :     0.1434421 α      lambda       -0.3017306E-04
   maximum displ.:     0.0796321 α      in ANC's #1, #6, #4, ...

........................................................................
.............................. CYCLE  195 ..............................
........................................................................

 iter      E             dE          RMSdq      gap      omega  full diag
   1   -191.1479797 -0.191148E+03  0.159E-02    2.43       0.0  T
   2   -191.1479800 -0.305949E-06  0.939E-03    2.43       1.0  T
   3   -191.1479794  0.617801E-06  0.249E-03    2.43       3.7  T
   4   -191.1479801 -0.685293E-06  0.632E-04    2.43      14.6  T
   5   -191.1479801 -0.392245E-07  0.239E-04    2.43      38.7  T
   6   -191.1479801 -0.108244E-08  0.151E-04    2.43      61.3  T
   7   -191.1479801 -0.993708E-09  0.529E-05    2.43     174.7  T
     SCC iter.                  ...        0 min,  0.200 sec
     gradient                   ...        0 min,  0.316 sec
 * total energy  :  -188.2214163 Eh     change       -0.2076058E-04 Eh
   gradient norm :     0.0022409 Eh/α   predicted    -0.1539894E-04 ( -25.83%)
   displ. norm   :     0.1892227 α      lambda       -0.2891762E-04
   maximum displ.:     0.1022452 α      in ANC's #1, #6, #4, ...

........................................................................
.............................. CYCLE  196 ..............................
........................................................................

 iter      E             dE          RMSdq      gap      omega  full diag
   1   -191.1475677 -0.191148E+03  0.194E-02    2.43       0.0  T
   2   -191.1475681 -0.378105E-06  0.115E-02    2.43       1.0  T
   3   -191.1475673  0.781713E-06  0.267E-03    2.43       3.5  T
   4   -191.1475681 -0.813875E-06  0.868E-04    2.43      10.7  T
   5   -191.1475682 -0.892028E-07  0.261E-04    2.43      35.5  T
   6   -191.1475682 -0.179952E-08  0.166E-04    2.43      55.9  T
   7   -191.1475682 -0.100954E-08  0.519E-05    2.43     178.0  T
     SCC iter.                  ...        0 min,  0.308 sec
     gradient                   ...        0 min,  0.343 sec
 * total energy  :  -188.2214399 Eh     change       -0.2365781E-04 Eh
   gradient norm :     0.0017162 Eh/α   predicted    -0.1498682E-04 ( -36.65%)
   displ. norm   :     0.2914871 α      lambda       -0.3003711E-04
   maximum displ.:     0.1629986 α      in ANC's #1, #4, #6, ...

........................................................................
.............................. CYCLE  197 ..............................
........................................................................

 iter      E             dE          RMSdq      gap      omega  full diag
   1   -191.1467905 -0.191147E+03  0.298E-02    2.43       0.0  T
   2   -191.1467914 -0.931040E-06  0.176E-02    2.43       1.0  T
   3   -191.1467897  0.168477E-05  0.385E-03    2.43       2.4  T
   4   -191.1467914 -0.172175E-05  0.136E-03    2.43       6.8  T
   5   -191.1467917 -0.230040E-06  0.389E-04    2.43      23.8  T
   6   -191.1467917 -0.327807E-08  0.252E-04    2.43      36.7  T
   7   -191.1467917 -0.306673E-08  0.830E-05    2.43     111.3  T
   8   -191.1467917 -0.343135E-09  0.399E-05    2.43     231.9  T
     SCC iter.                  ...        0 min,  0.305 sec
     gradient                   ...        0 min,  0.390 sec
 * total energy  :  -188.2214707 Eh     change       -0.3078771E-04 Eh
   gradient norm :     0.0018428 Eh/α   predicted    -0.1559077E-04 ( -49.36%)
   displ. norm   :     0.1763302 α      lambda       -0.1978304E-04
   maximum displ.:     0.1031771 α      in ANC's #1, #4, #10, ...

........................................................................
.............................. CYCLE  198 ..............................
........................................................................

 iter      E             dE          RMSdq      gap      omega  full diag
   1   -191.1467779 -0.191147E+03  0.172E-02    2.43       0.0  T
   2   -191.1467781 -0.230983E-06  0.101E-02    2.43       1.0  T
   3   -191.1467778  0.382144E-06  0.195E-03    2.43       4.7  T
   4   -191.1467782 -0.419319E-06  0.557E-04    2.43      16.6  T
   5   -191.1467782 -0.304357E-07  0.206E-04    2.43      44.9  T
   6   -191.1467782 -0.147494E-08  0.119E-04    2.43      77.5  T
   7   -191.1467782 -0.629342E-09  0.467E-05    2.43     197.9  T
     SCC iter.                  ...        0 min,  0.245 sec
     gradient                   ...        0 min,  0.341 sec
 * total energy  :  -188.2214953 Eh     change       -0.2459465E-04 Eh
   gradient norm :     0.0018851 Eh/α   predicted    -0.1003201E-04 ( -59.21%)
   displ. norm   :     0.2559822 α      lambda       -0.3396070E-04
   maximum displ.:     0.1490230 α      in ANC's #1, #4, #5, ...

........................................................................
.............................. CYCLE  199 ..............................
........................................................................

 iter      E             dE          RMSdq      gap      omega  full diag
   1   -191.1466877 -0.191147E+03  0.262E-02    2.43       0.0  T
   2   -191.1466880 -0.345526E-06  0.155E-02    2.43       1.0  T
   3   -191.1466874  0.636875E-06  0.270E-03    2.43       3.4  T
   4   -191.1466881 -0.735336E-06  0.727E-04    2.43      12.7  T
   5   -191.1466881 -0.347899E-07  0.339E-04    2.43      27.3  T
   6   -191.1466881 -0.202141E-08  0.190E-04    2.43      48.6  T
   7   -191.1466881 -0.187941E-08  0.661E-05    2.43     139.8  T
     SCC iter.                  ...        0 min,  0.268 sec
     gradient                   ...        0 min,  0.422 sec
 * total energy  :  -188.2215346 Eh     change       -0.3930025E-04 Eh
   gradient norm :     0.0020292 Eh/α   predicted    -0.1747572E-04 ( -55.53%)
   displ. norm   :     0.2061319 α      lambda       -0.3470149E-04
   maximum displ.:     0.1223424 α      in ANC's #1, #4, #5, ...

........................................................................
.............................. CYCLE  200 ..............................
........................................................................

 iter      E             dE          RMSdq      gap      omega  full diag
   1   -191.1462686 -0.191146E+03  0.204E-02    2.43       0.0  T
   2   -191.1462689 -0.252090E-06  0.121E-02    2.43       1.0  T
   3   -191.1462682  0.694635E-06  0.281E-03    2.43       3.3  T
   4   -191.1462689 -0.775058E-06  0.693E-04    2.43      13.3  T
   5   -191.1462690 -0.323798E-07  0.278E-04    2.43      33.3  T
   6   -191.1462690 -0.588756E-09  0.175E-04    2.43      52.7  T
   7   -191.1462690 -0.169268E-08  0.501E-05    2.43     184.6  T
     SCC iter.                  ...        0 min,  0.283 sec
     gradient                   ...        0 min,  0.421 sec
 * total energy  :  -188.2215627 Eh     change       -0.2811958E-04 Eh
   gradient norm :     0.0018841 Eh/α   predicted    -0.1809095E-04 ( -35.66%)
   displ. norm   :     0.3652353 α      lambda       -0.3538926E-04
   maximum displ.:     0.2182745 α      in ANC's #1, #4, #5, ...

........................................................................
.............................. CYCLE  201 ..............................
........................................................................

 iter      E             dE          RMSdq      gap      omega  full diag
   1   -191.1466071 -0.191147E+03  0.362E-02    2.44       0.0  T
   2   -191.1466080 -0.867671E-06  0.214E-02    2.44       1.0  T
   3   -191.1466056  0.241940E-05  0.512E-03    2.44       1.8  T
   4   -191.1466083 -0.267874E-05  0.125E-03    2.44       7.4  T
   5   -191.1466084 -0.115915E-06  0.467E-04    2.44      19.8  T
   6   -191.1466084 -0.241101E-09  0.301E-04    2.44      30.7  T
   7   -191.1466084 -0.518051E-08  0.960E-05    2.44      96.3  T
   8   -191.1466084 -0.329237E-09  0.481E-05    2.44     192.2  T
     SCC iter.                  ...        0 min,  0.287 sec
     gradient                   ...        0 min,  0.297 sec
 * total energy  :  -188.2216006 Eh     change       -0.3789703E-04 Eh
   gradient norm :     0.0016831 Eh/α   predicted    -0.1874622E-04 ( -50.53%)
   displ. norm   :     0.2444252 α      lambda       -0.2176842E-04
   maximum displ.:     0.1508822 α      in ANC's #1, #4, #5, ...

........................................................................
.............................. CYCLE  202 ..............................
........................................................................

 iter      E             dE          RMSdq      gap      omega  full diag
   1   -191.1463784 -0.191146E+03  0.231E-02    2.44       0.0  T
   2   -191.1463786 -0.290572E-06  0.137E-02    2.44       1.0  T
   3   -191.1463777  0.902339E-06  0.310E-03    2.44       3.0  T
   4   -191.1463788 -0.100874E-05  0.771E-04    2.44      12.0  T
   5   -191.1463788 -0.407992E-07  0.313E-04    2.44      29.6  T
   6   -191.1463788 -0.482885E-09  0.193E-04    2.44      47.9  T
   7   -191.1463788 -0.182737E-08  0.613E-05    2.44     150.7  T
     SCC iter.                  ...        0 min,  0.251 sec
     gradient                   ...        0 min,  0.338 sec
 * total energy  :  -188.2216279 Eh     change       -0.2727060E-04 Eh
   gradient norm :     0.0015186 Eh/α   predicted    -0.1117389E-04 ( -59.03%)
   displ. norm   :     0.2639006 α      lambda       -0.3109446E-04
   maximum displ.:     0.1648607 α      in ANC's #1, #4, #5, ...

........................................................................
.............................. CYCLE  203 ..............................
........................................................................

 iter      E             dE          RMSdq      gap      omega  full diag
   1   -191.1476116 -0.191148E+03  0.243E-02    2.44       0.0  T
   2   -191.1476121 -0.412198E-06  0.144E-02    2.44       1.0  T
   3   -191.1476109  0.113386E-05  0.344E-03    2.44       2.7  T
   4   -191.1476122 -0.124756E-05  0.877E-04    2.44      10.5  T
   5   -191.1476122 -0.644042E-07  0.321E-04    2.44      28.8  T
   6   -191.1476122 -0.118163E-08  0.193E-04    2.44      47.9  T
   7   -191.1476122 -0.156371E-08  0.694E-05    2.44     133.1  T
     SCC iter.                  ...        0 min,  0.258 sec
     gradient                   ...        0 min,  0.361 sec
 * total energy  :  -188.2216653 Eh     change       -0.3742013E-04 Eh
   gradient norm :     0.0016880 Eh/α   predicted    -0.1603135E-04 ( -57.16%)
   displ. norm   :     0.3725561 α      lambda       -0.3814492E-04
   maximum displ.:     0.2300937 α      in ANC's #1, #4, #5, ...

........................................................................
.............................. CYCLE  204 ..............................
........................................................................

 iter      E             dE          RMSdq      gap      omega  full diag
   1   -191.1470583 -0.191147E+03  0.348E-02    2.43       0.0  T
   2   -191.1470590 -0.723588E-06  0.205E-02    2.43       1.0  T
   3   -191.1470560  0.301363E-05  0.543E-03    2.43       1.7  T
   4   -191.1470594 -0.336796E-05  0.109E-03    2.43       8.5  T
   5   -191.1470594 -0.798292E-07  0.477E-04    2.43      19.4  T
   6   -191.1470594 -0.306841E-09  0.263E-04    2.43      35.2  T
   7   -191.1470594 -0.319380E-08  0.897E-05    2.43     103.1  T
   8   -191.1470594 -0.311076E-09  0.451E-05    2.43     204.9  T
     SCC iter.                  ...        0 min,  0.355 sec
     gradient                   ...        0 min,  0.396 sec
 * total energy  :  -188.2217080 Eh     change       -0.4264434E-04 Eh
   gradient norm :     0.0021816 Eh/α   predicted    -0.2025087E-04 ( -52.51%)
   displ. norm   :     0.2423229 α      lambda       -0.3503920E-04
   maximum displ.:     0.1510009 α      in ANC's #1, #4, #5, ...

........................................................................
.............................. CYCLE  205 ..............................
........................................................................

 iter      E             dE          RMSdq      gap      omega  full diag
   1   -191.1471177 -0.191147E+03  0.220E-02    2.43       0.0  T
   2   -191.1471179 -0.227467E-06  0.130E-02    2.43       1.0  T
   3   -191.1471170  0.857184E-06  0.295E-03    2.43       3.1  T
   4   -191.1471180 -0.973961E-06  0.564E-04    2.43      16.4  T
   5   -191.1471180 -0.178745E-07  0.278E-04    2.43      33.3  T
   6   -191.1471180  0.390230E-10  0.163E-04    2.43      56.6  T
   7   -191.1471180 -0.164161E-08  0.479E-05    2.43     193.2  T
     SCC iter.                  ...        0 min,  0.276 sec
     gradient                   ...        0 min,  0.347 sec
 * total energy  :  -188.2217361 Eh     change       -0.2811513E-04 Eh
   gradient norm :     0.0020736 Eh/α   predicted    -0.1855171E-04 ( -34.02%)
   displ. norm   :     0.3325217 α      lambda       -0.4352562E-04
   maximum displ.:     0.2072408 α      in ANC's #1, #4, #5, ...

........................................................................
.............................. CYCLE  206 ..............................
........................................................................

 iter      E             dE          RMSdq      gap      omega  full diag
   1   -191.1472984 -0.191147E+03  0.297E-02    2.43       0.0  T
   2   -191.1472989 -0.487270E-06  0.175E-02    2.43       1.0  T
   3   -191.1472969  0.198442E-05  0.445E-03    2.43       2.1  T
   4   -191.1472992 -0.227069E-05  0.787E-04    2.43      11.7  T
   5   -191.1472992 -0.286234E-07  0.415E-04    2.43      22.3  T
   6   -191.1472992 -0.781171E-09  0.246E-04    2.43      37.5  T
   7   -191.1472992 -0.345591E-08  0.786E-05    2.43     117.6  T
   8   -191.1472992 -0.352600E-09  0.364E-05    2.43     254.1  T
     SCC iter.                  ...        0 min,  0.236 sec
     gradient                   ...        0 min,  0.319 sec
 * total energy  :  -188.2217728 Eh     change       -0.3676009E-04 Eh
   gradient norm :     0.0016589 Eh/α   predicted    -0.2417410E-04 ( -34.24%)
   displ. norm   :     0.5636463 α      lambda       -0.4930590E-04
   maximum displ.:     0.3518077 α      in ANC's #1, #4, #5, ...

........................................................................
.............................. CYCLE  207 ..............................
........................................................................

 iter      E             dE          RMSdq      gap      omega  full diag
   1   -191.1470732 -0.191147E+03  0.498E-02    2.42       0.0  T
   2   -191.1470748 -0.159959E-05  0.293E-02    2.42       1.0  T
   3   -191.1470682  0.667769E-05  0.815E-03    2.42       1.1  T
   4   -191.1470758 -0.766959E-05  0.134E-03    2.42       6.9  T
   5   -191.1470759 -0.749621E-07  0.727E-04    2.42      12.7  T
   6   -191.1470759 -0.386780E-08  0.422E-04    2.42      21.9  T
   7   -191.1470759 -0.919704E-08  0.151E-04    2.42      61.1  T
   8   -191.1470759 -0.148407E-08  0.622E-05    2.42     148.7  T
     SCC iter.                  ...        0 min,  0.294 sec
     gradient                   ...        0 min,  0.274 sec
 * total energy  :  -188.2218294 Eh     change       -0.5654424E-04 Eh
   gradient norm :     0.0020640 Eh/α   predicted    -0.2813566E-04 ( -50.24%)
   displ. norm   :     0.3176652 α      lambda       -0.4370275E-04
   maximum displ.:     0.1983928 α      in ANC's #1, #4, #5, ...

........................................................................
.............................. CYCLE  208 ..............................
........................................................................

 iter      E             dE          RMSdq      gap      omega  full diag
   1   -191.1470075 -0.191147E+03  0.282E-02    2.42       0.0  T
   2   -191.1470079 -0.407375E-06  0.166E-02    2.42       1.0  T
   3   -191.1470069  0.992487E-06  0.328E-03    2.42       2.8  T
   4   -191.1470081 -0.121068E-05  0.697E-04    2.42      13.3  T
   5   -191.1470081 -0.146421E-07  0.388E-04    2.42      23.8  T
   6   -191.1470081 -0.130177E-08  0.187E-04    2.42      49.5  T
   7   -191.1470081 -0.191795E-08  0.759E-05    2.42     121.8  T
     SCC iter.                  ...        0 min,  0.206 sec
     gradient                   ...        0 min,  0.336 sec
 * total energy  :  -188.2218673 Eh     change       -0.3788692E-04 Eh
   gradient norm :     0.0024062 Eh/α   predicted    -0.2405716E-04 ( -36.50%)
   displ. norm   :     0.4793657 α      lambda       -0.7492922E-04
   maximum displ.:     0.2965488 α      in ANC's #1, #4, #2, ...

........................................................................
.............................. CYCLE  209 ..............................
........................................................................

 iter      E             dE          RMSdq      gap      omega  full diag
   1   -191.1469964 -0.191147E+03  0.431E-02    2.42       0.0  T
   2   -191.1469972 -0.800822E-06  0.254E-02    2.42       1.0  T
   3   -191.1469956  0.156685E-05  0.420E-03    2.42       2.2  T
   4   -191.1469976 -0.200085E-05  0.990E-04    2.42       9.3  T
   5   -191.1469976 -0.229548E-07  0.540E-04    2.42      17.1  T
   6   -191.1469976 -0.486409E-08  0.207E-04    2.42      44.6  T
   7   -191.1469976 -0.186017E-08  0.774E-05    2.42     119.4  T
   8   -191.1469976 -0.213845E-09  0.436E-05    2.42     212.1  T
     SCC iter.                  ...        0 min,  0.223 sec
     gradient                   ...        0 min,  0.299 sec
 * total energy  :  -188.2219279 Eh     change       -0.6063642E-04 Eh
   gradient norm :     0.0029619 Eh/α   predicted    -0.4607532E-04 ( -24.01%)
   displ. norm   :     0.5018321 α      lambda       -0.6962409E-04
   maximum displ.:     0.3076364 α      in ANC's #1, #4, #2, ...

........................................................................
.............................. CYCLE  210 ..............................
........................................................................

 iter      E             dE          RMSdq      gap      omega  full diag
   1   -191.1463749 -0.191146E+03  0.458E-02    2.42       0.0  T
   2   -191.1463757 -0.812974E-06  0.270E-02    2.42       1.0  T
   3   -191.1463747  0.959143E-06  0.353E-03    2.42       2.6  T
   4   -191.1463761 -0.136382E-05  0.105E-03    2.42       8.8  T
   5   -191.1463761 -0.276431E-07  0.595E-04    2.42      15.5  T
   6   -191.1463761 -0.660941E-08  0.249E-04    2.42      37.1  T
   7   -191.1463761 -0.457047E-08  0.914E-05    2.42     101.2  T
   8   -191.1463761 -0.388411E-09  0.509E-05    2.42     181.7  T
     SCC iter.                  ...        0 min,  0.265 sec
     gradient                   ...        0 min,  0.308 sec
 * total energy  :  -188.2219827 Eh     change       -0.5481237E-04 Eh
   gradient norm :     0.0031578 Eh/α   predicted    -0.4358319E-04 ( -20.49%)
   displ. norm   :     0.4448220 α      lambda       -0.6484637E-04
   maximum displ.:     0.2647286 α      in ANC's #1, #4, #2, ...

........................................................................
.............................. CYCLE  211 ..............................
........................................................................

 iter      E             dE          RMSdq      gap      omega  full diag
   1   -191.1469633 -0.191147E+03  0.411E-02    2.43       0.0  T
   2   -191.1469641 -0.785316E-06  0.242E-02    2.43       1.0  T
   3   -191.1469608  0.322122E-05  0.541E-03    2.43       1.7  T
   4   -191.1469645 -0.371696E-05  0.101E-03    2.43       9.1  T
   5   -191.1469646 -0.423851E-07  0.557E-04    2.43      16.6  T
   6   -191.1469646 -0.419169E-08  0.238E-04    2.43      38.9  T
   7   -191.1469646 -0.269981E-08  0.915E-05    2.43     101.0  T
   8   -191.1469646 -0.466741E-09  0.432E-05    2.43     214.1  T
     SCC iter.                  ...        0 min,  0.224 sec
     gradient                   ...        0 min,  0.379 sec
 * total energy  :  -188.2220319 Eh     change       -0.4913076E-04 Eh
   gradient norm :     0.0026037 Eh/α   predicted    -0.3884343E-04 ( -20.94%)
   displ. norm   :     0.4713483 α      lambda       -0.5759648E-04
   maximum displ.:     0.2811026 α      in ANC's #1, #4, #5, ...

........................................................................
.............................. CYCLE  212 ..............................
........................................................................

 iter      E             dE          RMSdq      gap      omega  full diag
   1   -191.1462069 -0.191146E+03  0.419E-02    2.43       0.0  T
   2   -191.1462077 -0.774242E-06  0.246E-02    2.43       1.0  T
   3   -191.1462063  0.135164E-05  0.386E-03    2.43       2.4  T
   4   -191.1462080 -0.169706E-05  0.104E-03    2.43       8.9  T
   5   -191.1462081 -0.495702E-07  0.572E-04    2.43      16.2  T
   6   -191.1462081 -0.486415E-08  0.268E-04    2.43      34.5  T
   7   -191.1462081 -0.436282E-08  0.875E-05    2.43     105.7  T
   8   -191.1462081 -0.320370E-09  0.470E-05    2.43     196.7  T
     SCC iter.                  ...        0 min,  0.243 sec
     gradient                   ...        0 min,  0.388 sec
 * total energy  :  -188.2220777 Eh     change       -0.4580226E-04 Eh
   gradient norm :     0.0022158 Eh/α   predicted    -0.3520201E-04 ( -23.14%)
   displ. norm   :     0.3907127 α      lambda       -0.8179867E-04
   maximum displ.:     0.1999108 α      in ANC's #1, #5, #3, ...

........................................................................
.............................. CYCLE  213 ..............................
........................................................................

 iter      E             dE          RMSdq      gap      omega  full diag
   1   -191.1489304 -0.191149E+03  0.378E-02    2.44       0.0  T
   2   -191.1489328 -0.238833E-05  0.223E-02    2.44       1.0  T
   3   -191.1489218  0.109521E-04  0.104E-02    2.44       1.0  T
   4   -191.1489345 -0.126416E-04  0.144E-03    2.44       6.4  T
   5   -191.1489346 -0.147075E-06  0.535E-04    2.44      17.3  T
   6   -191.1489346 -0.422654E-08  0.307E-04    2.44      30.1  T
   7   -191.1489346 -0.374209E-08  0.152E-04    2.44      60.8  T
   8   -191.1489346 -0.110066E-08  0.528E-05    2.44     175.2  T
     SCC iter.                  ...        0 min,  0.222 sec
     gradient                   ...        0 min,  0.317 sec
 * total energy  :  -188.2221280 Eh     change       -0.5039324E-04 Eh
   gradient norm :     0.0036271 Eh/α   predicted    -0.4714556E-04 (  -6.44%)
   displ. norm   :     0.4984262 α      lambda       -0.6775566E-04
   maximum displ.:     0.2914428 α      in ANC's #1, #5, #4, ...

........................................................................
.............................. CYCLE  214 ..............................
........................................................................

 iter      E             dE          RMSdq      gap      omega  full diag
   1   -191.1463284 -0.191146E+03  0.427E-02    2.44       0.0  T
   2   -191.1463295 -0.110204E-05  0.251E-02    2.44       1.0  T
   3   -191.1463278  0.168677E-05  0.425E-03    2.44       2.2  T
   4   -191.1463299 -0.206150E-05  0.119E-03    2.44       7.8  T
   5   -191.1463300 -0.825267E-07  0.636E-04    2.44      14.5  T
   6   -191.1463300 -0.785226E-08  0.329E-04    2.44      28.1  T
   7   -191.1463300 -0.394704E-08  0.132E-04    2.44      70.0  T
   8   -191.1463300 -0.134639E-08  0.505E-05    2.44     182.9  T
     SCC iter.                  ...        0 min,  0.314 sec
     gradient                   ...        0 min,  0.392 sec
 * total energy  :  -188.2221745 Eh     change       -0.4645430E-04 Eh
   gradient norm :     0.0037650 Eh/α   predicted    -0.4229678E-04 (  -8.95%)
   displ. norm   :     0.2422591 α      lambda       -0.6110450E-04
   maximum displ.:     0.1103085 α      in ANC's #1, #5, #3, ...

........................................................................
.............................. CYCLE  215 ..............................
........................................................................

 iter      E             dE          RMSdq      gap      omega  full diag
   1   -191.1467972 -0.191147E+03  0.250E-02    2.44       0.0  T
   2   -191.1467975 -0.272782E-06  0.147E-02    2.44       1.0  T
   3   -191.1467958  0.167845E-05  0.383E-03    2.44       2.4  T
   4   -191.1467977 -0.187088E-05  0.649E-04    2.44      14.2  T
   5   -191.1467977 -0.213407E-07  0.350E-04    2.44      26.4  T
   6   -191.1467977 -0.387962E-08  0.180E-04    2.44      51.3  T
   7   -191.1467977 -0.126269E-08  0.594E-05    2.44     155.7  T
     SCC iter.                  ...        0 min,  0.274 sec
     gradient                   ...        0 min,  0.385 sec
 * total energy  :  -188.2222209 Eh     change       -0.4638579E-04 Eh
   gradient norm :     0.0037409 Eh/α   predicted    -0.3234728E-04 ( -30.26%)
   displ. norm   :     0.2772002 α      lambda       -0.6094803E-04
   maximum displ.:     0.1251040 α      in ANC's #1, #5, #3, ...

........................................................................
.............................. CYCLE  216 ..............................
........................................................................

 iter      E             dE          RMSdq      gap      omega  full diag
   1   -191.1469805 -0.191147E+03  0.278E-02    2.44       0.0  T
   2   -191.1469810 -0.508769E-06  0.164E-02    2.44       1.0  T
   3   -191.1469782  0.280065E-05  0.484E-03    2.44       1.9  T
   4   -191.1469813 -0.308255E-05  0.885E-04    2.44      10.4  T
   5   -191.1469813 -0.653253E-07  0.375E-04    2.44      24.6  T
   6   -191.1469813 -0.381442E-08  0.208E-04    2.44      44.5  T
   7   -191.1469813 -0.163800E-08  0.861E-05    2.44     107.3  T
   8   -191.1469813 -0.517929E-09  0.316E-05    2.44     293.0  T
     SCC iter.                  ...        0 min,  0.260 sec
     gradient                   ...        0 min,  0.327 sec
 * total energy  :  -188.2222627 Eh     change       -0.4176802E-04 Eh
   gradient norm :     0.0026529 Eh/α   predicted    -0.3281938E-04 ( -21.42%)
   displ. norm   :     0.2478978 α      lambda       -0.3708811E-04
   maximum displ.:     0.1207815 α      in ANC's #1, #5, #3, ...

........................................................................
.............................. CYCLE  217 ..............................
........................................................................

 iter      E             dE          RMSdq      gap      omega  full diag
   1   -191.1468979 -0.191147E+03  0.232E-02    2.44       0.0  T
   2   -191.1468984 -0.496874E-06  0.137E-02    2.44       1.0  T
   3   -191.1468971  0.131387E-05  0.351E-03    2.44       2.6  T
   4   -191.1468986 -0.148138E-05  0.785E-04    2.44      11.8  T
   5   -191.1468986 -0.506322E-07  0.324E-04    2.44      28.6  T
   6   -191.1468986 -0.234940E-08  0.193E-04    2.44      47.8  T
   7   -191.1468986 -0.149683E-08  0.853E-05    2.44     108.4  T
     SCC iter.                  ...        0 min,  0.250 sec
     gradient                   ...        0 min,  0.310 sec
 * total energy  :  -188.2222899 Eh     change       -0.2723389E-04 Eh
   gradient norm :     0.0022028 Eh/α   predicted    -0.1968786E-04 ( -27.71%)
   displ. norm   :     0.3092313 α      lambda       -0.3994082E-04
   maximum displ.:     0.1645316 α      in ANC's #1, #5, #3, ...

........................................................................
.............................. CYCLE  218 ..............................
........................................................................

 iter      E             dE          RMSdq      gap      omega  full diag
   1   -191.1466420 -0.191147E+03  0.286E-02    2.45       0.0  T
   2   -191.1466425 -0.563019E-06  0.169E-02    2.45       1.0  T
   3   -191.1466413  0.121310E-05  0.340E-03    2.45       2.7  T
   4   -191.1466427 -0.139569E-05  0.756E-04    2.45      12.2  T
   5   -191.1466428 -0.431811E-07  0.358E-04    2.45      25.8  T
   6   -191.1466428 -0.354177E-08  0.199E-04    2.45      46.5  T
   7   -191.1466428 -0.108039E-08  0.867E-05    2.45     106.6  T
     SCC iter.                  ...        0 min,  0.241 sec
     gradient                   ...        0 min,  0.322 sec
 * total energy  :  -188.2223192 Eh     change       -0.2929935E-04 Eh
   gradient norm :     0.0025718 Eh/α   predicted    -0.2188204E-04 ( -25.32%)
   displ. norm   :     0.2396568 α      lambda       -0.4275011E-04
   maximum displ.:     0.1142430 α      in ANC's #1, #5, #3, ...

........................................................................
.............................. CYCLE  219 ..............................
........................................................................

 iter      E             dE          RMSdq      gap      omega  full diag
   1   -191.1479006 -0.191148E+03  0.263E-02    2.45       0.0  T
   2   -191.1479011 -0.477505E-06  0.155E-02    2.45       1.0  T
   3   -191.1478995  0.160594E-05  0.393E-03    2.45       2.4  T
   4   -191.1479013 -0.183304E-05  0.693E-04    2.45      13.3  T
   5   -191.1479013 -0.289197E-07  0.324E-04    2.45      28.5  T
   6   -191.1479013 -0.245885E-08  0.181E-04    2.45      51.2  T
   7   -191.1479013 -0.136876E-08  0.856E-05    2.45     108.0  T
     SCC iter.                  ...        0 min,  0.190 sec
     gradient                   ...        0 min,  0.325 sec
 * total energy  :  -188.2223472 Eh     change       -0.2802775E-04 Eh
   gradient norm :     0.0031811 Eh/α   predicted    -0.2260794E-04 ( -19.34%)
   displ. norm   :     0.4247277 α      lambda       -0.3998577E-04
   maximum displ.:     0.2414082 α      in ANC's #1, #5, #4, ...
 * RMSD in coord.:     0.7533204 α      energy gain  -0.1314290E-02 Eh

generating ANC from exact Hessian ...
Using Lindh-Hessian (1995)
 Shifting diagonal of input Hessian by    9.9616861070033480E-003
 Lowest  eigenvalues of input Hessian
    0.000000    0.000000    0.000000    0.000000    0.000000    0.000000
    0.010000    0.010038    0.010055    0.010100    0.010203    0.010211
    0.010278    0.010363    0.010483    0.010563    0.010586    0.010753
 Highest eigenvalues
    2.151038    2.158181    2.329597    2.348135    2.380282    3.142108


........................................................................
.............................. CYCLE  220 ..............................
........................................................................

 iter      E             dE          RMSdq      gap      omega  full diag
   1   -191.1458519 -0.191146E+03  0.400E-02    2.45       0.0  T
   2   -191.1458526 -0.723694E-06  0.235E-02    2.45       1.0  T
   3   -191.1458515  0.109160E-05  0.346E-03    2.45       2.7  T
   4   -191.1458529 -0.134667E-05  0.969E-04    2.45       9.5  T
   5   -191.1458529 -0.550502E-07  0.530E-04    2.45      17.5  T
   6   -191.1458529 -0.875596E-08  0.270E-04    2.45      34.3  T
   7   -191.1458529 -0.411666E-08  0.950E-05    2.45      97.3  T
   8   -191.1458529 -0.566274E-09  0.461E-05    2.45     200.4  T
     SCC iter.                  ...        0 min,  0.237 sec
     gradient                   ...        0 min,  0.345 sec
 * total energy  :  -188.2223709 Eh     change       -0.2369856E-04 Eh
   gradient norm :     0.0037826 Eh/α   predicted     0.0000000E+00 (-100.00%)
   displ. norm   :     0.0260054 α      lambda       -0.2173716E-04
   maximum displ.:     0.0085688 α      in ANC's #27, #14, #10, ...

........................................................................
.............................. CYCLE  221 ..............................
........................................................................

 iter      E             dE          RMSdq      gap      omega  full diag
   1   -191.1477757 -0.191148E+03  0.536E-03    2.46       0.0  T
   2   -191.1477759 -0.212480E-06  0.315E-03    2.46       2.9  T
   3   -191.1477757  0.157375E-06  0.183E-03    2.46       5.0  T
   4   -191.1477760 -0.233181E-06  0.410E-04    2.46      22.6  T
   5   -191.1477760 -0.112304E-07  0.141E-04    2.46      65.7  T
   6   -191.1477760 -0.452076E-09  0.823E-05    2.46     112.4  T
     SCC iter.                  ...        0 min,  0.166 sec
     gradient                   ...        0 min,  0.249 sec
 * total energy  :  -188.2223913 Eh     change       -0.2034450E-04 Eh
   gradient norm :     0.0021112 Eh/α   predicted    -0.1389071E-04 ( -31.72%)
   displ. norm   :     0.0536696 α      lambda       -0.2210950E-04
   maximum displ.:     0.0144571 α      in ANC's #10, #27, #14, ...

........................................................................
.............................. CYCLE  222 ..............................
........................................................................

 iter      E             dE          RMSdq      gap      omega  full diag
   1   -191.1494722 -0.191149E+03  0.931E-03    2.46       0.0  T
   2   -191.1494727 -0.484673E-06  0.553E-03    2.46       1.7  T
   3   -191.1494721  0.602491E-06  0.338E-03    2.46       2.7  T
   4   -191.1494730 -0.871702E-06  0.616E-04    2.46      15.0  T
   5   -191.1494730 -0.227473E-07  0.235E-04    2.46      39.3  T
   6   -191.1494730 -0.178474E-08  0.143E-04    2.46      64.9  T
   7   -191.1494730 -0.926519E-09  0.700E-05    2.46     132.1  T
     SCC iter.                  ...        0 min,  0.188 sec
     gradient                   ...        0 min,  0.279 sec
 * total energy  :  -188.2224080 Eh     change       -0.1676533E-04 Eh
   gradient norm :     0.0011428 Eh/α   predicted    -0.1282903E-04 ( -23.48%)
   displ. norm   :     0.0859612 α      lambda       -0.1386838E-04
   maximum displ.:     0.0238231 α      in ANC's #10, #27, #4, ...

........................................................................
.............................. CYCLE  223 ..............................
........................................................................

 iter      E             dE          RMSdq      gap      omega  full diag
   1   -191.1495875 -0.191150E+03  0.128E-02    2.46       0.0  T
   2   -191.1495881 -0.541633E-06  0.762E-03    2.46       1.2  T
   3   -191.1495867  0.134345E-05  0.432E-03    2.46       2.1  T
   4   -191.1495884 -0.170156E-05  0.633E-04    2.46      14.6  T
   5   -191.1495884 -0.232096E-07  0.252E-04    2.46      36.6  T
   6   -191.1495884 -0.223534E-08  0.154E-04    2.46      60.0  T
   7   -191.1495884 -0.106877E-08  0.734E-05    2.46     126.0  T
     SCC iter.                  ...        0 min,  0.200 sec
     gradient                   ...        0 min,  0.362 sec
 * total energy  :  -188.2224217 Eh     change       -0.1364752E-04 Eh
   gradient norm :     0.0020773 Eh/α   predicted    -0.7067742E-05 ( -48.21%)
   displ. norm   :     0.0604583 α      lambda       -0.1256399E-04
   maximum displ.:     0.0182756 α      in ANC's #4, #10, #41, ...

........................................................................
.............................. CYCLE  224 ..............................
........................................................................

 iter      E             dE          RMSdq      gap      omega  full diag
   1   -191.1488915 -0.191149E+03  0.836E-03    2.46       0.0  T
   2   -191.1488915 -0.581730E-07  0.494E-03    2.46       1.9  T
   3   -191.1488912  0.331588E-06  0.180E-03    2.46       5.1  T
   4   -191.1488916 -0.372688E-06  0.227E-04    2.46      40.7  T
   5   -191.1488916 -0.243688E-08  0.114E-04    2.46      80.9  T
   6   -191.1488916 -0.380084E-09  0.674E-05    2.46     137.1  T
     SCC iter.                  ...        0 min,  0.203 sec
     gradient                   ...        0 min,  0.344 sec
 * total energy  :  -188.2224322 Eh     change       -0.1051405E-04 Eh
   gradient norm :     0.0020723 Eh/α   predicted    -0.6387041E-05 ( -39.25%)
   displ. norm   :     0.1430387 α      lambda       -0.2451461E-04
   maximum displ.:     0.0455984 α      in ANC's #4, #10, #41, ...

........................................................................
.............................. CYCLE  225 ..............................
........................................................................

 iter      E             dE          RMSdq      gap      omega  full diag
   1   -191.1473151 -0.191147E+03  0.187E-02    2.46       0.0  T
   2   -191.1473153 -0.189155E-06  0.110E-02    2.46       1.0  T
   3   -191.1473145  0.809169E-06  0.275E-03    2.46       3.4  T
   4   -191.1473154 -0.904596E-06  0.458E-04    2.46      20.2  T
   5   -191.1473154 -0.117400E-07  0.215E-04    2.46      42.9  T
   6   -191.1473154 -0.651369E-09  0.122E-04    2.46      75.6  T
   7   -191.1473154 -0.489223E-09  0.407E-05    2.46     227.3  T
     SCC iter.                  ...        0 min,  0.177 sec
     gradient                   ...        0 min,  0.263 sec
 * total energy  :  -188.2224474 Eh     change       -0.1525572E-04 Eh
   gradient norm :     0.0021627 Eh/α   predicted    -0.1256121E-04 ( -17.66%)
   displ. norm   :     0.0649217 α      lambda       -0.9190648E-05
   maximum displ.:     0.0239407 α      in ANC's #4, #10, #5, ...

........................................................................
.............................. CYCLE  226 ..............................
........................................................................

 iter      E             dE          RMSdq      gap      omega  full diag
   1   -191.1472084 -0.191147E+03  0.794E-03    2.46       0.0  T
   2   -191.1472084 -0.654418E-07  0.468E-03    2.46       2.0  T
   3   -191.1472082  0.238975E-06  0.157E-03    2.46       5.9  T
   4   -191.1472085 -0.269747E-06  0.252E-04    2.46      36.7  T
   5   -191.1472085 -0.416415E-08  0.101E-04    2.46      91.6  T
   6   -191.1472085 -0.216602E-09  0.607E-05    2.46     152.3  T
     SCC iter.                  ...        0 min,  0.155 sec
     gradient                   ...        0 min,  0.267 sec
 * total energy  :  -188.2224549 Eh     change       -0.7485517E-05 Eh
   gradient norm :     0.0016491 Eh/α   predicted    -0.4615705E-05 ( -38.34%)
   displ. norm   :     0.1502438 α      lambda       -0.1637342E-04
   maximum displ.:     0.0625822 α      in ANC's #4, #5, #10, ...

........................................................................
.............................. CYCLE  227 ..............................
........................................................................

 iter      E             dE          RMSdq      gap      omega  full diag
   1   -191.1480294 -0.191148E+03  0.183E-02    2.46       0.0  T
   2   -191.1480302 -0.728073E-06  0.108E-02    2.46       1.0  T
   3   -191.1480281  0.207269E-05  0.492E-03    2.46       1.9  T
   4   -191.1480305 -0.244307E-05  0.732E-04    2.46      12.6  T
   5   -191.1480306 -0.350392E-07  0.262E-04    2.46      35.3  T
   6   -191.1480306 -0.162186E-08  0.151E-04    2.46      61.1  T
   7   -191.1480306 -0.374001E-09  0.885E-05    2.46     104.5  T
     SCC iter.                  ...        0 min,  0.202 sec
     gradient                   ...        0 min,  0.293 sec
 * total energy  :  -188.2224672 Eh     change       -0.1227541E-04 Eh
   gradient norm :     0.0013397 Eh/α   predicted    -0.8269930E-05 ( -32.63%)
   displ. norm   :     0.0334445 α      lambda       -0.3568418E-05
   maximum displ.:     0.0183154 α      in ANC's #4, #5, #43, ...

........................................................................
.............................. CYCLE  228 ..............................
........................................................................

 iter      E             dE          RMSdq      gap      omega  full diag
   1   -191.1483869 -0.191148E+03  0.410E-03    2.46       0.0  T
   2   -191.1483870 -0.288736E-07  0.244E-03    2.46       3.8  T
   3   -191.1483869  0.786735E-07  0.855E-04    2.46      10.8  T
   4   -191.1483870 -0.890353E-07  0.183E-04    2.46      50.5  T
   5   -191.1483870 -0.302313E-08  0.760E-05    2.46     121.6  T
     SCC iter.                  ...        0 min,  0.164 sec
     gradient                   ...        0 min,  0.331 sec
 * total energy  :  -188.2224718 Eh     change       -0.4574222E-05 Eh
   gradient norm :     0.0010287 Eh/α   predicted    -0.1794105E-05 ( -60.78%)
   displ. norm   :     0.0971591 α      lambda       -0.1011365E-04
   maximum displ.:     0.0533459 α      in ANC's #4, #5, #6, ...

........................................................................
.............................. CYCLE  229 ..............................
........................................................................

 iter      E             dE          RMSdq      gap      omega  full diag
   1   -191.1490213 -0.191149E+03  0.133E-02    2.46       0.0  T
   2   -191.1490216 -0.316711E-06  0.793E-03    2.46       1.2  T
   3   -191.1490206  0.100908E-05  0.305E-03    2.46       3.0  T
   4   -191.1490218 -0.116691E-05  0.551E-04    2.46      16.8  T
   5   -191.1490218 -0.262034E-07  0.233E-04    2.46      39.6  T
   6   -191.1490218 -0.139016E-08  0.137E-04    2.46      67.5  T
   7   -191.1490218 -0.757780E-09  0.581E-05    2.46     159.1  T
     SCC iter.                  ...        0 min,  0.188 sec
     gradient                   ...        0 min,  0.341 sec
 * total energy  :  -188.2224815 Eh     change       -0.9715477E-05 Eh
   gradient norm :     0.0008708 Eh/α   predicted    -0.5081192E-05 ( -47.70%)
   displ. norm   :     0.1191723 α      lambda       -0.6698026E-05
   maximum displ.:     0.0663209 α      in ANC's #4, #5, #2, ...

........................................................................
.............................. CYCLE  230 ..............................
........................................................................

 iter      E             dE          RMSdq      gap      omega  full diag
   1   -191.1486485 -0.191149E+03  0.132E-02    2.46       0.0  T
   2   -191.1486486 -0.145990E-06  0.778E-03    2.46       1.2  T
   3   -191.1486479  0.711562E-06  0.247E-03    2.46       3.7  T
   4   -191.1486487 -0.798466E-06  0.409E-04    2.46      22.6  T
   5   -191.1486487 -0.105024E-07  0.200E-04    2.46      46.1  T
   6   -191.1486487 -0.107110E-08  0.114E-04    2.46      81.3  T
   7   -191.1486487 -0.462933E-09  0.404E-05    2.46     229.1  T
     SCC iter.                  ...        0 min,  0.202 sec
     gradient                   ...        0 min,  0.380 sec
 * total energy  :  -188.2224886 Eh     change       -0.7097691E-05 Eh
   gradient norm :     0.0010142 Eh/α   predicted    -0.3376449E-05 ( -52.43%)
   displ. norm   :     0.1030190 α      lambda       -0.5813587E-05
   maximum displ.:     0.0597781 α      in ANC's #4, #5, #3, ...

........................................................................
.............................. CYCLE  231 ..............................
........................................................................

 iter      E             dE          RMSdq      gap      omega  full diag
   1   -191.1485607 -0.191149E+03  0.113E-02    2.46       0.0  T
   2   -191.1485607 -0.547670E-07  0.663E-03    2.46       1.4  T
   3   -191.1485603  0.472248E-06  0.198E-03    2.46       4.7  T
   4   -191.1485608 -0.528461E-06  0.250E-04    2.46      37.0  T
   5   -191.1485608 -0.207430E-08  0.152E-04    2.46      60.9  T
   6   -191.1485608 -0.678341E-09  0.759E-05    2.46     121.9  T
     SCC iter.                  ...        0 min,  0.215 sec
     gradient                   ...        0 min,  0.418 sec
 * total energy  :  -188.2224960 Eh     change       -0.7368681E-05 Eh
   gradient norm :     0.0008501 Eh/α   predicted    -0.2925305E-05 ( -60.30%)
   displ. norm   :     0.1438216 α      lambda       -0.8358231E-05
   maximum displ.:     0.0836124 α      in ANC's #4, #3, #5, ...

........................................................................
.............................. CYCLE  232 ..............................
........................................................................

 iter      E             dE          RMSdq      gap      omega  full diag
   1   -191.1480741 -0.191148E+03  0.152E-02    2.46       0.0  T
   2   -191.1480742 -0.999790E-07  0.898E-03    2.46       1.0  T
   3   -191.1480736  0.589320E-06  0.234E-03    2.46       4.0  T
   4   -191.1480743 -0.656886E-06  0.354E-04    2.46      26.1  T
   5   -191.1480743 -0.584623E-08  0.183E-04    2.46      50.4  T
   6   -191.1480743 -0.631104E-09  0.109E-04    2.46      84.7  T
     SCC iter.                  ...        0 min,  0.211 sec
     gradient                   ...        0 min,  0.351 sec
 * total energy  :  -188.2225055 Eh     change       -0.9575230E-05 Eh
   gradient norm :     0.0008107 Eh/α   predicted    -0.4217875E-05 ( -55.95%)
   displ. norm   :     0.1348494 α      lambda       -0.7586592E-05
   maximum displ.:     0.0810484 α      in ANC's #4, #3, #2, ...

........................................................................
.............................. CYCLE  233 ..............................
........................................................................

 iter      E             dE          RMSdq      gap      omega  full diag
   1   -191.1482902 -0.191148E+03  0.143E-02    2.46       0.0  T
   2   -191.1482903 -0.134973E-06  0.847E-03    2.46       1.1  T
   3   -191.1482899  0.432283E-06  0.210E-03    2.46       4.4  T
   4   -191.1482904 -0.479981E-06  0.450E-04    2.46      20.5  T
   5   -191.1482904 -0.147748E-07  0.187E-04    2.46      49.5  T
   6   -191.1482904 -0.274952E-09  0.116E-04    2.46      79.5  T
     SCC iter.                  ...        0 min,  0.223 sec
     gradient                   ...        0 min,  0.402 sec
 * total energy  :  -188.2225128 Eh     change       -0.7266590E-05 Eh
   gradient norm :     0.0008552 Eh/α   predicted    -0.3824973E-05 ( -47.36%)
   displ. norm   :     0.1193927 α      lambda       -0.4996451E-05
   maximum displ.:     0.0708962 α      in ANC's #4, #3, #2, ...

........................................................................
.............................. CYCLE  234 ..............................
........................................................................

 iter      E             dE          RMSdq      gap      omega  full diag
   1   -191.1480299 -0.191148E+03  0.119E-02    2.46       0.0  T
   2   -191.1480300 -0.700167E-07  0.705E-03    2.46       1.3  T
   3   -191.1480299  0.110784E-06  0.112E-03    2.46       8.3  T
   4   -191.1480300 -0.124635E-06  0.353E-04    2.46      26.2  T
   5   -191.1480300 -0.844835E-08  0.135E-04    2.46      68.5  T
   6   -191.1480300 -0.795239E-10  0.782E-05    2.46     118.3  T
     SCC iter.                  ...        0 min,  0.191 sec
     gradient                   ...        0 min,  0.311 sec
 * total energy  :  -188.2225185 Eh     change       -0.5648503E-05 Eh
   gradient norm :     0.0007185 Eh/α   predicted    -0.2514826E-05 ( -55.48%)
   displ. norm   :     0.0932660 α      lambda       -0.4111509E-05
   maximum displ.:     0.0575382 α      in ANC's #4, #3, #2, ...

........................................................................
.............................. CYCLE  235 ..............................
........................................................................

 iter      E             dE          RMSdq      gap      omega  full diag
   1   -191.1481244 -0.191148E+03  0.859E-03    2.46       0.0  T
   2   -191.1481244 -0.525611E-07  0.509E-03    2.46       1.8  T
   3   -191.1481243  0.133327E-06  0.113E-03    2.46       8.2  T
   4   -191.1481244 -0.149094E-06  0.254E-04    2.46      36.4  T
   5   -191.1481245 -0.486619E-08  0.101E-04    2.46      91.6  T
   6   -191.1481245 -0.102972E-09  0.628E-05    2.46     147.2  T
     SCC iter.                  ...        0 min,  0.183 sec
     gradient                   ...        0 min,  0.211 sec
 * total energy  :  -188.2225237 Eh     change       -0.5224129E-05 Eh
   gradient norm :     0.0004959 Eh/α   predicted    -0.2066982E-05 ( -60.43%)
   displ. norm   :     0.1264890 α      lambda       -0.5643888E-05
   maximum displ.:     0.0780506 α      in ANC's #4, #2, #3, ...

........................................................................
.............................. CYCLE  236 ..............................
........................................................................

 iter      E             dE          RMSdq      gap      omega  full diag
   1   -191.1484707 -0.191148E+03  0.112E-02    2.46       0.0  T
   2   -191.1484708 -0.100670E-06  0.664E-03    2.46       1.4  T
   3   -191.1484705  0.360644E-06  0.185E-03    2.46       5.0  T
   4   -191.1484709 -0.400916E-06  0.357E-04    2.46      25.9  T
   5   -191.1484709 -0.107800E-07  0.148E-04    2.46      62.6  T
   6   -191.1484709 -0.510909E-09  0.904E-05    2.46     102.3  T
     SCC iter.                  ...        0 min,  0.140 sec
     gradient                   ...        0 min,  0.256 sec
 * total energy  :  -188.2225305 Eh     change       -0.6801300E-05 Eh
   gradient norm :     0.0004300 Eh/α   predicted    -0.2843943E-05 ( -58.19%)
   displ. norm   :     0.1487087 α      lambda       -0.5366218E-05
   maximum displ.:     0.0912996 α      in ANC's #4, #2, #3, ...

........................................................................
.............................. CYCLE  237 ..............................
........................................................................

 iter      E             dE          RMSdq      gap      omega  full diag
   1   -191.1484628 -0.191148E+03  0.127E-02    2.46       0.0  T
   2   -191.1484630 -0.104830E-06  0.748E-03    2.46       1.2  T
   3   -191.1484626  0.325793E-06  0.174E-03    2.46       5.3  T
   4   -191.1484630 -0.357230E-06  0.420E-04    2.46      22.0  T
   5   -191.1484630 -0.172188E-07  0.163E-04    2.46      56.8  T
   6   -191.1484630 -0.738964E-09  0.975E-05    2.46      94.8  T
     SCC iter.                  ...        0 min,  0.171 sec
     gradient                   ...        0 min,  0.309 sec
 * total energy  :  -188.2225370 Eh     change       -0.6497613E-05 Eh
   gradient norm :     0.0006796 Eh/α   predicted    -0.2710295E-05 ( -58.29%)
   displ. norm   :     0.1531324 α      lambda       -0.5002301E-05
   maximum displ.:     0.0935191 α      in ANC's #4, #2, #5, ...

........................................................................
.............................. CYCLE  238 ..............................
........................................................................

 iter      E             dE          RMSdq      gap      omega  full diag
   1   -191.1484990 -0.191148E+03  0.127E-02    2.46       0.0  T
   2   -191.1484991 -0.865388E-07  0.750E-03    2.46       1.2  T
   3   -191.1484989  0.204380E-06  0.138E-03    2.46       6.7  T
   4   -191.1484991 -0.221044E-06  0.429E-04    2.46      21.6  T
   5   -191.1484991 -0.189541E-07  0.158E-04    2.46      58.4  T
   6   -191.1484991 -0.669161E-09  0.905E-05    2.46     102.2  T
     SCC iter.                  ...        0 min,  0.155 sec
     gradient                   ...        0 min,  0.328 sec
 * total energy  :  -188.2225435 Eh     change       -0.6484644E-05 Eh
   gradient norm :     0.0007092 Eh/α   predicted    -0.2530533E-05 ( -60.98%)
   displ. norm   :     0.1795310 α      lambda       -0.5984798E-05
   maximum displ.:     0.1092583 α      in ANC's #4, #2, #5, ...

........................................................................
.............................. CYCLE  239 ..............................
........................................................................

 iter      E             dE          RMSdq      gap      omega  full diag
   1   -191.1483504 -0.191148E+03  0.144E-02    2.46       0.0  T
   2   -191.1483505 -0.106969E-06  0.848E-03    2.46       1.1  T
   3   -191.1483502  0.309914E-06  0.170E-03    2.46       5.4  T
   4   -191.1483506 -0.342153E-06  0.464E-04    2.46      19.9  T
   5   -191.1483506 -0.192111E-07  0.177E-04    2.46      52.1  T
   6   -191.1483506 -0.749537E-09  0.102E-04    2.46      90.6  T
     SCC iter.                  ...        0 min,  0.196 sec
     gradient                   ...        0 min,  0.290 sec
 * total energy  :  -188.2225512 Eh     change       -0.7754635E-05 Eh
   gradient norm :     0.0006010 Eh/α   predicted    -0.3038475E-05 ( -60.82%)
   displ. norm   :     0.2203562 α      lambda       -0.6995091E-05
   maximum displ.:     0.1338922 α      in ANC's #4, #2, #5, ...

........................................................................
.............................. CYCLE  240 ..............................
........................................................................

 iter      E             dE          RMSdq      gap      omega  full diag
   1   -191.1481513 -0.191148E+03  0.171E-02    2.46       0.0  T
   2   -191.1481515 -0.155106E-06  0.100E-02    2.47       1.0  T
   3   -191.1481508  0.623386E-06  0.241E-03    2.46       3.8  T
   4   -191.1481515 -0.694826E-06  0.527E-04    2.47      17.5  T
   5   -191.1481515 -0.212052E-07  0.218E-04    2.47      42.4  T
   6   -191.1481516 -0.110671E-08  0.128E-04    2.47      72.0  T
   7   -191.1481516 -0.492349E-09  0.454E-05    2.47     203.7  T
     SCC iter.                  ...        0 min,  0.230 sec
     gradient                   ...        0 min,  0.307 sec
 * total energy  :  -188.2225600 Eh     change       -0.8752859E-05 Eh
   gradient norm :     0.0005039 Eh/α   predicted    -0.3577929E-05 ( -59.12%)
   displ. norm   :     0.2333616 α      lambda       -0.6789594E-05
   maximum displ.:     0.1419281 α      in ANC's #4, #2, #5, ...

........................................................................
.............................. CYCLE  241 ..............................
........................................................................

 iter      E             dE          RMSdq      gap      omega  full diag
   1   -191.1479788 -0.191148E+03  0.175E-02    2.47       0.0  T
   2   -191.1479790 -0.163362E-06  0.103E-02    2.47       1.0  T
   3   -191.1479783  0.707696E-06  0.257E-03    2.47       3.6  T
   4   -191.1479791 -0.794356E-06  0.529E-04    2.47      17.5  T
   5   -191.1479791 -0.194588E-07  0.235E-04    2.47      39.3  T
   6   -191.1479791 -0.127599E-08  0.139E-04    2.47      66.7  T
   7   -191.1479791 -0.594355E-09  0.494E-05    2.47     187.1  T
     SCC iter.                  ...        0 min,  0.196 sec
     gradient                   ...        0 min,  0.319 sec
 * total energy  :  -188.2225683 Eh     change       -0.8371984E-05 Eh
   gradient norm :     0.0006173 Eh/α   predicted    -0.3480762E-05 ( -58.42%)
   displ. norm   :     0.2344432 α      lambda       -0.6571024E-05
   maximum displ.:     0.1428188 α      in ANC's #4, #2, #5, ...

........................................................................
.............................. CYCLE  242 ..............................
........................................................................

 iter      E             dE          RMSdq      gap      omega  full diag
   1   -191.1478633 -0.191148E+03  0.173E-02    2.47       0.0  T
   2   -191.1478634 -0.157284E-06  0.102E-02    2.47       1.0  T
   3   -191.1478629  0.576345E-06  0.235E-03    2.47       3.9  T
   4   -191.1478635 -0.653661E-06  0.527E-04    2.47      17.5  T
   5   -191.1478635 -0.183264E-07  0.239E-04    2.47      38.7  T
   6   -191.1478635 -0.977309E-09  0.141E-04    2.47      65.5  T
   7   -191.1478635 -0.733905E-09  0.477E-05    2.47     193.9  T
     SCC iter.                  ...        0 min,  0.183 sec
     gradient                   ...        0 min,  0.326 sec
 * total energy  :  -188.2225766 Eh     change       -0.8249667E-05 Eh
   gradient norm :     0.0006911 Eh/α   predicted    -0.3368786E-05 ( -59.16%)
   displ. norm   :     0.2518100 α      lambda       -0.7214413E-05
   maximum displ.:     0.1537568 α      in ANC's #4, #2, #3, ...

........................................................................
.............................. CYCLE  243 ..............................
........................................................................

 iter      E             dE          RMSdq      gap      omega  full diag
   1   -191.1478510 -0.191148E+03  0.188E-02    2.47       0.0  T
   2   -191.1478512 -0.198139E-06  0.111E-02    2.47       1.0  T
   3   -191.1478506  0.551197E-06  0.238E-03    2.47       3.9  T
   4   -191.1478513 -0.639196E-06  0.589E-04    2.47      15.7  T
   5   -191.1478513 -0.206661E-07  0.278E-04    2.47      33.2  T
   6   -191.1478513 -0.133227E-08  0.161E-04    2.47      57.4  T
   7   -191.1478513 -0.969948E-09  0.534E-05    2.47     173.2  T
     SCC iter.                  ...        0 min,  0.214 sec
     gradient                   ...        0 min,  0.316 sec
 * total energy  :  -188.2225854 Eh     change       -0.8789778E-05 Eh
   gradient norm :     0.0006646 Eh/α   predicted    -0.3713727E-05 ( -57.75%)
   displ. norm   :     0.2443967 α      lambda       -0.6825976E-05
   maximum displ.:     0.1497045 α      in ANC's #4, #2, #3, ...

........................................................................
.............................. CYCLE  244 ..............................
........................................................................

 iter      E             dE          RMSdq      gap      omega  full diag
   1   -191.1478443 -0.191148E+03  0.184E-02    2.47       0.0  T
   2   -191.1478445 -0.198921E-06  0.108E-02    2.47       1.0  T
   3   -191.1478440  0.462447E-06  0.223E-03    2.47       4.1  T
   4   -191.1478446 -0.549174E-06  0.568E-04    2.47      16.3  T
   5   -191.1478446 -0.169883E-07  0.278E-04    2.47      33.3  T
   6   -191.1478446 -0.106763E-08  0.162E-04    2.47      57.0  T
   7   -191.1478446 -0.111604E-08  0.512E-05    2.47     180.5  T
     SCC iter.                  ...        0 min,  0.192 sec
     gradient                   ...        0 min,  0.335 sec
 * total energy  :  -188.2225937 Eh     change       -0.8285903E-05 Eh
   gradient norm :     0.0005053 Eh/α   predicted    -0.3507783E-05 ( -57.67%)
   displ. norm   :     0.2196358 α      lambda       -0.6103987E-05
   maximum displ.:     0.1347526 α      in ANC's #4, #2, #3, ...

........................................................................
.............................. CYCLE  245 ..............................
........................................................................

 iter      E             dE          RMSdq      gap      omega  full diag
   1   -191.1480078 -0.191148E+03  0.170E-02    2.47       0.0  T
   2   -191.1480080 -0.186622E-06  0.100E-02    2.47       1.0  T
   3   -191.1480075  0.464889E-06  0.222E-03    2.47       4.2  T
   4   -191.1480081 -0.553528E-06  0.515E-04    2.47      17.9  T
   5   -191.1480081 -0.118629E-07  0.267E-04    2.47      34.6  T
   6   -191.1480081 -0.952667E-09  0.156E-04    2.47      59.1  T
   7   -191.1480081 -0.108304E-08  0.496E-05    2.47     186.4  T
     SCC iter.                  ...        0 min,  0.214 sec
     gradient                   ...        0 min,  0.312 sec
 * total energy  :  -188.2226010 Eh     change       -0.7371205E-05 Eh
   gradient norm :     0.0004153 Eh/α   predicted    -0.3118815E-05 ( -57.69%)
   displ. norm   :     0.1912575 α      lambda       -0.5213337E-05
   maximum displ.:     0.1171580 α      in ANC's #4, #2, #3, ...

........................................................................
.............................. CYCLE  246 ..............................
........................................................................

 iter      E             dE          RMSdq      gap      omega  full diag
   1   -191.1481032 -0.191148E+03  0.151E-02    2.47       0.0  T
   2   -191.1481033 -0.138506E-06  0.888E-03    2.47       1.0  T
   3   -191.1481029  0.400319E-06  0.201E-03    2.47       4.6  T
   4   -191.1481034 -0.473423E-06  0.446E-04    2.47      20.7  T
   5   -191.1481034 -0.763887E-08  0.236E-04    2.47      39.1  T
   6   -191.1481034 -0.799645E-09  0.134E-04    2.47      68.9  T
   7   -191.1481034 -0.914383E-09  0.429E-05    2.47     215.3  T
     SCC iter.                  ...        0 min,  0.236 sec
     gradient                   ...        0 min,  0.321 sec
 * total energy  :  -188.2226074 Eh     change       -0.6391076E-05 Eh
   gradient norm :     0.0004470 Eh/α   predicted    -0.2652307E-05 ( -58.50%)
   displ. norm   :     0.1971024 α      lambda       -0.5088895E-05
   maximum displ.:     0.1199938 α      in ANC's #4, #2, #3, ...

........................................................................
.............................. CYCLE  247 ..............................
........................................................................

 iter      E             dE          RMSdq      gap      omega  full diag
   1   -191.1481584 -0.191148E+03  0.160E-02    2.47       0.0  T
   2   -191.1481585 -0.147510E-06  0.940E-03    2.47       1.0  T
   3   -191.1481582  0.347383E-06  0.188E-03    2.48       4.9  T
   4   -191.1481586 -0.412282E-06  0.468E-04    2.48      19.7  T
   5   -191.1481586 -0.102503E-07  0.239E-04    2.48      38.7  T
   6   -191.1481586 -0.717080E-09  0.132E-04    2.48      70.0  T
   7   -191.1481586 -0.934335E-09  0.430E-05    2.48     215.0  T
     SCC iter.                  ...        0 min,  0.184 sec
     gradient                   ...        0 min,  0.307 sec
 * total energy  :  -188.2226135 Eh     change       -0.6086923E-05 Eh
   gradient norm :     0.0004953 Eh/α   predicted    -0.2590282E-05 ( -57.45%)
   displ. norm   :     0.2010849 α      lambda       -0.4602809E-05
   maximum displ.:     0.1218512 α      in ANC's #4, #2, #3, ...

........................................................................
.............................. CYCLE  248 ..............................
........................................................................

 iter      E             dE          RMSdq      gap      omega  full diag
   1   -191.1482045 -0.191148E+03  0.167E-02    2.48       0.0  T
   2   -191.1482046 -0.125187E-06  0.979E-03    2.48       1.0  T
   3   -191.1482044  0.227691E-06  0.157E-03    2.48       5.9  T
   4   -191.1482047 -0.278642E-06  0.462E-04    2.48      20.0  T
   5   -191.1482047 -0.101349E-07  0.237E-04    2.48      38.9  T
   6   -191.1482047 -0.117558E-08  0.120E-04    2.48      76.9  T
   7   -191.1482047 -0.755762E-09  0.425E-05    2.48     217.7  T
     SCC iter.                  ...        0 min,  0.227 sec
     gradient                   ...        0 min,  0.367 sec
 * total energy  :  -188.2226189 Eh     change       -0.5337522E-05 Eh
   gradient norm :     0.0004544 Eh/α   predicted    -0.2345161E-05 ( -56.06%)
   displ. norm   :     0.1759110 α      lambda       -0.3610180E-05
   maximum displ.:     0.1059780 α      in ANC's #4, #2, #3, ...

........................................................................
.............................. CYCLE  249 ..............................
........................................................................

 iter      E             dE          RMSdq      gap      omega  full diag
   1   -191.1481618 -0.191148E+03  0.153E-02    2.48       0.0  T
   2   -191.1481619 -0.811166E-07  0.897E-03    2.48       1.0  T
   3   -191.1481617  0.120262E-06  0.115E-03    2.48       8.0  T
   4   -191.1481619 -0.151187E-06  0.363E-04    2.48      25.5  T
   5   -191.1481619 -0.595409E-08  0.195E-04    2.48      47.4  T
   6   -191.1481619 -0.109890E-08  0.939E-05    2.48      98.5  T
     SCC iter.                  ...        0 min,  0.197 sec
     gradient                   ...        0 min,  0.339 sec
 * total energy  :  -188.2226229 Eh     change       -0.4053353E-05 Eh
   gradient norm :     0.0004098 Eh/α   predicted    -0.1831504E-05 ( -54.82%)
   displ. norm   :     0.1630791 α      lambda       -0.3004835E-05
   maximum displ.:     0.0976016 α      in ANC's #4, #2, #3, ...

........................................................................
.............................. CYCLE  250 ..............................
........................................................................

 iter      E             dE          RMSdq      gap      omega  full diag
   1   -191.1483662 -0.191148E+03  0.143E-02    2.48       0.0  T
   2   -191.1483663 -0.699966E-07  0.834E-03    2.48       1.1  T
   3   -191.1483661  0.180558E-06  0.129E-03    2.48       7.2  T
   4   -191.1483663 -0.212028E-06  0.327E-04    2.48      28.3  T
   5   -191.1483663 -0.543167E-08  0.177E-04    2.48      52.3  T
   6   -191.1483663 -0.782080E-09  0.875E-05    2.48     105.6  T
     SCC iter.                  ...        0 min,  0.215 sec
     gradient                   ...        0 min,  0.367 sec
 * total energy  :  -188.2226261 Eh     change       -0.3158923E-05 Eh
   gradient norm :     0.0003474 Eh/α   predicted    -0.1522206E-05 ( -51.81%)
   displ. norm   :     0.1212160 α      lambda       -0.2212949E-05
   maximum displ.:     0.0711508 α      in ANC's #4, #2, #3, ...

........................................................................
.............................. CYCLE  251 ..............................
........................................................................

 iter      E             dE          RMSdq      gap      omega  full diag
   1   -191.1482333 -0.191148E+03  0.116E-02    2.48       0.0  T
   2   -191.1482333 -0.432106E-07  0.679E-03    2.48       1.4  T
   3   -191.1482331  0.248261E-06  0.139E-03    2.48       6.6  T
   4   -191.1482334 -0.279535E-06  0.222E-04    2.48      41.6  T
   5   -191.1482334 -0.204358E-08  0.125E-04    2.48      74.0  T
   6   -191.1482334 -0.417856E-09  0.627E-05    2.48     147.4  T
     SCC iter.                  ...        0 min,  0.230 sec
     gradient                   ...        0 min,  0.357 sec
 * total energy  :  -188.2226284 Eh     change       -0.2353350E-05 Eh
   gradient norm :     0.0003967 Eh/α   predicted    -0.1115592E-05 ( -52.60%)
   displ. norm   :     0.1012909 α      lambda       -0.2044930E-05
   maximum displ.:     0.0573961 α      in ANC's #4, #2, #3, ...

........................................................................
.............................. CYCLE  252 ..............................
........................................................................

 iter      E             dE          RMSdq      gap      omega  full diag
   1   -191.1484020 -0.191148E+03  0.962E-03    2.48       0.0  T
   2   -191.1484020 -0.392249E-07  0.566E-03    2.48       1.6  T
   3   -191.1484016  0.384853E-06  0.173E-03    2.48       5.3  T
   4   -191.1484020 -0.427344E-06  0.185E-04    2.48      49.9  T
   5   -191.1484020 -0.156712E-08  0.102E-04    2.48      90.2  T
   6   -191.1484020 -0.277311E-09  0.554E-05    2.48     167.0  T
     SCC iter.                  ...        0 min,  0.173 sec
     gradient                   ...        0 min,  0.289 sec
 * total energy  :  -188.2226307 Eh     change       -0.2326961E-05 Eh
   gradient norm :     0.0003989 Eh/α   predicted    -0.1028307E-05 ( -55.81%)
   displ. norm   :     0.1013577 α      lambda       -0.2209467E-05
   maximum displ.:     0.0550140 α      in ANC's #4, #1, #2, ...

........................................................................
.............................. CYCLE  253 ..............................
........................................................................

 iter      E             dE          RMSdq      gap      omega  full diag
   1   -191.1483429 -0.191148E+03  0.104E-02    2.48       0.0  T
   2   -191.1483430 -0.489654E-07  0.612E-03    2.48       1.5  T
   3   -191.1483426  0.352333E-06  0.168E-03    2.48       5.5  T
   4   -191.1483430 -0.392847E-06  0.211E-04    2.48      43.8  T
   5   -191.1483430 -0.234533E-08  0.110E-04    2.48      83.9  T
   6   -191.1483430 -0.332392E-09  0.607E-05    2.48     152.2  T
     SCC iter.                  ...        0 min,  0.147 sec
     gradient                   ...        0 min,  0.318 sec
 * total energy  :  -188.2226333 Eh     change       -0.2509403E-05 Eh
   gradient norm :     0.0003932 Eh/α   predicted    -0.1113524E-05 ( -55.63%)
   displ. norm   :     0.1035014 α      lambda       -0.2171694E-05
   maximum displ.:     0.0539907 α      in ANC's #4, #1, #2, ...

........................................................................
.............................. CYCLE  254 ..............................
........................................................................

 iter      E             dE          RMSdq      gap      omega  full diag
   1   -191.1483852 -0.191148E+03  0.109E-02    2.48       0.0  T
   2   -191.1483852 -0.455449E-07  0.643E-03    2.48       1.4  T
   3   -191.1483848  0.417580E-06  0.183E-03    2.48       5.0  T
   4   -191.1483853 -0.465457E-06  0.212E-04    2.48      43.7  T
   5   -191.1483853 -0.159517E-08  0.118E-04    2.48      78.0  T
   6   -191.1483853 -0.360018E-09  0.613E-05    2.48     150.7  T
     SCC iter.                  ...        0 min,  0.167 sec
     gradient                   ...        0 min,  0.330 sec
 * total energy  :  -188.2226356 Eh     change       -0.2335232E-05 Eh
   gradient norm :     0.0002973 Eh/α   predicted    -0.1094023E-05 ( -53.15%)
   displ. norm   :     0.0813093 α      lambda       -0.1604773E-05
   maximum displ.:     0.0412774 α      in ANC's #4, #1, #2, ...

........................................................................
.............................. CYCLE  255 ..............................
........................................................................

 iter      E             dE          RMSdq      gap      omega  full diag
   1   -191.1483665 -0.191148E+03  0.887E-03    2.48       0.0  T
   2   -191.1483665 -0.307781E-07  0.521E-03    2.48       1.8  T
   3   -191.1483664  0.103966E-06  0.970E-04    2.48       9.5  T
   4   -191.1483666 -0.118684E-06  0.196E-04    2.48      47.3  T
   5   -191.1483666 -0.240757E-08  0.945E-05    2.48      97.9  T
     SCC iter.                  ...        0 min,  0.134 sec
     gradient                   ...        0 min,  0.325 sec
 * total energy  :  -188.2226373 Eh     change       -0.1755716E-05 Eh
   gradient norm :     0.0003178 Eh/α   predicted    -0.8079092E-06 ( -53.98%)
   displ. norm   :     0.0664645 α      lambda       -0.1242232E-05
   maximum displ.:     0.0341929 α      in ANC's #1, #4, #2, ...

........................................................................
.............................. CYCLE  256 ..............................
........................................................................

 iter      E             dE          RMSdq      gap      omega  full diag
   1   -191.1483615 -0.191148E+03  0.708E-03    2.48       0.0  T
   2   -191.1483615 -0.184432E-07  0.418E-03    2.48       2.2  T
   3   -191.1483615  0.436992E-07  0.649E-04    2.48      14.2  T
   4   -191.1483615 -0.504703E-07  0.171E-04    2.48      54.0  T
   5   -191.1483615 -0.219919E-08  0.793E-05    2.48     116.6  T
     SCC iter.                  ...        0 min,  0.149 sec
     gradient                   ...        0 min,  0.300 sec
 * total energy  :  -188.2226387 Eh     change       -0.1372954E-05 Eh
   gradient norm :     0.0002818 Eh/α   predicted    -0.6238343E-06 ( -54.56%)
   displ. norm   :     0.0432647 α      lambda       -0.8684660E-06
   maximum displ.:     0.0241302 α      in ANC's #1, #2, #4, ...

........................................................................
.............................. CYCLE  257 ..............................
........................................................................

 iter      E             dE          RMSdq      gap      omega  full diag
   1   -191.1484289 -0.191148E+03  0.484E-03    2.48       0.0  T
   2   -191.1484289 -0.159262E-07  0.285E-03    2.48       3.2  T
   3   -191.1484288  0.389143E-07  0.604E-04    2.48      15.3  T
   4   -191.1484289 -0.425367E-07  0.171E-04    2.48      53.9  T
   5   -191.1484289 -0.265666E-08  0.652E-05    2.48     141.7  T
     SCC iter.                  ...        0 min,  0.146 sec
     gradient                   ...        0 min,  0.288 sec
 * total energy  :  -188.2226397 Eh     change       -0.9767430E-06 Eh
   gradient norm :     0.0002429 Eh/α   predicted    -0.4393947E-06 ( -55.01%)
   displ. norm   :     0.0336494 α      lambda       -0.6321681E-06
   maximum displ.:     0.0198391 α      in ANC's #1, #2, #4, ...

........................................................................
.............................. CYCLE  258 ..............................
........................................................................

 iter      E             dE          RMSdq      gap      omega  full diag
   1   -191.1484481 -0.191148E+03  0.403E-03    2.48       0.0  T
   2   -191.1484481 -0.105580E-07  0.237E-03    2.48       3.9  T
   3   -191.1484481  0.290959E-07  0.521E-04    2.48      17.7  T
   4   -191.1484481 -0.320392E-07  0.143E-04    2.48      64.8  T
   5   -191.1484481 -0.166585E-08  0.570E-05    2.48     162.3  T
     SCC iter.                  ...        0 min,  0.147 sec
     gradient                   ...        0 min,  0.309 sec
 * total energy  :  -188.2226404 Eh     change       -0.7127205E-06 Eh
   gradient norm :     0.0001698 Eh/α   predicted    -0.3197862E-06 ( -55.13%)
   displ. norm   :     0.0269800 α      lambda       -0.5056161E-06
   maximum displ.:     0.0168779 α      in ANC's #1, #2, #6, ...
 * RMSD in coord.:     0.3931859 α      energy gain  -0.2931876E-03 Eh

generating ANC from exact Hessian ...
Using Lindh-Hessian (1995)
 Shifting diagonal of input Hessian by    9.9719696169381332E-003
 Lowest  eigenvalues of input Hessian
    0.000000    0.000000    0.000000    0.000000    0.000000    0.000000
    0.010000    0.010046    0.010073    0.010142    0.010227    0.010267
    0.010343    0.010382    0.010512    0.010576    0.010631    0.010751
 Highest eigenvalues
    2.152392    2.158662    2.332167    2.348834    2.394883    3.146870


........................................................................
.............................. CYCLE  259 ..............................
........................................................................

 iter      E             dE          RMSdq      gap      omega  full diag
   1   -191.1484829 -0.191148E+03  0.354E-03    2.48       0.0  T
   2   -191.1484829 -0.647233E-08  0.208E-03    2.48       4.4  T
   3   -191.1484829  0.190070E-07  0.428E-04    2.48      21.6  T
   4   -191.1484829 -0.213458E-07  0.103E-04    2.48      90.1  T
   5   -191.1484830 -0.716597E-09  0.436E-05    2.48     212.0  T
     SCC iter.                  ...        0 min,  0.136 sec
     gradient                   ...        0 min,  0.355 sec
 * total energy  :  -188.2226410 Eh     change       -0.6261503E-06 Eh
   gradient norm :     0.0001647 Eh/α   predicted     0.0000000E+00 (-100.00%)
   displ. norm   :     0.0065463 α      lambda       -0.2564466E-07
   maximum displ.:     0.0034544 α      in ANC's #1, #4, #7, ...

........................................................................
.............................. CYCLE  260 ..............................
........................................................................

 iter      E             dE          RMSdq      gap      omega  full diag
   1   -191.1484641 -0.191148E+03  0.874E-04    2.48       0.0  T
   2   -191.1484641 -0.125615E-08  0.519E-04    2.48      17.8  T
   3   -191.1484641  0.328723E-08  0.186E-04    2.48      49.8  T
   4   -191.1484641 -0.374791E-08  0.360E-05    2.48     256.5  T
     SCC iter.                  ...        0 min,  0.108 sec
     gradient                   ...        0 min,  0.319 sec
 * total energy  :  -188.2226414 Eh     change       -0.3573688E-06 Eh
   gradient norm :     0.0000860 Eh/α   predicted    -0.1369095E-06 ( -61.69%)
   displ. norm   :     0.0278772 α      lambda       -0.6982910E-06
   maximum displ.:     0.0140312 α      in ANC's #1, #4, #10, ...

........................................................................
.............................. CYCLE  261 ..............................
........................................................................

 iter      E             dE          RMSdq      gap      omega  full diag
   1   -191.1484421 -0.191148E+03  0.348E-03    2.48       0.0  T
   2   -191.1484421 -0.116992E-07  0.206E-03    2.48       4.5  T
   3   -191.1484421  0.474309E-07  0.673E-04    2.48      13.7  T
   4   -191.1484421 -0.531735E-07  0.126E-04    2.48      73.5  T
   5   -191.1484421 -0.112456E-08  0.573E-05    2.48     161.5  T
     SCC iter.                  ...        0 min,  0.163 sec
     gradient                   ...        0 min,  0.353 sec
 * total energy  :  -188.2226423 Eh     change       -0.9515000E-06 Eh
   gradient norm :     0.0001950 Eh/α   predicted    -0.4538163E-06 ( -52.31%)
   displ. norm   :     0.0254471 α      lambda       -0.4956034E-06
   maximum displ.:     0.0140102 α      in ANC's #1, #4, #10, ...

........................................................................
.............................. CYCLE  262 ..............................
........................................................................

 iter      E             dE          RMSdq      gap      omega  full diag
   1   -191.1484574 -0.191148E+03  0.269E-03    2.48       0.0  T
   2   -191.1484575 -0.457729E-08  0.158E-03    2.48       5.8  T
   3   -191.1484574  0.818287E-08  0.286E-04    2.48      32.3  T
   4   -191.1484575 -0.100043E-07  0.732E-05    2.48     126.3  T
   5   -191.1484575 -0.236440E-09  0.422E-05    2.48     219.2  T
     SCC iter.                  ...        0 min,  0.128 sec
     gradient                   ...        0 min,  0.323 sec
 * total energy  :  -188.2226429 Eh     change       -0.5503273E-06 Eh
   gradient norm :     0.0002067 Eh/α   predicted    -0.2520215E-06 ( -54.21%)
   displ. norm   :     0.0261830 α      lambda       -0.4776024E-06
   maximum displ.:     0.0149893 α      in ANC's #1, #4, #10, ...

........................................................................
.............................. CYCLE  263 ..............................
........................................................................

 iter      E             dE          RMSdq      gap      omega  full diag
   1   -191.1484712 -0.191148E+03  0.246E-03    2.48       0.0  T
   2   -191.1484712 -0.325895E-08  0.145E-03    2.48       6.4  T
   3   -191.1484712  0.145133E-07  0.366E-04    2.48      25.2  T
   4   -191.1484712 -0.168385E-07  0.654E-05    2.48     141.3  T
   5   -191.1484712 -0.101892E-09  0.405E-05    2.48     228.0  T
     SCC iter.                  ...        0 min,  0.170 sec
     gradient                   ...        0 min,  0.348 sec
 * total energy  :  -188.2226435 Eh     change       -0.6139026E-06 Eh
   gradient norm :     0.0001717 Eh/α   predicted    -0.2451245E-06 ( -60.07%)
   displ. norm   :     0.0428241 α      lambda       -0.8627551E-06
   maximum displ.:     0.0246184 α      in ANC's #1, #4, #10, ...

........................................................................
.............................. CYCLE  264 ..............................
........................................................................

 iter      E             dE          RMSdq      gap      omega  full diag
   1   -191.1484877 -0.191148E+03  0.376E-03    2.48       0.0  T
   2   -191.1484877 -0.103142E-07  0.222E-03    2.48       4.2  T
   3   -191.1484877  0.866066E-07  0.870E-04    2.48      10.6  T
   4   -191.1484878 -0.977866E-07  0.111E-04    2.48      83.5  T
   5   -191.1484878 -0.437524E-09  0.637E-05    2.48     145.2  T
     SCC iter.                  ...        0 min,  0.192 sec
     gradient                   ...        0 min,  0.327 sec
 * total energy  :  -188.2226446 Eh     change       -0.1080029E-05 Eh
   gradient norm :     0.0001299 Eh/α   predicted    -0.4342582E-06 ( -59.79%)
   displ. norm   :     0.0614164 α      lambda       -0.1128753E-05
   maximum displ.:     0.0357195 α      in ANC's #1, #4, #10, ...

........................................................................
.............................. CYCLE  265 ..............................
........................................................................

 iter      E             dE          RMSdq      gap      omega  full diag
   1   -191.1484797 -0.191148E+03  0.544E-03    2.48       0.0  T
   2   -191.1484797 -0.225930E-07  0.322E-03    2.48       2.9  T
   3   -191.1484796  0.184834E-06  0.125E-03    2.48       7.4  T
   4   -191.1484798 -0.207422E-06  0.172E-04    2.48      53.9  T
   5   -191.1484798 -0.146778E-08  0.919E-05    2.48     100.6  T
   6   -191.1484798 -0.297348E-09  0.483E-05    2.48     191.4  T
     SCC iter.                  ...        0 min,  0.151 sec
     gradient                   ...        0 min,  0.330 sec
 * total energy  :  -188.2226458 Eh     change       -0.1227257E-05 Eh
   gradient norm :     0.0002185 Eh/α   predicted    -0.5679697E-06 ( -53.72%)
   displ. norm   :     0.0507306 α      lambda       -0.6661726E-06
   maximum displ.:     0.0303784 α      in ANC's #1, #4, #10, ...

........................................................................
.............................. CYCLE  266 ..............................
........................................................................

 iter      E             dE          RMSdq      gap      omega  full diag
   1   -191.1484589 -0.191148E+03  0.441E-03    2.48       0.0  T
   2   -191.1484590 -0.141761E-07  0.260E-03    2.48       3.6  T
   3   -191.1484589  0.996077E-07  0.892E-04    2.48      10.4  T
   4   -191.1484590 -0.111201E-06  0.141E-04    2.48      65.5  T
   5   -191.1484590 -0.127318E-08  0.707E-05    2.48     130.7  T
     SCC iter.                  ...        0 min,  0.163 sec
     gradient                   ...        0 min,  0.333 sec
 * total energy  :  -188.2226465 Eh     change       -0.7248642E-06 Eh
   gradient norm :     0.0001831 Eh/α   predicted    -0.3362310E-06 ( -53.61%)
   displ. norm   :     0.0293396 α      lambda       -0.3780571E-06
   maximum displ.:     0.0182867 α      in ANC's #1, #4, #10, ...

........................................................................
.............................. CYCLE  267 ..............................
........................................................................

 iter      E             dE          RMSdq      gap      omega  full diag
   1   -191.1484647 -0.191148E+03  0.249E-03    2.48       0.0  T
   2   -191.1484647 -0.465889E-08  0.147E-03    2.48       6.3  T
   3   -191.1484646  0.233184E-07  0.438E-04    2.48      21.1  T
   4   -191.1484647 -0.263033E-07  0.764E-05    2.48     121.0  T
   5   -191.1484647 -0.378890E-09  0.390E-05    2.48     236.8  T
     SCC iter.                  ...        0 min,  0.144 sec
     gradient                   ...        0 min,  0.337 sec
 * total energy  :  -188.2226470 Eh     change       -0.5027662E-06 Eh
   gradient norm :     0.0001262 Eh/α   predicted    -0.1921505E-06 ( -61.78%)
   displ. norm   :     0.0342548 α      lambda       -0.5854698E-06
   maximum displ.:     0.0215267 α      in ANC's #1, #4, #10, ...

........................................................................
.............................. CYCLE  268 ..............................
........................................................................

 iter      E             dE          RMSdq      gap      omega  full diag
   1   -191.1484629 -0.191148E+03  0.302E-03    2.48       0.0  T
   2   -191.1484629 -0.691767E-08  0.179E-03    2.48       5.2  T
   3   -191.1484629  0.256184E-07  0.491E-04    2.48      18.8  T
   4   -191.1484629 -0.294700E-07  0.819E-05    2.48     112.8  T
   5   -191.1484629 -0.360899E-09  0.392E-05    2.48     235.8  T
     SCC iter.                  ...        0 min,  0.175 sec
     gradient                   ...        0 min,  0.312 sec
 * total energy  :  -188.2226478 Eh     change       -0.7574127E-06 Eh
   gradient norm :     0.0001225 Eh/α   predicted    -0.2940344E-06 ( -61.18%)
   displ. norm   :     0.0481699 α      lambda       -0.7463361E-06
   maximum displ.:     0.0301836 α      in ANC's #1, #4, #10, ...

........................................................................
.............................. CYCLE  269 ..............................
........................................................................

 iter      E             dE          RMSdq      gap      omega  full diag
   1   -191.1484374 -0.191148E+03  0.429E-03    2.48       0.0  T
   2   -191.1484375 -0.114718E-07  0.253E-03    2.48       3.7  T
   3   -191.1484374  0.368528E-07  0.585E-04    2.48      15.8  T
   4   -191.1484375 -0.430680E-07  0.113E-04    2.48      81.6  T
   5   -191.1484375 -0.576449E-09  0.593E-05    2.48     155.8  T
     SCC iter.                  ...        0 min,  0.146 sec
     gradient                   ...        0 min,  0.347 sec
 * total energy  :  -188.2226487 Eh     change       -0.8825414E-06 Eh
   gradient norm :     0.0002266 Eh/α   predicted    -0.3778139E-06 ( -57.19%)
   displ. norm   :     0.0466095 α      lambda       -0.6042147E-06
   maximum displ.:     0.0296343 α      in ANC's #1, #4, #9, ...

........................................................................
.............................. CYCLE  270 ..............................
........................................................................

 iter      E             dE          RMSdq      gap      omega  full diag
   1   -191.1484215 -0.191148E+03  0.426E-03    2.48       0.0  T
   2   -191.1484215 -0.923836E-08  0.251E-03    2.48       3.7  T
   3   -191.1484215  0.277867E-07  0.499E-04    2.48      18.5  T
   4   -191.1484215 -0.335172E-07  0.108E-04    2.48      85.7  T
   5   -191.1484215 -0.258581E-09  0.638E-05    2.48     145.0  T
     SCC iter.                  ...        0 min,  0.154 sec
     gradient                   ...        0 min,  0.357 sec
 * total energy  :  -188.2226494 Eh     change       -0.6807042E-06 Eh
   gradient norm :     0.0002487 Eh/α   predicted    -0.3038533E-06 ( -55.36%)
   displ. norm   :     0.0466095 α      lambda        0.0000000E+00
   maximum displ.:     0.0296343 α      in ANC's #1, #4, #9, ...

........................................................................
.............................. CYCLE  271 ..............................
........................................................................

 iter      E             dE          RMSdq      gap      omega  full diag
   1   -191.1483917 -0.191148E+03  0.426E-03    2.48       0.0  T
   2   -191.1483917 -0.930498E-08  0.251E-03    2.48       3.7  T
   3   -191.1483917  0.279166E-07  0.497E-04    2.48      18.6  T
   4   -191.1483918 -0.336637E-07  0.108E-04    2.48      85.5  T
   5   -191.1483918 -0.258893E-09  0.637E-05    2.48     145.1  T
     SCC iter.                  ...        0 min,  0.195 sec
     gradient                   ...        0 min,  0.411 sec
 * total energy  :  -188.2226496 Eh     change       -0.2022973E-06 Eh
   gradient norm :     0.0003665 Eh/α   predicted    -0.2588245E-08 ( -98.72%)
   displ. norm   :     0.0186487 α      lambda       -0.4460627E-06
   maximum displ.:     0.0123579 α      in ANC's #1, #4, #3, ...

........................................................................
.............................. CYCLE  272 ..............................
........................................................................

 iter      E             dE          RMSdq      gap      omega  full diag
   1   -191.1484095 -0.191148E+03  0.179E-03    2.48       0.0  T
   2   -191.1484095 -0.343925E-08  0.105E-03    2.48       8.8  T
   3   -191.1484095  0.113322E-07  0.329E-04    2.48      28.1  T
   4   -191.1484095 -0.134295E-07  0.595E-05    2.48     155.3  T
   5   -191.1484095 -0.786144E-10  0.336E-05    2.48     275.5  T
     SCC iter.                  ...        0 min,  0.190 sec
     gradient                   ...        0 min,  0.362 sec
 * total energy  :  -188.2226501 Eh     change       -0.4998567E-06 Eh
   gradient norm :     0.0001908 Eh/α   predicted    -0.2239865E-06 ( -55.19%)
   displ. norm   :     0.0211405 α      lambda       -0.4606098E-06
   maximum displ.:     0.0137397 α      in ANC's #1, #4, #20, ...

........................................................................
.............................. CYCLE  273 ..............................
........................................................................

 iter      E             dE          RMSdq      gap      omega  full diag
   1   -191.1484163 -0.191148E+03  0.248E-03    2.48       0.0  T
   2   -191.1484163 -0.694740E-08  0.146E-03    2.48       6.3  T
   3   -191.1484163  0.251075E-07  0.513E-04    2.48      18.0  T
   4   -191.1484163 -0.293468E-07  0.820E-05    2.48     112.8  T
   5   -191.1484163 -0.209809E-09  0.447E-05    2.48     206.7  T
     SCC iter.                  ...        0 min,  0.163 sec
     gradient                   ...        0 min,  0.342 sec
 * total energy  :  -188.2226506 Eh     change       -0.5278789E-06 Eh
   gradient norm :     0.0001271 Eh/α   predicted    -0.2346988E-06 ( -55.54%)
   displ. norm   :     0.0230982 α      lambda       -0.3667799E-06
   maximum displ.:     0.0150920 α      in ANC's #1, #4, #20, ...

........................................................................
.............................. CYCLE  274 ..............................
........................................................................

 iter      E             dE          RMSdq      gap      omega  full diag
   1   -191.1484006 -0.191148E+03  0.269E-03    2.48       0.0  T
   2   -191.1484006 -0.620102E-08  0.158E-03    2.48       5.9  T
   3   -191.1484006  0.198555E-07  0.446E-04    2.48      20.7  T
   4   -191.1484006 -0.232280E-07  0.797E-05    2.48     116.0  T
   5   -191.1484006 -0.214868E-09  0.427E-05    2.48     216.6  T
     SCC iter.                  ...        0 min,  0.179 sec
     gradient                   ...        0 min,  0.349 sec
 * total energy  :  -188.2226510 Eh     change       -0.3892369E-06 Eh
   gradient norm :     0.0001626 Eh/α   predicted    -0.1852696E-06 ( -52.40%)
   displ. norm   :     0.0170096 α      lambda       -0.2083023E-06
   maximum displ.:     0.0114464 α      in ANC's #1, #4, #3, ...

........................................................................
.............................. CYCLE  275 ..............................
........................................................................

 iter      E             dE          RMSdq      gap      omega  full diag
   1   -191.1483902 -0.191148E+03  0.185E-03    2.48       0.0  T
   2   -191.1483902 -0.154611E-08  0.109E-03    2.48       8.5  T
   3   -191.1483902  0.267664E-08  0.183E-04    2.48      50.4  T
   4   -191.1483902 -0.333398E-08  0.470E-05    2.48     196.7  T
     SCC iter.                  ...        0 min,  0.155 sec
     gradient                   ...        0 min,  0.487 sec
 * total energy  :  -188.2226512 Eh     change       -0.2502389E-06 Eh
   gradient norm :     0.0001472 Eh/α   predicted    -0.1046146E-06 ( -58.19%)
   displ. norm   :     0.0165111 α      lambda       -0.2139403E-06
   maximum displ.:     0.0111561 α      in ANC's #1, #4, #3, ...

........................................................................
.............................. CYCLE  276 ..............................
........................................................................

 iter      E             dE          RMSdq      gap      omega  full diag
   1   -191.1483880 -0.191148E+03  0.166E-03    2.48       0.0  T
   2   -191.1483880 -0.126352E-08  0.976E-04    2.48       9.5  T
   3   -191.1483880  0.399586E-08  0.200E-04    2.48      46.2  T
   4   -191.1483880 -0.459076E-08  0.406E-05    2.48     227.5  T
   5   -191.1483880 -0.797513E-10  0.202E-05    2.48     457.3  T
     SCC iter.                  ...        0 min,  0.219 sec
     gradient                   ...        0 min,  0.395 sec
 * total energy  :  -188.2226515 Eh     change       -0.2885065E-06 Eh
   gradient norm :     0.0001173 Eh/α   predicted    -0.1095216E-06 ( -62.04%)
   displ. norm   :     0.0241734 α      lambda       -0.3306432E-06
   maximum displ.:     0.0159136 α      in ANC's #1, #4, #3, ...

........................................................................
.............................. CYCLE  277 ..............................
........................................................................

 iter      E             dE          RMSdq      gap      omega  full diag
   1   -191.1483969 -0.191148E+03  0.245E-03    2.48       0.0  T
   2   -191.1483969 -0.367513E-08  0.144E-03    2.48       6.4  T
   3   -191.1483969  0.114010E-07  0.318E-04    2.48      29.1  T
   4   -191.1483969 -0.130446E-07  0.575E-05    2.48     160.9  T
   5   -191.1483969 -0.217597E-09  0.266E-05    2.48     347.3  T
     SCC iter.                  ...        0 min,  0.152 sec
     gradient                   ...        0 min,  0.355 sec
 * total energy  :  -188.2226519 Eh     change       -0.4260780E-06 Eh
   gradient norm :     0.0001186 Eh/α   predicted    -0.1668058E-06 ( -60.85%)
   displ. norm   :     0.0337015 α      lambda       -0.3857398E-06
   maximum displ.:     0.0219491 α      in ANC's #1, #4, #3, ...

........................................................................
.............................. CYCLE  278 ..............................
........................................................................

 iter      E             dE          RMSdq      gap      omega  full diag
   1   -191.1484191 -0.191148E+03  0.348E-03    2.48       0.0  T
   2   -191.1484191 -0.617180E-08  0.204E-03    2.48       4.5  T
   3   -191.1484191  0.185075E-07  0.389E-04    2.48      23.8  T
   4   -191.1484191 -0.213296E-07  0.749E-05    2.48     123.4  T
   5   -191.1484191 -0.370733E-09  0.380E-05    2.48     243.4  T
     SCC iter.                  ...        0 min,  0.131 sec
     gradient                   ...        0 min,  0.371 sec
 * total energy  :  -188.2226524 Eh     change       -0.4660193E-06 Eh
   gradient norm :     0.0001444 Eh/α   predicted    -0.1948466E-06 ( -58.19%)
   displ. norm   :     0.0320573 α      lambda       -0.2763438E-06
   maximum displ.:     0.0211616 α      in ANC's #1, #4, #3, ...

........................................................................
.............................. CYCLE  279 ..............................
........................................................................

 iter      E             dE          RMSdq      gap      omega  full diag
   1   -191.1484424 -0.191148E+03  0.332E-03    2.48       0.0  T
   2   -191.1484424 -0.457084E-08  0.195E-03    2.48       4.7  T
   3   -191.1484424  0.126644E-07  0.319E-04    2.48      29.0  T
   4   -191.1484424 -0.147787E-07  0.646E-05    2.48     143.1  T
   5   -191.1484424 -0.251504E-09  0.353E-05    2.48     261.9  T
     SCC iter.                  ...        0 min,  0.167 sec
     gradient                   ...        0 min,  0.311 sec
 * total energy  :  -188.2226527 Eh     change       -0.3327696E-06 Eh
   gradient norm :     0.0001382 Eh/α   predicted    -0.1396455E-06 ( -58.04%)
   displ. norm   :     0.0226467 α      lambda       -0.1764527E-06
   maximum displ.:     0.0154452 α      in ANC's #1, #4, #3, ...

........................................................................
.............................. CYCLE  280 ..............................
........................................................................

 iter      E             dE          RMSdq      gap      omega  full diag
   1   -191.1484609 -0.191148E+03  0.236E-03    2.48       0.0  T
   2   -191.1484609 -0.234149E-08  0.139E-03    2.48       6.7  T
   3   -191.1484609  0.756427E-08  0.256E-04    2.48      36.1  T
   4   -191.1484609 -0.875914E-08  0.470E-05    2.48     196.7  T
   5   -191.1484609 -0.102574E-09  0.257E-05    2.48     360.1  T
     SCC iter.                  ...        0 min,  0.178 sec
     gradient                   ...        0 min,  0.338 sec
 * total energy  :  -188.2226530 Eh     change       -0.2357311E-06 Eh
   gradient norm :     0.0000979 Eh/α   predicted    -0.9033427E-07 ( -61.68%)
   displ. norm   :     0.0165931 α      lambda       -0.1595599E-06
   maximum displ.:     0.0116589 α      in ANC's #1, #3, #4, ...

........................................................................
.............................. CYCLE  281 ..............................
........................................................................

 iter      E             dE          RMSdq      gap      omega  full diag
   1   -191.1484725 -0.191148E+03  0.176E-03    2.48       0.0  T
   2   -191.1484725 -0.159184E-08  0.104E-03    2.48       8.9  T
   3   -191.1484725  0.554468E-08  0.224E-04    2.48      41.3  T
   4   -191.1484725 -0.631448E-08  0.389E-05    2.48     237.5  T
   5   -191.1484725 -0.783871E-10  0.193E-05    2.48     478.1  T
     SCC iter.                  ...        0 min,  0.142 sec
     gradient                   ...        0 min,  0.294 sec
 * total energy  :  -188.2226532 Eh     change       -0.2240187E-06 Eh
   gradient norm :     0.0000557 Eh/α   predicted    -0.8243973E-07 ( -63.20%)
   displ. norm   :     0.0193288 α      lambda       -0.2003147E-06
   maximum displ.:     0.0134565 α      in ANC's #1, #3, #12, ...

........................................................................
.............................. CYCLE  282 ..............................
........................................................................

 iter      E             dE          RMSdq      gap      omega  full diag
   1   -191.1484782 -0.191148E+03  0.210E-03    2.48       0.0  T
   2   -191.1484782 -0.224588E-08  0.124E-03    2.48       7.5  T
   3   -191.1484782  0.612110E-08  0.235E-04    2.48      39.3  T
   4   -191.1484782 -0.696355E-08  0.509E-05    2.48     181.7  T
   5   -191.1484782 -0.161407E-09  0.240E-05    2.48     385.7  T
     SCC iter.                  ...        0 min,  0.186 sec
     gradient                   ...        0 min,  0.328 sec
 * total energy  :  -188.2226535 Eh     change       -0.2661301E-06 Eh
   gradient norm :     0.0000692 Eh/α   predicted    -0.1022431E-06 ( -61.58%)
   displ. norm   :     0.0236105 α      lambda       -0.2067024E-06
   maximum displ.:     0.0164711 α      in ANC's #1, #12, #3, ...

........................................................................
.............................. CYCLE  283 ..............................
........................................................................

 iter      E             dE          RMSdq      gap      omega  full diag
   1   -191.1484784 -0.191148E+03  0.251E-03    2.48       0.0  T
   2   -191.1484784 -0.272635E-08  0.149E-03    2.48       6.2  T
   3   -191.1484784  0.493822E-08  0.214E-04    2.48      43.2  T
   4   -191.1484784 -0.564413E-08  0.635E-05    2.48     145.5  T
   5   -191.1484784 -0.317527E-09  0.280E-05    2.48     329.6  T
     SCC iter.                  ...        0 min,  0.127 sec
     gradient                   ...        0 min,  0.308 sec
 * total energy  :  -188.2226537 Eh     change       -0.2472378E-06 Eh
   gradient norm :     0.0000987 Eh/α   predicted    -0.1047071E-06 ( -57.65%)
   displ. norm   :     0.0179247 α      lambda       -0.1151630E-06
   maximum displ.:     0.0129182 α      in ANC's #1, #12, #3, ...

........................................................................
.............................. CYCLE  284 ..............................
........................................................................

 iter      E             dE          RMSdq      gap      omega  full diag
   1   -191.1484789 -0.191148E+03  0.184E-03    2.48       0.0  T
   2   -191.1484789 -0.153398E-08  0.109E-03    2.48       8.5  T
   3   -191.1484789  0.387266E-08  0.191E-04    2.48      48.4  T
   4   -191.1484789 -0.439195E-08  0.474E-05    2.48     195.2  T
     SCC iter.                  ...        0 min,  0.131 sec
     gradient                   ...        0 min,  0.310 sec
 * total energy  :  -188.2226539 Eh     change       -0.1506621E-06 Eh
   gradient norm :     0.0000918 Eh/α   predicted    -0.6182090E-07 ( -58.97%)
   displ. norm   :     0.0179247 α      lambda        0.0000000E+00
   maximum displ.:     0.0129182 α      in ANC's #1, #12, #3, ...

........................................................................
.............................. CYCLE  285 ..............................
........................................................................

 iter      E             dE          RMSdq      gap      omega  full diag
   1   -191.1484769 -0.191148E+03  0.183E-03    2.48       0.0  T
   2   -191.1484770 -0.138820E-08  0.109E-03    2.48       8.5  T
   3   -191.1484769  0.572641E-08  0.229E-04    2.48      40.4  T
   4   -191.1484770 -0.635649E-08  0.476E-05    2.48     194.2  T
   5   -191.1484770 -0.151715E-09  0.214E-05    2.48     432.2  T
     SCC iter.                  ...        0 min,  0.143 sec
     gradient                   ...        0 min,  0.352 sec
 * total energy  :  -188.2226540 Eh     change       -0.9017299E-07 Eh
   gradient norm :     0.0000998 Eh/α   predicted     0.3706968E-08 (-104.11%)
   displ. norm   :     0.0064701 α      lambda       -0.5402267E-07
   maximum displ.:     0.0048982 α      in ANC's #1, #3, #12, ...

   *** GEOMETRY OPTIMIZATION CONVERGED AFTER 285 ITERATIONS ***

------------------------------------------------------------------------
 total energy gain   :        -2.3425885 Eh    -1469.9965 kcal/mol
 total RMSD          :         3.6291324 a0        1.9205 Å
 total power (kW/mol):       -21.5805803 (step)  -31.6689 (real)
------------------------------------------------------------------------

 ANCopt (total)                0 d,  0 h,  3 min, 14.212 sec
 optimizer setup                ...        0 min,  0.002 sec (  0.001%)
 model hessian                  ...        0 min,  1.091 sec (  0.562%)
 ANC generation                 ...        0 min,  0.271 sec (  0.140%)
 coordinate transformation      ...        0 min,  0.057 sec (  0.029%)
 single point calculation       ...        3 min, 12.326 sec ( 99.029%)
 optimization log               ...        0 min,  0.259 sec (  0.133%)
 hessian update                 ...        0 min,  0.056 sec (  0.029%)
 rational function              ...        0 min,  0.112 sec (  0.058%)

================
 final structure:
================
117
 xtb: 6.7.1 (edcfbbe)
O            0.82665524153263        2.37272816552628       -0.75509517110568
P            0.02432397073706        1.63913213811549        0.23080716142559
O           -0.98000291727166        2.44011748407094        1.11379047110998
O           -0.75886288858789        0.43442051948810       -0.49968103550799
C           -1.37776390112506       -0.46664344268690        0.35430274981571
C           -2.76814681539429       -0.33401523398633        0.55510060623904
C           -3.40031193970957       -1.20795340940296        1.39874542421247
C           -2.67724431980966       -2.20210978949174        2.09088824874665
C           -3.32031018296213       -3.08405770060229        2.98565836884961
C           -2.60519604774260       -3.99686373586329        3.70903210445943
C           -1.20929403476466       -4.05326182619814        3.58233378728355
C           -0.55633627680493       -3.22168630110462        2.71434485179263
C           -1.26874693354391       -2.29488029402211        1.92340931460409
C           -0.62513105521416       -1.41554326914543        1.00734269672386
C            0.83529655409388       -1.42036743142171        0.77671226805532
C            1.53005739498434       -0.24654725726150        0.98665831996128
O            0.84179268284753        0.88398317224668        1.40117548530607
C            2.92477405069332       -0.15520283951629        0.77185640590748
C            3.59955433729666       -1.27920269314917        0.36182564391668
C            2.93151429390570       -2.49351574599673        0.11237688360116
C            3.62541565401108       -3.63423265795082       -0.34646583062002
C            2.95761970340755       -4.78856710407241       -0.64451549309449
C            1.56178204882251       -4.84562896564537       -0.51240306888736
C            0.86167762579614       -3.76277037598130       -0.05639009622443
C            1.52498876128321       -2.56710886156086        0.29506445527629
C           -3.42654450013845        0.81231172991184       -0.09827838553197
C           -3.87172214357452        1.84306351736297        0.62299643869121
C           -4.45937970129894        3.06216003639617       -0.04153611755244
C           -3.78484545193161        3.31189631612907       -1.39419270474054
C           -3.65515594231333        2.03664672266811       -2.17056849421692
C           -3.46812117935361        0.87215185805012       -1.55515413156580
C            3.61994770076782        1.13016131701599        0.95146451206941
C            4.45019505666419        1.61029579161043       -0.05780262279304
C            5.10049316054672        2.82175269882110        0.08666086555928
C            4.93570119205841        3.56586462819712        1.24323906471268
C            4.11759701849098        3.09130539106830        2.25494130410388
C            3.46216987481643        1.88177465220825        2.11209200877810
H           -1.36471399097691        3.35599241138815        0.81360610123078
H           -4.46499248394257       -1.12073402706108        1.56187742360328
H           -4.39354843683801       -3.01515361868461        3.09330353614142
H           -3.10590558571153       -4.66802861420102        4.39140728766747
H           -0.64937056457344       -4.75801307897389        4.17955895404686
H            0.51937276791372       -3.26479172695400        2.63241246315885
H            4.66909772426928       -1.23195544440513        0.21228769109568
H            4.69772604651261       -3.57093513642534       -0.46579167279396
H            3.49530011616526       -5.65705083468135       -0.99578376983583
H            1.03998960522515       -5.75358612975906       -0.77742361876645
H           -0.21325732889454       -3.81292467641666        0.03135627799119
H           -3.84298148528719        1.82603524414859        1.70267297090175
H           -5.51845843024810        2.83479712302598       -0.24681167065466
H           -4.36332661605283        4.04295615639338       -1.95750865806867
H           -3.64720245874673        2.11480345240210       -3.24793173843592
H           -3.31946616756730       -0.04830806567178       -2.10079983720036
H            4.56348421494100        1.03864938830727       -0.96787695244026
H            5.73471551625579        3.18922403326471       -0.70742041040209
H            5.44223660206779        4.51378762763866        1.35485873038702
H            3.98779180869488        3.66698682841321        3.16045914775017
H            2.82887349421766        1.51201235695695        2.90522999424107
C           -0.01123824395591        5.48598584604906       -0.44171236476293
C           -1.36890274215661        5.71154673429334        0.11706854514986
N           -2.03925346192165        4.74808171168568        0.62104092833630
C           -3.28142834093929        4.96535472790145        1.23825624229312
C           -4.42759737495702        4.21975726962789        0.92763653816885
C           -5.60336696450824        4.51533043451132        1.61000514743484
C           -5.66908736243213        5.49132804700661        2.58699437356907
C           -4.52388556471233        6.19224416044407        2.92063243782535
C           -3.34907705232085        5.92985625871687        2.24735687868368
C           -1.89639283467963        7.08455044947151       -0.06517639907172
C           -1.18956191545432        8.19716315400930        0.38288424071756
C           -1.68694998215216        9.47062359278855        0.17442492872389
C           -2.88083481106993        9.65010839329500       -0.50467291797544
C           -3.58384348877746        8.54815303528124       -0.96247593620755
C           -3.10283853985011        7.27293177640441       -0.73291023823831
H           -0.07890871963488        5.64105959823040       -1.51941995179742
H            0.68993592744727        6.21958259794692       -0.05010984551019
H            0.36007856847923        4.48476321892824       -0.25167266627715
H           -2.77741851364503        3.71918701996386       -1.25757047927603
H           -6.49584451162590        3.95433914757127        1.36876571041129
H           -6.60272848830014        5.69218833514722        3.09063430532140
H           -4.54347545471416        6.94321253848352        3.69628921931433
H           -2.44746841842002        6.46600946077254        2.50719052344220
H           -0.26108212660749        8.06705813957464        0.92096771357946
H           -1.13663027885546       10.32652605771847        0.53779582828945
H           -3.26090493622516       10.64649180770570       -0.67680364672000
H           -4.51000492201259        8.67881201336067       -1.50214126372257
H           -3.64765431926111        6.41460120249022       -1.09304996880994
C           -6.74828280711694        6.49772844875618       -1.23208328754628
O           -5.90775494547131        6.06922878728637       -2.29206248799991
C           -6.50374220200467        5.36927276720349       -3.28572642338666
O           -7.69855112155074        5.13741310659348       -3.26455822815157
C           -5.55351788300248        4.94727534074977       -4.31073039739465
C           -5.85249299261437        4.03693892375047       -5.26950953740099
C           -7.17308350904028        3.39348320873320       -5.53137272379480
N           -4.84056678909385        3.58982053562520       -6.09449897589908
C           -3.51525887961109        3.62238915077674       -5.71566861275791
C           -2.63746823993261        2.61643198527216       -6.38472888305138
C           -3.14927866883445        4.51958390730552       -4.76876359502294
C           -1.84625522957686        4.59293543690725       -4.11183087071774
O           -1.55654430744409        5.44314875116065       -3.28872991930566
O           -0.98214331480668        3.63642093461449       -4.49637623147615
C            0.30932549503890        3.64506805753033       -3.89971274095043
C           -4.16642125135295        5.55397738428624       -4.34033750345846
H           -7.41562078504734        5.68910529794199       -0.92614750568369
H           -6.09287689484700        6.78128956260791       -0.41139211354086
H           -7.35436665935375        7.34857833681218       -1.55272787096476
H           -7.92077036021945        3.76437723555678       -4.83963002596780
H           -7.49174556493425        3.61788281505334       -6.54927062758583
H           -7.09246584389793        2.31126004656561       -5.42774779981571
H           -5.10268718457479        2.91675537536743       -6.80203342062057
H           -2.33362244074047        1.84790921800934       -5.67495768684080
H           -3.15630436207905        2.14401074536583       -7.21667846377585
H           -1.72956790704066        3.08747608565468       -6.75234656114794
H            0.27535783920110        3.23552999582728       -2.88753634367325
H            0.93517767330475        3.01899676812709       -4.53152227990461
H            0.70373577048742        4.66281156356586       -3.86236649299426
H           -4.15878043032943        6.38919465570835       -5.05459192525842
H           -3.88132920250135        5.95977282599783       -3.37247506405393

 Bond Distances (Angstroems)
 ---------------------------
O1-P2=1.4676         P2-O1=1.4676         P2-O3=1.5588         P2-O4=1.6119         P2-O17=1.6150        O3-P2=1.5588         
O3-H38=1.0378        O4-P2=1.6119         O4-C5=1.3872         C5-O4=1.3872         C5-C6=1.4111         C5-C14=1.3760        
C6-C5=1.4111         C6-C7=1.3694         C6-C26=1.4746        C7-C6=1.3694         C7-C8=1.4108         C7-H39=1.0806        
C8-C7=1.4108         C8-C9=1.4114         C8-C13=1.4215        C9-C8=1.4114         C9-C10=1.3667        C9-H40=1.0808        
C10-C9=1.3667        C10-C11=1.4028       C10-H41=1.0802       C11-C10=1.4028       C11-C12=1.3679       C11-H42=1.0802       
C12-C11=1.3679       C12-C13=1.4114       C12-H43=1.0797       C13-C8=1.4215        C13-C12=1.4114       C13-C14=1.4236       
C14-C5=1.3760        C14-C13=1.4236       C14-C15=1.4785       C15-C14=1.4785       C15-C16=1.3801       C15-C25=1.4222       
C16-C15=1.3801       C16-O17=1.3870       C16-C18=1.4141       O17-P2=1.6150        O17-C16=1.3870       C18-C16=1.4141       
C18-C19=1.3736       C18-C32=1.4723       C19-C18=1.3736       C19-C20=1.4082       C19-H44=1.0810       C20-C19=1.4082       
C20-C21=1.4118       C20-C25=1.4202       C21-C20=1.4118       C21-C22=1.3665       C21-H45=1.0808       C22-C21=1.3665       
C22-C23=1.4032       C22-H46=1.0802       C23-C22=1.4032       C23-C24=1.3677       C23-H47=1.0802       C24-C23=1.3677       
C24-C25=1.4118       C24-H48=1.0797       C25-C15=1.4222       C25-C20=1.4202       C25-C24=1.4118       C26-C6=1.4746        
C26-C27=1.3345       C26-C31=1.4587       C27-C26=1.3345       C27-C28=1.5077       C27-H49=1.0802       C28-C27=1.5077       
C28-C29=1.5320       C28-H50=1.1025       C28-C63=1.5101       C29-C28=1.5320       C29-C30=1.4986       C29-H51=1.0892       
C29-H77=1.0952       C30-C29=1.4986       C30-C31=1.3303       C30-H52=1.0802       C31-C26=1.4587       C31-C30=1.3303       
C31-H53=1.0803       C32-C18=1.4723       C32-C33=1.3923       C32-C37=1.3917       C33-C32=1.3923       C33-C34=1.3825       
C33-H54=1.0807       C34-C33=1.3825       C34-C35=1.3851       C34-H55=1.0807       C35-C34=1.3851       C35-C36=1.3849       
C35-H56=1.0806       C36-C35=1.3849       C36-C37=1.3831       C36-H57=1.0808       C37-C32=1.3917       C37-C36=1.3831       
C37-H58=1.0802       H38-O3=1.0378        H39-C7=1.0806        H40-C9=1.0808        H41-C10=1.0802       H42-C11=1.0802       
H43-C12=1.0797       H44-C19=1.0810       H45-C21=1.0808       H46-C22=1.0802       H47-C23=1.0802       H48-C24=1.0797       
H49-C27=1.0802       H50-C28=1.1025       H51-C29=1.0892       H52-C30=1.0802       H53-C31=1.0803       H54-C33=1.0807       
H55-C34=1.0807       H56-C35=1.0806       H57-C36=1.0808       H58-C37=1.0802       C59-C60=1.4854       C59-H74=1.0909       
C59-H75=1.0877       C59-H76=1.0846       C60-C59=1.4854       C60-N61=1.2774       C60-C68=1.4821       N61-C60=1.2774       
N61-C62=1.4040       C62-N61=1.4040       C62-C63=1.4022       C62-C67=1.3975       C63-C28=1.5101       C63-C62=1.4022       
C63-C64=1.3912       C64-C63=1.3912       C64-C65=1.3825       C64-H78=1.0814       C65-C64=1.3825       C65-C66=1.3835       
C65-H79=1.0797       C66-C65=1.3835       C66-C67=1.3792       C66-H80=1.0798       C67-C62=1.3975       C67-C66=1.3792       
C67-H81=1.0807       C68-C60=1.4821       C68-C69=1.3922       C68-C73=1.3917       C69-C68=1.3922       C69-C70=1.3830       
C69-H82=1.0810       C70-C69=1.3830       C70-C71=1.3852       C70-H83=1.0805       C71-C70=1.3852       C71-C72=1.3850       
C71-H84=1.0802       C72-C71=1.3850       C72-C73=1.3821       C72-H85=1.0799       C73-C68=1.3917       C73-C72=1.3821       
C73-H86=1.0785       H74-C59=1.0909       H75-C59=1.0877       H76-C59=1.0846       H77-C29=1.0952       H78-C64=1.0814       
H79-C65=1.0797       H80-C66=1.0798       H81-C67=1.0807       H82-C69=1.0810       H83-C70=1.0805       H84-C71=1.0802       
H85-C72=1.0799       H86-C73=1.0785       C87-O88=1.4190       C87-H103=1.0922      C87-H104=1.0879      C87-H105=1.0927      
O88-C87=1.4190       O88-C89=1.3537       C89-O88=1.3537       C89-O90=1.2173       C89-C91=1.4600       O90-C89=1.2173       
C91-C89=1.4600       C91-C92=1.3555       C91-C102=1.5143      C92-C91=1.3555       C92-C93=1.4922       C92-N94=1.3800       
C93-C92=1.4922       C93-H106=1.0840      C93-H107=1.0900      C93-H108=1.0902      N94-C92=1.3800       N94-C95=1.3788       
N94-H109=1.0111      C95-N94=1.3788       C95-C96=1.4934       C95-C97=1.3548       C96-C95=1.4934       C96-H110=1.0894      
C96-H111=1.0884      C96-H112=1.0869      C97-C95=1.3548       C97-C98=1.4611       C97-C102=1.5126      C98-C97=1.4611       
C98-O99=1.2183       C98-O100=1.3452      O99-C98=1.2183       O100-C98=1.3452      O100-C101=1.4227     C101-O100=1.4227     
C101-H113=1.0924     C101-H114=1.0876     C101-H115=1.0921     C102-C91=1.5143      C102-C97=1.5126      C102-H116=1.0990     
C102-H117=1.0875     H103-C87=1.0922      H104-C87=1.0879      H105-C87=1.0927      H106-C93=1.0840      H107-C93=1.0900      
H108-C93=1.0902      H109-N94=1.0111      H110-C96=1.0894      H111-C96=1.0884      H112-C96=1.0869      H113-C101=1.0924     
H114-C101=1.0876     H115-C101=1.0921     H116-C102=1.0990     H117-C102=1.0875     
 C  H  Rav=1.0847 sigma=0.0058  Rmin=1.0785  Rmax=1.1025    47
 C  C  Rav=1.4156 sigma=0.0496  Rmin=1.3303  Rmax=1.5320    60
 N  H  Rav=1.0111 sigma=0.0000  Rmin=1.0111  Rmax=1.0111     1
 N  C  Rav=1.3600 sigma=0.0488  Rmin=1.2774  Rmax=1.4040     4
 O  H  Rav=1.0378 sigma=0.0000  Rmin=1.0378  Rmax=1.0378     1
 O  C  Rav=1.3438 sigma=0.0770  Rmin=1.2173  Rmax=1.4227     8
 P  O  Rav=1.5633 sigma=0.0596  Rmin=1.4676  Rmax=1.6150     4

 selected bond angles (degree)
 --------------------
O3-P2-O1=118.42                O4-P2-O1=109.56                O4-P2-O3=109.13                O17-P2-O1=116.35               
O17-P2-O3= 98.97               O17-P2-O4=103.00               H38-O3-P2=121.90               C5-O4-P2=115.04                
C6-C5-O4=117.79                C14-C5-O4=119.74               C14-C5-C6=122.43               C7-C6-C5=118.85                
C26-C6-C5=116.74               C26-C6-C7=124.26               C8-C7-C6=121.02                H39-C7-C6=119.76               
H39-C7-C8=119.20               C9-C8-C7=121.19                C13-C8-C7=119.74               C13-C8-C9=119.04               
C10-C9-C8=120.96               H40-C9-C8=118.41               H40-C9-C10=120.63              C11-C10-C9=119.98              
H41-C10-C9=120.45              H41-C10-C11=119.56             

 selected dihedral angles (degree)
 ---------------------------------
H38-O3-P2-O1= 23.58           H38-O3-P2-O4=257.38           H38-O3-P2-O17=150.18          C5-O4-P2-O1=169.89            
C5-O4-P2-O3=301.02            C5-O4-P2-O17= 45.46           C6-C5-O4-P2=100.55            C14-C5-O4-P2=282.88           
C7-C6-C5-O4=180.31            C7-C6-C5-C14=357.90           C26-C6-C5-O4=356.16           C26-C6-C5-C14=173.75          
C8-C7-C6-C5=  1.87            C8-C7-C6-C26=186.36           H39-C7-C6-C5=180.10           H39-C7-C6-C26=  4.58          
C9-C8-C7-C6=178.47            C9-C8-C7-H39=  0.23           C13-C8-C7-C6=  0.59           C13-C8-C7-H39=182.35          
C10-C9-C8-C7=183.63           C10-C9-C8-C13=  1.52          H40-C9-C8-C7=  3.07           H40-C9-C8-C13=180.96          
C11-C10-C9-C8=  0.94          C11-C10-C9-H40=181.51         H41-C10-C9-C8=180.01          H41-C10-C9-H40=  0.58         
           -------------------------------------------------
          |                Final Singlepoint                |
           -------------------------------------------------

          ...................................................
          :                      SETUP                      :
          :.................................................:
          :  # basis functions                 327          :
          :  # atomic orbitals                 326          :
          :  # shells                          186          :
          :  # electrons                       340          :
          :  max. iterations                   250          :
          :  Hamiltonian                  GFN2-xTB          :
          :  restarted?                      false          :
          :  GBSA solvation                   true          :
          :  PC potential                    false          :
          :  electronic temp.          300.0000000     K    :
          :  accuracy                    0.2000000          :
          :  -> integral cutoff          0.3198970E+02      :
          :  -> integral neglect         0.2000000E-08      :
          :  -> SCF convergence          0.2000000E-06 Eh   :
          :  -> wf. convergence          0.2000000E-04 e    :
          :  Broyden damping             0.4000000          :
          :  net charge                          0          :
          :  unpaired electrons                  0          :
          ...................................................

 iter      E             dE          RMSdq      gap      omega  full diag
   1   -191.1484770 -0.191148E+03  0.118E-05    2.48       0.0  T
   2   -191.1484770 -0.113687E-11  0.857E-06    2.48    1078.5  T
   3   -191.1484770 -0.332534E-11  0.506E-06    2.48    1827.8  T

   *** convergence criteria satisfied after 3 iterations ***

         #    Occupation            Energy/Eh            Energy/eV
      -------------------------------------------------------------
         1        2.0000           -0.7341025             -19.9759
       ...           ...                  ...                  ...
       164        2.0000           -0.3958255             -10.7710
       165        2.0000           -0.3878967             -10.5552
       166        2.0000           -0.3831714             -10.4266
       167        2.0000           -0.3743603             -10.1869
       168        2.0000           -0.3733495             -10.1594
       169        2.0000           -0.3652565              -9.9391
       170        2.0000           -0.3639350              -9.9032 (HOMO)
       171                         -0.2728045              -7.4234 (LUMO)
       172                         -0.2726216              -7.4184
       173                         -0.2638682              -7.1802
       174                         -0.2589744              -7.0471
       175                         -0.2426546              -6.6030
       ...                                ...                  ...
       326                          1.2907898              35.1242
      -------------------------------------------------------------
                  HL-Gap            0.0911305 Eh            2.4798 eV
             Fermi-level           -0.3183698 Eh           -8.6633 eV

 SCC (total)                   0 d,  0 h,  0 min,  0.526 sec
 SCC setup                      ...        0 min,  0.009 sec (  1.714%)
 Dispersion                     ...        0 min,  0.004 sec (  0.802%)
 classical contributions        ...        0 min,  0.002 sec (  0.334%)
 integral evaluation            ...        0 min,  0.069 sec ( 13.071%)
 iterations                     ...        0 min,  0.097 sec ( 18.467%)
 molecular gradient             ...        0 min,  0.338 sec ( 64.151%)
 printout                       ...        0 min,  0.008 sec (  1.453%)

         :::::::::::::::::::::::::::::::::::::::::::::::::::::
         ::                     SUMMARY                     ::
         :::::::::::::::::::::::::::::::::::::::::::::::::::::
         :: total energy            -188.222653957833 Eh    ::
         :: total w/o Gsasa/hb      -188.147429670440 Eh    ::
         :: gradient norm              0.000100055968 Eh/a0 ::
         :: HOMO-LUMO gap              2.479787180249 eV    ::
         ::.................................................::
         :: SCC energy              -191.140176102494 Eh    ::
         :: -> isotropic ES            0.236773678544 Eh    ::
         :: -> anisotropic ES         -0.014446275755 Eh    ::
         :: -> anisotropic XC          0.081196087251 Eh    ::
         :: -> dispersion             -0.177906016643 Eh    ::
         :: -> Gsolv                  -0.085363633442 Eh    ::
         ::    -> Gelec               -0.010139346049 Eh    ::
         ::    -> Gsasa               -0.077432430531 Eh    ::
         ::    -> Ghb                  0.000000000000 Eh    ::
         ::    -> Gshift               0.002208143139 Eh    ::
         :: repulsion energy           2.917522144661 Eh    ::
         :: add. restraining           0.000000000000 Eh    ::
         :: total charge              -0.000000000000 e     ::
         :::::::::::::::::::::::::::::::::::::::::::::::::::::

           -------------------------------------------------
          |                Property Printout                |
           -------------------------------------------------

    * Orbital Energies and Occupations

         #    Occupation            Energy/Eh            Energy/eV
      -------------------------------------------------------------
         1        2.0000           -0.7341025             -19.9759
       ...           ...                  ...                  ...
       158        2.0000           -0.4073338             -11.0841
       159        2.0000           -0.4057804             -11.0418
       160        2.0000           -0.4011745             -10.9165
       161        2.0000           -0.4001902             -10.8897
       162        2.0000           -0.3996906             -10.8761
       163        2.0000           -0.3966868             -10.7944
       164        2.0000           -0.3958255             -10.7710
       165        2.0000           -0.3878967             -10.5552
       166        2.0000           -0.3831714             -10.4266
       167        2.0000           -0.3743603             -10.1869
       168        2.0000           -0.3733495             -10.1594
       169        2.0000           -0.3652565              -9.9391
       170        2.0000           -0.3639350              -9.9032 (HOMO)
       171                         -0.2728045              -7.4234 (LUMO)
       172                         -0.2726216              -7.4184
       173                         -0.2638682              -7.1802
       174                         -0.2589744              -7.0471
       175                         -0.2426546              -6.6030
       176                         -0.2401199              -6.5340
       177                         -0.2387749              -6.4974
       178                         -0.2309688              -6.2850
       179                         -0.2262903              -6.1577
       180                         -0.2249233              -6.1205
       181                         -0.2206110              -6.0031
       ...                                ...                  ...
       326                          1.2907898              35.1242
      -------------------------------------------------------------
                  HL-Gap            0.0911305 Eh            2.4798 eV
             Fermi-level           -0.3183698 Eh           -8.6633 eV

     #   Z          covCN         q      C6AA      α(0)
     1   8 O        0.808    -0.535    24.611     6.650
     2  15 P        3.974     0.703   132.622    20.687
     3   8 O        1.595    -0.449    21.864     6.310
     4   8 O        1.661    -0.302    19.049     5.892
     5   6 C        3.221     0.142    24.261     8.008
     6   6 C        2.973    -0.004    28.110     8.697
     7   6 C        2.923    -0.049    29.217     8.864
     8   6 C        2.984     0.008    27.827     8.653
     9   6 C        2.920    -0.035    28.860     8.810
    10   6 C        2.915    -0.030    28.746     8.792
    11   6 C        2.916    -0.030    28.750     8.793
    12   6 C        2.917    -0.033    28.833     8.805
    13   6 C        2.986     0.010    27.797     8.649
    14   6 C        2.972    -0.011    28.290     8.725
    15   6 C        2.973    -0.012    28.308     8.727
    16   6 C        3.221     0.141    24.272     8.010
    17   8 O        1.661    -0.303    19.067     5.895
    18   6 C        2.969    -0.005    28.154     8.703
    19   6 C        2.925    -0.049    29.211     8.863
    20   6 C        2.984     0.008    27.839     8.655
    21   6 C        2.920    -0.034    28.859     8.809
    22   6 C        2.915    -0.030    28.745     8.792
    23   6 C        2.916    -0.030    28.747     8.792
    24   6 C        2.917    -0.033    28.834     8.806
    25   6 C        2.986     0.010    27.797     8.649
    26   6 C        2.967     0.012    27.737     8.639
    27   6 C        2.916    -0.037    28.928     8.820
    28   6 C        3.866    -0.012    20.744     6.477
    29   6 C        3.812    -0.055    21.544     6.607
    30   6 C        2.901    -0.035    28.865     8.809
    31   6 C        2.907    -0.037    28.924     8.819
    32   6 C        2.978     0.022    27.503     8.602
    33   6 C        2.925    -0.031    28.764     8.795
    34   6 C        2.919    -0.029    28.727     8.789
    35   6 C        2.920    -0.031    28.773     8.796
    36   6 C        2.919    -0.030    28.751     8.793
    37   6 C        2.924    -0.028    28.711     8.787
    38   1 H        0.867     0.362     0.554     1.166
    39   1 H        0.926     0.045     2.380     2.413
    40   1 H        0.926     0.038     2.475     2.460
    41   1 H        0.926     0.037     2.488     2.466
    42   1 H        0.926     0.036     2.506     2.476
    43   1 H        0.926     0.035     2.522     2.483
    44   1 H        0.926     0.046     2.367     2.406
    45   1 H        0.926     0.038     2.474     2.460
    46   1 H        0.926     0.038     2.479     2.462
    47   1 H        0.926     0.037     2.495     2.470
    48   1 H        0.926     0.035     2.512     2.478
    49   1 H        0.926     0.032     2.558     2.501
    50   1 H        0.923     0.043     2.414     2.430
    51   1 H        0.925     0.044     2.394     2.420
    52   1 H        0.926     0.026     2.637     2.539
    53   1 H        0.926     0.030     2.584     2.514
    54   1 H        0.926     0.033     2.550     2.497
    55   1 H        0.926     0.034     2.530     2.487
    56   1 H        0.926     0.033     2.542     2.493
    57   1 H        0.926     0.032     2.559     2.502
    58   1 H        0.926     0.034     2.534     2.490
    59   6 C        3.762    -0.138    23.208     6.867
    60   6 C        2.910     0.128    25.204     8.232
    61   7 N        1.902    -0.233    26.962     7.698
    62   6 C        2.936     0.075    26.324     8.414
    63   6 C        2.972    -0.000    28.032     8.685
    64   6 C        2.929    -0.041    29.010     8.833
    65   6 C        2.917    -0.038    28.955     8.824
    66   6 C        2.918    -0.034    28.848     8.808
    67   6 C        2.926    -0.047    29.164     8.856
    68   6 C        2.976     0.007    27.861     8.658
    69   6 C        2.923    -0.030    28.750     8.793
    70   6 C        2.919    -0.028    28.708     8.786
    71   6 C        2.920    -0.028    28.689     8.783
    72   6 C        2.919    -0.028    28.692     8.784
    73   6 C        2.925    -0.022    28.566     8.765
    74   1 H        0.924     0.099     1.793     2.094
    75   1 H        0.925     0.067     2.115     2.274
    76   1 H        0.925     0.074     2.046     2.237
    77   1 H        0.924     0.050     2.316     2.380
    78   1 H        0.925     0.033     2.539     2.492
    79   1 H        0.926     0.035     2.512     2.479
    80   1 H        0.926     0.035     2.521     2.483
    81   1 H        0.926     0.029     2.605     2.524
    82   1 H        0.926     0.032     2.553     2.499
    83   1 H        0.926     0.037     2.493     2.469
    84   1 H        0.926     0.037     2.494     2.470
    85   1 H        0.926     0.040     2.448     2.447
    86   1 H        0.926     0.044     2.400     2.423
    87   6 C        3.651     0.039    20.231     6.460
    88   8 O        1.705    -0.277    18.590     5.821
    89   6 C        2.724     0.346    21.120     7.523
    90   8 O        0.856    -0.464    23.001     6.430
    91   6 C        2.957    -0.064    29.598     8.923
    92   6 C        2.895     0.083    26.144     8.383
    93   6 C        3.759    -0.133    23.117     6.855
    94   7 N        2.716    -0.126    23.736     7.236
    95   6 C        2.892     0.079    26.235     8.398
    96   6 C        3.757    -0.124    22.940     6.829
    97   6 C        2.959    -0.064    29.598     8.924
    98   6 C        2.720     0.347    21.111     7.522
    99   8 O        0.857    -0.470    23.132     6.448
   100   8 O        1.704    -0.271    18.487     5.805
   101   6 C        3.648     0.028    20.430     6.494
   102   6 C        3.820    -0.056    21.562     6.608
   103   1 H        0.924     0.060     2.194     2.316
   104   1 H        0.925     0.067     2.122     2.278
   105   1 H        0.924     0.055     2.257     2.349
   106   1 H        0.925     0.091     1.873     2.140
   107   1 H        0.925     0.069     2.091     2.262
   108   1 H        0.925     0.064     2.150     2.293
   109   1 H        0.860     0.197     1.121     1.658
   110   1 H        0.925     0.078     1.999     2.211
   111   1 H        0.925     0.062     2.179     2.308
   112   1 H        0.925     0.076     2.019     2.222
   113   1 H        0.924     0.076     2.020     2.223
   114   1 H        0.925     0.066     2.131     2.283
   115   1 H        0.924     0.057     2.238     2.339
   116   1 H        0.923     0.041     2.441     2.443
   117   1 H        0.925     0.074     2.046     2.237

 Mol. C6AA /au·bohr⁶  :     182443.181097
 Mol. C8AA /au·bohr⁸  :    4586440.865793
 Mol. α(0) /au        :        677.658485


Wiberg/Mayer (AO) data.
largest (>0.10) Wiberg bond orders for each atom

 ---------------------------------------------------------------------------
     #   Z sym  total        # sym  WBO       # sym  WBO       # sym  WBO
 ---------------------------------------------------------------------------
     1   8 O    2.035 --     2 P    1.797
     2  15 P    5.481 --     1 O    1.797     3 O    1.329     4 O    1.126
                            17 O    1.109
     3   8 O    2.216 --     2 P    1.329    38 H    0.653
     4   8 O    2.325 --     2 P    1.126     5 C    0.959
     5   6 C    3.909 --    14 C    1.463     6 C    1.250     4 O    0.959
     6   6 C    3.984 --     7 C    1.513     5 C    1.250    26 C    1.015
     7   6 C    3.983 --     6 C    1.513     8 C    1.276    39 H    0.966
                            14 C    0.103
     8   6 C    3.988 --     9 C    1.281     7 C    1.276    13 C    1.253
     9   6 C    3.986 --    10 C    1.554     8 C    1.281    40 H    0.968
                            12 C    0.117
    10   6 C    3.988 --     9 C    1.554    11 C    1.324    41 H    0.971
    11   6 C    3.986 --    12 C    1.550    10 C    1.324    42 H    0.971
    12   6 C    3.990 --    11 C    1.550    13 C    1.288    43 H    0.966
                             9 C    0.117
    13   6 C    3.986 --    12 C    1.288     8 C    1.253    14 C    1.232
    14   6 C    3.983 --     5 C    1.463    13 C    1.232    15 C    1.031
                             7 C    0.103
    15   6 C    3.983 --    16 C    1.458    25 C    1.236    14 C    1.031
                            19 C    0.102
    16   6 C    3.910 --    15 C    1.458    18 C    1.249    17 O    0.962
    17   8 O    2.313 --     2 P    1.109    16 C    0.962
    18   6 C    3.985 --    19 C    1.499    16 C    1.249    32 C    1.037
    19   6 C    3.984 --    18 C    1.499    20 C    1.283    44 H    0.965
                            15 C    0.102
    20   6 C    3.988 --    19 C    1.283    21 C    1.277    25 C    1.251
    21   6 C    3.984 --    22 C    1.556    20 C    1.277    45 H    0.968
                            24 C    0.117
    22   6 C    3.988 --    21 C    1.556    23 C    1.322    46 H    0.970
    23   6 C    3.985 --    24 C    1.552    22 C    1.322    47 H    0.971
    24   6 C    3.990 --    23 C    1.552    25 C    1.286    48 H    0.966
                            21 C    0.117
    25   6 C    3.985 --    24 C    1.286    20 C    1.251    15 C    1.236
    26   6 C    3.985 --    27 C    1.791    31 C    1.075     6 C    1.015
    27   6 C    3.982 --    26 C    1.791    28 C    0.991    49 H    0.968
                            30 C    0.107
    28   6 C    3.994 --    63 C    0.996    27 C    0.991    29 C    0.985
                            50 H    0.943
    29   6 C    3.996 --    30 C    1.024    28 C    0.985    51 H    0.965
                            77 H    0.940
    30   6 C    3.989 --    31 C    1.852    29 C    1.024    52 H    0.966
                            27 C    0.107
    31   6 C    3.988 --    30 C    1.852    26 C    1.075    53 H    0.967
    32   6 C    3.988 --    37 C    1.393    33 C    1.390    18 C    1.037
                            35 C    0.107
    33   6 C    3.987 --    34 C    1.450    32 C    1.390    54 H    0.969
                            36 C    0.109
    34   6 C    3.992 --    33 C    1.450    35 C    1.435    55 H    0.970
                            37 C    0.109
    35   6 C    3.988 --    36 C    1.437    34 C    1.435    56 H    0.971
                            32 C    0.107
    36   6 C    3.992 --    37 C    1.448    35 C    1.437    57 H    0.971
                            33 C    0.109
    37   6 C    3.988 --    36 C    1.448    32 C    1.393    58 H    0.970
                            34 C    0.109
    38   1 H    0.868 --     3 O    0.653    61 N    0.175
    39   1 H    0.997 --     7 C    0.966
    40   1 H    0.998 --     9 C    0.968
    41   1 H    0.998 --    10 C    0.971
    42   1 H    0.998 --    11 C    0.971
    43   1 H    0.998 --    12 C    0.966
    44   1 H    0.997 --    19 C    0.965
    45   1 H    0.998 --    21 C    0.968
    46   1 H    0.998 --    22 C    0.970
    47   1 H    0.998 --    23 C    0.971
    48   1 H    0.998 --    24 C    0.966
    49   1 H    0.999 --    27 C    0.968
    50   1 H    0.996 --    28 C    0.943
    51   1 H    0.998 --    29 C    0.965
    52   1 H    0.998 --    30 C    0.966
    53   1 H    0.999 --    31 C    0.967
    54   1 H    0.999 --    33 C    0.969
    55   1 H    0.998 --    34 C    0.970
    56   1 H    0.998 --    35 C    0.971
    57   1 H    0.998 --    36 C    0.971
    58   1 H    0.999 --    37 C    0.970
    59   6 C    3.987 --    60 C    1.040    76 H    0.967    75 H    0.957
                            74 H    0.937
    60   6 C    3.952 --    61 N    1.734    59 C    1.040    68 C    1.018
    61   7 N    3.293 --    60 C    1.734    62 C    1.070    38 H    0.175
    62   6 C    3.972 --    67 C    1.365    63 C    1.348    61 N    1.070
    63   6 C    3.984 --    64 C    1.418    62 C    1.348    28 C    0.996
                            66 C    0.103
    64   6 C    3.989 --    65 C    1.441    63 C    1.418    78 H    0.967
                            67 C    0.104
    65   6 C    3.988 --    64 C    1.441    66 C    1.426    79 H    0.971
    66   6 C    3.990 --    67 C    1.455    65 C    1.426    80 H    0.970
                            63 C    0.103
    67   6 C    3.989 --    66 C    1.455    62 C    1.365    81 H    0.968
                            64 C    0.104
    68   6 C    3.988 --    69 C    1.392    73 C    1.389    60 C    1.018
                            71 C    0.107
    69   6 C    3.990 --    70 C    1.449    68 C    1.392    82 H    0.968
                            72 C    0.109
    70   6 C    3.992 --    69 C    1.449    71 C    1.435    83 H    0.970
                            73 C    0.109
    71   6 C    3.990 --    72 C    1.436    70 C    1.435    84 H    0.971
                            68 C    0.107
    72   6 C    3.992 --    73 C    1.448    71 C    1.436    85 H    0.969
                            69 C    0.109
    73   6 C    3.990 --    72 C    1.448    68 C    1.389    86 H    0.963
                            70 C    0.109
    74   1 H    0.989 --    59 C    0.937
    75   1 H    0.994 --    59 C    0.957
    76   1 H    0.994 --    59 C    0.967
    77   1 H    0.997 --    29 C    0.940
    78   1 H    0.998 --    64 C    0.967
    79   1 H    0.998 --    65 C    0.971
    80   1 H    0.998 --    66 C    0.970
    81   1 H    0.999 --    67 C    0.968
    82   1 H    0.999 --    69 C    0.968
    83   1 H    0.998 --    70 C    0.970
    84   1 H    0.998 --    71 C    0.971
    85   1 H    0.998 --    72 C    0.969
    86   1 H    0.998 --    73 C    0.963
    87   6 C    3.929 --   104 H    0.979   105 H    0.977   103 H    0.976
                            88 O    0.963
    88   8 O    2.281 --    89 C    1.090    87 C    0.963    90 O    0.151
    89   6 C    3.920 --    90 O    1.657    88 O    1.090    91 C    1.074
    90   8 O    1.989 --    89 C    1.657    88 O    0.151
    91   6 C    3.971 --    92 C    1.621    89 C    1.074   102 C    0.994
    92   6 C    3.966 --    91 C    1.621    94 N    1.147    93 C    1.029
    93   6 C    3.986 --    92 C    1.029   106 H    0.968   108 H    0.965
                           107 H    0.961
    94   7 N    3.507 --    95 C    1.150    92 C    1.147   109 H    0.927
    95   6 C    3.967 --    97 C    1.621    94 N    1.150    96 C    1.030
    96   6 C    3.990 --    95 C    1.030   111 H    0.978   112 H    0.966
                           110 H    0.956
    97   6 C    3.971 --    95 C    1.621    98 C    1.069   102 C    0.997
    98   6 C    3.920 --    99 O    1.651   100 O    1.107    97 C    1.069
    99   8 O    1.980 --    98 C    1.651   100 O    0.155
   100   8 O    2.291 --    98 C    1.107   101 C    0.958    99 O    0.155
   101   6 C    3.923 --   114 H    0.981   115 H    0.977   113 H    0.969
                           100 O    0.958
   102   6 C    3.992 --    97 C    0.997    91 C    0.994   117 H    0.962
                           116 H    0.954
   103   1 H    0.996 --    87 C    0.976
   104   1 H    0.995 --    87 C    0.979
   105   1 H    0.996 --    87 C    0.977
   106   1 H    0.991 --    93 C    0.968
   107   1 H    0.995 --    93 C    0.961
   108   1 H    0.996 --    93 C    0.965
   109   1 H    0.960 --    94 N    0.927
   110   1 H    0.994 --    96 C    0.956
   111   1 H    0.996 --    96 C    0.978
   112   1 H    0.994 --    96 C    0.966
   113   1 H    0.994 --   101 C    0.969
   114   1 H    0.995 --   101 C    0.981
   115   1 H    0.996 --   101 C    0.977
   116   1 H    0.998 --   102 C    0.954
   117   1 H    0.994 --   102 C    0.962
 ---------------------------------------------------------------------------

Topologies differ in total number of bonds
Writing topology from bond orders to xtbtopo.mol

molecular dipole:
                 x           y           z       tot (Debye)
 q only:       -0.722      -0.825      -1.500
   full:       -0.727      -0.555      -1.559       4.595
molecular quadrupole (traceless):
                xx          xy          yy          xz          yz          zz
 q only:      -16.949       2.144      -8.269      16.103       1.445      25.218
  q+dip:      -20.750       5.584      -2.349      15.288       5.557      23.099
   full:      -23.473       3.498      -4.591      16.652       3.074      28.064

           -------------------------------------------------
          |                Geometry Summary                 |
           -------------------------------------------------

      molecular mass/u    :      920.9834508
   center of mass at/Å    :       -1.5823230       2.3616545      -0.5351317
  moments of inertia/u·Å² :        0.1018601E+05   0.2105584E+05   0.2251699E+05
rotational constants/cm⁻¹ :        0.1654980E-02   0.8006154E-03   0.7486627E-03

 * 109 selected distances

     #   Z          #   Z                                           value/Å
     1   8 O        2  15 P                                       1.4676179
     2  15 P        3   8 O                                       1.5588169
     2  15 P        4   8 O                                       1.6119321
     4   8 O        5   6 C                                       1.3871710
     5   6 C        6   6 C                                       1.4110546
     6   6 C        7   6 C                                       1.3693566
     7   6 C        8   6 C                                       1.4107572
     8   6 C        9   6 C                                       1.4113751
     9   6 C       10   6 C                                       1.3667015
    10   6 C       11   6 C                                       1.4027744
    11   6 C       12   6 C                                       1.3679462
     8   6 C       13   6 C                                       1.4214503
    12   6 C       13   6 C                                       1.4114098
     5   6 C       14   6 C                                       1.3759828
    13   6 C       14   6 C                                       1.4236058
    15   6 C       16   6 C                                       1.3800812
     2  15 P       17   8 O                                       1.6150132 (max)
    16   6 C       17   8 O                                       1.3869507
    16   6 C       18   6 C                                       1.4141141
    18   6 C       19   6 C                                       1.3736192
    19   6 C       20   6 C                                       1.4082112
    20   6 C       21   6 C                                       1.4118326
    21   6 C       22   6 C                                       1.3664821
    22   6 C       23   6 C                                       1.4032366
    23   6 C       24   6 C                                       1.3677270
    15   6 C       25   6 C                                       1.4222082
    20   6 C       25   6 C                                       1.4202483
    24   6 C       25   6 C                                       1.4117750
    26   6 C       27   6 C                                       1.3344924
    28   6 C       29   6 C                                       1.5320068
    30   6 C       31   6 C                                       1.3303253
    32   6 C       33   6 C                                       1.3922860
    33   6 C       34   6 C                                       1.3825287
    34   6 C       35   6 C                                       1.3851110
    35   6 C       36   6 C                                       1.3849342
    32   6 C       37   6 C                                       1.3917158
    36   6 C       37   6 C                                       1.3830964
     7   6 C       39   1 H                                       1.0806314
     9   6 C       40   1 H                                       1.0808218
    10   6 C       41   1 H                                       1.0801891
    11   6 C       42   1 H                                       1.0802161
    12   6 C       43   1 H                                       1.0796857
    19   6 C       44   1 H                                       1.0809797
    21   6 C       45   1 H                                       1.0807845
    22   6 C       46   1 H                                       1.0801638
    23   6 C       47   1 H                                       1.0802267
    24   6 C       48   1 H                                       1.0796760
    27   6 C       49   1 H                                       1.0801933
    28   6 C       50   1 H                                       1.1024881
    29   6 C       51   1 H                                       1.0892263
    30   6 C       52   1 H                                       1.0802238
    31   6 C       53   1 H                                       1.0803121
    33   6 C       54   1 H                                       1.0806709
    34   6 C       55   1 H                                       1.0806658
    35   6 C       56   1 H                                       1.0805532
    36   6 C       57   1 H                                       1.0808429
    37   6 C       58   1 H                                       1.0802113
    59   6 C       60   6 C                                       1.4853845
    60   6 C       61   7 N                                       1.2773501
    62   6 C       63   6 C                                       1.4021783
    63   6 C       64   6 C                                       1.3911955
    64   6 C       65   6 C                                       1.3825335
    65   6 C       66   6 C                                       1.3835047
    62   6 C       67   6 C                                       1.3975421
    66   6 C       67   6 C                                       1.3792472
    68   6 C       69   6 C                                       1.3922197
    69   6 C       70   6 C                                       1.3829505
    70   6 C       71   6 C                                       1.3851895
    71   6 C       72   6 C                                       1.3849588
    68   6 C       73   6 C                                       1.3917139
    72   6 C       73   6 C                                       1.3821200
    59   6 C       74   1 H                                       1.0909083
    59   6 C       75   1 H                                       1.0877326
    59   6 C       76   1 H                                       1.0846374
    29   6 C       77   1 H                                       1.0951989
    64   6 C       78   1 H                                       1.0813991
    65   6 C       79   1 H                                       1.0796685
    66   6 C       80   1 H                                       1.0798060
    67   6 C       81   1 H                                       1.0806813
    69   6 C       82   1 H                                       1.0809885
    70   6 C       83   1 H                                       1.0804904
    71   6 C       84   1 H                                       1.0802141
    72   6 C       85   1 H                                       1.0798545
    73   6 C       86   1 H                                       1.0785437
    87   6 C       88   8 O                                       1.4190332
    88   8 O       89   6 C                                       1.3537014
    89   6 C       90   8 O                                       1.2172821
    91   6 C       92   6 C                                       1.3554912
    92   6 C       94   7 N                                       1.3800425
    94   7 N       95   6 C                                       1.3787728
    95   6 C       97   6 C                                       1.3548171
    98   6 C       99   8 O                                       1.2183146
    98   6 C      100   8 O                                       1.3451709
   100   8 O      101   6 C                                       1.4226645
    87   6 C      103   1 H                                       1.0921576
    87   6 C      104   1 H                                       1.0878870
    87   6 C      105   1 H                                       1.0927472
    93   6 C      106   1 H                                       1.0840231
    93   6 C      107   1 H                                       1.0899619
    93   6 C      108   1 H                                       1.0901580
    94   7 N      109   1 H                                       1.0111029 (min)
    96   6 C      110   1 H                                       1.0893690
    96   6 C      111   1 H                                       1.0883534
    96   6 C      112   1 H                                       1.0868802
   101   6 C      113   1 H                                       1.0924177
   101   6 C      114   1 H                                       1.0875844
   101   6 C      115   1 H                                       1.0921338
   102   6 C      116   1 H                                       1.0990022
   102   6 C      117   1 H                                       1.0875226

 * 6 distinct bonds (by element types)

   Z      Z             #   av. dist./Å        max./Å        min./Å
   1 H    6 C          47     1.0846614     1.1024881     1.0785437
Note: The following floating-point exceptions are signalling: IEEE_DIVIDE_BY_ZERO IEEE_UNDERFLOW_FLAG IEEE_DENORMAL
normal termination of xtb
   6 C    6 C          46     1.3939020     1.5320068     1.3303253
   1 H    7 N           1     1.0111029     1.0111029     1.0111029
   6 C    7 N           3     1.3453885     1.3800425     1.2773501
   6 C    8 O           8     1.3437861     1.4226645     1.2172821
   8 O   15 P           4     1.5633450     1.6150132     1.4676179


optimized geometry written to: xtbopt.xyz


           -------------------------------------------------
          | TOTAL ENERGY             -188.222653957833 Eh   |
          | GRADIENT NORM               0.000100055968 Eh/α |
          | HOMO-LUMO GAP               2.479787180249 eV   |
           -------------------------------------------------

------------------------------------------------------------------------
 * finished run on 2026/09/11 at 00:00:13.378     
------------------------------------------------------------------------
 total:
 * wall-time:     0 d,  0 h,  3 min, 15.802 sec
 *  cpu-time:     0 d,  0 h,  0 min, 53.609 sec
 * ratio c/w:     0.274 speedup
 SCF:
 * wall-time:     0 d,  0 h,  0 min,  0.939 sec
 *  cpu-time:     0 d,  0 h,  0 min,  0.312 sec
 * ratio c/w:     0.333 speedup
 ANC optimizer:
 * wall-time:     0 d,  0 h,  3 min, 14.748 sec
 *  cpu-time:     0 d,  0 h,  0 min, 53.281 sec
 * ratio c/w:     0.274 speedup

