117
 energy: -188.222653957833 gnorm: 0.000100055968 xtb: 6.7.1 (edcfbbe)
O            0.82665524153263        2.37272816552628       -0.75509517110568
P            0.02432397073706        1.63913213811549        0.23080716142559
O           -0.98000291727166        2.44011748407094        1.11379047110998
O           -0.75886288858789        0.43442051948810       -0.49968103550799
C           -1.37776390112506       -0.46664344268690        0.35430274981571
C           -2.76814681539429       -0.33401523398633        0.55510060623904
C           -3.40031193970957       -1.20795340940296        1.39874542421247
C           -2.67724431980966       -2.20210978949174        2.09088824874665
C           -3.32031018296213       -3.08405770060229        2.98565836884961
C           -2.60519604774260       -3.99686373586329        3.70903210445943
C           -1.20929403476466       -4.05326182619814        3.58233378728355
C           -0.55633627680493       -3.22168630110462        2.71434485179263
C           -1.26874693354391       -2.29488029402211        1.92340931460409
C           -0.62513105521416       -1.41554326914543        1.00734269672386
C            0.83529655409388       -1.42036743142171        0.77671226805532
C            1.53005739498434       -0.24654725726150        0.98665831996128
O            0.84179268284753        0.88398317224668        1.40117548530607
C            2.92477405069332       -0.15520283951629        0.77185640590748
C            3.59955433729666       -1.27920269314917        0.36182564391668
C            2.93151429390570       -2.49351574599673        0.11237688360116
C            3.62541565401108       -3.63423265795082       -0.34646583062002
C            2.95761970340755       -4.78856710407241       -0.64451549309449
C            1.56178204882251       -4.84562896564537       -0.51240306888736
C            0.86167762579614       -3.76277037598130       -0.05639009622443
C            1.52498876128321       -2.56710886156086        0.29506445527629
C           -3.42654450013845        0.81231172991184       -0.09827838553197
C           -3.87172214357452        1.84306351736297        0.62299643869121
C           -4.45937970129894        3.06216003639617       -0.04153611755244
C           -3.78484545193161        3.31189631612907       -1.39419270474054
C           -3.65515594231333        2.03664672266811       -2.17056849421692
C           -3.46812117935361        0.87215185805012       -1.55515413156580
C            3.61994770076782        1.13016131701599        0.95146451206941
C            4.45019505666419        1.61029579161043       -0.05780262279304
C            5.10049316054672        2.82175269882110        0.08666086555928
C            4.93570119205841        3.56586462819712        1.24323906471268
C            4.11759701849098        3.09130539106830        2.25494130410388
C            3.46216987481643        1.88177465220825        2.11209200877810
H           -1.36471399097691        3.35599241138815        0.81360610123078
H           -4.46499248394257       -1.12073402706108        1.56187742360328
H           -4.39354843683801       -3.01515361868461        3.09330353614142
H           -3.10590558571153       -4.66802861420102        4.39140728766747
H           -0.64937056457344       -4.75801307897389        4.17955895404686
H            0.51937276791372       -3.26479172695400        2.63241246315885
H            4.66909772426928       -1.23195544440513        0.21228769109568
H            4.69772604651261       -3.57093513642534       -0.46579167279396
H            3.49530011616526       -5.65705083468135       -0.99578376983583
H            1.03998960522515       -5.75358612975906       -0.77742361876645
H           -0.21325732889454       -3.81292467641666        0.03135627799119
H           -3.84298148528719        1.82603524414859        1.70267297090175
H           -5.51845843024810        2.83479712302598       -0.24681167065466
H           -4.36332661605283        4.04295615639338       -1.95750865806867
H           -3.64720245874673        2.11480345240210       -3.24793173843592
H           -3.31946616756730       -0.04830806567178       -2.10079983720036
H            4.56348421494100        1.03864938830727       -0.96787695244026
H            5.73471551625579        3.18922403326471       -0.70742041040209
H            5.44223660206779        4.51378762763866        1.35485873038702
H            3.98779180869488        3.66698682841321        3.16045914775017
H            2.82887349421766        1.51201235695695        2.90522999424107
C           -0.01123824395591        5.48598584604906       -0.44171236476293
C           -1.36890274215661        5.71154673429334        0.11706854514986
N           -2.03925346192165        4.74808171168568        0.62104092833630
C           -3.28142834093929        4.96535472790145        1.23825624229312
C           -4.42759737495702        4.21975726962789        0.92763653816885
C           -5.60336696450824        4.51533043451132        1.61000514743484
C           -5.66908736243213        5.49132804700661        2.58699437356907
C           -4.52388556471233        6.19224416044407        2.92063243782535
C           -3.34907705232085        5.92985625871687        2.24735687868368
C           -1.89639283467963        7.08455044947151       -0.06517639907172
C           -1.18956191545432        8.19716315400930        0.38288424071756
C           -1.68694998215216        9.47062359278855        0.17442492872389
C           -2.88083481106993        9.65010839329500       -0.50467291797544
C           -3.58384348877746        8.54815303528124       -0.96247593620755
C           -3.10283853985011        7.27293177640441       -0.73291023823831
H           -0.07890871963488        5.64105959823040       -1.51941995179742
H            0.68993592744727        6.21958259794692       -0.05010984551019
H            0.36007856847923        4.48476321892824       -0.25167266627715
H           -2.77741851364503        3.71918701996386       -1.25757047927603
H           -6.49584451162590        3.95433914757127        1.36876571041129
H           -6.60272848830014        5.69218833514722        3.09063430532140
H           -4.54347545471416        6.94321253848352        3.69628921931433
H           -2.44746841842002        6.46600946077254        2.50719052344220
H           -0.26108212660749        8.06705813957464        0.92096771357946
H           -1.13663027885546       10.32652605771847        0.53779582828945
H           -3.26090493622516       10.64649180770570       -0.67680364672000
H           -4.51000492201259        8.67881201336067       -1.50214126372257
H           -3.64765431926111        6.41460120249022       -1.09304996880994
C           -6.74828280711694        6.49772844875618       -1.23208328754628
O           -5.90775494547131        6.06922878728637       -2.29206248799991
C           -6.50374220200467        5.36927276720349       -3.28572642338666
O           -7.69855112155074        5.13741310659348       -3.26455822815157
C           -5.55351788300248        4.94727534074977       -4.31073039739465
C           -5.85249299261437        4.03693892375047       -5.26950953740099
C           -7.17308350904028        3.39348320873320       -5.53137272379480
N           -4.84056678909385        3.58982053562520       -6.09449897589908
C           -3.51525887961109        3.62238915077674       -5.71566861275791
C           -2.63746823993261        2.61643198527216       -6.38472888305138
C           -3.14927866883445        4.51958390730552       -4.76876359502294
C           -1.84625522957686        4.59293543690725       -4.11183087071774
O           -1.55654430744409        5.44314875116065       -3.28872991930566
O           -0.98214331480668        3.63642093461449       -4.49637623147615
C            0.30932549503890        3.64506805753033       -3.89971274095043
C           -4.16642125135295        5.55397738428624       -4.34033750345846
H           -7.41562078504734        5.68910529794199       -0.92614750568369
H           -6.09287689484700        6.78128956260791       -0.41139211354086
H           -7.35436665935375        7.34857833681218       -1.55272787096476
H           -7.92077036021945        3.76437723555678       -4.83963002596780
H           -7.49174556493425        3.61788281505334       -6.54927062758583
H           -7.09246584389793        2.31126004656561       -5.42774779981571
H           -5.10268718457479        2.91675537536743       -6.80203342062057
H           -2.33362244074047        1.84790921800934       -5.67495768684080
H           -3.15630436207905        2.14401074536583       -7.21667846377585
H           -1.72956790704066        3.08747608565468       -6.75234656114794
H            0.27535783920110        3.23552999582728       -2.88753634367325
H            0.93517767330475        3.01899676812709       -4.53152227990461
H            0.70373577048742        4.66281156356586       -3.86236649299426
H           -4.15878043032943        6.38919465570835       -5.05459192525842
H           -3.88132920250135        5.95977282599783       -3.37247506405393
