15

N     -1.320320   -1.169862    0.253208
C     -0.059674   -1.167414   -0.210612
C      0.664185    0.022179   -0.262082
C      2.084016    0.038162   -0.745642
C      0.054903    1.190963    0.201028
C     -1.253160    1.153846    0.675822
C     -1.930595   -0.056925    0.690019
H     -1.832858   -2.052473    0.276345
H      0.340065   -2.123940   -0.531581
H      2.314524    0.985698   -1.243808
H      2.768163   -0.095606    0.097882
H      2.258283   -0.762469   -1.472163
H      0.596744    2.137606    0.193100
H     -1.734230    2.062130    1.032583
H     -2.950047   -0.161896    1.045899
