      -----------------------------------------------------------      
     |                   =====================                   |     
     |                           x T B                           |     
     |                   =====================                   |     
     |                         S. Grimme                         |     
     |          Mulliken Center for Theoretical Chemistry        |     
     |                    University of Bonn                     |     
      -----------------------------------------------------------      

   * xtb version 6.7.1 (edcfbbe) compiled by 'VssAdministrator@runnervm171ch' on 2026-06-10

   xtb is free software: you can redistribute it and/or modify it under
   the terms of the GNU Lesser General Public License as published by
   the Free Software Foundation, either version 3 of the License, or
   (at your option) any later version.
   
   xtb is distributed in the hope that it will be useful,
   but WITHOUT ANY WARRANTY; without even the implied warranty of
   MERCHANTABILITY or FITNESS FOR A PARTICULAR PURPOSE.  See the
   GNU Lesser General Public License for more details.
   
   Cite this work as:
   * C. Bannwarth, E. Caldeweyher, S. Ehlert, A. Hansen, P. Pracht,
     J. Seibert, S. Spicher, S. Grimme, WIREs Comput. Mol. Sci., 2020, 11,
     e01493. DOI: 10.1002/wcms.1493
   
   for GFN2-xTB:
   * C. Bannwarth, S. Ehlert and S. Grimme., J. Chem. Theory Comput., 2019,
     15, 1652-1671. DOI: 10.1021/acs.jctc.8b01176
   for GFN1-xTB:
   * S. Grimme, C. Bannwarth, P. Shushkov, J. Chem. Theory Comput., 2017,
     13, 1989-2009. DOI: 10.1021/acs.jctc.7b00118
   for GFN0-xTB:
   * P. Pracht, E. Caldeweyher, S. Ehlert, S. Grimme, ChemRxiv, 2019, preprint.
     DOI: 10.26434/chemrxiv.8326202.v1
   for GFN-FF:
   * S. Spicher and S. Grimme, Angew. Chem. Int. Ed., 2020, 59, 15665-15673.
     DOI: 10.1002/anie.202004239
   
   for ALPB and GBSA implicit solvation:
   * S. Ehlert, M. Stahn, S. Spicher, S. Grimme, J. Chem. Theory Comput.,
     2021, 17, 4250-4261. DOI: 10.1021/acs.jctc.1c00471
   
   for ddCOSMO and CPCM-X implicit solvation:
   * M. Stahn, S. Ehlert, S. Grimme, J. Phys. Chem. A,
     2023, XX, XXXX-XXXX. DOI: 10.1021/acs.jpca.3c04382
   
   for DFT-D4:
   * E. Caldeweyher, C. Bannwarth and S. Grimme, J. Chem. Phys., 2017,
     147, 034112. DOI: 10.1063/1.4993215
   * E. Caldeweyher, S. Ehlert, A. Hansen, H. Neugebauer, S. Spicher,
     C. Bannwarth and S. Grimme, J. Chem. Phys., 2019, 150, 154122.
     DOI: 10.1063/1.5090222
   * E. Caldeweyher, J.-M. Mewes, S. Ehlert and S. Grimme, Phys. Chem. Chem. Phys.
     2020, 22, 8499-8512. DOI: 10.1039/D0CP00502A
   
   for sTDA-xTB:
   * S. Grimme and C. Bannwarth, J. Chem. Phys., 2016, 145, 054103.
     DOI: 10.1063/1.4959605
   
   in the mass-spec context:
   * V. Asgeirsson, C. Bauer and S. Grimme, Chem. Sci., 2017, 8, 4879.
     DOI: 10.1039/c7sc00601b
   * J. Koopman and S. Grimme, ACS Omega 2019, 4, 12, 15120-15133.
     DOI: 10.1021/acsomega.9b02011
   
   for metadynamics refer to:
   * S. Grimme, J. Chem. Theory Comput., 2019, 155, 2847-2862
     DOI: 10.1021/acs.jctc.9b00143
   
   for SPH calculations refer to:
   * S. Spicher and S. Grimme, J. Chem. Theory Comput., 2021, 17, 1701-1714
     DOI: 10.1021/acs.jctc.0c01306
   
   for ONIOM refer to:
   * C. Plett, A. Katbashev, S. Ehlert, S. Grimme, M. Bursch,
     Phys. Chem. Chem. Phys., 2023, 25, 17860-17868. DOI: 10.1039/D3CP02178E
   
   for DIPRO refer to:
   * J. Kohn, N. Gildemeister, S. Grimme, D. Fazzi, A. Hansen,
     J. Chem. Phys., 2023, just accepted.
   
   for PTB refer to:
   * S. Grimme, M. Mueller, A. Hansen, J. Chem. Phys., 2023, 158, 124111.
     DOI: 10.1063/5.0137838
   
   with help from (in alphabetical order)
   P. Atkinson, C. Bannwarth, F. Bohle, G. Brandenburg, E. Caldeweyher
   M. Checinski, S. Dohm, S. Ehlert, S. Ehrlich, I. Gerasimov, C. Hölzer
   A. Katbashev, J. Kohn, J. Koopman, C. Lavigne, S. Lehtola, F. März, M. Müller,
   F. Musil, H. Neugebauer, J. Pisarek, C. Plett, P. Pracht, F. Pultar,
   J. Seibert, P. Shushkov, S. Spicher, M. Stahn, M. Steiner, T. Strunk,
   J. Stückrath, T. Rose, and J. Unsleber
   
 * started run on 2026/09/11 at 00:00:13.418     
   ID    Z sym.   atoms
    1    8 O      1, 3, 4, 17, 88, 90, 99, 100
    2   15 P      2
    3    6 C      5-16, 18-37, 59, 60, 62-73, 87, 89, 91-93, 95-98, 101, 102
    4    1 H      38-58, 74-86, 103-117
    5    7 N      61, 94

           -------------------------------------------------
          |                Calculation Setup                |
           -------------------------------------------------

          program call               : C:\Users\HUIWEI\miniconda3\envs\phase2ff\Library\bin\xtb.exe xtbopt.xyz --gfn 2 --chrg 0 --uhf 0 --alpb toluene --acc 0.2 --hess --strict
          coordinate file            : xtbopt.xyz
          omp threads                :                     1


molecular fragmentation (1/2 indicates fragments):
111111111111111111111111111111111111111111111111111111111111111111111111
111111111111112222222222222222222222222222222
# atoms in fragment 1/2:    86    31
 fragment masses (1/2) :      695.74      225.24
CMA distance (Bohr)    :  12.599
constraining FC (au)   :  0.0500

           -------------------------------------------------
          |                 G F N 2 - x T B                 |
           -------------------------------------------------

        Reference                      10.1021/acs.jctc.8b01176
      * Hamiltonian:
        H0-scaling (s, p, d)           1.850000    2.230000    2.230000
        zeta-weighting                 0.500000
      * Dispersion:
        s8                             2.700000
        a1                             0.520000
        a2                             5.000000
        s9                             5.000000
      * Repulsion:
        kExp                           1.500000    1.000000
        rExp                           1.000000
      * Coulomb:
        alpha                          2.000000
        third order                    shell-resolved
        anisotropic                    true
        a3                             3.000000
        a5                             4.000000
        cn-shift                       1.200000
        cn-exp                         4.000000
        max-rad                        5.000000

      * Solvation model:               ALPB
        Solvent                        toluene
        Parameter file                 internal GFN2-xTB/ALPB
        Dielectric constant                7.0000E+00
        Reference state                gsolv [1 M gas/solution]
        Free energy shift                  2.2081E-03 Eh       1.3856E+00 kcal/mol
        Temperature                        2.9815E+02 K
        Density                            8.6700E-01 kg/L
        Solvent mass                       7.8110E+01 g/mol
        Interaction kernel             P16
        Born radius scaling (c1)           1.7172E+00
        Born radii integrator          GBOBC
        Born offset                        0.0000E+00 a0       0.0000E+00 AA
        H-bond correction              false
        Ion screening                  false
        Surface tension                    1.0000E-05 Eh       1.5569E+01 dyn/cm
        Grid points                               230 per atom
q/qsh data taken from xtbrestart
CAMM data taken from xtbrestart

          ...................................................
          :                      SETUP                      :
          :.................................................:
          :  # basis functions                 327          :
          :  # atomic orbitals                 326          :
          :  # shells                          186          :
          :  # electrons                       340          :
          :  max. iterations                   250          :
          :  Hamiltonian                  GFN2-xTB          :
          :  restarted?                       true          :
          :  GBSA solvation                   true          :
          :  PC potential                    false          :
          :  electronic temp.          300.0000000     K    :
          :  accuracy                    0.2000000          :
          :  -> integral cutoff          0.3198970E+02      :
          :  -> integral neglect         0.2000000E-08      :
          :  -> SCF convergence          0.2000000E-06 Eh   :
          :  -> wf. convergence          0.2000000E-04 e    :
          :  Broyden damping             0.4000000          :
          :  net charge                          0          :
          :  unpaired electrons                  0          :
          ...................................................

 iter      E             dE          RMSdq      gap      omega  full diag
   1   -191.1484770 -0.191148E+03  0.175E-06    2.48       0.0  T
   2   -191.1484770  0.142109E-11  0.153E-06    2.48    6060.0  T
   3   -191.1484770  0.738964E-12  0.546E-07    2.48   16921.2  T

   *** convergence criteria satisfied after 3 iterations ***

         #    Occupation            Energy/Eh            Energy/eV
      -------------------------------------------------------------
         1        2.0000           -0.7341025             -19.9759
       ...           ...                  ...                  ...
       164        2.0000           -0.3958255             -10.7710
       165        2.0000           -0.3878967             -10.5552
       166        2.0000           -0.3831714             -10.4266
       167        2.0000           -0.3743603             -10.1869
       168        2.0000           -0.3733495             -10.1594
       169        2.0000           -0.3652565              -9.9391
       170        2.0000           -0.3639351              -9.9032 (HOMO)
       171                         -0.2728045              -7.4234 (LUMO)
       172                         -0.2726216              -7.4184
       173                         -0.2638682              -7.1802
       174                         -0.2589743              -7.0471
       175                         -0.2426546              -6.6030
       ...                                ...                  ...
       326                          1.2907899              35.1242
      -------------------------------------------------------------
                  HL-Gap            0.0911305 Eh            2.4798 eV
             Fermi-level           -0.3183698 Eh           -8.6633 eV

 SCC (total)                   0 d,  0 h,  0 min,  0.486 sec
 SCC setup                      ...        0 min,  0.007 sec (  1.513%)
 Dispersion                     ...        0 min,  0.004 sec (  0.870%)
 classical contributions        ...        0 min,  0.001 sec (  0.249%)
 integral evaluation            ...        0 min,  0.082 sec ( 16.807%)
 iterations                     ...        0 min,  0.089 sec ( 18.306%)
 molecular gradient             ...        0 min,  0.299 sec ( 61.548%)
 printout                       ...        0 min,  0.003 sec (  0.699%)

         :::::::::::::::::::::::::::::::::::::::::::::::::::::
         ::                     SUMMARY                     ::
         :::::::::::::::::::::::::::::::::::::::::::::::::::::
         :: total energy            -188.222653957832 Eh    ::
         :: total w/o Gsasa/hb      -188.147429670439 Eh    ::
         :: gradient norm              0.000100022336 Eh/a0 ::
         :: HOMO-LUMO gap              2.479787512372 eV    ::
         ::.................................................::
         :: SCC energy              -191.140176102493 Eh    ::
         :: -> isotropic ES            0.236773714474 Eh    ::
         :: -> anisotropic ES         -0.014446285041 Eh    ::
         :: -> anisotropic XC          0.081196086858 Eh    ::
         :: -> dispersion             -0.177906017481 Eh    ::
         :: -> Gsolv                  -0.085363632362 Eh    ::
         ::    -> Gelec               -0.010139344969 Eh    ::
         ::    -> Gsasa               -0.077432430531 Eh    ::
         ::    -> Ghb                  0.000000000000 Eh    ::
         ::    -> Gshift               0.002208143139 Eh    ::
         :: repulsion energy           2.917522144661 Eh    ::
         :: add. restraining           0.000000000000 Eh    ::
         :: total charge               0.000000000000 e     ::
         :::::::::::::::::::::::::::::::::::::::::::::::::::::

           ------------------------------------------------- 
          |                Numerical Hessian                |
           ------------------------------------------------- 
step length          :   0.00500
SCC accuracy         :   0.30000
Hessian scale factor :   1.00000
frozen atoms in %    :   0.00000    0
RMS gradient         :   0.00010
estimated CPU  time      2.57 min
estimated wall time      7.32 min

writing file <hessian>.

 projected vibrational frequencies (cm⁻¹)
eigval :       -0.00    -0.00    -0.00     0.00     0.00     0.00
eigval :        7.46    11.28    15.12    18.89    20.09    24.09
eigval :       28.74    31.34    36.24    41.75    45.16    47.56
eigval :       48.84    51.69    53.24    56.66    59.69    64.94
eigval :       67.50    73.08    74.32    76.23    80.65    82.82
eigval :       85.36    88.63    89.73    98.86   107.55   117.92
eigval :      122.80   128.57   141.06   143.71   144.21   150.89
eigval :      154.88   157.67   161.59   176.93   177.75   181.81
eigval :      183.63   191.44   203.48   207.71   210.82   216.77
eigval :      231.76   236.54   246.77   266.33   272.25   274.76
eigval :      276.31   281.14   290.22   294.10   297.45   308.85
eigval :      316.23   317.37   322.80   324.43   326.36   336.14
eigval :      336.63   350.97   351.44   360.93   361.48   373.21
eigval :      374.06   378.42   394.87   416.13   417.31   427.57
eigval :      440.41   444.74   455.14   461.95   467.17   484.85
eigval :      494.06   497.02   503.84   508.84   513.79   521.75
eigval :      525.92   529.06   534.24   539.11   542.67   543.30
eigval :      545.05   558.16   563.57   574.96   581.19   587.20
eigval :      587.45   599.70   602.84   604.12   610.69   621.27
eigval :      632.12   634.54   637.73   651.12   658.97   666.36
eigval :      675.86   678.14   683.41   697.59   702.65   704.49
eigval :      719.18   721.87   726.88   732.50   745.55   759.84
eigval :      761.51   762.89   769.95   771.13   773.00   781.77
eigval :      783.10   789.09   790.53   816.47   819.94   836.65
eigval :      848.27   853.66   858.19   860.93   863.37   864.50
eigval :      875.61   877.35   878.11   878.63   879.82   898.93
eigval :      902.34   905.46   907.62   912.81   915.95   916.72
eigval :      917.46   923.13   926.58   926.70   927.97   928.50
eigval :      929.72   929.97   931.00   934.74   937.13   963.88
eigval :      969.20   975.09   976.53   988.18   990.39  1001.88
eigval :     1010.42  1012.07  1016.81  1019.15  1024.93  1026.91
eigval :     1031.72  1061.54  1066.05  1080.70  1083.67  1084.17
eigval :     1084.44  1087.96  1100.15  1109.91  1114.71  1117.43
eigval :     1121.81  1122.40  1125.46  1126.59  1134.32  1141.01
eigval :     1143.97  1148.83  1149.43  1152.98  1157.90  1160.03
eigval :     1161.32  1174.42  1178.45  1180.45  1181.16  1181.65
eigval :     1183.60  1189.72  1193.30  1199.43  1201.53  1203.18
eigval :     1205.99  1206.05  1223.59  1230.12  1234.32  1246.40
eigval :     1247.26  1250.33  1256.76  1257.94  1264.47  1265.33
eigval :     1276.36  1282.68  1282.90  1284.31  1286.98  1289.07
eigval :     1298.97  1312.64  1315.33  1319.05  1319.85  1322.31
eigval :     1337.52  1347.96  1356.56  1372.29  1381.00  1382.87
eigval :     1383.35  1388.94  1390.15  1391.69  1396.41  1396.68
eigval :     1406.52  1412.37  1415.97  1421.77  1427.84  1429.76
eigval :     1439.47  1442.81  1444.11  1445.80  1446.72  1447.65
eigval :     1448.52  1452.50  1458.06  1462.98  1467.03  1469.04
eigval :     1470.06  1472.24  1475.65  1480.44  1482.24  1490.65
eigval :     1495.22  1548.21  1556.12  1570.64  1576.61  1579.75
eigval :     1584.00  1588.13  1589.46  1594.98  1598.95  1606.33
eigval :     1606.78  1610.58  1642.37  1646.47  1660.71  1680.15
eigval :     1689.09  1689.54  1926.84  2838.77  2873.24  2941.10
eigval :     2965.76  2975.48  2982.81  2988.82  2999.76  3006.60
eigval :     3010.15  3012.72  3023.97  3026.02  3030.77  3033.33
eigval :     3033.68  3040.87  3050.65  3064.81  3066.30  3067.63
eigval :     3068.64  3068.77  3070.18  3070.21  3074.30  3074.91
eigval :     3075.63  3076.09  3076.51  3076.73  3077.14  3078.80
eigval :     3083.00  3083.14  3083.24  3083.31  3085.59  3086.83
eigval :     3088.58  3091.51  3092.19  3093.49  3093.73  3094.51
eigval :     3095.50  3112.14  3413.48
           -------------------------------------------------
          |                Property Printout                |
           -------------------------------------------------

    * Orbital Energies and Occupations

         #    Occupation            Energy/Eh            Energy/eV
      -------------------------------------------------------------
         1        2.0000           -0.7341025             -19.9759
       ...           ...                  ...                  ...
       158        2.0000           -0.4073338             -11.0841
       159        2.0000           -0.4057804             -11.0418
       160        2.0000           -0.4011745             -10.9165
       161        2.0000           -0.4001902             -10.8897
       162        2.0000           -0.3996905             -10.8761
       163        2.0000           -0.3966868             -10.7944
       164        2.0000           -0.3958255             -10.7710
       165        2.0000           -0.3878967             -10.5552
       166        2.0000           -0.3831714             -10.4266
       167        2.0000           -0.3743603             -10.1869
       168        2.0000           -0.3733496             -10.1594
       169        2.0000           -0.3652565              -9.9391
       170        2.0000           -0.3639351              -9.9032 (HOMO)
       171                         -0.2728045              -7.4234 (LUMO)
       172                         -0.2726216              -7.4184
       173                         -0.2638682              -7.1802
       174                         -0.2589743              -7.0471
       175                         -0.2426546              -6.6030
       176                         -0.2401199              -6.5340
       177                         -0.2387749              -6.4974
       178                         -0.2309688              -6.2850
       179                         -0.2262903              -6.1577
       180                         -0.2249233              -6.1205
       181                         -0.2206110              -6.0031
       ...                                ...                  ...
       326                          1.2907899              35.1242
      -------------------------------------------------------------
                  HL-Gap            0.0911305 Eh            2.4798 eV
             Fermi-level           -0.3183698 Eh           -8.6633 eV

     #   Z          covCN         q      C6AA      α(0)
     1   8 O        0.808    -0.535    24.611     6.650
     2  15 P        3.974     0.703   132.622    20.687
     3   8 O        1.595    -0.449    21.864     6.310
     4   8 O        1.661    -0.302    19.049     5.892
     5   6 C        3.221     0.142    24.261     8.008
     6   6 C        2.973    -0.004    28.110     8.697
     7   6 C        2.923    -0.049    29.217     8.864
     8   6 C        2.984     0.008    27.827     8.653
     9   6 C        2.920    -0.035    28.860     8.810
    10   6 C        2.915    -0.030    28.746     8.792
    11   6 C        2.916    -0.030    28.750     8.793
    12   6 C        2.917    -0.033    28.833     8.805
    13   6 C        2.986     0.010    27.797     8.649
    14   6 C        2.972    -0.011    28.290     8.725
    15   6 C        2.973    -0.012    28.308     8.727
    16   6 C        3.221     0.141    24.272     8.010
    17   8 O        1.661    -0.303    19.067     5.895
    18   6 C        2.969    -0.005    28.154     8.703
    19   6 C        2.925    -0.049    29.211     8.863
    20   6 C        2.984     0.008    27.839     8.655
    21   6 C        2.920    -0.034    28.859     8.809
    22   6 C        2.915    -0.030    28.745     8.792
    23   6 C        2.916    -0.030    28.747     8.792
    24   6 C        2.917    -0.033    28.834     8.806
    25   6 C        2.986     0.010    27.797     8.649
    26   6 C        2.967     0.012    27.737     8.639
    27   6 C        2.916    -0.037    28.928     8.820
    28   6 C        3.866    -0.012    20.744     6.477
    29   6 C        3.812    -0.055    21.544     6.607
    30   6 C        2.901    -0.035    28.865     8.809
    31   6 C        2.907    -0.037    28.924     8.819
    32   6 C        2.978     0.022    27.503     8.602
    33   6 C        2.925    -0.031    28.764     8.795
    34   6 C        2.919    -0.029    28.727     8.789
    35   6 C        2.920    -0.031    28.773     8.796
    36   6 C        2.919    -0.030    28.751     8.793
    37   6 C        2.924    -0.028    28.711     8.787
    38   1 H        0.867     0.362     0.555     1.166
    39   1 H        0.926     0.045     2.380     2.413
    40   1 H        0.926     0.038     2.475     2.460
    41   1 H        0.926     0.037     2.488     2.466
    42   1 H        0.926     0.036     2.506     2.476
    43   1 H        0.926     0.035     2.522     2.483
    44   1 H        0.926     0.046     2.367     2.406
    45   1 H        0.926     0.038     2.474     2.460
    46   1 H        0.926     0.038     2.479     2.462
    47   1 H        0.926     0.037     2.495     2.470
    48   1 H        0.926     0.035     2.512     2.478
    49   1 H        0.926     0.032     2.558     2.501
    50   1 H        0.923     0.043     2.414     2.430
    51   1 H        0.925     0.044     2.394     2.420
    52   1 H        0.926     0.026     2.637     2.539
    53   1 H        0.926     0.030     2.584     2.514
    54   1 H        0.926     0.033     2.550     2.497
    55   1 H        0.926     0.034     2.530     2.487
    56   1 H        0.926     0.033     2.542     2.493
    57   1 H        0.926     0.032     2.559     2.502
    58   1 H        0.926     0.034     2.534     2.490
    59   6 C        3.762    -0.138    23.208     6.867
    60   6 C        2.910     0.128    25.204     8.232
    61   7 N        1.902    -0.233    26.962     7.698
    62   6 C        2.936     0.075    26.324     8.414
    63   6 C        2.972    -0.000    28.032     8.685
    64   6 C        2.929    -0.041    29.010     8.833
    65   6 C        2.917    -0.038    28.955     8.824
    66   6 C        2.918    -0.034    28.848     8.808
    67   6 C        2.926    -0.047    29.164     8.856
    68   6 C        2.976     0.007    27.861     8.658
    69   6 C        2.923    -0.030    28.750     8.793
    70   6 C        2.919    -0.028    28.708     8.786
    71   6 C        2.920    -0.028    28.689     8.783
    72   6 C        2.919    -0.028    28.692     8.784
    73   6 C        2.925    -0.022    28.566     8.765
    74   1 H        0.924     0.099     1.793     2.094
    75   1 H        0.925     0.067     2.115     2.274
    76   1 H        0.925     0.074     2.046     2.237
    77   1 H        0.924     0.050     2.316     2.380
    78   1 H        0.925     0.033     2.539     2.492
    79   1 H        0.926     0.035     2.512     2.479
    80   1 H        0.926     0.035     2.521     2.483
    81   1 H        0.926     0.029     2.605     2.524
    82   1 H        0.926     0.032     2.553     2.499
    83   1 H        0.926     0.037     2.493     2.469
    84   1 H        0.926     0.037     2.494     2.470
    85   1 H        0.926     0.040     2.448     2.447
    86   1 H        0.926     0.044     2.400     2.423
    87   6 C        3.651     0.039    20.231     6.460
    88   8 O        1.705    -0.277    18.590     5.821
    89   6 C        2.724     0.346    21.120     7.523
    90   8 O        0.856    -0.464    23.001     6.430
    91   6 C        2.957    -0.064    29.598     8.923
    92   6 C        2.895     0.083    26.144     8.383
    93   6 C        3.759    -0.133    23.117     6.855
    94   7 N        2.716    -0.126    23.736     7.236
    95   6 C        2.892     0.079    26.235     8.398
    96   6 C        3.757    -0.124    22.940     6.829
    97   6 C        2.959    -0.064    29.598     8.924
    98   6 C        2.720     0.347    21.111     7.522
    99   8 O        0.857    -0.470    23.132     6.448
   100   8 O        1.704    -0.271    18.487     5.805
   101   6 C        3.648     0.028    20.430     6.494
   102   6 C        3.820    -0.056    21.562     6.608
   103   1 H        0.924     0.060     2.194     2.316
   104   1 H        0.925     0.067     2.122     2.278
   105   1 H        0.924     0.055     2.257     2.349
   106   1 H        0.925     0.091     1.873     2.140
   107   1 H        0.925     0.069     2.091     2.262
   108   1 H        0.925     0.064     2.150     2.293
   109   1 H        0.860     0.197     1.121     1.658
   110   1 H        0.925     0.078     1.999     2.211
   111   1 H        0.925     0.062     2.179     2.308
   112   1 H        0.925     0.076     2.019     2.222
   113   1 H        0.924     0.076     2.020     2.223
   114   1 H        0.925     0.066     2.131     2.283
   115   1 H        0.924     0.057     2.238     2.339
   116   1 H        0.923     0.041     2.441     2.443
   117   1 H        0.925     0.074     2.046     2.237

 Mol. C6AA /au·bohr⁶  :     182443.181184
 Mol. C8AA /au·bohr⁸  :    4586440.859923
 Mol. α(0) /au        :        677.658485


Wiberg/Mayer (AO) data.
largest (>0.10) Wiberg bond orders for each atom

 ---------------------------------------------------------------------------
     #   Z sym  total        # sym  WBO       # sym  WBO       # sym  WBO
 ---------------------------------------------------------------------------
     1   8 O    2.035 --     2 P    1.797
     2  15 P    5.481 --     1 O    1.797     3 O    1.329     4 O    1.126
                            17 O    1.109
     3   8 O    2.216 --     2 P    1.329    38 H    0.653
     4   8 O    2.325 --     2 P    1.126     5 C    0.959
     5   6 C    3.909 --    14 C    1.463     6 C    1.250     4 O    0.959
     6   6 C    3.984 --     7 C    1.513     5 C    1.250    26 C    1.015
     7   6 C    3.983 --     6 C    1.513     8 C    1.276    39 H    0.966
                            14 C    0.103
     8   6 C    3.988 --     9 C    1.281     7 C    1.276    13 C    1.253
     9   6 C    3.986 --    10 C    1.554     8 C    1.281    40 H    0.968
                            12 C    0.117
    10   6 C    3.988 --     9 C    1.554    11 C    1.324    41 H    0.971
    11   6 C    3.986 --    12 C    1.550    10 C    1.324    42 H    0.971
    12   6 C    3.990 --    11 C    1.550    13 C    1.288    43 H    0.966
                             9 C    0.117
    13   6 C    3.986 --    12 C    1.288     8 C    1.253    14 C    1.232
    14   6 C    3.983 --     5 C    1.463    13 C    1.232    15 C    1.031
                             7 C    0.103
    15   6 C    3.983 --    16 C    1.458    25 C    1.236    14 C    1.031
                            19 C    0.102
    16   6 C    3.910 --    15 C    1.458    18 C    1.249    17 O    0.962
    17   8 O    2.313 --     2 P    1.109    16 C    0.962
    18   6 C    3.985 --    19 C    1.499    16 C    1.249    32 C    1.037
    19   6 C    3.984 --    18 C    1.499    20 C    1.283    44 H    0.965
                            15 C    0.102
    20   6 C    3.988 --    19 C    1.283    21 C    1.277    25 C    1.251
    21   6 C    3.984 --    22 C    1.556    20 C    1.277    45 H    0.968
                            24 C    0.117
    22   6 C    3.988 --    21 C    1.556    23 C    1.322    46 H    0.970
    23   6 C    3.985 --    24 C    1.552    22 C    1.322    47 H    0.971
    24   6 C    3.990 --    23 C    1.552    25 C    1.286    48 H    0.966
                            21 C    0.117
    25   6 C    3.985 --    24 C    1.286    20 C    1.251    15 C    1.236
    26   6 C    3.985 --    27 C    1.791    31 C    1.075     6 C    1.015
    27   6 C    3.982 --    26 C    1.791    28 C    0.991    49 H    0.968
                            30 C    0.107
    28   6 C    3.994 --    63 C    0.996    27 C    0.991    29 C    0.985
                            50 H    0.943
    29   6 C    3.996 --    30 C    1.024    28 C    0.985    51 H    0.965
                            77 H    0.940
    30   6 C    3.989 --    31 C    1.852    29 C    1.024    52 H    0.966
                            27 C    0.107
    31   6 C    3.988 --    30 C    1.852    26 C    1.075    53 H    0.967
    32   6 C    3.988 --    37 C    1.393    33 C    1.390    18 C    1.037
                            35 C    0.107
    33   6 C    3.987 --    34 C    1.450    32 C    1.390    54 H    0.969
                            36 C    0.109
    34   6 C    3.992 --    33 C    1.450    35 C    1.435    55 H    0.970
                            37 C    0.109
    35   6 C    3.988 --    36 C    1.437    34 C    1.435    56 H    0.971
                            32 C    0.107
    36   6 C    3.992 --    37 C    1.448    35 C    1.437    57 H    0.971
                            33 C    0.109
    37   6 C    3.988 --    36 C    1.448    32 C    1.393    58 H    0.970
                            34 C    0.109
    38   1 H    0.868 --     3 O    0.653    61 N    0.175
    39   1 H    0.997 --     7 C    0.966
    40   1 H    0.998 --     9 C    0.968
    41   1 H    0.998 --    10 C    0.971
    42   1 H    0.998 --    11 C    0.971
    43   1 H    0.998 --    12 C    0.966
    44   1 H    0.997 --    19 C    0.965
    45   1 H    0.998 --    21 C    0.968
    46   1 H    0.998 --    22 C    0.970
    47   1 H    0.998 --    23 C    0.971
    48   1 H    0.998 --    24 C    0.966
    49   1 H    0.999 --    27 C    0.968
    50   1 H    0.996 --    28 C    0.943
    51   1 H    0.998 --    29 C    0.965
    52   1 H    0.998 --    30 C    0.966
    53   1 H    0.999 --    31 C    0.967
    54   1 H    0.999 --    33 C    0.969
    55   1 H    0.998 --    34 C    0.970
    56   1 H    0.998 --    35 C    0.971
    57   1 H    0.998 --    36 C    0.971
    58   1 H    0.999 --    37 C    0.970
    59   6 C    3.987 --    60 C    1.040    76 H    0.967    75 H    0.957
                            74 H    0.937
    60   6 C    3.952 --    61 N    1.734    59 C    1.040    68 C    1.018
    61   7 N    3.293 --    60 C    1.734    62 C    1.070    38 H    0.175
    62   6 C    3.972 --    67 C    1.365    63 C    1.348    61 N    1.070
    63   6 C    3.984 --    64 C    1.418    62 C    1.348    28 C    0.996
                            66 C    0.103
    64   6 C    3.989 --    65 C    1.441    63 C    1.418    78 H    0.967
                            67 C    0.104
    65   6 C    3.988 --    64 C    1.441    66 C    1.426    79 H    0.971
    66   6 C    3.990 --    67 C    1.455    65 C    1.426    80 H    0.970
                            63 C    0.103
    67   6 C    3.989 --    66 C    1.455    62 C    1.365    81 H    0.968
                            64 C    0.104
    68   6 C    3.988 --    69 C    1.392    73 C    1.389    60 C    1.018
                            71 C    0.107
    69   6 C    3.990 --    70 C    1.449    68 C    1.392    82 H    0.968
                            72 C    0.109
    70   6 C    3.992 --    69 C    1.449    71 C    1.435    83 H    0.970
                            73 C    0.109
    71   6 C    3.990 --    72 C    1.436    70 C    1.435    84 H    0.971
                            68 C    0.107
    72   6 C    3.992 --    73 C    1.448    71 C    1.436    85 H    0.969
                            69 C    0.109
    73   6 C    3.990 --    72 C    1.448    68 C    1.389    86 H    0.963
                            70 C    0.109
    74   1 H    0.989 --    59 C    0.937
    75   1 H    0.994 --    59 C    0.957
    76   1 H    0.994 --    59 C    0.967
    77   1 H    0.997 --    29 C    0.940
    78   1 H    0.998 --    64 C    0.967
    79   1 H    0.998 --    65 C    0.971
    80   1 H    0.998 --    66 C    0.970
    81   1 H    0.999 --    67 C    0.968
    82   1 H    0.999 --    69 C    0.968
    83   1 H    0.998 --    70 C    0.970
    84   1 H    0.998 --    71 C    0.971
    85   1 H    0.998 --    72 C    0.969
    86   1 H    0.998 --    73 C    0.963
    87   6 C    3.929 --   104 H    0.979   105 H    0.977   103 H    0.976
                            88 O    0.963
    88   8 O    2.281 --    89 C    1.090    87 C    0.963    90 O    0.151
    89   6 C    3.920 --    90 O    1.657    88 O    1.090    91 C    1.074
    90   8 O    1.989 --    89 C    1.657    88 O    0.151
    91   6 C    3.971 --    92 C    1.621    89 C    1.074   102 C    0.994
    92   6 C    3.966 --    91 C    1.621    94 N    1.147    93 C    1.029
    93   6 C    3.986 --    92 C    1.029   106 H    0.968   108 H    0.965
                           107 H    0.961
    94   7 N    3.507 --    95 C    1.150    92 C    1.147   109 H    0.927
    95   6 C    3.967 --    97 C    1.621    94 N    1.150    96 C    1.030
    96   6 C    3.990 --    95 C    1.030   111 H    0.978   112 H    0.966
                           110 H    0.956
    97   6 C    3.971 --    95 C    1.621    98 C    1.069   102 C    0.997
    98   6 C    3.920 --    99 O    1.651   100 O    1.107    97 C    1.069
    99   8 O    1.980 --    98 C    1.651   100 O    0.155
   100   8 O    2.291 --    98 C    1.107   101 C    0.958    99 O    0.155
   101   6 C    3.923 --   114 H    0.981   115 H    0.977   113 H    0.969
                           100 O    0.958
   102   6 C    3.992 --    97 C    0.997    91 C    0.994   117 H    0.962
                           116 H    0.954
   103   1 H    0.996 --    87 C    0.976
   104   1 H    0.995 --    87 C    0.979
   105   1 H    0.996 --    87 C    0.977
   106   1 H    0.991 --    93 C    0.968
   107   1 H    0.995 --    93 C    0.961
   108   1 H    0.996 --    93 C    0.965
   109   1 H    0.960 --    94 N    0.927
   110   1 H    0.994 --    96 C    0.956
   111   1 H    0.996 --    96 C    0.978
   112   1 H    0.994 --    96 C    0.966
   113   1 H    0.994 --   101 C    0.969
   114   1 H    0.995 --   101 C    0.981
   115   1 H    0.996 --   101 C    0.977
   116   1 H    0.998 --   102 C    0.954
   117   1 H    0.994 --   102 C    0.962
 ---------------------------------------------------------------------------

Topologies differ in total number of bonds
Writing topology from bond orders to xtbtopo.mol

molecular dipole:
                 x           y           z       tot (Debye)
 q only:       -0.722      -0.825      -1.500
   full:       -0.727      -0.555      -1.559       4.595
molecular quadrupole (traceless):
                xx          xy          yy          xz          yz          zz
 q only:      -16.948       2.144      -8.269      16.103       1.445      25.218
  q+dip:      -20.750       5.584      -2.349      15.289       5.557      23.099
   full:      -23.473       3.498      -4.591      16.652       3.074      28.064

           -------------------------------------------------
          |               Frequency Printout                |
           -------------------------------------------------
 projected vibrational frequencies (cm⁻¹)
eigval :       -0.00    -0.00    -0.00     0.00     0.00     0.00
eigval :        7.46    11.28    15.12    18.89    20.09    24.09
eigval :       28.74    31.34    36.24    41.75    45.16    47.56
eigval :       48.84    51.69    53.24    56.66    59.69    64.94
eigval :       67.50    73.08    74.32    76.23    80.65    82.82
eigval :       85.36    88.63    89.73    98.86   107.55   117.92
eigval :      122.80   128.57   141.06   143.71   144.21   150.89
eigval :      154.88   157.67   161.59   176.93   177.75   181.81
eigval :      183.63   191.44   203.48   207.71   210.82   216.77
eigval :      231.76   236.54   246.77   266.33   272.25   274.76
eigval :      276.31   281.14   290.22   294.10   297.45   308.85
eigval :      316.23   317.37   322.80   324.43   326.36   336.14
eigval :      336.63   350.97   351.44   360.93   361.48   373.21
eigval :      374.06   378.42   394.87   416.13   417.31   427.57
eigval :      440.41   444.74   455.14   461.95   467.17   484.85
eigval :      494.06   497.02   503.84   508.84   513.79   521.75
eigval :      525.92   529.06   534.24   539.11   542.67   543.30
eigval :      545.05   558.16   563.57   574.96   581.19   587.20
eigval :      587.45   599.70   602.84   604.12   610.69   621.27
eigval :      632.12   634.54   637.73   651.12   658.97   666.36
eigval :      675.86   678.14   683.41   697.59   702.65   704.49
eigval :      719.18   721.87   726.88   732.50   745.55   759.84
eigval :      761.51   762.89   769.95   771.13   773.00   781.77
eigval :      783.10   789.09   790.53   816.47   819.94   836.65
eigval :      848.27   853.66   858.19   860.93   863.37   864.50
eigval :      875.61   877.35   878.11   878.63   879.82   898.93
eigval :      902.34   905.46   907.62   912.81   915.95   916.72
eigval :      917.46   923.13   926.58   926.70   927.97   928.50
eigval :      929.72   929.97   931.00   934.74   937.13   963.88
eigval :      969.20   975.09   976.53   988.18   990.39  1001.88
eigval :     1010.42  1012.07  1016.81  1019.15  1024.93  1026.91
eigval :     1031.72  1061.54  1066.05  1080.70  1083.67  1084.17
eigval :     1084.44  1087.96  1100.15  1109.91  1114.71  1117.43
eigval :     1121.81  1122.40  1125.46  1126.59  1134.32  1141.01
eigval :     1143.97  1148.83  1149.43  1152.98  1157.90  1160.03
eigval :     1161.32  1174.42  1178.45  1180.45  1181.16  1181.65
eigval :     1183.60  1189.72  1193.30  1199.43  1201.53  1203.18
eigval :     1205.99  1206.05  1223.59  1230.12  1234.32  1246.40
eigval :     1247.26  1250.33  1256.76  1257.94  1264.47  1265.33
eigval :     1276.36  1282.68  1282.90  1284.31  1286.98  1289.07
eigval :     1298.97  1312.64  1315.33  1319.05  1319.85  1322.31
eigval :     1337.52  1347.96  1356.56  1372.29  1381.00  1382.87
eigval :     1383.35  1388.94  1390.15  1391.69  1396.41  1396.68
eigval :     1406.52  1412.37  1415.97  1421.77  1427.84  1429.76
eigval :     1439.47  1442.81  1444.11  1445.80  1446.72  1447.65
eigval :     1448.52  1452.50  1458.06  1462.98  1467.03  1469.04
eigval :     1470.06  1472.24  1475.65  1480.44  1482.24  1490.65
eigval :     1495.22  1548.21  1556.12  1570.64  1576.61  1579.75
eigval :     1584.00  1588.13  1589.46  1594.98  1598.95  1606.33
eigval :     1606.78  1610.58  1642.37  1646.47  1660.71  1680.15
eigval :     1689.09  1689.54  1926.84  2838.77  2873.24  2941.10
eigval :     2965.76  2975.48  2982.81  2988.82  2999.76  3006.60
eigval :     3010.15  3012.72  3023.97  3026.02  3030.77  3033.33
eigval :     3033.68  3040.87  3050.65  3064.81  3066.30  3067.63
eigval :     3068.64  3068.77  3070.18  3070.21  3074.30  3074.91
eigval :     3075.63  3076.09  3076.51  3076.73  3077.14  3078.80
eigval :     3083.00  3083.14  3083.24  3083.31  3085.59  3086.83
eigval :     3088.58  3091.51  3092.19  3093.49  3093.73  3094.51
eigval :     3095.50  3112.14  3413.48
 reduced masses (amu)
   1: 12.15   2: 12.15   3: 11.81   4: 12.19   5: 12.04   6: 12.58   7: 11.66   8: 11.50
   9: 11.98  10: 11.48  11: 11.26  12: 11.47  13: 12.09  14: 13.39  15: 12.27  16: 12.25
  17: 11.50  18: 11.53  19: 11.31  20: 11.55  21: 11.65  22: 11.47  23: 11.53  24:  8.72
  25: 10.70  26: 10.45  27: 11.02  28:  7.96  29: 10.51  30: 12.18  31: 12.00  32: 10.02
  33:  3.04  34: 10.91  35:  8.45  36: 12.72  37: 11.22  38:  9.30  39: 11.10  40: 11.44
  41:  6.45  42:  8.07  43: 11.39  44:  8.24  45:  7.72  46:  4.77  47:  9.40  48:  9.40
  49:  9.52  50:  9.89  51: 13.03  52: 10.16  53: 10.44  54: 12.44  55: 11.64  56: 11.36
  57: 11.54  58: 10.53  59: 12.37  60: 12.23  61: 11.99  62:  9.12  63: 11.82  64: 11.37
  65: 10.87  66: 11.77  67: 10.72  68: 10.50  69: 10.60  70: 11.09  71: 10.91  72: 11.55
  73: 11.23  74: 11.91  75: 11.44  76: 12.65  77: 11.00  78:  9.00  79:  9.13  80: 12.42
  81: 11.65  82: 14.42  83: 12.25  84: 13.11  85: 13.40  86: 12.28  87: 11.63  88: 13.75
  89: 10.60  90: 10.86  91: 10.87  92: 10.36  93: 11.51  94: 10.55  95: 10.50  96: 10.34
  97: 11.63  98: 12.48  99: 11.13 100:  9.67 101: 11.34 102:  9.31 103: 11.94 104: 10.41
 105:  9.81 106: 10.44 107: 11.46 108: 11.13 109: 11.27 110: 10.97 111: 10.53 112:  7.92
 113: 11.32 114: 10.94 115: 10.89 116: 11.17 117: 11.74 118: 11.92 119: 12.96 120: 11.23
 121:  9.28 122: 10.16 123: 11.14 124: 11.40 125: 11.72 126: 12.29 127: 12.50 128: 11.40
 129: 11.34 130: 11.52 131:  9.84 132: 12.03 133:  5.58 134:  7.58 135:  4.79 136:  6.85
 137:  4.98 138:  7.16 139: 12.67 140: 12.66 141: 11.94 142:  3.90 143: 11.58 144: 10.65
 145: 11.05 146:  9.71 147:  4.77 148:  7.67 149:  6.71 150:  4.01 151:  3.43 152:  3.58
 153:  3.81 154:  3.82 155:  3.27 156:  4.32 157:  3.72 158:  9.63 159:  4.00 160:  6.60
 161: 16.11 162:  4.03 163:  4.43 164:  3.31 165:  3.88 166:  3.71 167:  7.62 168:  3.23
 169:  4.03 170:  3.05 171:  9.04 172:  3.77 173:  9.02 174: 11.50 175: 10.60 176:  5.63
 177: 10.98 178: 10.63 179: 10.55 180:  5.19 181:  5.83 182:  5.21 183: 10.60 184:  7.92
 185:  4.78 186:  8.14 187:  4.87 188:  3.80 189: 11.77 190:  8.60 191:  7.67 192:  6.90
 193:  6.74 194:  8.21 195: 12.12 196:  6.62 197:  4.49 198:  7.18 199:  4.18 200:  5.15
 201:  7.08 202:  7.53 203:  7.39 204:  7.12 205:  7.78 206:  4.67 207:  5.03 208:  5.44
 209:  5.82 210:  8.62 211:  6.58 212:  5.23 213:  2.60 214:  1.37 215:  1.36 216:  1.56
 217:  4.15 218:  2.69 219:  4.59 220:  3.14 221:  2.07 222:  6.58 223:  5.80 224:  6.29
 225:  9.28 226:  6.20 227: 14.87 228:  6.82 229:  6.61 230:  8.04 231:  8.82 232:  7.18
 233:  7.14 234:  6.87 235:  9.63 236:  3.65 237:  3.80 238:  5.11 239:  8.39 240: 10.86
 241:  5.43 242:  8.74 243: 11.74 244: 11.00 245: 10.22 246:  7.78 247:  9.65 248:  5.89
 249:  7.75 250:  9.76 251:  9.49 252:  3.66 253:  9.67 254:  3.94 255:  3.18 256:  2.80
 257: 10.29 258:  7.16 259:  4.51 260: 10.87 261: 11.25 262:  8.95 263:  8.74 264:  9.17
 265: 10.10 266:  1.61 267:  1.78 268:  1.93 269:  1.72 270: 10.66 271:  1.57 272:  1.88
 273:  2.11 274:  1.55 275:  2.47 276:  7.59 277:  1.92 278:  1.71 279:  9.13 280:  2.06
 281:  9.67 282: 10.71 283: 10.85 284: 11.78 285: 11.77 286: 11.56 287: 11.58 288: 11.46
 289: 11.56 290: 11.73 291: 11.45 292: 11.47 293: 11.47 294: 11.41 295: 11.40 296: 11.39
 297: 11.81 298: 11.73 299: 12.41 300: 13.24 301: 13.19 302: 11.59 303:  2.89 304:  1.73
 305:  1.75 306:  1.76 307:  1.89 308:  1.83 309:  1.46 310:  1.55 311:  1.93 312:  1.83
 313:  1.49 314:  1.85 315:  1.68 316:  1.70 317:  1.58 318:  1.77 319:  1.75 320:  1.70
 321:  1.61 322:  1.80 323:  1.74 324:  1.77 325:  1.76 326:  1.79 327:  1.77 328:  1.78
 329:  1.81 330:  1.77 331:  1.79 332:  1.82 333:  1.81 334:  1.83 335:  1.81 336:  1.82
 337:  1.85 338:  1.89 339:  1.88 340:  1.84 341:  1.86 342:  1.87 343:  1.91 344:  1.89
 345:  1.73 346:  1.91 347:  1.90 348:  1.74 349:  1.89 350:  1.85 351:  1.84
 IR intensities (km·mol⁻¹)
   1:  0.00   2:  0.01   3:  0.10   4:  0.03   5:  0.01   6:  0.01   7:  0.61   8:  0.15
   9:  0.29  10:  0.27  11:  0.76  12:  0.83  13:  4.04  14:  1.28  15:  1.89  16:  2.40
  17:  0.95  18:  0.88  19:  0.18  20:  0.06  21:  0.65  22:  4.83  23:  7.24  24:  1.15
  25:  3.11  26:  0.87  27:  1.71  28:  0.21  29:  1.33  30:  5.38  31:  0.44  32:  1.53
  33:  1.08  34:  1.35  35:  9.97  36: 13.39  37:  6.41  38:  2.41  39:  7.23  40:  1.54
  41:  2.03  42:  1.15  43:  8.59  44:  3.67  45:  1.89  46:  1.03  47:  0.62  48:  7.70
  49:  1.65  50:  0.19  51: 11.91  52:  7.46  53:  7.29  54: 32.72  55: 53.30  56:  3.87
  57:  0.36  58: 24.98  59: 22.02  60: 17.57  61:  6.00  62:  3.07  63: 29.63  64:  7.50
  65:  4.77  66: 16.50  67: 10.87  68: 12.13  69:  2.17  70: 10.87  71:  0.27  72:  1.89
  73: 16.43  74:  0.54  75:  8.50  76: 30.55  77: 35.05  78:  0.56  79:  1.19  80:  7.19
  81:  2.68  82: 55.10  83: 68.21  84: 31.56  85:  0.87  86:  1.87  87: 11.37  88: 36.02
  89: 34.57  90: 15.04  91:  9.17  92: 11.98  93:  9.67  94: 12.59  95:  1.00  96:  3.68
  97:  2.60  98: 82.74  99:  6.65 100: 15.27 101:  2.14 102: 57.04 103: 56.31 104:  3.70
 105:  4.02 106:  0.89 107:  9.86 108:  4.56 109:  1.13 110:  0.31 111:  7.31 112: 33.24
 113:  0.77 114: 47.50 115: 12.69 116: 14.25 117: 10.28 118: 12.26 119: 11.78 120:  3.50
 121:  5.41 122: 24.51 123: 79.21 124: 17.87 125: 27.12 126: 12.82 127: 23.69 128: 49.17
 129: 35.18 130:  7.95 131: 62.00 132: 51.78 133: 24.65 134: 60.52 135: 25.00 136: 14.62
 137: 14.83 138:105.82 139: 46.20 140:  0.98 141:102.14 142: 15.24 143:  8.69 144:361.00
 145:  5.55 146: 28.20 147:119.57 148: 40.80 149: 26.46 150: 19.95 151:  0.76 152:  6.47
 153:  2.23 154:  2.14 155:  1.41 156:  0.83 157:  0.09 158:  9.36 159:  6.23 160: 78.03
 161:291.64 162:  5.31 163: 17.62 164:  0.40 165:  0.64 166:  2.14 167:  8.63 168:  0.22
 169:  2.74 170:  0.77 171: 22.35 172:  0.72 173:  6.92 174: 45.02 175: 98.39 176: 19.08
 177:  5.28 178: 43.53 179: 24.47 180: 50.67 181: 46.84 182: 73.31 183: 20.38 184: 10.76
 185: 38.63 186:  5.43 187: 10.74 188:233.74 189:139.55 190:  3.73 191:  2.98 192:  0.77
 193:  0.49 194: 11.90 195:339.83 196:  1.42 197: 26.82 198: 58.29 199:  0.40 200:  8.44
 201:135.98 202:137.25 203: 33.88 204:301.66 205: 23.18 206: 29.33 207:  1.73 208:  6.64
 209:103.87 210: 54.78 211: 41.04 212: 32.66 213: 19.56 214:  4.02 215:  0.25 216:  0.10
 217: 13.00 218:  1.31 219: 20.50 220: 37.60 221: 11.18 222:134.06 223: 15.17 224: 90.42
 225: 94.76 226:135.13 227:213.38 228: 24.60 229: 29.34 230: 13.06 231:131.66 232:  4.76
 233: 59.80 234: 70.15 235:147.99 236:  1.99 237: 10.43 238:  9.69 239:  2.23 240:145.29
 241: 16.31 242:  1.61 243:  1.27 244:  0.23 245:  6.07 246: 12.55 247: 12.58 248:  5.04
 249: 10.19 250:  9.42 251: 17.61 252: 42.70 253: 22.22 254:206.08 255: 19.95 256: 29.39
 257: 11.22 258:300.91 259:107.04 260: 92.27 261: 86.08 262:  9.05 263:  1.04 264:  2.14
 265: 16.07 266:  4.35 267: 21.51 268: 25.40 269: 27.74 270: 10.30 271:  0.90 272: 11.51
 273:  0.41 274: 10.63 275:  7.98 276:  6.04 277:  4.11 278:  7.06 279: 45.23 280:  2.52
 281:  8.04 282:  1.42 283:  1.05 284:  4.17 285:  0.80 286: 12.96 287:  8.94 288:  0.77
 289:  4.08 290:  1.79 291: 24.67 292:  8.97 293:  1.35 294:  0.71 295:  0.99 296:285.39
 297:431.02 298: 17.50 299:605.80 300:676.93 301:453.05 302:  0.93 303:****** 304: 46.29
 305: 66.44 306: 18.38 307: 28.17 308: 20.83 309: 26.57 310:  6.11 311: 17.22 312: 14.36
 313: 17.17 314:  5.56 315: 19.17 316: 32.69 317: 18.19 318: 11.00 319: 17.37 320:  0.78
 321:  3.65 322: 35.06 323:  5.18 324: 12.46 325: 18.77 326:  9.15 327:  5.07 328:  1.27
 329: 22.89 330: 10.71 331: 14.86 332: 10.98 333: 50.29 334: 73.18 335: 25.15 336: 41.26
 337:171.45 338: 22.04 339:167.45 340:  6.99 341:164.16 342: 81.03 343: 37.80 344: 60.45
 345:  4.42 346: 93.56 347: 44.53 348:  4.15 349: 65.28 350: 18.30 351: 54.74
 Raman intensities (Ä⁴*amu⁻¹)
   1:  0.00   2:  0.00   3:  0.00   4:  0.00   5:  0.00   6:  0.00   7:  0.00   8:  0.00
   9:  0.00  10:  0.00  11:  0.00  12:  0.00  13:  0.00  14:  0.00  15:  0.00  16:  0.00
  17:  0.00  18:  0.00  19:  0.00  20:  0.00  21:  0.00  22:  0.00  23:  0.00  24:  0.00
  25:  0.00  26:  0.00  27:  0.00  28:  0.00  29:  0.00  30:  0.00  31:  0.00  32:  0.00
  33:  0.00  34:  0.00  35:  0.00  36:  0.00  37:  0.00  38:  0.00  39:  0.00  40:  0.00
  41:  0.00  42:  0.00  43:  0.00  44:  0.00  45:  0.00  46:  0.00  47:  0.00  48:  0.00
  49:  0.00  50:  0.00  51:  0.00  52:  0.00  53:  0.00  54:  0.00  55:  0.00  56:  0.00
  57:  0.00  58:  0.00  59:  0.00  60:  0.00  61:  0.00  62:  0.00  63:  0.00  64:  0.00
  65:  0.00  66:  0.00  67:  0.00  68:  0.00  69:  0.00  70:  0.00  71:  0.00  72:  0.00
  73:  0.00  74:  0.00  75:  0.00  76:  0.00  77:  0.00  78:  0.00  79:  0.00  80:  0.00
  81:  0.00  82:  0.00  83:  0.00  84:  0.00  85:  0.00  86:  0.00  87:  0.00  88:  0.00
  89:  0.00  90:  0.00  91:  0.00  92:  0.00  93:  0.00  94:  0.00  95:  0.00  96:  0.00
Refinement of some symmetry elements was terminated before convergence was reached.
Some symmetry elements may remain unidentified.
Molecule has no symmetry elements
It seems to be the C1 point group
  97:  0.00  98:  0.00  99:  0.00 100:  0.00 101:  0.00 102:  0.00 103:  0.00 104:  0.00
 105:  0.00 106:  0.00 107:  0.00 108:  0.00 109:  0.00 110:  0.00 111:  0.00 112:  0.00
 113:  0.00 114:  0.00 115:  0.00 116:  0.00 117:  0.00 118:  0.00 119:  0.00 120:  0.00
 121:  0.00 122:  0.00 123:  0.00 124:  0.00 125:  0.00 126:  0.00 127:  0.00 128:  0.00
 129:  0.00 130:  0.00 131:  0.00 132:  0.00 133:  0.00 134:  0.00 135:  0.00 136:  0.00
 137:  0.00 138:  0.00 139:  0.00 140:  0.00 141:  0.00 142:  0.00 143:  0.00 144:  0.00
 145:  0.00 146:  0.00 147:  0.00 148:  0.00 149:  0.00 150:  0.00 151:  0.00 152:  0.00
 153:  0.00 154:  0.00 155:  0.00 156:  0.00 157:  0.00 158:  0.00 159:  0.00 160:  0.00
 161:  0.00 162:  0.00 163:  0.00 164:  0.00 165:  0.00 166:  0.00 167:  0.00 168:  0.00
 169:  0.00 170:  0.00 171:  0.00 172:  0.00 173:  0.00 174:  0.00 175:  0.00 176:  0.00
 177:  0.00 178:  0.00 179:  0.00 180:  0.00 181:  0.00 182:  0.00 183:  0.00 184:  0.00
 185:  0.00 186:  0.00 187:  0.00 188:  0.00 189:  0.00 190:  0.00 191:  0.00 192:  0.00
 193:  0.00 194:  0.00 195:  0.00 196:  0.00 197:  0.00 198:  0.00 199:  0.00 200:  0.00
 201:  0.00 202:  0.00 203:  0.00 204:  0.00 205:  0.00 206:  0.00 207:  0.00 208:  0.00
 209:  0.00 210:  0.00 211:  0.00 212:  0.00 213:  0.00 214:  0.00 215:  0.00 216:  0.00
 217:  0.00 218:  0.00 219:  0.00 220:  0.00 221:  0.00 222:  0.00 223:  0.00 224:  0.00
 225:  0.00 226:  0.00 227:  0.00 228:  0.00 229:  0.00 230:  0.00 231:  0.00 232:  0.00
 233:  0.00 234:  0.00 235:  0.00 236:  0.00 237:  0.00 238:  0.00 239:  0.00 240:  0.00
 241:  0.00 242:  0.00 243:  0.00 244:  0.00 245:  0.00 246:  0.00 247:  0.00 248:  0.00
 249:  0.00 250:  0.00 251:  0.00 252:  0.00 253:  0.00 254:  0.00 255:  0.00 256:  0.00
 257:  0.00 258:  0.00 259:  0.00 260:  0.00 261:  0.00 262:  0.00 263:  0.00 264:  0.00
 265:  0.00 266:  0.00 267:  0.00 268:  0.00 269:  0.00 270:  0.00 271:  0.00 272:  0.00
 273:  0.00 274:  0.00 275:  0.00 276:  0.00 277:  0.00 278:  0.00 279:  0.00 280:  0.00
 281:  0.00 282:  0.00 283:  0.00 284:  0.00 285:  0.00 286:  0.00 287:  0.00 288:  0.00
 289:  0.00 290:  0.00 291:  0.00 292:  0.00 293:  0.00 294:  0.00 295:  0.00 296:  0.00
 297:  0.00 298:  0.00 299:  0.00 300:  0.00 301:  0.00 302:  0.00 303:  0.00 304:  0.00
 305:  0.00 306:  0.00 307:  0.00 308:  0.00 309:  0.00 310:  0.00 311:  0.00 312:  0.00
 313:  0.00 314:  0.00 315:  0.00 316:  0.00 317:  0.00 318:  0.00 319:  0.00 320:  0.00
 321:  0.00 322:  0.00 323:  0.00 324:  0.00 325:  0.00 326:  0.00 327:  0.00 328:  0.00
 329:  0.00 330:  0.00 331:  0.00 332:  0.00 333:  0.00 334:  0.00 335:  0.00 336:  0.00
 337:  0.00 338:  0.00 339:  0.00 340:  0.00 341:  0.00 342:  0.00 343:  0.00 344:  0.00
 345:  0.00 346:  0.00 347:  0.00 348:  0.00 349:  0.00 350:  0.00 351:  0.00
 output can be read by thermo (or use thermo option).
 writing <g98.out> molden fake output.
 recommended (thermochemical) frequency scaling factor: 1.0
           -------------------------------------------------
          |             Thermodynamic Functions             |
           -------------------------------------------------

c1  symmetry found (for desy threshold:  0.10E+00) used in thermo

          ...................................................
          :                      SETUP                      :
          :.................................................:
          :  # frequencies                         345      :
          :  # imaginary freq.                       0      :
          :  linear?                             false      :
          :  only rotor calc.                    false      :
          :  symmetry                               c1      :
          :  rotational number                       1      :
          :  scaling factor                  1.0000000      :
          :  rotor cutoff                   50.0000000 cm⁻¹ :
          :  imag. cutoff                  -20.0000000 cm⁻¹ :
          :.................................................:

    mode    ω/cm⁻¹     T·S(HO)/kcal·mol⁻¹    T·S(FR)/kcal·mol⁻¹   T·S(vib)
   ------------------------------------------------------------------------
       1      7.46    -2.56187 (  0.05%)    -1.62000 ( 99.95%)    -1.62046
       2     11.28    -2.31717 (  0.26%)    -1.49764 ( 99.74%)    -1.49976
       3     15.12    -2.14353 (  0.83%)    -1.41080 ( 99.17%)    -1.41688
       4     18.89    -2.01190 (  2.00%)    -1.34495 ( 98.00%)    -1.35826
       5     20.09    -1.97528 (  2.54%)    -1.32663 ( 97.46%)    -1.34311
       6     24.09    -1.86778 (  5.12%)    -1.27283 ( 94.88%)    -1.30326
       7     28.74    -1.76337 (  9.84%)    -1.22055 ( 90.16%)    -1.27399
       8     31.34    -1.71220 ( 13.37%)    -1.19493 ( 86.63%)    -1.26409
       9     36.24    -1.62627 ( 21.63%)    -1.15187 ( 78.37%)    -1.25450
      10     41.75    -1.54268 ( 32.71%)    -1.10995 ( 67.29%)    -1.25152
      11     45.16    -1.49637 ( 39.96%)    -1.08671 ( 60.04%)    -1.25039
      12     47.56    -1.46577 ( 45.02%)    -1.07135 ( 54.98%)    -1.24892
      13     48.84    -1.45011 ( 47.66%)    -1.06348 ( 52.34%)    -1.24775
      14     51.69    -1.41675 ( 53.31%)    -1.04672 ( 46.69%)    -1.24399
      15     53.24    -1.39934 ( 56.24%)    -1.03797 ( 43.76%)    -1.24120
      16     56.66    -1.36264 ( 62.25%)    -1.01951 ( 37.75%)    -1.23310
      17     59.69    -1.33199 ( 67.00%)    -1.00409 ( 33.00%)    -1.22379
      18     64.94    -1.28238 ( 74.00%)    -0.97909 ( 26.00%)    -1.20352
      19     67.50    -1.25970 ( 76.86%)    -0.96766 ( 23.14%)    -1.19211
      20     73.08    -1.21309 ( 82.02%)    -0.94413 ( 17.98%)    -1.16474
      21     74.32    -1.20316 ( 83.00%)    -0.93911 ( 17.00%)    -1.15827
      22     76.23    -1.18831 ( 84.38%)    -0.93160 ( 15.62%)    -1.14822
      23     80.65    -1.15535 ( 87.13%)    -0.91493 ( 12.87%)    -1.12440
      24     82.82    -1.13982 ( 88.27%)    -0.90706 ( 11.73%)    -1.11253
      25     85.36    -1.12211 ( 89.47%)    -0.89808 ( 10.53%)    -1.09852
      26     88.63    -1.10019 ( 90.80%)    -0.88696 (  9.20%)    -1.08058
      27     89.73    -1.09300 ( 91.21%)    -0.88331 (  8.79%)    -1.07456
      28     98.86    -1.03655 ( 93.86%)    -0.85460 (  6.14%)    -1.02538
      29    107.55    -0.98765 ( 95.54%)    -0.82964 (  4.46%)    -0.98060
      30    117.92    -0.93444 ( 96.87%)    -0.80237 (  3.13%)    -0.93031
      31    122.80    -0.91110 ( 97.32%)    -0.79037 (  2.68%)    -0.90787
      32    128.57    -0.88471 ( 97.76%)    -0.77677 (  2.24%)    -0.88230
      33    141.06    -0.83166 ( 98.45%)    -0.74929 (  1.55%)    -0.83038
      34    143.71    -0.82108 ( 98.56%)    -0.74379 (  1.44%)    -0.81997
      35    144.21    -0.81910 ( 98.58%)    -0.74276 (  1.42%)    -0.81801
      36    150.89    -0.79337 ( 98.81%)    -0.72934 (  1.19%)    -0.79261
      37    154.88    -0.77857 ( 98.93%)    -0.72160 (  1.07%)    -0.77796
      38    157.67    -0.76851 ( 99.00%)    -0.71633 (  1.00%)    -0.76799
      39    161.59    -0.75464 ( 99.09%)    -0.70904 (  0.91%)    -0.75422
      40    176.93    -0.70379 ( 99.37%)    -0.68217 (  0.63%)    -0.70365
      41    177.75    -0.70124 ( 99.38%)    -0.68082 (  0.62%)    -0.70111
      42    181.81    -0.68865 ( 99.43%)    -0.67412 (  0.57%)    -0.68857
      43    183.63    -0.68312 ( 99.45%)    -0.67117 (  0.55%)    -0.68306
      44    191.44    -0.66007 ( 99.54%)    -0.65884 (  0.46%)    -0.66006
      45    203.48    -0.62654 ( 99.64%)    -0.64076 (  0.36%)    -0.62659
      46    207.71    -0.61529 ( 99.67%)    -0.63466 (  0.33%)    -0.61535
      47    210.82    -0.60719 ( 99.68%)    -0.63026 (  0.32%)    -0.60727
      48    216.77    -0.59210 ( 99.72%)    -0.62202 (  0.28%)    -0.59218
      49    231.76    -0.55612 ( 99.78%)    -0.60221 (  0.22%)    -0.55622
      50    236.54    -0.54524 ( 99.80%)    -0.59616 (  0.20%)    -0.54535
      51    246.77    -0.52281 ( 99.83%)    -0.58362 (  0.17%)    -0.52292
      52    266.33    -0.48298 ( 99.88%)    -0.56103 (  0.12%)    -0.48308
Note: The following floating-point exceptions are signalling: IEEE_DIVIDE_BY_ZERO IEEE_UNDERFLOW_FLAG IEEE_DENORMAL
normal termination of xtb
      53    272.25    -0.47164 ( 99.89%)    -0.55451 (  0.11%)    -0.47174
      54    274.76    -0.46693 ( 99.89%)    -0.55179 (  0.11%)    -0.46702
      55    276.31    -0.46404 ( 99.89%)    -0.55012 (  0.11%)    -0.46413
      56    281.14    -0.45520 ( 99.90%)    -0.54499 (  0.10%)    -0.45529
      57    290.22    -0.43908 ( 99.91%)    -0.53558 (  0.09%)    -0.43917
      58    294.10    -0.43239 ( 99.92%)    -0.53164 (  0.08%)    -0.43247
      59    297.45    -0.42671 ( 99.92%)    -0.52828 (  0.08%)    -0.42679
   ------------------------------------------------------------------------

   temp. (K)  partition function   enthalpy   heat capacity  entropy
                                   cal/mol     cal/K/mol   cal/K/mol   J/K/mol
 298.15  VIB  0.440E+31            37706.583    223.108    241.191
         ROT  0.168E+09              888.752      2.981     40.617
         INT  0.738E+39            38595.336    226.089    281.809
         TR   0.270E+29             1481.254      4.968     46.315
         TOT                       40076.5895   231.0573   328.1237  1372.8694

       T/K    H(0)-H(T)+PV         H(T)/Eh          T*S/Eh         G(T)/Eh
   ------------------------------------------------------------------------
    298.15    0.638661E-01    0.963587E+00    0.155902E+00    0.807685E+00
   ------------------------------------------------------------------------

         :::::::::::::::::::::::::::::::::::::::::::::::::::::
         ::                  THERMODYNAMIC                  ::
         :::::::::::::::::::::::::::::::::::::::::::::::::::::
         :: total free energy        -187.414968900054 Eh   ::
         ::.................................................::
         :: total energy             -188.222653956880 Eh   ::
         :: zero point energy           0.899721080741 Eh   ::
         :: G(RRHO) w/o ZPVE           -0.092036023914 Eh   ::
         :: G(RRHO) contrib.            0.807685056826 Eh   ::
         :::::::::::::::::::::::::::::::::::::::::::::::::::::

           -------------------------------------------------
          | TOTAL ENERGY             -188.222653956880 Eh   |
          | TOTAL ENTHALPY           -187.259066765462 Eh   |
          | TOTAL FREE ENERGY        -187.414968900054 Eh   |
          | GRADIENT NORM               0.000100007850 Eh/α |
          | HOMO-LUMO GAP               2.479787584880 eV   |
           -------------------------------------------------

------------------------------------------------------------------------
 * finished run on 2026/09/11 at 00:06:50.795     
------------------------------------------------------------------------
 total:
 * wall-time:     0 d,  0 h,  6 min, 37.378 sec
 *  cpu-time:     0 d,  0 h,  2 min, 12.328 sec
 * ratio c/w:     0.333 speedup
 SCF:
 * wall-time:     0 d,  0 h,  0 min,  0.489 sec
 *  cpu-time:     0 d,  0 h,  0 min,  0.125 sec
 * ratio c/w:     0.256 speedup
 analytical hessian:
 * wall-time:     0 d,  0 h,  6 min, 36.543 sec
 *  cpu-time:     0 d,  0 h,  2 min, 12.172 sec
 * ratio c/w:     0.333 speedup

