      -----------------------------------------------------------      
     |                   =====================                   |     
     |                           x T B                           |     
     |                   =====================                   |     
     |                         S. Grimme                         |     
     |          Mulliken Center for Theoretical Chemistry        |     
     |                    University of Bonn                     |     
      -----------------------------------------------------------      

   * xtb version 6.7.1 (edcfbbe) compiled by 'VssAdministrator@runnervm171ch' on 2026-06-10

   xtb is free software: you can redistribute it and/or modify it under
   the terms of the GNU Lesser General Public License as published by
   the Free Software Foundation, either version 3 of the License, or
   (at your option) any later version.
   
   xtb is distributed in the hope that it will be useful,
   but WITHOUT ANY WARRANTY; without even the implied warranty of
   MERCHANTABILITY or FITNESS FOR A PARTICULAR PURPOSE.  See the
   GNU Lesser General Public License for more details.
   
   Cite this work as:
   * C. Bannwarth, E. Caldeweyher, S. Ehlert, A. Hansen, P. Pracht,
     J. Seibert, S. Spicher, S. Grimme, WIREs Comput. Mol. Sci., 2020, 11,
     e01493. DOI: 10.1002/wcms.1493
   
   for GFN2-xTB:
   * C. Bannwarth, S. Ehlert and S. Grimme., J. Chem. Theory Comput., 2019,
     15, 1652-1671. DOI: 10.1021/acs.jctc.8b01176
   for GFN1-xTB:
   * S. Grimme, C. Bannwarth, P. Shushkov, J. Chem. Theory Comput., 2017,
     13, 1989-2009. DOI: 10.1021/acs.jctc.7b00118
   for GFN0-xTB:
   * P. Pracht, E. Caldeweyher, S. Ehlert, S. Grimme, ChemRxiv, 2019, preprint.
     DOI: 10.26434/chemrxiv.8326202.v1
   for GFN-FF:
   * S. Spicher and S. Grimme, Angew. Chem. Int. Ed., 2020, 59, 15665-15673.
     DOI: 10.1002/anie.202004239
   
   for ALPB and GBSA implicit solvation:
   * S. Ehlert, M. Stahn, S. Spicher, S. Grimme, J. Chem. Theory Comput.,
     2021, 17, 4250-4261. DOI: 10.1021/acs.jctc.1c00471
   
   for ddCOSMO and CPCM-X implicit solvation:
   * M. Stahn, S. Ehlert, S. Grimme, J. Phys. Chem. A,
     2023, XX, XXXX-XXXX. DOI: 10.1021/acs.jpca.3c04382
   
   for DFT-D4:
   * E. Caldeweyher, C. Bannwarth and S. Grimme, J. Chem. Phys., 2017,
     147, 034112. DOI: 10.1063/1.4993215
   * E. Caldeweyher, S. Ehlert, A. Hansen, H. Neugebauer, S. Spicher,
     C. Bannwarth and S. Grimme, J. Chem. Phys., 2019, 150, 154122.
     DOI: 10.1063/1.5090222
   * E. Caldeweyher, J.-M. Mewes, S. Ehlert and S. Grimme, Phys. Chem. Chem. Phys.
     2020, 22, 8499-8512. DOI: 10.1039/D0CP00502A
   
   for sTDA-xTB:
   * S. Grimme and C. Bannwarth, J. Chem. Phys., 2016, 145, 054103.
     DOI: 10.1063/1.4959605
   
   in the mass-spec context:
   * V. Asgeirsson, C. Bauer and S. Grimme, Chem. Sci., 2017, 8, 4879.
     DOI: 10.1039/c7sc00601b
   * J. Koopman and S. Grimme, ACS Omega 2019, 4, 12, 15120-15133.
     DOI: 10.1021/acsomega.9b02011
   
   for metadynamics refer to:
   * S. Grimme, J. Chem. Theory Comput., 2019, 155, 2847-2862
     DOI: 10.1021/acs.jctc.9b00143
   
   for SPH calculations refer to:
   * S. Spicher and S. Grimme, J. Chem. Theory Comput., 2021, 17, 1701-1714
     DOI: 10.1021/acs.jctc.0c01306
   
   for ONIOM refer to:
   * C. Plett, A. Katbashev, S. Ehlert, S. Grimme, M. Bursch,
     Phys. Chem. Chem. Phys., 2023, 25, 17860-17868. DOI: 10.1039/D3CP02178E
   
   for DIPRO refer to:
   * J. Kohn, N. Gildemeister, S. Grimme, D. Fazzi, A. Hansen,
     J. Chem. Phys., 2023, just accepted.
   
   for PTB refer to:
   * S. Grimme, M. Mueller, A. Hansen, J. Chem. Phys., 2023, 158, 124111.
     DOI: 10.1063/5.0137838
   
   with help from (in alphabetical order)
   P. Atkinson, C. Bannwarth, F. Bohle, G. Brandenburg, E. Caldeweyher
   M. Checinski, S. Dohm, S. Ehlert, S. Ehrlich, I. Gerasimov, C. Hölzer
   A. Katbashev, J. Kohn, J. Koopman, C. Lavigne, S. Lehtola, F. März, M. Müller,
   F. Musil, H. Neugebauer, J. Pisarek, C. Plett, P. Pracht, F. Pultar,
   J. Seibert, P. Shushkov, S. Spicher, M. Stahn, M. Steiner, T. Strunk,
   J. Stückrath, T. Rose, and J. Unsleber
   
 * started run on 2026/09/10 at 23:03:48.309     
   ID    Z sym.   atoms
    1    6 C      1, 2, 4-19
    2    7 N      3
    3    1 H      20-34

           -------------------------------------------------
          |                Calculation Setup                |
           -------------------------------------------------

          program call               : C:\Users\HUIWEI\miniconda3\envs\phase2ff\Library\bin\xtb.exe xtbopt.xyz --gfn 2 --chrg 0 --uhf 0 --alpb ch2cl2 --acc 0.2 --hess --strict
          coordinate file            : xtbopt.xyz
          omp threads                :                     1


           -------------------------------------------------
          |                 G F N 2 - x T B                 |
           -------------------------------------------------

        Reference                      10.1021/acs.jctc.8b01176
      * Hamiltonian:
        H0-scaling (s, p, d)           1.850000    2.230000    2.230000
        zeta-weighting                 0.500000
      * Dispersion:
        s8                             2.700000
        a1                             0.520000
        a2                             5.000000
        s9                             5.000000
      * Repulsion:
        kExp                           1.500000    1.000000
        rExp                           1.000000
      * Coulomb:
        alpha                          2.000000
        third order                    shell-resolved
        anisotropic                    true
        a3                             3.000000
        a5                             4.000000
        cn-shift                       1.200000
        cn-exp                         4.000000
        max-rad                        5.000000

      * Solvation model:               ALPB
        Solvent                        ch2cl2
        Parameter file                 internal GFN2-xTB/ALPB
        Dielectric constant                8.9300E+00
        Reference state                gsolv [1 M gas/solution]
        Free energy shift                  4.1487E-03 Eh       2.6033E+00 kcal/mol
        Temperature                        2.9815E+02 K
        Density                            1.3300E+00 kg/L
        Solvent mass                       8.4930E+01 g/mol
        Interaction kernel             P16
        Born radius scaling (c1)           1.5691E+00
        Born radii integrator          GBOBC
        Born offset                        0.0000E+00 a0       0.0000E+00 AA
        H-bond correction              false
        Ion screening                  false
        Surface tension                    1.0000E-05 Eh       1.5569E+01 dyn/cm
        Grid points                               230 per atom
q/qsh data taken from xtbrestart
CAMM data taken from xtbrestart

          ...................................................
          :                      SETUP                      :
          :.................................................:
          :  # basis functions                  91          :
          :  # atomic orbitals                  91          :
          :  # shells                           53          :
          :  # electrons                        92          :
          :  max. iterations                   250          :
          :  Hamiltonian                  GFN2-xTB          :
          :  restarted?                       true          :
          :  GBSA solvation                   true          :
          :  PC potential                    false          :
          :  electronic temp.          300.0000000     K    :
          :  accuracy                    0.2000000          :
          :  -> integral cutoff          0.3198970E+02      :
          :  -> integral neglect         0.2000000E-08      :
          :  -> SCF convergence          0.2000000E-06 Eh   :
          :  -> wf. convergence          0.2000000E-04 e    :
          :  Broyden damping             0.4000000          :
          :  net charge                          0          :
          :  unpaired electrons                  0          :
          ...................................................

 iter      E             dE          RMSdq      gap      omega  full diag
   1    -50.0418903 -0.500419E+02  0.445E-06    2.55       0.0  T
   2    -50.0418903 -0.305533E-12  0.309E-06    2.55    5553.9  T
   3    -50.0418903 -0.284217E-12  0.134E-06    2.55   12794.8  T

   *** convergence criteria satisfied after 3 iterations ***

         #    Occupation            Energy/Eh            Energy/eV
      -------------------------------------------------------------
         1        2.0000           -0.6582524             -17.9120
       ...           ...                  ...                  ...
        40        2.0000           -0.4215460             -11.4709
        41        2.0000           -0.4142002             -11.2710
        42        2.0000           -0.4045712             -11.0089
        43        2.0000           -0.4006760             -10.9030
        44        2.0000           -0.3988109             -10.8522
        45        2.0000           -0.3814624             -10.3801
        46        2.0000           -0.3589882              -9.7686 (HOMO)
        47                         -0.2651924              -7.2163 (LUMO)
        48                         -0.2423719              -6.5953
        49                         -0.2326404              -6.3305
        50                         -0.2167830              -5.8990
        51                         -0.2019148              -5.4944
       ...                                ...                  ...
        91                          0.6931408              18.8613
      -------------------------------------------------------------
                  HL-Gap            0.0937957 Eh            2.5523 eV
             Fermi-level           -0.3120903 Eh           -8.4924 eV

 SCC (total)                   0 d,  0 h,  0 min,  0.034 sec
 SCC setup                      ...        0 min,  0.001 sec (  3.483%)
 Dispersion                     ...        0 min,  0.000 sec (  1.172%)
 classical contributions        ...        0 min,  0.000 sec (  0.290%)
 integral evaluation            ...        0 min,  0.006 sec ( 17.216%)
 iterations                     ...        0 min,  0.008 sec ( 22.578%)
 molecular gradient             ...        0 min,  0.018 sec ( 53.815%)
 printout                       ...        0 min,  0.000 sec (  1.390%)

         :::::::::::::::::::::::::::::::::::::::::::::::::::::
         ::                     SUMMARY                     ::
         :::::::::::::::::::::::::::::::::::::::::::::::::::::
         :: total energy             -49.111718080567 Eh    ::
         :: total w/o Gsasa/hb       -49.089963697084 Eh    ::
         :: gradient norm              0.000191325091 Eh/a0 ::
         :: HOMO-LUMO gap              2.552311492398 eV    ::
         ::.................................................::
         :: SCC energy               -50.041132884153 Eh    ::
         :: -> isotropic ES            0.011268546653 Eh    ::
         :: -> anisotropic ES          0.006184419368 Eh    ::
         :: -> anisotropic XC          0.035692190423 Eh    ::
         :: -> dispersion             -0.039138857210 Eh    ::
         :: -> Gsolv                  -0.022712547701 Eh    ::
         ::    -> Gelec               -0.000958164218 Eh    ::
         ::    -> Gsasa               -0.025903080844 Eh    ::
         ::    -> Ghb                  0.000000000000 Eh    ::
         ::    -> Gshift               0.004148697361 Eh    ::
         :: repulsion energy           0.929414803586 Eh    ::
         :: add. restraining           0.000000000000 Eh    ::
         :: total charge               0.000000000000 e     ::
         :::::::::::::::::::::::::::::::::::::::::::::::::::::

           ------------------------------------------------- 
          |                Numerical Hessian                |
           ------------------------------------------------- 
step length          :   0.00500
SCC accuracy         :   0.30000
Hessian scale factor :   1.00000
frozen atoms in %    :   0.00000    0
RMS gradient         :   0.00019
estimated CPU  time      0.03 min
estimated wall time      0.13 min

writing file <hessian>.

 projected vibrational frequencies (cm⁻¹)
eigval :       -0.00    -0.00    -0.00     0.00     0.00     0.00
eigval :       17.75    28.76    39.50    94.70    97.02   128.10
eigval :      147.58   154.48   174.64   216.88   265.75   334.15
eigval :      360.08   370.49   391.57   420.20   434.84   455.17
eigval :      485.45   489.14   530.26   540.32   579.49   589.56
eigval :      605.84   644.56   667.32   686.07   726.07   757.10
eigval :      760.15   778.33   814.58   827.17   850.97   866.91
eigval :      879.70   884.59   896.16   918.38   921.54   924.39
eigval :      926.05   931.29   968.30   981.57  1008.96  1022.22
eigval :     1079.64  1080.18  1111.78  1117.30  1135.83  1170.83
eigval :     1179.15  1180.76  1191.78  1199.83  1222.18  1242.71
eigval :     1257.61  1263.75  1279.62  1317.51  1337.26  1366.09
eigval :     1380.17  1390.59  1416.95  1433.85  1450.19  1451.84
eigval :     1459.42  1468.15  1506.15  1563.81  1572.50  1594.81
eigval :     1596.21  1608.44  1722.49  2999.61  3031.05  3053.03
eigval :     3062.71  3065.04  3065.52  3066.98  3068.31  3071.00
eigval :     3076.07  3077.12  3079.38  3083.91  3086.91  3087.11
           -------------------------------------------------
          |                Property Printout                |
           -------------------------------------------------

    * Orbital Energies and Occupations

         #    Occupation            Energy/Eh            Energy/eV
      -------------------------------------------------------------
         1        2.0000           -0.6582524             -17.9120
       ...           ...                  ...                  ...
        34        2.0000           -0.4550968             -12.3838
        35        2.0000           -0.4498377             -12.2407
        36        2.0000           -0.4430284             -12.0554
        37        2.0000           -0.4338867             -11.8067
        38        2.0000           -0.4273155             -11.6278
        39        2.0000           -0.4230425             -11.5116
        40        2.0000           -0.4215461             -11.4709
        41        2.0000           -0.4142003             -11.2710
        42        2.0000           -0.4045713             -11.0089
        43        2.0000           -0.4006761             -10.9030
        44        2.0000           -0.3988109             -10.8522
        45        2.0000           -0.3814624             -10.3801
        46        2.0000           -0.3589882              -9.7686 (HOMO)
        47                         -0.2651925              -7.2163 (LUMO)
        48                         -0.2423719              -6.5953
        49                         -0.2326404              -6.3305
        50                         -0.2167830              -5.8990
        51                         -0.2019148              -5.4944
        52                         -0.1912476              -5.2041
        53                         -0.1487385              -4.0474
        54                         -0.0830468              -2.2598
        55                         -0.0620431              -1.6883
        56                          0.0787692               2.1434
        57                          0.0925290               2.5178
       ...                                ...                  ...
        91                          0.6931408              18.8613
      -------------------------------------------------------------
                  HL-Gap            0.0937957 Eh            2.5523 eV
             Fermi-level           -0.3120903 Eh           -8.4924 eV

     #   Z          covCN         q      C6AA      α(0)
     1   6 C        3.761    -0.118    22.808     6.808
     2   6 C        2.905     0.121    25.344     8.255
     3   7 N        1.842    -0.226    26.789     7.671
     4   6 C        2.930     0.082    26.172     8.390
     5   6 C        2.925    -0.047    29.172     8.857
     6   6 C        2.919    -0.032    28.803     8.801
     7   6 C        2.919    -0.041    29.025     8.835
     8   6 C        2.919    -0.032    28.804     8.801
     9   6 C        2.921    -0.050    29.249     8.869
    10   6 C        2.972    -0.009    28.236     8.716
    11   6 C        2.922    -0.031    28.785     8.798
    12   6 C        2.914    -0.031    28.767     8.795
    13   6 C        2.918    -0.037    28.915     8.818
    14   6 C        2.986     0.013    27.718     8.636
    15   6 C        2.919    -0.035    28.864     8.810
    16   6 C        2.915    -0.030    28.748     8.792
    17   6 C        2.916    -0.031    28.763     8.795
    18   6 C        2.917    -0.035    28.883     8.813
    19   6 C        2.987     0.012    27.746     8.640
    20   1 H        0.924     0.066     2.132     2.283
    21   1 H        0.925     0.064     2.158     2.297
    22   1 H        0.925     0.067     2.115     2.274
    23   1 H        0.926     0.032     2.563     2.503
    24   1 H        0.926     0.029     2.600     2.521
    25   1 H        0.926     0.026     2.640     2.541
    26   1 H        0.926     0.026     2.642     2.542
    27   1 H        0.926     0.022     2.709     2.574
    28   1 H        0.925     0.027     2.626     2.534
    29   1 H        0.926     0.034     2.533     2.489
    30   1 H        0.926     0.035     2.520     2.482
    31   1 H        0.926     0.034     2.529     2.487
    32   1 H        0.926     0.033     2.543     2.494
    33   1 H        0.926     0.032     2.552     2.498
    34   1 H        0.926     0.032     2.560     2.502

 Mol. C6AA /au·bohr⁶  :      15391.633159
 Mol. C8AA /au·bohr⁸  :     382816.699077
 Mol. α(0) /au        :        199.922071


Wiberg/Mayer (AO) data.
largest (>0.10) Wiberg bond orders for each atom

 ---------------------------------------------------------------------------
     #   Z sym  total        # sym  WBO       # sym  WBO       # sym  WBO
 ---------------------------------------------------------------------------
     1   6 C    3.992 --     2 C    1.018    22 H    0.981    21 H    0.967
                            20 H    0.957
     2   6 C    3.962 --     3 N    1.810     1 C    1.018    10 C    0.989
     3   7 N    3.194 --     2 C    1.810     4 C    1.114
     4   6 C    3.978 --     9 C    1.354     5 C    1.352     3 N    1.114
     5   6 C    3.989 --     6 C    1.462     4 C    1.352    23 H    0.971
                             8 C    0.106
     6   6 C    3.992 --     5 C    1.462     7 C    1.426    24 H    0.971
                             9 C    0.105
     7   6 C    3.990 --     8 C    1.434     6 C    1.426    25 H    0.972
     8   6 C    3.992 --     9 C    1.454     7 C    1.434    26 H    0.971
                             5 C    0.106
     9   6 C    3.989 --     8 C    1.454     4 C    1.354    27 H    0.969
                             6 C    0.105
    10   6 C    3.988 --    11 C    1.514    19 C    1.243     2 C    0.989
                            13 C    0.115
    11   6 C    3.992 --    10 C    1.514    12 C    1.324    28 H    0.970
    12   6 C    3.992 --    13 C    1.554    11 C    1.324    29 H    0.970
    13   6 C    3.991 --    12 C    1.554    14 C    1.278    30 H    0.968
                            10 C    0.115
    14   6 C    3.990 --    15 C    1.279    13 C    1.278    19 C    1.254
    15   6 C    3.990 --    16 C    1.558    14 C    1.279    31 H    0.968
                            18 C    0.118
    16   6 C    3.992 --    15 C    1.558    17 C    1.321    32 H    0.971
    17   6 C    3.992 --    18 C    1.555    16 C    1.321    33 H    0.971
    18   6 C    3.992 --    17 C    1.555    19 C    1.282    34 H    0.966
                            15 C    0.118
    19   6 C    3.989 --    18 C    1.282    14 C    1.254    10 C    1.243
    20   1 H    0.995 --     1 C    0.957
    21   1 H    0.995 --     1 C    0.967
    22   1 H    0.995 --     1 C    0.981
    23   1 H    0.999 --     5 C    0.971
    24   1 H    0.998 --     6 C    0.971
    25   1 H    0.999 --     7 C    0.972
    26   1 H    0.999 --     8 C    0.971
    27   1 H    1.000 --     9 C    0.969
    28   1 H    0.999 --    11 C    0.970
    29   1 H    0.998 --    12 C    0.970
    30   1 H    0.998 --    13 C    0.968
    31   1 H    0.998 --    15 C    0.968
    32   1 H    0.998 --    16 C    0.971
    33   1 H    0.998 --    17 C    0.971
    34   1 H    0.999 --    18 C    0.966
 ---------------------------------------------------------------------------

Topologies differ in total number of bonds
Writing topology from bond orders to xtbtopo.mol

molecular dipole:
                 x           y           z       tot (Debye)
 q only:       -0.837      -0.021      -0.254
   full:       -1.004       0.140      -0.033       2.579
molecular quadrupole (traceless):
                xx          xy          yy          xz          yz          zz
 q only:       -3.416       1.979       0.456       1.043       0.781       2.961
  q+dip:       -5.526       5.113       2.799      -1.604      -1.725       2.727
   full:       -4.380       3.560       2.011       1.306      -1.376       2.369

           -------------------------------------------------
          |               Frequency Printout                |
           -------------------------------------------------
 projected vibrational frequencies (cm⁻¹)
eigval :       -0.00    -0.00    -0.00     0.00     0.00     0.00
eigval :       17.75    28.76    39.50    94.70    97.02   128.10
eigval :      147.58   154.48   174.64   216.88   265.75   334.15
eigval :      360.08   370.49   391.57   420.20   434.84   455.17
eigval :      485.45   489.14   530.26   540.32   579.49   589.56
eigval :      605.84   644.56   667.32   686.07   726.07   757.10
eigval :      760.15   778.33   814.58   827.17   850.97   866.91
eigval :      879.70   884.59   896.16   918.38   921.54   924.39
eigval :      926.05   931.29   968.30   981.57  1008.96  1022.22
eigval :     1079.64  1080.18  1111.78  1117.30  1135.83  1170.83
eigval :     1179.15  1180.76  1191.78  1199.83  1222.18  1242.71
eigval :     1257.61  1263.75  1279.62  1317.51  1337.26  1366.09
eigval :     1380.17  1390.59  1416.95  1433.85  1450.19  1451.84
eigval :     1459.42  1468.15  1506.15  1563.81  1572.50  1594.81
eigval :     1596.21  1608.44  1722.49  2999.61  3031.05  3053.03
eigval :     3062.71  3065.04  3065.52  3066.98  3068.31  3071.00
eigval :     3076.07  3077.12  3079.38  3083.91  3086.91  3087.11
 reduced masses (amu)
   1: 11.26   2: 11.40   3: 11.06   4: 11.22   5: 11.01   6: 10.85   7: 10.57   8: 10.15
   9: 10.51  10: 10.05  11: 10.54  12:  5.80  13:  6.49  14: 10.01  15:  8.90  16:  9.76
  17:  9.37  18: 10.70  19: 10.21  20:  9.07  21: 10.58  22: 10.00  23:  9.61  24: 11.15
  25: 11.25  26: 10.49  27: 10.82  28: 10.25  29: 10.80  30: 10.90  31: 10.91  32: 10.79
  33:  9.27  34: 10.80  35:  9.81  36:  5.39  37:  4.77  38: 10.89  39:  3.94  40: 10.64
  41: 10.42  42:  3.32  43:  3.71  44:  3.85  45:  3.99  46:  3.68  47:  3.93  48:  3.60
  49:  2.91  50:  3.16  51: 10.92  52:  9.40  53:  5.19  54:  7.23  55:  7.01  56:  6.67
  57:  6.71  58:  4.08  59:  7.30  60:  2.72  61:  1.69  62:  1.37  63:  2.06  64:  4.01
  65:  6.56  66:  5.70  67:  8.94  68:  8.22  69:  4.10  70: 11.58  71:  9.43  72:  8.67
  73:  3.50  74:  9.81  75:  9.49  76:  8.98  77:  8.76  78:  2.77  79:  1.88  80:  8.67
  81: 10.78  82: 11.70  83: 11.45  84: 11.45  85: 11.43  86: 11.39  87: 12.74  88:  1.81
  89:  1.54  90:  1.80  91:  1.75  92:  1.78  93:  1.76  94:  1.76  95:  1.79  96:  1.81
  97:  1.84  98:  1.86  99:  1.87 100:  1.91 101:  1.91 102:  1.91
 IR intensities (km·mol⁻¹)
   1:  0.05   2:  0.06   3:  0.11   4:  0.03   5:  0.15   6:  0.00   7:  0.13   8:  0.14
Molecule has no symmetry elements
It seems to be the C1 point group
   9:  0.25  10:  1.83  11:  0.96  12:  0.39  13:  0.45  14:  0.21  15:  0.88  16:  0.55
  17:  0.27  18:  3.27  19:  0.61  20:  0.68  21:  3.60  22:  1.36  23:  0.36  24:  3.49
  25:  0.51  26:  1.60  27:  1.67  28:  2.07  29:  2.14  30:  1.82  31:  1.05  32:  2.56
  33:  0.33  34:  3.35  35:  0.16  36: 30.43  37:  2.64  38:  0.03  39: 40.66  40: 31.30
  41:  1.95  42:  1.85  43:  0.27  44:  1.91  45:  0.15  46:  0.01  47:  0.12  48:  0.33
  49:  0.03  50:  0.03  51: 24.19  52:  1.89  53:  7.68  54: 22.50  55:  0.46  56:  0.51
  57:  5.10  58:  0.25  59: 51.19  60:  6.02  61:  0.45  62:  0.08  63:  5.15  64: 24.07
  65:  3.75  66:  7.07  67: 14.64  68: 66.84  69: 14.87  70:  2.84  71:  0.43  72:  6.04
  73: 15.93  74:  0.26  75:  0.44  76:  7.15  77:  3.01  78:  9.02  79: 12.41  80: 26.77
  81:  0.67  82:  0.56  83:  2.84  84: 52.33  85: 19.52  86:  0.20  87:320.08  88: 12.43
  89: 13.88  90: 24.09  91: 14.09  92: 21.79  93:  5.12  94:  2.29  95: 19.70  96: 50.42
  97: 94.43  98:101.96  99:171.11 100:166.34 101: 59.69 102: 20.29
 Raman intensities (Ä⁴*amu⁻¹)
   1:  0.00   2:  0.00   3:  0.00   4:  0.00   5:  0.00   6:  0.00   7:  0.00   8:  0.00
   9:  0.00  10:  0.00  11:  0.00  12:  0.00  13:  0.00  14:  0.00  15:  0.00  16:  0.00
  17:  0.00  18:  0.00  19:  0.00  20:  0.00  21:  0.00  22:  0.00  23:  0.00  24:  0.00
  25:  0.00  26:  0.00  27:  0.00  28:  0.00  29:  0.00  30:  0.00  31:  0.00  32:  0.00
  33:  0.00  34:  0.00  35:  0.00  36:  0.00  37:  0.00  38:  0.00  39:  0.00  40:  0.00
  41:  0.00  42:  0.00  43:  0.00  44:  0.00  45:  0.00  46:  0.00  47:  0.00  48:  0.00
  49:  0.00  50:  0.00  51:  0.00  52:  0.00  53:  0.00  54:  0.00  55:  0.00  56:  0.00
  57:  0.00  58:  0.00  59:  0.00  60:  0.00  61:  0.00  62:  0.00  63:  0.00  64:  0.00
  65:  0.00  66:  0.00  67:  0.00  68:  0.00  69:  0.00  70:  0.00  71:  0.00  72:  0.00
  73:  0.00  74:  0.00  75:  0.00  76:  0.00  77:  0.00  78:  0.00  79:  0.00  80:  0.00
  81:  0.00  82:  0.00  83:  0.00  84:  0.00  85:  0.00  86:  0.00  87:  0.00  88:  0.00
  89:  0.00  90:  0.00  91:  0.00  92:  0.00  93:  0.00  94:  0.00  95:  0.00  96:  0.00
  97:  0.00  98:  0.00  99:  0.00 100:  0.00 101:  0.00 102:  0.00
 output can be read by thermo (or use thermo option).
 writing <g98.out> molden fake output.
 recommended (thermochemical) frequency scaling factor: 1.0
           -------------------------------------------------
          |             Thermodynamic Functions             |
           -------------------------------------------------

c1  symmetry found (for desy threshold:  0.10E+00) used in thermo

          ...................................................
          :                      SETUP                      :
          :.................................................:
          :  # frequencies                          96      :
          :  # imaginary freq.                       0      :
          :  linear?                             false      :
          :  only rotor calc.                    false      :
          :  symmetry                               c1      :
          :  rotational number                       1      :
          :  scaling factor                  1.0000000      :
          :  rotor cutoff                   50.0000000 cm⁻¹ :
          :  imag. cutoff                  -20.0000000 cm⁻¹ :
          :.................................................:

    mode    ω/cm⁻¹     T·S(HO)/kcal·mol⁻¹    T·S(FR)/kcal·mol⁻¹   T·S(vib)
   ------------------------------------------------------------------------
       1     17.75    -2.04850 (  1.56%)    -1.36309 ( 98.44%)    -1.37381
       2     28.76    -1.76304 (  9.86%)    -1.22029 ( 90.14%)    -1.27383
       3     39.50    -1.57546 ( 28.03%)    -1.12631 ( 71.97%)    -1.25220
       4     94.70    -1.06157 ( 92.79%)    -0.86730 (  7.21%)    -1.04757
       5     97.02    -1.04749 ( 93.41%)    -0.86014 (  6.59%)    -1.03515
       6    128.10    -0.88681 ( 97.73%)    -0.77782 (  2.27%)    -0.88434
Note: The following floating-point exceptions are signalling: IEEE_DIVIDE_BY_ZERO IEEE_UNDERFLOW_FLAG IEEE_DENORMAL
normal termination of xtb
       7    147.58    -0.80596 ( 98.70%)    -0.73589 (  1.30%)    -0.80505
       8    154.48    -0.78003 ( 98.91%)    -0.72235 (  1.09%)    -0.77941
       9    174.64    -0.71109 ( 99.33%)    -0.68603 (  0.67%)    -0.71092
      10    216.88    -0.59181 ( 99.72%)    -0.62185 (  0.28%)    -0.59190
      11    265.75    -0.48410 ( 99.87%)    -0.56165 (  0.13%)    -0.48420
   ------------------------------------------------------------------------

   temp. (K)  partition function   enthalpy   heat capacity  entropy
                                   cal/mol     cal/K/mol   cal/K/mol   J/K/mol
 298.15  VIB  0.107E+07             8309.305     54.883     50.372
         ROT  0.405E+07              888.752      2.981     33.216
         INT  0.434E+13             9198.058     57.864     83.589
         TR   0.372E+28             1481.254      4.968     42.374
         TOT                       10679.3117    62.8320   125.9626   527.0277

       T/K    H(0)-H(T)+PV         H(T)/Eh          T*S/Eh         G(T)/Eh
   ------------------------------------------------------------------------
    298.15    0.170186E-01    0.285654E+00    0.598489E-01    0.225805E+00
   ------------------------------------------------------------------------

         :::::::::::::::::::::::::::::::::::::::::::::::::::::
         ::                  THERMODYNAMIC                  ::
         :::::::::::::::::::::::::::::::::::::::::::::::::::::
         :: total free energy         -48.885913189821 Eh   ::
         ::.................................................::
         :: total energy              -49.111718079734 Eh   ::
         :: zero point energy           0.268635237172 Eh   ::
         :: G(RRHO) w/o ZPVE           -0.042830347259 Eh   ::
         :: G(RRHO) contrib.            0.225804889913 Eh   ::
         :::::::::::::::::::::::::::::::::::::::::::::::::::::

           -------------------------------------------------
          | TOTAL ENERGY              -49.111718079734 Eh   |
          | TOTAL ENTHALPY            -48.826064276046 Eh   |
          | TOTAL FREE ENERGY         -48.885913189821 Eh   |
          | GRADIENT NORM               0.000191322170 Eh/α |
          | HOMO-LUMO GAP               2.552311038684 eV   |
           -------------------------------------------------

------------------------------------------------------------------------
 * finished run on 2026/09/10 at 23:03:55.852     
------------------------------------------------------------------------
 total:
 * wall-time:     0 d,  0 h,  0 min,  7.542 sec
 *  cpu-time:     0 d,  0 h,  0 min,  1.469 sec
 * ratio c/w:     0.195 speedup
 SCF:
 * wall-time:     0 d,  0 h,  0 min,  0.035 sec
 *  cpu-time:     0 d,  0 h,  0 min,  0.000 sec
 * ratio c/w:     0.000 speedup
 analytical hessian:
 * wall-time:     0 d,  0 h,  0 min,  7.460 sec
 *  cpu-time:     0 d,  0 h,  0 min,  1.453 sec
 * ratio c/w:     0.195 speedup

