      -----------------------------------------------------------      
     |                   =====================                   |     
     |                           x T B                           |     
     |                   =====================                   |     
     |                         S. Grimme                         |     
     |          Mulliken Center for Theoretical Chemistry        |     
     |                    University of Bonn                     |     
      -----------------------------------------------------------      

   * xtb version 6.7.1 (edcfbbe) compiled by 'VssAdministrator@runnervm171ch' on 2026-06-10

   xtb is free software: you can redistribute it and/or modify it under
   the terms of the GNU Lesser General Public License as published by
   the Free Software Foundation, either version 3 of the License, or
   (at your option) any later version.
   
   xtb is distributed in the hope that it will be useful,
   but WITHOUT ANY WARRANTY; without even the implied warranty of
   MERCHANTABILITY or FITNESS FOR A PARTICULAR PURPOSE.  See the
   GNU Lesser General Public License for more details.
   
   Cite this work as:
   * C. Bannwarth, E. Caldeweyher, S. Ehlert, A. Hansen, P. Pracht,
     J. Seibert, S. Spicher, S. Grimme, WIREs Comput. Mol. Sci., 2020, 11,
     e01493. DOI: 10.1002/wcms.1493
   
   for GFN2-xTB:
   * C. Bannwarth, S. Ehlert and S. Grimme., J. Chem. Theory Comput., 2019,
     15, 1652-1671. DOI: 10.1021/acs.jctc.8b01176
   for GFN1-xTB:
   * S. Grimme, C. Bannwarth, P. Shushkov, J. Chem. Theory Comput., 2017,
     13, 1989-2009. DOI: 10.1021/acs.jctc.7b00118
   for GFN0-xTB:
   * P. Pracht, E. Caldeweyher, S. Ehlert, S. Grimme, ChemRxiv, 2019, preprint.
     DOI: 10.26434/chemrxiv.8326202.v1
   for GFN-FF:
   * S. Spicher and S. Grimme, Angew. Chem. Int. Ed., 2020, 59, 15665-15673.
     DOI: 10.1002/anie.202004239
   
   for ALPB and GBSA implicit solvation:
   * S. Ehlert, M. Stahn, S. Spicher, S. Grimme, J. Chem. Theory Comput.,
     2021, 17, 4250-4261. DOI: 10.1021/acs.jctc.1c00471
   
   for ddCOSMO and CPCM-X implicit solvation:
   * M. Stahn, S. Ehlert, S. Grimme, J. Phys. Chem. A,
     2023, XX, XXXX-XXXX. DOI: 10.1021/acs.jpca.3c04382
   
   for DFT-D4:
   * E. Caldeweyher, C. Bannwarth and S. Grimme, J. Chem. Phys., 2017,
     147, 034112. DOI: 10.1063/1.4993215
   * E. Caldeweyher, S. Ehlert, A. Hansen, H. Neugebauer, S. Spicher,
     C. Bannwarth and S. Grimme, J. Chem. Phys., 2019, 150, 154122.
     DOI: 10.1063/1.5090222
   * E. Caldeweyher, J.-M. Mewes, S. Ehlert and S. Grimme, Phys. Chem. Chem. Phys.
     2020, 22, 8499-8512. DOI: 10.1039/D0CP00502A
   
   for sTDA-xTB:
   * S. Grimme and C. Bannwarth, J. Chem. Phys., 2016, 145, 054103.
     DOI: 10.1063/1.4959605
   
   in the mass-spec context:
   * V. Asgeirsson, C. Bauer and S. Grimme, Chem. Sci., 2017, 8, 4879.
     DOI: 10.1039/c7sc00601b
   * J. Koopman and S. Grimme, ACS Omega 2019, 4, 12, 15120-15133.
     DOI: 10.1021/acsomega.9b02011
   
   for metadynamics refer to:
   * S. Grimme, J. Chem. Theory Comput., 2019, 155, 2847-2862
     DOI: 10.1021/acs.jctc.9b00143
   
   for SPH calculations refer to:
   * S. Spicher and S. Grimme, J. Chem. Theory Comput., 2021, 17, 1701-1714
     DOI: 10.1021/acs.jctc.0c01306
   
   for ONIOM refer to:
   * C. Plett, A. Katbashev, S. Ehlert, S. Grimme, M. Bursch,
     Phys. Chem. Chem. Phys., 2023, 25, 17860-17868. DOI: 10.1039/D3CP02178E
   
   for DIPRO refer to:
   * J. Kohn, N. Gildemeister, S. Grimme, D. Fazzi, A. Hansen,
     J. Chem. Phys., 2023, just accepted.
   
   for PTB refer to:
   * S. Grimme, M. Mueller, A. Hansen, J. Chem. Phys., 2023, 158, 124111.
     DOI: 10.1063/5.0137838
   
   with help from (in alphabetical order)
   P. Atkinson, C. Bannwarth, F. Bohle, G. Brandenburg, E. Caldeweyher
   M. Checinski, S. Dohm, S. Ehlert, S. Ehrlich, I. Gerasimov, C. Hölzer
   A. Katbashev, J. Kohn, J. Koopman, C. Lavigne, S. Lehtola, F. März, M. Müller,
   F. Musil, H. Neugebauer, J. Pisarek, C. Plett, P. Pracht, F. Pultar,
   J. Seibert, P. Shushkov, S. Spicher, M. Stahn, M. Steiner, T. Strunk,
   J. Stückrath, T. Rose, and J. Unsleber
   
 * started run on 2026/09/10 at 23:03:46.456     
   ID    Z sym.   atoms
    1    6 C      1, 2, 4-19
    2    7 N      3
    3    1 H      20-34

           -------------------------------------------------
          |                Calculation Setup                |
           -------------------------------------------------

          program call               : C:\Users\HUIWEI\miniconda3\envs\phase2ff\Library\bin\xtb.exe input.xyz --gfn 2 --chrg 0 --uhf 0 --alpb ch2cl2 --acc 0.2 --opt vtight
          coordinate file            : input.xyz
          omp threads                :                     1


           -------------------------------------------------
          |                 G F N 2 - x T B                 |
           -------------------------------------------------

        Reference                      10.1021/acs.jctc.8b01176
      * Hamiltonian:
        H0-scaling (s, p, d)           1.850000    2.230000    2.230000
        zeta-weighting                 0.500000
      * Dispersion:
        s8                             2.700000
        a1                             0.520000
        a2                             5.000000
        s9                             5.000000
      * Repulsion:
        kExp                           1.500000    1.000000
        rExp                           1.000000
      * Coulomb:
        alpha                          2.000000
        third order                    shell-resolved
        anisotropic                    true
        a3                             3.000000
        a5                             4.000000
        cn-shift                       1.200000
        cn-exp                         4.000000
        max-rad                        5.000000

      * Solvation model:               ALPB
        Solvent                        ch2cl2
        Parameter file                 internal GFN2-xTB/ALPB
        Dielectric constant                8.9300E+00
        Reference state                gsolv [1 M gas/solution]
        Free energy shift                  4.1487E-03 Eh       2.6033E+00 kcal/mol
        Temperature                        2.9815E+02 K
        Density                            1.3300E+00 kg/L
        Solvent mass                       8.4930E+01 g/mol
        Interaction kernel             P16
        Born radius scaling (c1)           1.5691E+00
        Born radii integrator          GBOBC
        Born offset                        0.0000E+00 a0       0.0000E+00 AA
        H-bond correction              false
        Ion screening                  false
        Surface tension                    1.0000E-05 Eh       1.5569E+01 dyn/cm
        Grid points                               230 per atom

          ...................................................
          :                      SETUP                      :
          :.................................................:
          :  # basis functions                  91          :
          :  # atomic orbitals                  91          :
          :  # shells                           53          :
          :  # electrons                        92          :
          :  max. iterations                   250          :
          :  Hamiltonian                  GFN2-xTB          :
          :  restarted?                      false          :
          :  GBSA solvation                   true          :
          :  PC potential                    false          :
          :  electronic temp.          300.0000000     K    :
          :  accuracy                    0.2000000          :
          :  -> integral cutoff          0.3198970E+02      :
          :  -> integral neglect         0.2000000E-08      :
          :  -> SCF convergence          0.2000000E-06 Eh   :
          :  -> wf. convergence          0.2000000E-04 e    :
          :  Broyden damping             0.4000000          :
          :  net charge                          0          :
          :  unpaired electrons                  0          :
          ...................................................

 iter      E             dE          RMSdq      gap      omega  full diag
   1    -49.9502461 -0.499502E+02  0.405E+00    2.68       0.0  T
   2    -49.9734633 -0.232172E-01  0.239E+00    2.57       1.0  T
   3    -49.9574126  0.160507E-01  0.873E-01    2.54       1.0  T
   4    -49.9777469 -0.203343E-01  0.256E-01    2.45       1.0  T
   5    -49.9787588 -0.101199E-02  0.127E-01    2.45       1.0  T
   6    -49.9792525 -0.493617E-03  0.333E-02    2.45       1.0  T
   7    -49.9792570 -0.459304E-05  0.171E-02    2.45       1.0  T
   8    -49.9792604 -0.334043E-05  0.435E-03    2.46       3.9  T
   9    -49.9792607 -0.272844E-06  0.115E-03    2.46      14.9  T
  10    -49.9792607 -0.129243E-07  0.562E-04    2.46      30.5  T
  11    -49.9792607 -0.194756E-08  0.196E-04    2.46      87.5  T
  12    -49.9792607 -0.681027E-09  0.707E-05    2.46     242.5  T

   *** convergence criteria satisfied after 12 iterations ***

         #    Occupation            Energy/Eh            Energy/eV
      -------------------------------------------------------------
         1        2.0000           -0.6560980             -17.8533
       ...           ...                  ...                  ...
        40        2.0000           -0.4225206             -11.4974
        41        2.0000           -0.4114110             -11.1951
        42        2.0000           -0.4073416             -11.0843
        43        2.0000           -0.4048078             -11.0154
        44        2.0000           -0.3970686             -10.8048
        45        2.0000           -0.3769916             -10.2585
        46        2.0000           -0.3617585              -9.8440 (HOMO)
        47                         -0.2715166              -7.3883 (LUMO)
        48                         -0.2463121              -6.7025
        49                         -0.2311310              -6.2894
        50                         -0.2208656              -6.0101
        51                         -0.2113899              -5.7522
       ...                                ...                  ...
        91                          0.6807795              18.5250
      -------------------------------------------------------------
                  HL-Gap            0.0902419 Eh            2.4556 eV
             Fermi-level           -0.3166376 Eh           -8.6161 eV

 SCC (total)                   0 d,  0 h,  0 min,  0.043 sec
 SCC setup                      ...        0 min,  0.001 sec (  3.357%)
 Dispersion                     ...        0 min,  0.000 sec (  1.157%)
 classical contributions        ...        0 min,  0.000 sec (  0.462%)
 integral evaluation            ...        0 min,  0.006 sec ( 14.219%)
 iterations                     ...        0 min,  0.018 sec ( 40.712%)
 molecular gradient             ...        0 min,  0.017 sec ( 39.306%)
 printout                       ...        0 min,  0.000 sec (  0.713%)

         :::::::::::::::::::::::::::::::::::::::::::::::::::::
         ::                     SUMMARY                     ::
         :::::::::::::::::::::::::::::::::::::::::::::::::::::
         :: total energy             -49.102614586282 Eh    ::
         :: total w/o Gsasa/hb       -49.080375163555 Eh    ::
         :: gradient norm              0.090847866724 Eh/a0 ::
         :: HOMO-LUMO gap              2.455606470509 eV    ::
         ::.................................................::
         :: SCC energy               -49.978379581811 Eh    ::
         :: -> isotropic ES            0.011841574040 Eh    ::
         :: -> anisotropic ES          0.007229977380 Eh    ::
         :: -> anisotropic XC          0.037595773570 Eh    ::
         :: -> dispersion             -0.038941444412 Eh    ::
         :: -> Gsolv                  -0.023310772969 Eh    ::
         ::    -> Gelec               -0.001071350243 Eh    ::
         ::    -> Gsasa               -0.026388120088 Eh    ::
         ::    -> Ghb                  0.000000000000 Eh    ::
         ::    -> Gshift               0.004148697361 Eh    ::
         :: repulsion energy           0.875764995529 Eh    ::
         :: add. restraining           0.000000000000 Eh    ::
         :: total charge               0.000000000000 e     ::
         :::::::::::::::::::::::::::::::::::::::::::::::::::::

      ----------------------------------------------------------- 
     |                   =====================                   |
     |                        A N C O P T                        |
     |                   =====================                   |
     |               Approximate Normal Coordinate               |
     |                Rational Function Optimizer                |
      ----------------------------------------------------------- 
      ----------------------------------------------------------- 
     |                   =====================                   |
     |                        A N C O P T                        |
     |                   =====================                   |
     |               Approximate Normal Coordinate               |
     |                Rational Function Optimizer                |
      ----------------------------------------------------------- 

          ...................................................
          :                      SETUP                      :
          :.................................................:
          :   optimization level         verytight          :
          :   max. optcycles                   680          :
          :   ANC micro-cycles                  20          :
          :   degrees of freedom                96          :
          :.................................................:
          :   RF solver                   davidson          :
          :   write xtbopt.log                true          :
          :   linear?                        false          :
          :   energy convergence         0.1000000E-06 Eh   :
          :   grad. convergence          0.2000000E-03 Eh/α :
          :   maxmium RF displ.          1.0000000          :
          :   Hlow (freq-cutoff)         0.1000000E-01      :
          :   Hmax (freq-cutoff)         5.0000000          :
          :   S6 in model hess.         20.0000000          :
          ...................................................

generating ANC from exact Hessian ...
Using Lindh-Hessian (1995)
 Shifting diagonal of input Hessian by    9.6130512193875958E-003
 Lowest  eigenvalues of input Hessian
    0.000000    0.000000    0.000000    0.000000    0.000000    0.000000
    0.010000    0.010264    0.010600    0.011974    0.012255    0.014708
    0.015024    0.016192    0.018499    0.019314    0.021198    0.024150
 Highest eigenvalues
    1.880369    1.914064    1.948142    2.001508    2.058871    2.073138


........................................................................
.............................. CYCLE    1 ..............................
........................................................................

 iter      E             dE          RMSdq      gap      omega  full diag
   1    -49.9792607 -0.499793E+02  0.370E-05    2.46       0.0  T
   2    -49.9792607 -0.469669E-11  0.257E-05    2.46     667.1  T
   3    -49.9792607 -0.191847E-11  0.173E-05    2.46     992.6  T
     SCC iter.                  ...        0 min,  0.005 sec
     gradient                   ...        0 min,  0.017 sec
 * total energy  :   -49.1026146 Eh     change       -0.5540102E-10 Eh
   gradient norm :     0.0908483 Eh/α   predicted     0.0000000E+00 (-100.00%)
   displ. norm   :     0.2030534 α      lambda       -0.8964847E-02
   maximum displ.:     0.0855084 α      in ANC's #24, #18, #21, ...

........................................................................
.............................. CYCLE    2 ..............................
........................................................................

 iter      E             dE          RMSdq      gap      omega  full diag
   1    -50.0254306 -0.500254E+02  0.149E-01    2.51       0.0  T
   2    -50.0254905 -0.599660E-04  0.912E-02    2.54       1.0  T
   3    -50.0254753  0.152505E-04  0.393E-02    2.55       1.0  T
   4    -50.0254998 -0.245114E-04  0.871E-03    2.55       2.0  T
   5    -50.0255014 -0.157054E-05  0.332E-03    2.55       5.2  T
   6    -50.0255015 -0.179822E-06  0.159E-03    2.55      10.8  T
   7    -50.0255016 -0.210103E-07  0.690E-04    2.55      24.8  T
   8    -50.0255016 -0.723535E-08  0.276E-04    2.55      62.1  T
   9    -50.0255016 -0.821878E-09  0.855E-05    2.55     200.5  T
  10    -50.0255016 -0.806963E-10  0.422E-05    2.55     406.5  T
     SCC iter.                  ...        0 min,  0.013 sec
     gradient                   ...        0 min,  0.019 sec
 * total energy  :   -49.1085247 Eh     change       -0.5910079E-02 Eh
   gradient norm :     0.0333499 Eh/α   predicted    -0.4668023E-02 ( -21.02%)
   displ. norm   :     0.1436467 α      lambda       -0.1753493E-02
   maximum displ.:     0.0607098 α      in ANC's #7, #4, #24, ...

........................................................................
.............................. CYCLE    3 ..............................
........................................................................

 iter      E             dE          RMSdq      gap      omega  full diag
   1    -50.0432838 -0.500433E+02  0.933E-02    2.56       0.0  T
   2    -50.0433042 -0.204938E-04  0.561E-02    2.58       1.0  T
   3    -50.0432968  0.746177E-05  0.276E-02    2.58       1.0  T
   4    -50.0433100 -0.131676E-04  0.444E-03    2.59       3.9  T
   5    -50.0433104 -0.432586E-06  0.158E-03    2.59      10.9  T
   6    -50.0433104 -0.357507E-07  0.724E-04    2.59      23.7  T
   7    -50.0433104 -0.144352E-08  0.269E-04    2.59      63.8  T
   8    -50.0433104 -0.615536E-09  0.113E-04    2.59     151.2  T
   9    -50.0433104 -0.229669E-09  0.431E-05    2.59     397.7  T
     SCC iter.                  ...        0 min,  0.012 sec
     gradient                   ...        0 min,  0.021 sec
 * total energy  :   -49.1095168 Eh     change       -0.9921114E-03 Eh
   gradient norm :     0.0093446 Eh/α   predicted    -0.8949611E-03 (  -9.79%)
   displ. norm   :     0.1073740 α      lambda       -0.2570190E-03
   maximum displ.:     0.0715870 α      in ANC's #4, #7, #3, ...

........................................................................
.............................. CYCLE    4 ..............................
........................................................................

 iter      E             dE          RMSdq      gap      omega  full diag
   1    -50.0429139 -0.500429E+02  0.537E-02    2.58       0.0  T
   2    -50.0429163 -0.238914E-05  0.318E-02    2.58       1.0  T
   3    -50.0429120  0.433141E-05  0.152E-02    2.58       1.1  T
   4    -50.0429178 -0.576680E-05  0.136E-03    2.58      12.6  T
   5    -50.0429178 -0.332876E-07  0.649E-04    2.58      26.4  T
   6    -50.0429178 -0.725371E-08  0.327E-04    2.58      52.4  T
   7    -50.0429178 -0.618989E-09  0.128E-04    2.58     134.0  T
   8    -50.0429178 -0.387722E-09  0.351E-05    2.58     489.2  T
     SCC iter.                  ...        0 min,  0.013 sec
     gradient                   ...        0 min,  0.018 sec
 * total energy  :   -49.1097138 Eh     change       -0.1970004E-03 Eh
   gradient norm :     0.0052720 Eh/α   predicted    -0.1299933E-03 ( -34.01%)
   displ. norm   :     0.1956186 α      lambda       -0.2524946E-03
   maximum displ.:     0.1427057 α      in ANC's #4, #7, #3, ...

........................................................................
.............................. CYCLE    5 ..............................
........................................................................

 iter      E             dE          RMSdq      gap      omega  full diag
   1    -50.0400911 -0.500401E+02  0.880E-02    2.56       0.0  T
   2    -50.0400949 -0.380958E-05  0.517E-02    2.56       1.0  T
   3    -50.0400854  0.945576E-05  0.205E-02    2.56       1.0  T
   4    -50.0400970 -0.115634E-04  0.177E-03    2.56       9.7  T
   5    -50.0400970 -0.475060E-07  0.896E-04    2.56      19.1  T
   6    -50.0400970 -0.102461E-07  0.466E-04    2.56      36.8  T
   7    -50.0400970 -0.206401E-08  0.148E-04    2.56     115.6  T
   8    -50.0400970 -0.528573E-09  0.466E-05    2.56     368.1  T
     SCC iter.                  ...        0 min,  0.010 sec
     gradient                   ...        0 min,  0.017 sec
 * total energy  :   -49.1098727 Eh     change       -0.1589048E-03 Eh
   gradient norm :     0.0036329 Eh/α   predicted    -0.1310802E-03 ( -17.51%)
   displ. norm   :     0.1116220 α      lambda       -0.7243066E-04
   maximum displ.:     0.0819912 α      in ANC's #4, #3, #7, ...

........................................................................
.............................. CYCLE    6 ..............................
........................................................................

 iter      E             dE          RMSdq      gap      omega  full diag
   1    -50.0394978 -0.500395E+02  0.471E-02    2.55       0.0  T
   2    -50.0394982 -0.435089E-06  0.275E-02    2.55       1.0  T
   3    -50.0394975  0.758248E-06  0.565E-03    2.55       3.0  T
   4    -50.0394984 -0.911500E-06  0.704E-04    2.55      24.4  T
   5    -50.0394984 -0.565807E-08  0.337E-04    2.55      50.9  T
   6    -50.0394984 -0.193914E-09  0.149E-04    2.55     115.0  T
   7    -50.0394984 -0.416456E-09  0.341E-05    2.55     502.2  T
     SCC iter.                  ...        0 min,  0.011 sec
     gradient                   ...        0 min,  0.018 sec
 * total energy  :   -49.1099336 Eh     change       -0.6088075E-04 Eh
   gradient norm :     0.0036992 Eh/α   predicted    -0.3667845E-04 ( -39.75%)
   displ. norm   :     0.1665158 α      lambda       -0.1078691E-03
   maximum displ.:     0.1122860 α      in ANC's #4, #3, #10, ...

........................................................................
.............................. CYCLE    7 ..............................
........................................................................

 iter      E             dE          RMSdq      gap      omega  full diag
   1    -50.0396922 -0.500397E+02  0.679E-02    2.54       0.0  T
   2    -50.0396926 -0.413439E-06  0.398E-02    2.54       1.0  T
   3    -50.0396924  0.201298E-06  0.340E-03    2.54       5.0  T
   4    -50.0396927 -0.320824E-06  0.954E-04    2.54      18.0  T
   5    -50.0396927 -0.799182E-08  0.441E-04    2.54      38.9  T
   6    -50.0396927 -0.102077E-09  0.225E-04    2.54      76.2  T
   7    -50.0396927 -0.139129E-08  0.546E-05    2.54     314.4  T
   8    -50.0396927 -0.365148E-10  0.276E-05    2.54     621.1  T
     SCC iter.                  ...        0 min,  0.012 sec
     gradient                   ...        0 min,  0.018 sec
 * total energy  :   -49.1100201 Eh     change       -0.8650677E-04 Eh
   gradient norm :     0.0028348 Eh/α   predicted    -0.5543069E-04 ( -35.92%)
   displ. norm   :     0.2383398 α      lambda       -0.1131130E-03
   maximum displ.:     0.1525306 α      in ANC's #4, #3, #10, ...

........................................................................
.............................. CYCLE    8 ..............................
........................................................................

 iter      E             dE          RMSdq      gap      omega  full diag
   1    -50.0399887 -0.500400E+02  0.935E-02    2.53       0.0  T
   2    -50.0399893 -0.579157E-06  0.548E-02    2.53       1.0  T
   3    -50.0399892  0.496968E-07  0.324E-03    2.53       5.3  T
   4    -50.0399894 -0.219698E-06  0.117E-03    2.53      14.7  T
   5    -50.0399894 -0.112900E-07  0.509E-04    2.53      33.7  T
   6    -50.0399894 -0.230855E-09  0.170E-04    2.53     100.9  T
   7    -50.0399894 -0.700375E-09  0.594E-05    2.53     288.7  T
     SCC iter.                  ...        0 min,  0.010 sec
     gradient                   ...        0 min,  0.017 sec
 * total energy  :   -49.1101015 Eh     change       -0.8140902E-04 Eh
   gradient norm :     0.0031928 Eh/α   predicted    -0.5977026E-04 ( -26.58%)
   displ. norm   :     0.2137062 α      lambda       -0.7657292E-04
   maximum displ.:     0.1259296 α      in ANC's #4, #3, #10, ...

........................................................................
.............................. CYCLE    9 ..............................
........................................................................

 iter      E             dE          RMSdq      gap      omega  full diag
   1    -50.0403498 -0.500403E+02  0.798E-02    2.53       0.0  T
   2    -50.0403501 -0.296402E-06  0.468E-02    2.53       1.0  T
   3    -50.0403500  0.114775E-06  0.287E-03    2.53       6.0  T
   4    -50.0403502 -0.223070E-06  0.972E-04    2.53      17.6  T
   5    -50.0403502 -0.917922E-08  0.501E-04    2.53      34.3  T
   6    -50.0403502 -0.245129E-08  0.200E-04    2.53      85.6  T
   7    -50.0403502 -0.752927E-09  0.438E-05    2.53     391.6  T
   8    -50.0403502 -0.290612E-11  0.219E-05    2.53     783.2  T
     SCC iter.                  ...        0 min,  0.012 sec
     gradient                   ...        0 min,  0.020 sec
 * total energy  :   -49.1101600 Eh     change       -0.5852231E-04 Eh
   gradient norm :     0.0035127 Eh/α   predicted    -0.4003584E-04 ( -31.59%)
   displ. norm   :     0.2458863 α      lambda       -0.9825370E-04
   maximum displ.:     0.1216503 α      in ANC's #3, #4, #1, ...

........................................................................
.............................. CYCLE   10 ..............................
........................................................................

 iter      E             dE          RMSdq      gap      omega  full diag
   1    -50.0410088 -0.500410E+02  0.862E-02    2.53       0.0  T
   2    -50.0410090 -0.264533E-06  0.506E-02    2.53       1.0  T
   3    -50.0410085  0.527618E-06  0.420E-03    2.53       4.1  T
   4    -50.0410092 -0.687076E-06  0.957E-04    2.53      17.9  T
   5    -50.0410092 -0.238039E-08  0.558E-04    2.53      30.7  T
   6    -50.0410092 -0.412078E-08  0.119E-04    2.53     144.2  T
   7    -50.0410092 -0.238181E-09  0.442E-05    2.53     387.6  T
     SCC iter.                  ...        0 min,  0.011 sec
     gradient                   ...        0 min,  0.018 sec
 * total energy  :   -49.1102385 Eh     change       -0.7854865E-04 Eh
   gradient norm :     0.0035261 Eh/α   predicted    -0.5210747E-04 ( -33.66%)
   displ. norm   :     0.3226102 α      lambda       -0.1409347E-03
   maximum displ.:     0.1651344 α      in ANC's #3, #7, #1, ...

........................................................................
.............................. CYCLE   11 ..............................
........................................................................

 iter      E             dE          RMSdq      gap      omega  full diag
   1    -50.0411437 -0.500411E+02  0.108E-01    2.53       0.0  T
   2    -50.0411442 -0.528064E-06  0.634E-02    2.52       1.0  T
   3    -50.0411427  0.151748E-05  0.678E-03    2.53       2.5  T
   4    -50.0411445 -0.184524E-05  0.132E-03    2.52      13.0  T
   5    -50.0411445 -0.110270E-07  0.788E-04    2.52      21.8  T
   6    -50.0411445 -0.521378E-08  0.211E-04    2.52      81.3  T
   7    -50.0411446 -0.771969E-09  0.592E-05    2.52     289.9  T
   8    -50.0411446 -0.594298E-10  0.245E-05    2.52     698.6  T
     SCC iter.                  ...        0 min,  0.011 sec
     gradient                   ...        0 min,  0.025 sec
 * total energy  :   -49.1103458 Eh     change       -0.1072649E-03 Eh
   gradient norm :     0.0044198 Eh/α   predicted    -0.7780499E-04 ( -27.46%)
   displ. norm   :     0.2897304 α      lambda       -0.1552382E-03
   maximum displ.:     0.1536993 α      in ANC's #3, #7, #1, ...

........................................................................
.............................. CYCLE   12 ..............................
........................................................................

 iter      E             dE          RMSdq      gap      omega  full diag
   1    -50.0418429 -0.500418E+02  0.974E-02    2.53       0.0  T
   2    -50.0418439 -0.984817E-06  0.573E-02    2.53       1.0  T
   3    -50.0418415  0.238707E-05  0.871E-03    2.53       2.0  T
   4    -50.0418443 -0.280517E-05  0.155E-03    2.53      11.1  T
   5    -50.0418443 -0.306447E-07  0.872E-04    2.53      19.7  T
   6    -50.0418443 -0.848178E-08  0.374E-04    2.53      45.9  T
   7    -50.0418443 -0.129003E-08  0.969E-05    2.53     177.0  T
   8    -50.0418443 -0.145334E-09  0.391E-05    2.53     439.2  T
     SCC iter.                  ...        0 min,  0.011 sec
     gradient                   ...        0 min,  0.020 sec
 * total energy  :   -49.1104566 Eh     change       -0.1108253E-03 Eh
   gradient norm :     0.0043523 Eh/α   predicted    -0.8413512E-04 ( -24.08%)
   displ. norm   :     0.3807361 α      lambda       -0.1504731E-03
   maximum displ.:     0.2075073 α      in ANC's #3, #1, #7, ...

........................................................................
.............................. CYCLE   13 ..............................
........................................................................

 iter      E             dE          RMSdq      gap      omega  full diag
   1    -50.0379055 -0.500379E+02  0.128E-01    2.53       0.0  T
   2    -50.0379077 -0.224459E-05  0.753E-02    2.52       1.0  T
   3    -50.0379065  0.120863E-05  0.716E-03    2.52       2.4  T
   4    -50.0379081 -0.153443E-05  0.270E-03    2.52       6.4  T
   5    -50.0379082 -0.173721E-06  0.113E-03    2.52      15.2  T
   6    -50.0379082  0.108592E-08  0.596E-04    2.52      28.8  T
   7    -50.0379082 -0.706072E-08  0.817E-05    2.52     210.0  T
   8    -50.0379082 -0.700098E-10  0.409E-05    2.52     419.2  T
     SCC iter.                  ...        0 min,  0.012 sec
     gradient                   ...        0 min,  0.017 sec
 * total energy  :   -49.1105152 Eh     change       -0.5859877E-04 Eh
   gradient norm :     0.0084257 Eh/α   predicted    -0.8614256E-04 (  47.00%)
   displ. norm   :     0.1864251 α      lambda       -0.2582321E-03
   maximum displ.:     0.1031863 α      in ANC's #4, #3, #1, ...

........................................................................
.............................. CYCLE   14 ..............................
........................................................................

 iter      E             dE          RMSdq      gap      omega  full diag
   1    -50.0396279 -0.500396E+02  0.781E-02    2.53       0.0  T
   2    -50.0396301 -0.227607E-05  0.457E-02    2.53       1.0  T
   3    -50.0396292  0.917961E-06  0.675E-03    2.53       2.5  T
   4    -50.0396303 -0.108026E-05  0.240E-03    2.53       7.1  T
   5    -50.0396305 -0.156416E-06  0.911E-04    2.53      18.8  T
   6    -50.0396305 -0.518304E-08  0.504E-04    2.53      34.0  T
   7    -50.0396305 -0.340333E-08  0.111E-04    2.53     154.7  T
   8    -50.0396305 -0.704503E-10  0.455E-05    2.53     376.8  T
     SCC iter.                  ...        0 min,  0.013 sec
     gradient                   ...        0 min,  0.018 sec
 * total energy  :   -49.1106768 Eh     change       -0.1615276E-03 Eh
   gradient norm :     0.0035091 Eh/α   predicted    -0.1336055E-03 ( -17.29%)
   displ. norm   :     0.3423041 α      lambda       -0.1759086E-03
   maximum displ.:     0.1901692 α      in ANC's #3, #1, #10, ...

........................................................................
.............................. CYCLE   15 ..............................
........................................................................

 iter      E             dE          RMSdq      gap      omega  full diag
   1    -50.0378671 -0.500379E+02  0.121E-01    2.53       0.0  T
   2    -50.0378687 -0.158998E-05  0.711E-02    2.53       1.0  T
   3    -50.0378662  0.253987E-05  0.969E-03    2.53       1.8  T
   4    -50.0378692 -0.307843E-05  0.195E-03    2.53       8.8  T
   5    -50.0378693 -0.499837E-07  0.104E-03    2.53      16.5  T
   6    -50.0378693 -0.478907E-08  0.538E-04    2.53      31.9  T
   7    -50.0378693 -0.481527E-08  0.985E-05    2.53     174.0  T
   8    -50.0378693 -0.144766E-09  0.438E-05    2.53     392.0  T
     SCC iter.                  ...        0 min,  0.011 sec
     gradient                   ...        0 min,  0.016 sec
 * total energy  :   -49.1108180 Eh     change       -0.1412825E-03 Eh
   gradient norm :     0.0053403 Eh/α   predicted    -0.9826038E-04 ( -30.45%)
   displ. norm   :     0.3697998 α      lambda       -0.2923357E-03
   maximum displ.:     0.1925231 α      in ANC's #3, #1, #4, ...

........................................................................
.............................. CYCLE   16 ..............................
........................................................................

 iter      E             dE          RMSdq      gap      omega  full diag
   1    -50.0383077 -0.500383E+02  0.141E-01    2.53       0.0  T
   2    -50.0383093 -0.158290E-05  0.829E-02    2.52       1.0  T
   3    -50.0383066  0.264583E-05  0.101E-02    2.53       1.7  T
   4    -50.0383100 -0.332544E-05  0.174E-03    2.52       9.8  T
   5    -50.0383100 -0.202429E-07  0.946E-04    2.52      18.1  T
   6    -50.0383100 -0.103198E-08  0.458E-04    2.52      37.4  T
   7    -50.0383100 -0.438566E-08  0.102E-04    2.52     168.7  T
   8    -50.0383100 -0.209333E-09  0.429E-05    2.52     399.9  T
     SCC iter.                  ...        0 min,  0.012 sec
     gradient                   ...        0 min,  0.018 sec
 * total energy  :   -49.1110294 Eh     change       -0.2113670E-03 Eh
   gradient norm :     0.0068917 Eh/α   predicted    -0.1661584E-03 ( -21.39%)
   displ. norm   :     0.2695367 α      lambda       -0.2743659E-03
   maximum displ.:     0.1551230 α      in ANC's #4, #3, #10, ...

........................................................................
.............................. CYCLE   17 ..............................
........................................................................

 iter      E             dE          RMSdq      gap      omega  full diag
   1    -50.0421096 -0.500421E+02  0.116E-01    2.53       0.0  T
   2    -50.0421116 -0.201317E-05  0.679E-02    2.52       1.0  T
   3    -50.0421109  0.790689E-06  0.670E-03    2.52       2.6  T
   4    -50.0421120 -0.117091E-05  0.214E-03    2.52       8.0  T
   5    -50.0421121 -0.754364E-07  0.852E-04    2.52      20.1  T
   6    -50.0421121  0.283246E-08  0.446E-04    2.52      38.4  T
   7    -50.0421121 -0.500964E-08  0.113E-04    2.52     152.0  T
   8    -50.0421121 -0.188230E-09  0.469E-05    2.52     365.8  T
     SCC iter.                  ...        0 min,  0.011 sec
     gradient                   ...        0 min,  0.019 sec
 * total energy  :   -49.1111746 Eh     change       -0.1452252E-03 Eh
   gradient norm :     0.0058428 Eh/α   predicted    -0.1471496E-03 (   1.33%)
   displ. norm   :     0.5188203 α      lambda       -0.2560370E-03
   maximum displ.:     0.2885638 α      in ANC's #3, #1, #10, ...

........................................................................
.............................. CYCLE   18 ..............................
........................................................................

 iter      E             dE          RMSdq      gap      omega  full diag
   1    -50.0345444 -0.500345E+02  0.198E-01    2.53       0.0  T
   2    -50.0345510 -0.663756E-05  0.116E-01    2.53       1.0  T
   3    -50.0345475  0.352052E-05  0.136E-02    2.53       1.3  T
   4    -50.0345522 -0.476297E-05  0.344E-03    2.53       5.0  T
   5    -50.0345524 -0.181196E-06  0.158E-03    2.53      10.8  T
   6    -50.0345524  0.347740E-08  0.595E-04    2.53      28.8  T
   7    -50.0345524 -0.773238E-08  0.124E-04    2.53     138.5  T
   8    -50.0345524 -0.163624E-09  0.668E-05    2.53     256.7  T
     SCC iter.                  ...        0 min,  0.011 sec
     gradient                   ...        0 min,  0.017 sec
 * total energy  :   -49.1111730 Eh     change        0.1603098E-05 Eh
   gradient norm :     0.0128915 Eh/α   predicted    -0.1624803E-03 (*******%)
   displ. norm   :     0.2028451 α      lambda       -0.3158762E-03
   maximum displ.:     0.1178650 α      in ANC's #3, #10, #1, ...

........................................................................
.............................. CYCLE   19 ..............................
........................................................................

 iter      E             dE          RMSdq      gap      omega  full diag
   1    -50.0408667 -0.500409E+02  0.798E-02    2.53       0.0  T
   2    -50.0408696 -0.284630E-05  0.465E-02    2.53       1.0  T
   3    -50.0408688  0.758195E-06  0.681E-03    2.53       2.5  T
   4    -50.0408698 -0.966809E-06  0.238E-03    2.53       7.2  T
   5    -50.0408699 -0.148132E-06  0.962E-04    2.53      17.8  T
   6    -50.0408699 -0.686001E-09  0.554E-04    2.53      30.9  T
   7    -50.0408699 -0.582700E-08  0.117E-04    2.53     146.2  T
   8    -50.0408699 -0.207550E-09  0.480E-05    2.53     357.1  T
     SCC iter.                  ...        0 min,  0.012 sec
     gradient                   ...        0 min,  0.018 sec
 * total energy  :   -49.1113229 Eh     change       -0.1498859E-03 Eh
   gradient norm :     0.0031897 Eh/α   predicted    -0.1644399E-03 (   9.71%)
   displ. norm   :     0.1053992 α      lambda       -0.4568183E-04
   maximum displ.:     0.0521166 α      in ANC's #1, #3, #4, ...

........................................................................
.............................. CYCLE   20 ..............................
........................................................................

 iter      E             dE          RMSdq      gap      omega  full diag
   1    -50.0412240 -0.500412E+02  0.394E-02    2.54       0.0  T
   2    -50.0412243 -0.280537E-06  0.232E-02    2.53       1.0  T
   3    -50.0412237  0.588241E-06  0.474E-03    2.54       3.6  T
   4    -50.0412244 -0.686771E-06  0.578E-04    2.53      29.7  T
   5    -50.0412244 -0.487228E-08  0.318E-04    2.53      54.0  T
   6    -50.0412244 -0.119620E-08  0.168E-04    2.53     101.8  T
   7    -50.0412244 -0.300034E-09  0.419E-05    2.53     409.3  T
     SCC iter.                  ...        0 min,  0.013 sec
     gradient                   ...        0 min,  0.017 sec
 * total energy  :   -49.1113615 Eh     change       -0.3853891E-04 Eh
   gradient norm :     0.0021546 Eh/α   predicted    -0.2309540E-04 ( -40.07%)
   displ. norm   :     0.3091925 α      lambda       -0.1056077E-03
   maximum displ.:     0.1631220 α      in ANC's #1, #3, #10, ...
 * RMSD in coord.:     0.5868815 α      energy gain  -0.8746876E-02 Eh

generating ANC from exact Hessian ...
Using Lindh-Hessian (1995)
 Shifting diagonal of input Hessian by    9.5377384807481241E-003
 Lowest  eigenvalues of input Hessian
    0.000000    0.000000    0.000000    0.000000    0.000000    0.000000
    0.010000    0.010258    0.010528    0.012165    0.012611    0.014836
    0.015654    0.016600    0.019259    0.019827    0.022025    0.025141
 Highest eigenvalues
    1.967847    1.987022    2.008182    2.047306    2.105809    2.209544


........................................................................
.............................. CYCLE   21 ..............................
........................................................................

 iter      E             dE          RMSdq      gap      omega  full diag
   1    -50.0402281 -0.500402E+02  0.114E-01    2.54       0.0  T
   2    -50.0402301 -0.198836E-05  0.673E-02    2.54       1.0  T
   3    -50.0402258  0.429987E-05  0.128E-02    2.54       1.3  T
   4    -50.0402308 -0.506017E-05  0.156E-03    2.54      11.0  T
   5    -50.0402309 -0.298376E-07  0.839E-04    2.54      20.4  T
   6    -50.0402309 -0.351570E-08  0.486E-04    2.54      35.3  T
   7    -50.0402309 -0.340660E-08  0.110E-04    2.54     155.6  T
   8    -50.0402309 -0.239680E-09  0.365E-05    2.54     469.2  T
     SCC iter.                  ...        0 min,  0.014 sec
     gradient                   ...        0 min,  0.021 sec
 * total energy  :   -49.1114300 Eh     change       -0.6849916E-04 Eh
   gradient norm :     0.0038508 Eh/α   predicted     0.0000000E+00 (-100.00%)
   displ. norm   :     0.0414468 α      lambda       -0.5498583E-04
   maximum displ.:     0.0213637 α      in ANC's #7, #4, #10, ...

........................................................................
.............................. CYCLE   22 ..............................
........................................................................

 iter      E             dE          RMSdq      gap      omega  full diag
   1    -50.0416564 -0.500417E+02  0.171E-02    2.54       0.0  T
   2    -50.0416566 -0.203947E-06  0.992E-03    2.54       1.7  T
   3    -50.0416566  0.341455E-07  0.172E-03    2.54      10.0  T
   4    -50.0416566 -0.466552E-07  0.664E-04    2.54      25.8  T
   5    -50.0416566 -0.115431E-07  0.278E-04    2.54      61.6  T
   6    -50.0416566 -0.340776E-09  0.136E-04    2.54     125.8  T
   7    -50.0416566 -0.311509E-09  0.311E-05    2.54     551.6  T
     SCC iter.                  ...        0 min,  0.015 sec
     gradient                   ...        0 min,  0.017 sec
 * total energy  :   -49.1114724 Eh     change       -0.4240359E-04 Eh
   gradient norm :     0.0015115 Eh/α   predicted    -0.2762909E-04 ( -34.84%)
   displ. norm   :     0.1542205 α      lambda       -0.6688994E-04
   maximum displ.:     0.0809957 α      in ANC's #7, #4, #10, ...

........................................................................
.............................. CYCLE   23 ..............................
........................................................................

 iter      E             dE          RMSdq      gap      omega  full diag
   1    -50.0432880 -0.500433E+02  0.524E-02    2.54       0.0  T
   2    -50.0432884 -0.455355E-06  0.308E-02    2.54       1.0  T
   3    -50.0432881  0.339019E-06  0.388E-03    2.54       4.4  T
   4    -50.0432885 -0.437485E-06  0.122E-03    2.54      14.1  T
   5    -50.0432885 -0.289380E-07  0.567E-04    2.54      30.3  T
   6    -50.0432886 -0.162350E-08  0.250E-04    2.54      68.7  T
   7    -50.0432886 -0.114388E-08  0.599E-05    2.54     286.5  T
   8    -50.0432886 -0.339142E-10  0.312E-05    2.54     549.1  T
     SCC iter.                  ...        0 min,  0.011 sec
     gradient                   ...        0 min,  0.021 sec
 * total energy  :   -49.1115332 Eh     change       -0.6086045E-04 Eh
   gradient norm :     0.0028944 Eh/α   predicted    -0.3379968E-04 ( -44.46%)
   displ. norm   :     0.1077075 α      lambda       -0.4624974E-04
   maximum displ.:     0.0552830 α      in ANC's #7, #10, #4, ...

........................................................................
.............................. CYCLE   24 ..............................
........................................................................

 iter      E             dE          RMSdq      gap      omega  full diag
   1    -50.0427719 -0.500428E+02  0.314E-02    2.54       0.0  T
   2    -50.0427720 -0.918286E-07  0.185E-02    2.54       1.0  T
   3    -50.0427718  0.125829E-06  0.227E-03    2.54       7.6  T
   4    -50.0427720 -0.163802E-06  0.617E-04    2.54      27.8  T
   5    -50.0427720 -0.390288E-08  0.307E-04    2.54      55.9  T
   6    -50.0427720 -0.637939E-09  0.116E-04    2.54     147.5  T
   7    -50.0427720 -0.303650E-09  0.287E-05    2.54     598.3  T
     SCC iter.                  ...        0 min,  0.013 sec
     gradient                   ...        0 min,  0.019 sec
 * total energy  :   -49.1115738 Eh     change       -0.4062399E-04 Eh
   gradient norm :     0.0026025 Eh/α   predicted    -0.2354313E-04 ( -42.05%)
   displ. norm   :     0.3057861 α      lambda       -0.1106889E-03
   maximum displ.:     0.1617331 α      in ANC's #10, #7, #6, ...

........................................................................
.............................. CYCLE   25 ..............................
........................................................................

 iter      E             dE          RMSdq      gap      omega  full diag
   1    -50.0398729 -0.500399E+02  0.851E-02    2.53       0.0  T
   2    -50.0398744 -0.149493E-05  0.501E-02    2.53       1.0  T
   3    -50.0398738  0.646134E-06  0.585E-03    2.53       2.9  T
   4    -50.0398746 -0.849151E-06  0.248E-03    2.54       6.9  T
   5    -50.0398747 -0.134745E-06  0.982E-04    2.53      17.5  T
   6    -50.0398747  0.891824E-09  0.442E-04    2.53      38.8  T
   7    -50.0398747 -0.460447E-08  0.931E-05    2.53     184.2  T
   8    -50.0398747 -0.657678E-10  0.440E-05    2.53     390.0  T
     SCC iter.                  ...        0 min,  0.012 sec
     gradient                   ...        0 min,  0.021 sec
 * total energy  :   -49.1116004 Eh     change       -0.2655296E-04 Eh
   gradient norm :     0.0055717 Eh/α   predicted    -0.6051977E-04 ( 127.92%)
   displ. norm   :     0.1188575 α      lambda       -0.6982608E-04
   maximum displ.:     0.0631510 α      in ANC's #7, #10, #4, ...

........................................................................
.............................. CYCLE   26 ..............................
........................................................................

 iter      E             dE          RMSdq      gap      omega  full diag
   1    -50.0415956 -0.500416E+02  0.364E-02    2.54       0.0  T
   2    -50.0415963 -0.666771E-06  0.212E-02    2.54       1.0  T
   3    -50.0415963  0.115285E-07  0.254E-03    2.54       6.7  T
   4    -50.0415963 -0.707451E-07  0.108E-03    2.54      15.8  T
   5    -50.0415963 -0.206607E-07  0.505E-04    2.54      33.9  T
   6    -50.0415963 -0.294413E-09  0.207E-04    2.54      82.7  T
   7    -50.0415964 -0.109022E-08  0.611E-05    2.54     280.5  T
   8    -50.0415964 -0.487219E-10  0.215E-05    2.54     796.3  T
     SCC iter.                  ...        0 min,  0.013 sec
     gradient                   ...        0 min,  0.018 sec
 * total energy  :   -49.1116294 Eh     change       -0.2897285E-04 Eh
   gradient norm :     0.0014084 Eh/α   predicted    -0.3540889E-04 (  22.21%)
   displ. norm   :     0.0715373 α      lambda       -0.1248999E-04
   maximum displ.:     0.0412459 α      in ANC's #10, #6, #2, ...

........................................................................
.............................. CYCLE   27 ..............................
........................................................................

 iter      E             dE          RMSdq      gap      omega  full diag
   1    -50.0414598 -0.500415E+02  0.175E-02    2.54       0.0  T
   2    -50.0414599 -0.264689E-07  0.104E-02    2.54       1.7  T
   3    -50.0414598  0.660515E-07  0.153E-03    2.54      11.2  T
   4    -50.0414599 -0.788262E-07  0.315E-04    2.54      54.5  T
   5    -50.0414599 -0.958799E-09  0.177E-04    2.54      96.9  T
   6    -50.0414599 -0.228503E-09  0.669E-05    2.54     256.2  T
     SCC iter.                  ...        0 min,  0.011 sec
     gradient                   ...        0 min,  0.018 sec
 * total energy  :   -49.1116447 Eh     change       -0.1529702E-04 Eh
   gradient norm :     0.0011539 Eh/α   predicted    -0.6278288E-05 ( -58.96%)
   displ. norm   :     0.1559256 α      lambda       -0.2324631E-04
   maximum displ.:     0.0950949 α      in ANC's #10, #6, #2, ...

........................................................................
.............................. CYCLE   28 ..............................
........................................................................

 iter      E             dE          RMSdq      gap      omega  full diag
   1    -50.0413079 -0.500413E+02  0.361E-02    2.54       0.0  T
   2    -50.0413080 -0.166220E-06  0.214E-02    2.54       1.0  T
   3    -50.0413078  0.262905E-06  0.331E-03    2.54       5.2  T
   4    -50.0413081 -0.322716E-06  0.696E-04    2.54      24.6  T
   5    -50.0413081 -0.453301E-08  0.383E-04    2.54      44.8  T
   6    -50.0413081 -0.729784E-09  0.192E-04    2.54      89.5  T
   7    -50.0413081 -0.771529E-09  0.345E-05    2.54     497.2  T
     SCC iter.                  ...        0 min,  0.011 sec
     gradient                   ...        0 min,  0.026 sec
 * total energy  :   -49.1116682 Eh     change       -0.2348957E-04 Eh
   gradient norm :     0.0021828 Eh/α   predicted    -0.1175192E-04 ( -49.97%)
   displ. norm   :     0.0703894 α      lambda       -0.1472225E-04
   maximum displ.:     0.0418542 α      in ANC's #10, #2, #6, ...

........................................................................
.............................. CYCLE   29 ..............................
........................................................................

 iter      E             dE          RMSdq      gap      omega  full diag
   1    -50.0415020 -0.500415E+02  0.182E-02    2.54       0.0  T
   2    -50.0415020 -0.546951E-07  0.107E-02    2.54       1.6  T
   3    -50.0415020  0.579398E-07  0.169E-03    2.54      10.1  T
   4    -50.0415020 -0.738124E-07  0.319E-04    2.54      53.8  T
   5    -50.0415020 -0.765503E-09  0.157E-04    2.54     109.1  T
   6    -50.0415020  0.838511E-10  0.789E-05    2.54     217.3  T
     SCC iter.                  ...        0 min,  0.009 sec
     gradient                   ...        0 min,  0.016 sec
 * total energy  :   -49.1116801 Eh     change       -0.1195178E-04 Eh
   gradient norm :     0.0019701 Eh/α   predicted    -0.7402974E-05 ( -38.06%)
   displ. norm   :     0.1965842 α      lambda       -0.2148703E-04
   maximum displ.:     0.1221025 α      in ANC's #10, #2, #6, ...

........................................................................
.............................. CYCLE   30 ..............................
........................................................................

 iter      E             dE          RMSdq      gap      omega  full diag
   1    -50.0412947 -0.500413E+02  0.497E-02    2.54       0.0  T
   2    -50.0412950 -0.334522E-06  0.293E-02    2.54       1.0  T
   3    -50.0412946  0.484197E-06  0.484E-03    2.54       3.5  T
   4    -50.0412952 -0.616071E-06  0.825E-04    2.54      20.8  T
   5    -50.0412952 -0.244441E-08  0.408E-04    2.54      42.0  T
   6    -50.0412952 -0.133873E-09  0.159E-04    2.54     108.0  T
   7    -50.0412952 -0.518952E-09  0.375E-05    2.54     457.6  T
     SCC iter.                  ...        0 min,  0.010 sec
     gradient                   ...        0 min,  0.017 sec
 * total energy  :   -49.1116980 Eh     change       -0.1788293E-04 Eh
   gradient norm :     0.0019625 Eh/α   predicted    -0.1093673E-04 ( -38.84%)
   displ. norm   :     0.0517056 α      lambda       -0.1314767E-04
   maximum displ.:     0.0418445 α      in ANC's #4, #3, #5, ...

........................................................................
.............................. CYCLE   31 ..............................
........................................................................

 iter      E             dE          RMSdq      gap      omega  full diag
   1    -50.0425433 -0.500425E+02  0.213E-02    2.55       0.0  T
   2    -50.0425437 -0.427471E-06  0.122E-02    2.55       1.4  T
   3    -50.0425437  0.323646E-07  0.233E-03    2.55       7.4  T
   4    -50.0425438 -0.563113E-07  0.831E-04    2.55      20.6  T
   5    -50.0425438 -0.140768E-07  0.302E-04    2.55      56.8  T
   6    -50.0425438  0.171305E-09  0.149E-04    2.55     114.9  T
   7    -50.0425438 -0.436827E-09  0.512E-05    2.55     334.7  T
     SCC iter.                  ...        0 min,  0.011 sec
     gradient                   ...        0 min,  0.016 sec
 * total energy  :   -49.1117003 Eh     change       -0.2336549E-05 Eh
   gradient norm :     0.0019376 Eh/α   predicted    -0.6625904E-05 ( 183.58%)
   displ. norm   :     0.0547684 α      lambda       -0.9307362E-05
   maximum displ.:     0.0344298 α      in ANC's #10, #7, #2, ...

........................................................................
.............................. CYCLE   32 ..............................
........................................................................

 iter      E             dE          RMSdq      gap      omega  full diag
   1    -50.0419193 -0.500419E+02  0.146E-02    2.55       0.0  T
   2    -50.0419194 -0.135564E-06  0.849E-03    2.55       2.0  T
   3    -50.0419194  0.177117E-07  0.150E-03    2.55      11.5  T
   4    -50.0419194 -0.310284E-07  0.518E-04    2.55      33.1  T
   5    -50.0419194 -0.470477E-08  0.225E-04    2.55      76.3  T
   6    -50.0419194  0.402451E-10  0.835E-05    2.55     205.4  T
   7    -50.0419194 -0.193403E-09  0.236E-05    2.55     727.2  T
     SCC iter.                  ...        0 min,  0.013 sec
     gradient                   ...        0 min,  0.020 sec
 * total energy  :   -49.1117086 Eh     change       -0.8253072E-05 Eh
   gradient norm :     0.0003197 Eh/α   predicted    -0.4660227E-05 ( -43.53%)
   displ. norm   :     0.0252238 α      lambda       -0.1505361E-05
   maximum displ.:     0.0180889 α      in ANC's #7, #10, #4, ...

........................................................................
.............................. CYCLE   33 ..............................
........................................................................

 iter      E             dE          RMSdq      gap      omega  full diag
   1    -50.0417916 -0.500418E+02  0.769E-03    2.55       0.0  T
   2    -50.0417916 -0.147488E-07  0.452E-03    2.55       3.8  T
   3    -50.0417916  0.211770E-07  0.977E-04    2.55      17.6  T
   4    -50.0417916 -0.262738E-07  0.158E-04    2.55     108.8  T
   5    -50.0417916 -0.197012E-09  0.759E-05    2.55     226.0  T
     SCC iter.                  ...        0 min,  0.009 sec
     gradient                   ...        0 min,  0.022 sec
 * total energy  :   -49.1117103 Eh     change       -0.1713666E-05 Eh
   gradient norm :     0.0004385 Eh/α   predicted    -0.7569945E-06 ( -55.83%)
   displ. norm   :     0.0338557 α      lambda       -0.1846746E-05
   maximum displ.:     0.0239188 α      in ANC's #7, #3, #4, ...

........................................................................
.............................. CYCLE   34 ..............................
........................................................................

 iter      E             dE          RMSdq      gap      omega  full diag
   1    -50.0418097 -0.500418E+02  0.110E-02    2.55       0.0  T
   2    -50.0418098 -0.302352E-07  0.645E-03    2.55       2.7  T
   3    -50.0418097  0.511764E-07  0.145E-03    2.55      11.8  T
   4    -50.0418098 -0.625720E-07  0.201E-04    2.55      85.4  T
   5    -50.0418098 -0.323602E-09  0.944E-05    2.55     181.7  T
   6    -50.0418098 -0.127045E-10  0.418E-05    2.55     409.9  T
     SCC iter.                  ...        0 min,  0.010 sec
     gradient                   ...        0 min,  0.018 sec
 * total energy  :   -49.1117120 Eh     change       -0.1734428E-05 Eh
   gradient norm :     0.0003345 Eh/α   predicted    -0.9242300E-06 ( -46.71%)
   displ. norm   :     0.0174172 α      lambda       -0.5625046E-06
   maximum displ.:     0.0091050 α      in ANC's #3, #7, #2, ...

........................................................................
.............................. CYCLE   35 ..............................
........................................................................

 iter      E             dE          RMSdq      gap      omega  full diag
   1    -50.0418486 -0.500418E+02  0.487E-03    2.55       0.0  T
   2    -50.0418486 -0.686178E-08  0.285E-03    2.55       6.0  T
   3    -50.0418486  0.121235E-07  0.702E-04    2.55      24.4  T
   4    -50.0418486 -0.147024E-07  0.929E-05    2.55     184.6  T
   5    -50.0418486 -0.745146E-10  0.443E-05    2.55     387.1  T
     SCC iter.                  ...        0 min,  0.009 sec
     gradient                   ...        0 min,  0.017 sec
 * total energy  :   -49.1117127 Eh     change       -0.6684872E-06 Eh
   gradient norm :     0.0001979 Eh/α   predicted    -0.2815368E-06 ( -57.88%)
   displ. norm   :     0.0223759 α      lambda       -0.6952138E-06
   maximum displ.:     0.0127384 α      in ANC's #3, #2, #1, ...

........................................................................
.............................. CYCLE   36 ..............................
........................................................................

 iter      E             dE          RMSdq      gap      omega  full diag
   1    -50.0418859 -0.500419E+02  0.621E-03    2.55       0.0  T
   2    -50.0418859 -0.633717E-08  0.364E-03    2.55       4.7  T
   3    -50.0418859  0.125577E-07  0.693E-04    2.55      24.7  T
   4    -50.0418859 -0.152762E-07  0.947E-05    2.55     181.0  T
   5    -50.0418859 -0.482316E-10  0.466E-05    2.55     367.7  T
     SCC iter.                  ...        0 min,  0.007 sec
     gradient                   ...        0 min,  0.017 sec
 * total energy  :   -49.1117136 Eh     change       -0.8531411E-06 Eh
   gradient norm :     0.0001645 Eh/α   predicted    -0.3504105E-06 ( -58.93%)
   displ. norm   :     0.0312789 α      lambda       -0.8788211E-06
   maximum displ.:     0.0178918 α      in ANC's #3, #2, #1, ...

........................................................................
.............................. CYCLE   37 ..............................
........................................................................

 iter      E             dE          RMSdq      gap      omega  full diag
   1    -50.0419028 -0.500419E+02  0.898E-03    2.55       0.0  T
   2    -50.0419028 -0.588724E-08  0.527E-03    2.55       3.3  T
   3    -50.0419028  0.611589E-08  0.534E-04    2.55      32.1  T
   4    -50.0419028 -0.883102E-08  0.114E-04    2.55     150.1  T
   5    -50.0419028 -0.120437E-10  0.503E-05    2.55     340.9  T
     SCC iter.                  ...        0 min,  0.008 sec
     gradient                   ...        0 min,  0.020 sec
 * total energy  :   -49.1117146 Eh     change       -0.1067372E-05 Eh
   gradient norm :     0.0002898 Eh/α   predicted    -0.4401439E-06 ( -58.76%)
   displ. norm   :     0.0419975 α      lambda       -0.1023994E-05
   maximum displ.:     0.0237590 α      in ANC's #3, #2, #1, ...

........................................................................
.............................. CYCLE   38 ..............................
........................................................................

 iter      E             dE          RMSdq      gap      omega  full diag
   1    -50.0419002 -0.500419E+02  0.120E-02    2.55       0.0  T
   2    -50.0419002 -0.721620E-08  0.704E-03    2.55       2.4  T
   3    -50.0419002  0.250746E-08  0.445E-04    2.55      38.6  T
   4    -50.0419002 -0.589363E-08  0.138E-04    2.55     124.6  T
   5    -50.0419002  0.590532E-10  0.746E-05    2.55     230.0  T
     SCC iter.                  ...        0 min,  0.008 sec
     gradient                   ...        0 min,  0.017 sec
 * total energy  :   -49.1117159 Eh     change       -0.1240746E-05 Eh
   gradient norm :     0.0003230 Eh/α   predicted    -0.5130827E-06 ( -58.65%)
   displ. norm   :     0.0525412 α      lambda       -0.1130933E-05
   maximum displ.:     0.0292792 α      in ANC's #2, #3, #1, ...

........................................................................
.............................. CYCLE   39 ..............................
........................................................................

 iter      E             dE          RMSdq      gap      omega  full diag
   1    -50.0419168 -0.500419E+02  0.150E-02    2.55       0.0  T
   2    -50.0419168 -0.133533E-07  0.880E-03    2.55       1.9  T
   3    -50.0419168  0.727331E-08  0.675E-04    2.55      25.4  T
   4    -50.0419168 -0.128532E-07  0.164E-04    2.55     104.4  T
   5    -50.0419168 -0.109658E-09  0.808E-05    2.55     212.3  T
     SCC iter.                  ...        0 min,  0.007 sec
     gradient                   ...        0 min,  0.023 sec
 * total energy  :   -49.1117172 Eh     change       -0.1309528E-05 Eh
   gradient norm :     0.0002746 Eh/α   predicted    -0.5687638E-06 ( -56.57%)
   displ. norm   :     0.0507315 α      lambda       -0.7808395E-06
   maximum displ.:     0.0286592 α      in ANC's #2, #1, #3, ...

........................................................................
.............................. CYCLE   40 ..............................
........................................................................

 iter      E             dE          RMSdq      gap      omega  full diag
   1    -50.0419177 -0.500419E+02  0.137E-02    2.55       0.0  T
   2    -50.0419177 -0.134949E-07  0.805E-03    2.55       2.1  T
   3    -50.0419177  0.121406E-07  0.779E-04    2.55      22.0  T
   4    -50.0419177 -0.176175E-07  0.157E-04    2.55     109.6  T
   5    -50.0419177 -0.135515E-09  0.794E-05    2.55     215.9  T
     SCC iter.                  ...        0 min,  0.011 sec
     gradient                   ...        0 min,  0.027 sec
 * total energy  :   -49.1117180 Eh     change       -0.8177262E-06 Eh
   gradient norm :     0.0001266 Eh/α   predicted    -0.3927705E-06 ( -51.97%)
   displ. norm   :     0.0507315 α      lambda        0.0000000E+00
   maximum displ.:     0.0286592 α      in ANC's #2, #1, #3, ...

........................................................................
.............................. CYCLE   41 ..............................
........................................................................

 iter      E             dE          RMSdq      gap      omega  full diag
   1    -50.0418903 -0.500419E+02  0.137E-02    2.55       0.0  T
   2    -50.0418903 -0.135861E-07  0.804E-03    2.55       2.1  T
   3    -50.0418903  0.118859E-07  0.773E-04    2.55      22.2  T
   4    -50.0418903 -0.173245E-07  0.157E-04    2.55     109.1  T
   5    -50.0418903 -0.140524E-09  0.799E-05    2.55     214.7  T
     SCC iter.                  ...        0 min,  0.007 sec
     gradient                   ...        0 min,  0.023 sec
 * total energy  :   -49.1117181 Eh     change       -0.8894318E-07 Eh
   gradient norm :     0.0001909 Eh/α   predicted    -0.1143247E-08 ( -98.71%)
   displ. norm   :     0.0150013 α      lambda       -0.2929404E-06
   maximum displ.:     0.0076389 α      in ANC's #10, #3, #6, ...

   *** GEOMETRY OPTIMIZATION CONVERGED AFTER 41 ITERATIONS ***

------------------------------------------------------------------------
 total energy gain   :        -0.0091035 Eh       -5.7125 kcal/mol
 total RMSD          :         0.7114061 a0        0.3765 Å
 total power (kW/mol):        -0.5829566 (step)  -14.5142 (real)
------------------------------------------------------------------------

 ANCopt (total)                0 d,  0 h,  0 min,  1.647 sec
 optimizer setup                ...        0 min,  0.001 sec (  0.032%)
 model hessian                  ...        0 min,  0.016 sec (  0.971%)
 ANC generation                 ...        0 min,  0.002 sec (  0.150%)
 coordinate transformation      ...        0 min,  0.001 sec (  0.037%)
 single point calculation       ...        0 min,  1.607 sec ( 97.611%)
 optimization log               ...        0 min,  0.010 sec (  0.628%)
 hessian update                 ...        0 min,  0.001 sec (  0.067%)
 rational function              ...        0 min,  0.006 sec (  0.357%)

================
 final structure:
================
34
 xtb: 6.7.1 (edcfbbe)
C           -0.61923268206792       -1.04969301140417       -2.98600309459214
C            0.11877481269988       -0.48168344252357       -1.81481822332879
N            1.37119767913669       -0.63362491596127       -1.74354759663620
C            2.17555627738455       -0.16388664854675       -0.72032164129893
C            3.23274020139497        0.69037180172781       -1.03923854648140
C            4.10584399561055        1.11422864160262       -0.05754742466898
C            3.95683474925026        0.67854107904252        1.24994290044282
C            2.92208959209563       -0.18501469043621        1.56856035326587
C            2.03258061976446       -0.60196928377781        0.59693448403867
C           -0.68351829726963        0.32570176164203       -0.85435603943090
C           -0.59941935026659        1.69514350072258       -0.89844561298894
C           -1.35166429532561        2.49054714801351       -0.02281118900041
C           -2.17984470133660        1.90996152434111        0.89582876042742
C           -2.27847007780968        0.50565826451598        0.98900255393172
C           -3.10663638223677       -0.11889441549622        1.94611385349527
C           -3.17017421498607       -1.48091066199436        2.03738987183104
C           -2.40198762876776       -2.28186754700277        1.17801820629256
C           -1.59483148502801       -1.70882634668154        0.23499475035165
C           -1.51714077684627       -0.30464750841162        0.10540237738971
H           -0.93535443620670       -0.23018724823460       -3.63227303772267
H           -1.51493079952406       -1.57465951643891       -2.66103636398905
H            0.02653772654802       -1.71787197230989       -3.54926069589233
H            3.34507623736486        1.02508181770640       -2.06042244589924
H            4.91286839278026        1.78598050123995       -0.31447105676241
H            4.64563935152644        1.00726897490957        2.01446034364618
H            2.80052696470141       -0.53281154380616        2.58499919220128
H            1.22838281385731       -1.27913895390123        0.84730606850636
H            0.04984443308502        2.16815933039259       -1.62241253589205
H           -1.26944635396264        3.56595315402877       -0.08608991973168
H           -2.76596316431570        2.51779404317611        1.57059008951324
H           -3.68667584661406        0.50427461538061        2.61250218872609
H           -3.80483899401124       -1.95093895757253        2.77484996622670
H           -2.45089914084405       -3.35754080731694        1.26963933147155
H           -0.99346521968054       -2.33049868662401       -0.41347986734316

 Bond Distances (Angstroems)
 ---------------------------
C1-C2=1.4963         C1-H20=1.0905        C1-H21=1.0879        C1-H22=1.0866        C2-C1=1.4963         C2-N3=1.2636         
C2-C10=1.4893        N3-C2=1.2636         N3-C4=1.3837         C4-N3=1.3837         C4-C5=1.3961         C4-C9=1.3955         
C5-C4=1.3961         C5-C6=1.3805         C5-H23=1.0805        C6-C5=1.3805         C6-C7=1.3862         C6-H24=1.0810        
C7-C6=1.3862         C7-C8=1.3849         C7-H25=1.0803        C8-C7=1.3849         C8-C9=1.3817         C8-H26=1.0812        
C9-C4=1.3955         C9-C8=1.3817         C9-H27=1.0807        C10-C2=1.4893        C10-C11=1.3727       C10-C19=1.4189       
C11-C10=1.3727       C11-C12=1.4019       C11-H28=1.0814       C12-C11=1.4019       C12-C13=1.3663       C12-H29=1.0804       
C13-C12=1.3663       C13-C14=1.4108       C13-H30=1.0809       C14-C13=1.4108       C14-C15=1.4114       C14-C19=1.4202       
C15-C14=1.4114       C15-C16=1.3665       C15-H31=1.0811       C16-C15=1.3665       C16-C17=1.4036       C16-H32=1.0805       
C17-C16=1.4036       C17-C18=1.3672       C17-H33=1.0807       C18-C17=1.3672       C18-C19=1.4123       C18-H34=1.0810       
C19-C10=1.4189       C19-C14=1.4202       C19-C18=1.4123       H20-C1=1.0905        H21-C1=1.0879        H22-C1=1.0866        
H23-C5=1.0805        H24-C6=1.0810        H25-C7=1.0803        H26-C8=1.0812        H27-C9=1.0807        H28-C11=1.0814       
H29-C12=1.0804       H30-C13=1.0809       H31-C15=1.0811       H32-C16=1.0805       H33-C17=1.0807       H34-C18=1.0810       
 C  H  Rav=1.0823 sigma=0.0031  Rmin=1.0803  Rmax=1.0905    15
 C  C  Rav=1.4033 sigma=0.0351  Rmin=1.3663  Rmax=1.4963    19
 N  C  Rav=1.3237 sigma=0.0600  Rmin=1.2636  Rmax=1.3837     2

 selected bond angles (degree)
 --------------------
H20-C1-C2=108.76               H21-C1-C2=110.82               H21-C1-H20=107.52              H22-C1-C2=110.24               
H22-C1-H20=109.10              H22-C1-H21=110.33              N3-C2-C1=119.17                C10-C2-C1=116.42               
C10-C2-N3=124.25               C4-N3-C2=125.24                C5-C4-N3=118.62                C9-C4-N3=122.13                
C9-C4-C5=119.03                C6-C5-C4=120.29                H23-C5-C4=118.96               H23-C5-C6=120.75               
C7-C6-C5=120.42                H24-C6-C5=119.60               H24-C6-C7=119.98               C8-C7-C6=119.56                
H25-C7-C6=120.22               H25-C7-C8=120.22               C9-C8-C7=120.49                H26-C8-C7=120.06               
H26-C8-C9=119.45               C8-C9-C4=120.20                H27-C9-C4=119.45               H27-C9-C8=120.35               
C11-C10-C2=119.15              C19-C10-C2=120.79              C19-C10-C11=120.06             

 selected dihedral angles (degree)
 ---------------------------------
N3-C2-C1-H20=252.08           N3-C2-C1-H21=134.10           N3-C2-C1-H22= 11.65           C10-C2-C1-H20= 67.51          
C10-C2-C1-H21=309.52          C10-C2-C1-H22=187.08          C4-N3-C2-C1=180.08            C4-N3-C2-C10=  5.04           
C5-C4-N3-C2=237.27            C9-C4-N3-C2= 62.67            C6-C5-C4-N3=183.96            C6-C5-C4-C9=358.73            
H23-C5-C4-N3=  4.95           H23-C5-C4-C9=179.71           C7-C6-C5-C4=  1.13            C7-C6-C5-H23=180.12           
H24-C6-C5-C4=180.80           H24-C6-C5-H23=359.79          C8-C7-C6-C5=359.86            C8-C7-C6-H24=180.18           
H25-C7-C6-C5=179.61           H25-C7-C6-H24=359.94          C9-C8-C7-C6=359.32            C9-C8-C7-H25=179.57           
H26-C8-C7-C6=179.77           H26-C8-C7-H25=  0.00          C8-C9-C4-N3=175.03            C8-C9-C4-C5=  0.46            
H27-C9-C4-N3=355.79           H27-C9-C4-C5=181.22           C4-C9-C8-C7=  0.52            C4-C9-C8-H26=180.07           
H27-C9-C8-C7=179.75           H27-C9-C8-H26=359.30          C11-C10-C2-C1=257.67          C11-C10-C2-N3= 72.83          
C19-C10-C2-C1= 78.25          C19-C10-C2-N3=253.42          
           -------------------------------------------------
          |                Final Singlepoint                |
           -------------------------------------------------

          ...................................................
          :                      SETUP                      :
          :.................................................:
          :  # basis functions                  91          :
          :  # atomic orbitals                  91          :
          :  # shells                           53          :
          :  # electrons                        92          :
          :  max. iterations                   250          :
          :  Hamiltonian                  GFN2-xTB          :
          :  restarted?                      false          :
          :  GBSA solvation                   true          :
          :  PC potential                    false          :
          :  electronic temp.          300.0000000     K    :
          :  accuracy                    0.2000000          :
          :  -> integral cutoff          0.3198970E+02      :
          :  -> integral neglect         0.2000000E-08      :
          :  -> SCF convergence          0.2000000E-06 Eh   :
          :  -> wf. convergence          0.2000000E-04 e    :
          :  Broyden damping             0.4000000          :
          :  net charge                          0          :
          :  unpaired electrons                  0          :
          ...................................................

 iter      E             dE          RMSdq      gap      omega  full diag
   1    -50.0418903 -0.500419E+02  0.328E-05    2.55       0.0  T
   2    -50.0418903 -0.833467E-11  0.245E-05    2.55     698.7  T
   3    -50.0418903 -0.169038E-10  0.103E-05    2.55    1665.8  T

   *** convergence criteria satisfied after 3 iterations ***

         #    Occupation            Energy/Eh            Energy/eV
      -------------------------------------------------------------
         1        2.0000           -0.6582524             -17.9120
       ...           ...                  ...                  ...
        40        2.0000           -0.4215461             -11.4709
        41        2.0000           -0.4142002             -11.2710
        42        2.0000           -0.4045712             -11.0089
        43        2.0000           -0.4006761             -10.9030
        44        2.0000           -0.3988109             -10.8522
        45        2.0000           -0.3814624             -10.3801
        46        2.0000           -0.3589882              -9.7686 (HOMO)
        47                         -0.2651925              -7.2163 (LUMO)
        48                         -0.2423719              -6.5953
        49                         -0.2326404              -6.3305
        50                         -0.2167830              -5.8990
        51                         -0.2019148              -5.4944
       ...                                ...                  ...
        91                          0.6931408              18.8613
      -------------------------------------------------------------
                  HL-Gap            0.0937957 Eh            2.5523 eV
             Fermi-level           -0.3120903 Eh           -8.4924 eV

 SCC (total)                   0 d,  0 h,  0 min,  0.034 sec
 SCC setup                      ...        0 min,  0.001 sec (  3.693%)
 Dispersion                     ...        0 min,  0.001 sec (  1.607%)
 classical contributions        ...        0 min,  0.000 sec (  0.448%)
 integral evaluation            ...        0 min,  0.009 sec ( 27.210%)
 iterations                     ...        0 min,  0.005 sec ( 14.685%)
 molecular gradient             ...        0 min,  0.017 sec ( 50.908%)
 printout                       ...        0 min,  0.000 sec (  1.368%)

         :::::::::::::::::::::::::::::::::::::::::::::::::::::
         ::                     SUMMARY                     ::
         :::::::::::::::::::::::::::::::::::::::::::::::::::::
         :: total energy             -49.111718080566 Eh    ::
         :: total w/o Gsasa/hb       -49.089963697083 Eh    ::
         :: gradient norm              0.000191326827 Eh/a0 ::
         :: HOMO-LUMO gap              2.552311594597 eV    ::
         ::.................................................::
         :: SCC energy               -50.041132884153 Eh    ::
         :: -> isotropic ES            0.011268514692 Eh    ::
         :: -> anisotropic ES          0.006184419038 Eh    ::
         :: -> anisotropic XC          0.035692192937 Eh    ::
         :: -> dispersion             -0.039138857900 Eh    ::
         :: -> Gsolv                  -0.022712548610 Eh    ::
         ::    -> Gelec               -0.000958165127 Eh    ::
         ::    -> Gsasa               -0.025903080844 Eh    ::
         ::    -> Ghb                  0.000000000000 Eh    ::
         ::    -> Gshift               0.004148697361 Eh    ::
         :: repulsion energy           0.929414803586 Eh    ::
         :: add. restraining           0.000000000000 Eh    ::
         :: total charge              -0.000000000000 e     ::
         :::::::::::::::::::::::::::::::::::::::::::::::::::::

           -------------------------------------------------
          |                Property Printout                |
           -------------------------------------------------

    * Orbital Energies and Occupations

         #    Occupation            Energy/Eh            Energy/eV
      -------------------------------------------------------------
         1        2.0000           -0.6582524             -17.9120
       ...           ...                  ...                  ...
        34        2.0000           -0.4550968             -12.3838
        35        2.0000           -0.4498377             -12.2407
        36        2.0000           -0.4430284             -12.0554
        37        2.0000           -0.4338867             -11.8067
        38        2.0000           -0.4273155             -11.6278
        39        2.0000           -0.4230425             -11.5116
        40        2.0000           -0.4215461             -11.4709
        41        2.0000           -0.4142002             -11.2710
        42        2.0000           -0.4045712             -11.0089
        43        2.0000           -0.4006761             -10.9030
        44        2.0000           -0.3988109             -10.8522
        45        2.0000           -0.3814624             -10.3801
        46        2.0000           -0.3589882              -9.7686 (HOMO)
        47                         -0.2651925              -7.2163 (LUMO)
        48                         -0.2423719              -6.5953
        49                         -0.2326404              -6.3305
        50                         -0.2167830              -5.8990
        51                         -0.2019148              -5.4944
        52                         -0.1912476              -5.2041
        53                         -0.1487385              -4.0474
        54                         -0.0830468              -2.2598
        55                         -0.0620431              -1.6883
        56                          0.0787692               2.1434
        57                          0.0925290               2.5178
       ...                                ...                  ...
        91                          0.6931408              18.8613
      -------------------------------------------------------------
                  HL-Gap            0.0937957 Eh            2.5523 eV
             Fermi-level           -0.3120903 Eh           -8.4924 eV

     #   Z          covCN         q      C6AA      α(0)
     1   6 C        3.761    -0.118    22.808     6.808
     2   6 C        2.905     0.121    25.344     8.255
     3   7 N        1.842    -0.226    26.789     7.671
     4   6 C        2.930     0.082    26.172     8.390
     5   6 C        2.925    -0.047    29.172     8.857
     6   6 C        2.919    -0.032    28.803     8.801
     7   6 C        2.919    -0.041    29.025     8.835
     8   6 C        2.919    -0.032    28.804     8.801
     9   6 C        2.921    -0.050    29.249     8.869
    10   6 C        2.972    -0.009    28.236     8.716
    11   6 C        2.922    -0.031    28.785     8.798
    12   6 C        2.914    -0.031    28.767     8.795
    13   6 C        2.918    -0.037    28.915     8.818
    14   6 C        2.986     0.013    27.718     8.636
    15   6 C        2.919    -0.035    28.864     8.810
    16   6 C        2.915    -0.030    28.748     8.792
    17   6 C        2.916    -0.031    28.763     8.795
    18   6 C        2.917    -0.035    28.883     8.813
    19   6 C        2.987     0.012    27.746     8.640
    20   1 H        0.924     0.066     2.132     2.283
    21   1 H        0.925     0.064     2.158     2.297
    22   1 H        0.925     0.067     2.115     2.274
    23   1 H        0.926     0.032     2.563     2.503
    24   1 H        0.926     0.029     2.600     2.521
    25   1 H        0.926     0.026     2.640     2.541
    26   1 H        0.926     0.026     2.642     2.542
    27   1 H        0.926     0.022     2.709     2.574
    28   1 H        0.925     0.027     2.626     2.534
    29   1 H        0.926     0.034     2.533     2.489
    30   1 H        0.926     0.035     2.520     2.482
    31   1 H        0.926     0.034     2.529     2.487
    32   1 H        0.926     0.033     2.543     2.494
    33   1 H        0.926     0.032     2.552     2.498
    34   1 H        0.926     0.032     2.560     2.502

 Mol. C6AA /au·bohr⁶  :      15391.633137
 Mol. C8AA /au·bohr⁸  :     382816.699201
 Mol. α(0) /au        :        199.922071


Wiberg/Mayer (AO) data.
largest (>0.10) Wiberg bond orders for each atom

 ---------------------------------------------------------------------------
     #   Z sym  total        # sym  WBO       # sym  WBO       # sym  WBO
 ---------------------------------------------------------------------------
     1   6 C    3.992 --     2 C    1.018    22 H    0.981    21 H    0.967
                            20 H    0.957
     2   6 C    3.962 --     3 N    1.810     1 C    1.018    10 C    0.989
     3   7 N    3.194 --     2 C    1.810     4 C    1.114
     4   6 C    3.978 --     9 C    1.354     5 C    1.352     3 N    1.114
     5   6 C    3.989 --     6 C    1.462     4 C    1.352    23 H    0.971
                             8 C    0.106
     6   6 C    3.992 --     5 C    1.462     7 C    1.426    24 H    0.971
                             9 C    0.105
     7   6 C    3.990 --     8 C    1.434     6 C    1.426    25 H    0.972
     8   6 C    3.992 --     9 C    1.454     7 C    1.434    26 H    0.971
                             5 C    0.106
     9   6 C    3.989 --     8 C    1.454     4 C    1.354    27 H    0.969
                             6 C    0.105
    10   6 C    3.988 --    11 C    1.514    19 C    1.243     2 C    0.989
                            13 C    0.115
    11   6 C    3.992 --    10 C    1.514    12 C    1.324    28 H    0.970
    12   6 C    3.992 --    13 C    1.554    11 C    1.324    29 H    0.970
    13   6 C    3.991 --    12 C    1.554    14 C    1.278    30 H    0.968
                            10 C    0.115
    14   6 C    3.990 --    15 C    1.279    13 C    1.278    19 C    1.254
    15   6 C    3.990 --    16 C    1.558    14 C    1.279    31 H    0.968
                            18 C    0.118
    16   6 C    3.992 --    15 C    1.558    17 C    1.321    32 H    0.971
    17   6 C    3.992 --    18 C    1.555    16 C    1.321    33 H    0.971
    18   6 C    3.992 --    17 C    1.555    19 C    1.282    34 H    0.966
                            15 C    0.118
    19   6 C    3.989 --    18 C    1.282    14 C    1.254    10 C    1.243
    20   1 H    0.995 --     1 C    0.957
    21   1 H    0.995 --     1 C    0.967
    22   1 H    0.995 --     1 C    0.981
    23   1 H    0.999 --     5 C    0.971
    24   1 H    0.998 --     6 C    0.971
    25   1 H    0.999 --     7 C    0.972
    26   1 H    0.999 --     8 C    0.971
    27   1 H    1.000 --     9 C    0.969
    28   1 H    0.999 --    11 C    0.970
    29   1 H    0.998 --    12 C    0.970
    30   1 H    0.998 --    13 C    0.968
    31   1 H    0.998 --    15 C    0.968
    32   1 H    0.998 --    16 C    0.971
    33   1 H    0.998 --    17 C    0.971
    34   1 H    0.999 --    18 C    0.966
 ---------------------------------------------------------------------------

Topologies differ in total number of bonds
Writing topology from bond orders to xtbtopo.mol

molecular dipole:
                 x           y           z       tot (Debye)
 q only:       -0.837      -0.021      -0.254
   full:       -1.004       0.140      -0.033       2.579
molecular quadrupole (traceless):
                xx          xy          yy          xz          yz          zz
 q only:       -3.416       1.979       0.456       1.043       0.782       2.961
  q+dip:       -5.526       5.113       2.799      -1.604      -1.725       2.727
   full:       -4.380       3.560       2.011       1.306      -1.376       2.369

           -------------------------------------------------
          |                Geometry Summary                 |
           -------------------------------------------------

      molecular mass/u    :      245.3190607
   center of mass at/Å    :        0.0296663       0.0127463       0.0156444
  moments of inertia/u·Å² :        0.8192701E+03   0.1812322E+04   0.1894906E+04
rotational constants/cm⁻¹ :        0.2057640E-01   0.9301674E-02   0.8896289E-02

 * 33 selected distances

     #   Z          #   Z                                           value/Å
     2   6 C        3   7 N                                       1.2636174
     4   6 C        5   6 C                                       1.3961030
     5   6 C        6   6 C                                       1.3804647
     6   6 C        7   6 C                                       1.3862030
     7   6 C        8   6 C                                       1.3848984
     4   6 C        9   6 C                                       1.3955366
     8   6 C        9   6 C                                       1.3817143
    10   6 C       11   6 C                                       1.3727300
    11   6 C       12   6 C                                       1.4018828
    12   6 C       13   6 C                                       1.3663316
    13   6 C       14   6 C                                       1.4108424
    14   6 C       15   6 C                                       1.4113780
    15   6 C       16   6 C                                       1.3665493
    16   6 C       17   6 C                                       1.4036248
    17   6 C       18   6 C                                       1.3671762
    10   6 C       19   6 C                                       1.4189444
    14   6 C       19   6 C                                       1.4201998 (max)
    18   6 C       19   6 C                                       1.4122849
     1   6 C       20   1 H                                       1.0904988
     1   6 C       21   1 H                                       1.0878734
     1   6 C       22   1 H                                       1.0866195
     5   6 C       23   1 H                                       1.0804938
     6   6 C       24   1 H                                       1.0809944
     7   6 C       25   1 H                                       1.0802782 (min)
     8   6 C       26   1 H                                       1.0811514
     9   6 C       27   1 H                                       1.0807308
    11   6 C       28   1 H                                       1.0813953
    12   6 C       29   1 H                                       1.0803991
    13   6 C       30   1 H                                       1.0808785
    15   6 C       31   1 H                                       1.0811379
    16   6 C       32   1 H                                       1.0805432
    17   6 C       33   1 H                                       1.0806757
Note: The following floating-point exceptions are signalling: IEEE_DIVIDE_BY_ZERO IEEE_UNDERFLOW_FLAG IEEE_DENORMAL
normal termination of xtb
    18   6 C       34   1 H                                       1.0810354

 * 3 distinct bonds (by element types)

   Z      Z             #   av. dist./Å        max./Å        min./Å
   1 H    6 C          15     1.0823137     1.0904988     1.0802782
   6 C    6 C          17     1.3927567     1.4201998     1.3663316
   6 C    7 N           1     1.2636174     1.2636174     1.2636174


optimized geometry written to: xtbopt.xyz


           -------------------------------------------------
          | TOTAL ENERGY              -49.111718080566 Eh   |
          | GRADIENT NORM               0.000191326827 Eh/α |
          | HOMO-LUMO GAP               2.552311594597 eV   |
           -------------------------------------------------

------------------------------------------------------------------------
 * finished run on 2026/09/10 at 23:03:48.224     
------------------------------------------------------------------------
 total:
 * wall-time:     0 d,  0 h,  0 min,  1.768 sec
 *  cpu-time:     0 d,  0 h,  0 min,  0.406 sec
 * ratio c/w:     0.230 speedup
 SCF:
 * wall-time:     0 d,  0 h,  0 min,  0.044 sec
 *  cpu-time:     0 d,  0 h,  0 min,  0.016 sec
 * ratio c/w:     0.358 speedup
 ANC optimizer:
 * wall-time:     0 d,  0 h,  0 min,  1.685 sec
 *  cpu-time:     0 d,  0 h,  0 min,  0.391 sec
 * ratio c/w:     0.232 speedup

