      -----------------------------------------------------------      
     |                   =====================                   |     
     |                           x T B                           |     
     |                   =====================                   |     
     |                         S. Grimme                         |     
     |          Mulliken Center for Theoretical Chemistry        |     
     |                    University of Bonn                     |     
      -----------------------------------------------------------      

   * xtb version 6.7.1 (edcfbbe) compiled by 'VssAdministrator@runnervm171ch' on 2026-06-10

   xtb is free software: you can redistribute it and/or modify it under
   the terms of the GNU Lesser General Public License as published by
   the Free Software Foundation, either version 3 of the License, or
   (at your option) any later version.
   
   xtb is distributed in the hope that it will be useful,
   but WITHOUT ANY WARRANTY; without even the implied warranty of
   MERCHANTABILITY or FITNESS FOR A PARTICULAR PURPOSE.  See the
   GNU Lesser General Public License for more details.
   
   Cite this work as:
   * C. Bannwarth, E. Caldeweyher, S. Ehlert, A. Hansen, P. Pracht,
     J. Seibert, S. Spicher, S. Grimme, WIREs Comput. Mol. Sci., 2020, 11,
     e01493. DOI: 10.1002/wcms.1493
   
   for GFN2-xTB:
   * C. Bannwarth, S. Ehlert and S. Grimme., J. Chem. Theory Comput., 2019,
     15, 1652-1671. DOI: 10.1021/acs.jctc.8b01176
   for GFN1-xTB:
   * S. Grimme, C. Bannwarth, P. Shushkov, J. Chem. Theory Comput., 2017,
     13, 1989-2009. DOI: 10.1021/acs.jctc.7b00118
   for GFN0-xTB:
   * P. Pracht, E. Caldeweyher, S. Ehlert, S. Grimme, ChemRxiv, 2019, preprint.
     DOI: 10.26434/chemrxiv.8326202.v1
   for GFN-FF:
   * S. Spicher and S. Grimme, Angew. Chem. Int. Ed., 2020, 59, 15665-15673.
     DOI: 10.1002/anie.202004239
   
   for ALPB and GBSA implicit solvation:
   * S. Ehlert, M. Stahn, S. Spicher, S. Grimme, J. Chem. Theory Comput.,
     2021, 17, 4250-4261. DOI: 10.1021/acs.jctc.1c00471
   
   for ddCOSMO and CPCM-X implicit solvation:
   * M. Stahn, S. Ehlert, S. Grimme, J. Phys. Chem. A,
     2023, XX, XXXX-XXXX. DOI: 10.1021/acs.jpca.3c04382
   
   for DFT-D4:
   * E. Caldeweyher, C. Bannwarth and S. Grimme, J. Chem. Phys., 2017,
     147, 034112. DOI: 10.1063/1.4993215
   * E. Caldeweyher, S. Ehlert, A. Hansen, H. Neugebauer, S. Spicher,
     C. Bannwarth and S. Grimme, J. Chem. Phys., 2019, 150, 154122.
     DOI: 10.1063/1.5090222
   * E. Caldeweyher, J.-M. Mewes, S. Ehlert and S. Grimme, Phys. Chem. Chem. Phys.
     2020, 22, 8499-8512. DOI: 10.1039/D0CP00502A
   
   for sTDA-xTB:
   * S. Grimme and C. Bannwarth, J. Chem. Phys., 2016, 145, 054103.
     DOI: 10.1063/1.4959605
   
   in the mass-spec context:
   * V. Asgeirsson, C. Bauer and S. Grimme, Chem. Sci., 2017, 8, 4879.
     DOI: 10.1039/c7sc00601b
   * J. Koopman and S. Grimme, ACS Omega 2019, 4, 12, 15120-15133.
     DOI: 10.1021/acsomega.9b02011
   
   for metadynamics refer to:
   * S. Grimme, J. Chem. Theory Comput., 2019, 155, 2847-2862
     DOI: 10.1021/acs.jctc.9b00143
   
   for SPH calculations refer to:
   * S. Spicher and S. Grimme, J. Chem. Theory Comput., 2021, 17, 1701-1714
     DOI: 10.1021/acs.jctc.0c01306
   
   for ONIOM refer to:
   * C. Plett, A. Katbashev, S. Ehlert, S. Grimme, M. Bursch,
     Phys. Chem. Chem. Phys., 2023, 25, 17860-17868. DOI: 10.1039/D3CP02178E
   
   for DIPRO refer to:
   * J. Kohn, N. Gildemeister, S. Grimme, D. Fazzi, A. Hansen,
     J. Chem. Phys., 2023, just accepted.
   
   for PTB refer to:
   * S. Grimme, M. Mueller, A. Hansen, J. Chem. Phys., 2023, 158, 124111.
     DOI: 10.1063/5.0137838
   
   with help from (in alphabetical order)
   P. Atkinson, C. Bannwarth, F. Bohle, G. Brandenburg, E. Caldeweyher
   M. Checinski, S. Dohm, S. Ehlert, S. Ehrlich, I. Gerasimov, C. Hölzer
   A. Katbashev, J. Kohn, J. Koopman, C. Lavigne, S. Lehtola, F. März, M. Müller,
   F. Musil, H. Neugebauer, J. Pisarek, C. Plett, P. Pracht, F. Pultar,
   J. Seibert, P. Shushkov, S. Spicher, M. Stahn, M. Steiner, T. Strunk,
   J. Stückrath, T. Rose, and J. Unsleber
   
 * started run on 2026/09/10 at 23:32:38.454     
   ID    Z sym.   atoms
    1    8 O      1, 3, 4, 17, 88, 90, 99, 100
    2   15 P      2
    3    6 C      5-16, 18-37, 59, 60, 62-73, 87, 89, 91-93, 95-98, 101, 102
    4    1 H      38-58, 74-86, 103-117
    5    7 N      61, 94

           -------------------------------------------------
          |                Calculation Setup                |
           -------------------------------------------------

          program call               : C:\Users\HUIWEI\miniconda3\envs\phase2ff\Library\bin\xtb.exe xtbopt.xyz --gfn 2 --chrg 0 --uhf 0 --alpb toluene --acc 0.2 --hess --strict
          coordinate file            : xtbopt.xyz
          omp threads                :                     1


molecular fragmentation (1/2 indicates fragments):
111111111111111111111111111111111111111111111111111111111122222222222222
222222222222222222222222222222222222222222222
# atoms in fragment 1/2:    58    59
 fragment masses (1/2) :      500.48      420.50
CMA distance (Bohr)    :  12.655
constraining FC (au)   :  0.0500

           -------------------------------------------------
          |                 G F N 2 - x T B                 |
           -------------------------------------------------

        Reference                      10.1021/acs.jctc.8b01176
      * Hamiltonian:
        H0-scaling (s, p, d)           1.850000    2.230000    2.230000
        zeta-weighting                 0.500000
      * Dispersion:
        s8                             2.700000
        a1                             0.520000
        a2                             5.000000
        s9                             5.000000
      * Repulsion:
        kExp                           1.500000    1.000000
        rExp                           1.000000
      * Coulomb:
        alpha                          2.000000
        third order                    shell-resolved
        anisotropic                    true
        a3                             3.000000
        a5                             4.000000
        cn-shift                       1.200000
        cn-exp                         4.000000
        max-rad                        5.000000

      * Solvation model:               ALPB
        Solvent                        toluene
        Parameter file                 internal GFN2-xTB/ALPB
        Dielectric constant                7.0000E+00
        Reference state                gsolv [1 M gas/solution]
        Free energy shift                  2.2081E-03 Eh       1.3856E+00 kcal/mol
        Temperature                        2.9815E+02 K
        Density                            8.6700E-01 kg/L
        Solvent mass                       7.8110E+01 g/mol
        Interaction kernel             P16
        Born radius scaling (c1)           1.7172E+00
        Born radii integrator          GBOBC
        Born offset                        0.0000E+00 a0       0.0000E+00 AA
        H-bond correction              false
        Ion screening                  false
        Surface tension                    1.0000E-05 Eh       1.5569E+01 dyn/cm
        Grid points                               230 per atom
q/qsh data taken from xtbrestart
CAMM data taken from xtbrestart

          ...................................................
          :                      SETUP                      :
          :.................................................:
          :  # basis functions                 327          :
          :  # atomic orbitals                 326          :
          :  # shells                          186          :
          :  # electrons                       340          :
          :  max. iterations                   250          :
          :  Hamiltonian                  GFN2-xTB          :
          :  restarted?                       true          :
          :  GBSA solvation                   true          :
          :  PC potential                    false          :
          :  electronic temp.          300.0000000     K    :
          :  accuracy                    0.2000000          :
          :  -> integral cutoff          0.3198970E+02      :
          :  -> integral neglect         0.2000000E-08      :
          :  -> SCF convergence          0.2000000E-06 Eh   :
          :  -> wf. convergence          0.2000000E-04 e    :
          :  Broyden damping             0.4000000          :
          :  net charge                          0          :
          :  unpaired electrons                  0          :
          ...................................................

 iter      E             dE          RMSdq      gap      omega  full diag
   1   -191.2047478 -0.191205E+03  0.314E-06    1.98       0.0  T
   2   -191.2047478  0.136424E-11  0.270E-06    1.98    3429.7  T
   3   -191.2047478 -0.278533E-11  0.891E-07    1.98   10371.4  T

   *** convergence criteria satisfied after 3 iterations ***

         #    Occupation            Energy/Eh            Energy/eV
      -------------------------------------------------------------
         1        2.0000           -0.7311316             -19.8951
       ...           ...                  ...                  ...
       164        2.0000           -0.3894326             -10.5970
       165        2.0000           -0.3891559             -10.5895
       166        2.0000           -0.3851376             -10.4801
       167        2.0000           -0.3802834             -10.3480
       168        2.0000           -0.3722201             -10.1286
       169        2.0000           -0.3706161             -10.0850
       170        2.0000           -0.3517770              -9.5723 (HOMO)
       171                         -0.2788606              -7.5882 (LUMO)
       172                         -0.2726336              -7.4187
       173                         -0.2673652              -7.2754
       174                         -0.2603419              -7.0843
       175                         -0.2433276              -6.6213
       ...                                ...                  ...
       326                          1.2850436              34.9678
      -------------------------------------------------------------
                  HL-Gap            0.0729164 Eh            1.9842 eV
             Fermi-level           -0.3153188 Eh           -8.5803 eV

 SCC (total)                   0 d,  0 h,  0 min,  0.318 sec
 SCC setup                      ...        0 min,  0.005 sec (  1.723%)
 Dispersion                     ...        0 min,  0.003 sec (  0.996%)
 classical contributions        ...        0 min,  0.001 sec (  0.299%)
 integral evaluation            ...        0 min,  0.044 sec ( 13.807%)
 iterations                     ...        0 min,  0.058 sec ( 18.125%)
 molecular gradient             ...        0 min,  0.204 sec ( 64.192%)
 printout                       ...        0 min,  0.003 sec (  0.851%)

         :::::::::::::::::::::::::::::::::::::::::::::::::::::
         ::                     SUMMARY                     ::
         :::::::::::::::::::::::::::::::::::::::::::::::::::::
         :: total energy            -188.240924007035 Eh    ::
         :: total w/o Gsasa/hb      -188.164226548724 Eh    ::
         :: gradient norm              0.000093916540 Eh/a0 ::
         :: HOMO-LUMO gap              1.984156591846 eV    ::
         ::.................................................::
         :: SCC energy              -191.195195108389 Eh    ::
         :: -> isotropic ES            0.240362262926 Eh    ::
         :: -> anisotropic ES         -0.014513265820 Eh    ::
         :: -> anisotropic XC          0.083186327182 Eh    ::
         :: -> dispersion             -0.187409380789 Eh    ::
         :: -> Gsolv                  -0.087183477123 Eh    ::
         ::    -> Gelec               -0.010486018812 Eh    ::
         ::    -> Gsasa               -0.078905601450 Eh    ::
         ::    -> Ghb                  0.000000000000 Eh    ::
         ::    -> Gshift               0.002208143139 Eh    ::
         :: repulsion energy           2.954271101354 Eh    ::
         :: add. restraining           0.000000000000 Eh    ::
         :: total charge              -0.000000000000 e     ::
         :::::::::::::::::::::::::::::::::::::::::::::::::::::

           ------------------------------------------------- 
          |                Numerical Hessian                |
           ------------------------------------------------- 
step length          :   0.00500
SCC accuracy         :   0.30000
Hessian scale factor :   1.00000
frozen atoms in %    :   0.00000    0
RMS gradient         :   0.00009
estimated CPU  time      1.11 min
estimated wall time      4.67 min

writing file <hessian>.

 projected vibrational frequencies (cm⁻¹)
eigval :       -0.00    -0.00     0.00     0.00     0.00     0.00
eigval :        7.65     9.75    15.77    18.38    25.56    28.80
eigval :       32.41    35.27    36.70    41.24    45.12    48.98
eigval :       52.65    56.47    60.15    62.68    66.61    67.33
eigval :       68.81    74.24    77.59    79.96    81.99    82.41
eigval :       84.99    95.63    98.34   100.34   100.91   103.51
eigval :      107.42   113.49   124.82   130.87   140.42   143.76
eigval :      144.32   149.48   151.90   158.19   162.21   166.51
eigval :      175.45   177.04   185.28   192.63   207.47   209.52
eigval :      213.10   236.88   244.41   251.80   256.82   268.62
eigval :      277.71   286.51   289.32   296.03   299.56   301.37
eigval :      313.00   315.93   318.35   320.73   325.58   331.13
eigval :      336.17   343.01   354.08   357.61   374.47   376.49
eigval :      381.84   384.30   385.70   388.98   397.95   413.25
eigval :      426.04   436.53   439.67   442.66   463.29   473.94
eigval :      477.10   479.11   489.66   493.94   501.54   513.05
eigval :      516.59   523.81   527.33   527.90   539.17   546.49
eigval :      549.71   562.77   574.65   575.54   585.69   586.05
eigval :      588.23   588.99   592.59   592.97   623.23   628.25
eigval :      631.19   634.42   641.76   650.25   658.66   666.22
eigval :      667.38   670.77   676.49   682.88   683.55   695.75
eigval :      704.07   709.75   719.76   729.59   730.68   742.30
eigval :      759.56   762.99   766.17   768.52   770.95   771.58
eigval :      775.35   784.21   786.56   824.61   833.34   840.53
eigval :      843.52   852.49   860.63   864.35   865.23   874.01
eigval :      875.54   876.98   877.90   878.30   885.55   900.28
eigval :      900.61   908.83   911.80   914.49   916.04   918.24
eigval :      920.26   924.73   925.63   926.84   928.25   928.31
eigval :      932.16   934.40   934.70   936.05   943.00   950.95
eigval :      961.53   969.48   969.85   974.37   980.65   983.57
eigval :      989.29   997.52  1001.80  1013.94  1017.67  1025.64
eigval :     1027.23  1029.84  1071.77  1081.49  1082.09  1083.56
eigval :     1084.09  1084.52  1084.79  1089.79  1094.85  1098.20
eigval :     1119.05  1121.37  1122.30  1122.67  1127.07  1128.94
eigval :     1130.14  1130.79  1147.75  1151.07  1152.79  1164.17
eigval :     1168.58  1176.97  1177.94  1179.10  1179.16  1179.87
eigval :     1181.70  1182.20  1187.32  1195.62  1199.56  1201.02
eigval :     1204.54  1206.78  1207.28  1211.24  1213.36  1231.08
eigval :     1246.04  1248.54  1250.12  1255.15  1259.17  1269.33
eigval :     1270.08  1282.49  1283.02  1283.78  1285.52  1290.70
eigval :     1291.92  1312.18  1313.22  1319.07  1319.27  1321.59
eigval :     1334.79  1344.73  1365.03  1382.57  1385.78  1386.48
eigval :     1387.25  1387.40  1392.29  1394.31  1402.53  1413.77
eigval :     1414.78  1416.51  1425.62  1428.95  1429.85  1431.89
eigval :     1437.07  1437.93  1441.61  1445.95  1447.30  1450.08
eigval :     1455.06  1459.52  1462.85  1463.43  1465.45  1468.38
eigval :     1468.58  1471.51  1481.19  1482.67  1483.50  1488.73
eigval :     1491.69  1548.81  1554.87  1571.23  1574.63  1576.33
eigval :     1577.14  1582.83  1584.06  1585.71  1591.31  1598.57
eigval :     1600.28  1606.14  1606.44  1614.82  1648.09  1671.77
eigval :     1676.00  1702.31  1894.52  2866.86  2956.93  2964.13
eigval :     2981.80  2990.13  2996.93  3020.92  3023.19  3025.17
eigval :     3028.27  3030.84  3031.50  3033.71  3037.01  3043.67
eigval :     3058.78  3061.38  3066.50  3066.86  3068.35  3069.74
eigval :     3069.77  3070.14  3073.69  3074.03  3074.75  3075.28
eigval :     3075.47  3076.49  3076.85  3077.31  3078.10  3078.93
eigval :     3080.64  3084.99  3086.35  3086.78  3087.12  3090.01
eigval :     3092.36  3093.02  3094.51  3096.47  3098.49  3100.24
eigval :     3101.37  3107.38  3415.50
           -------------------------------------------------
          |                Property Printout                |
           -------------------------------------------------

    * Orbital Energies and Occupations

         #    Occupation            Energy/Eh            Energy/eV
      -------------------------------------------------------------
         1        2.0000           -0.7311316             -19.8951
       ...           ...                  ...                  ...
       158        2.0000           -0.4064055             -11.0589
       159        2.0000           -0.4050530             -11.0221
       160        2.0000           -0.4026855             -10.9576
       161        2.0000           -0.4014853             -10.9250
       162        2.0000           -0.3984745             -10.8430
       163        2.0000           -0.3927938             -10.6885
       164        2.0000           -0.3894325             -10.5970
       165        2.0000           -0.3891559             -10.5895
       166        2.0000           -0.3851376             -10.4801
       167        2.0000           -0.3802834             -10.3480
       168        2.0000           -0.3722201             -10.1286
       169        2.0000           -0.3706161             -10.0850
       170        2.0000           -0.3517770              -9.5723 (HOMO)
       171                         -0.2788606              -7.5882 (LUMO)
       172                         -0.2726336              -7.4187
       173                         -0.2673652              -7.2754
       174                         -0.2603419              -7.0843
       175                         -0.2433275              -6.6213
       176                         -0.2383082              -6.4847
       177                         -0.2326438              -6.3306
       178                         -0.2258835              -6.1466
       179                         -0.2249847              -6.1221
       180                         -0.2190845              -5.9616
       181                         -0.2183169              -5.9407
       ...                                ...                  ...
       326                          1.2850436              34.9678
      -------------------------------------------------------------
                  HL-Gap            0.0729164 Eh            1.9842 eV
             Fermi-level           -0.3153188 Eh           -8.5803 eV

     #   Z          covCN         q      C6AA      α(0)
     1   8 O        0.808    -0.537    24.656     6.656
     2  15 P        3.924     0.728   131.759    20.620
     3   8 O        1.594    -0.462    22.117     6.347
     4   8 O        1.661    -0.322    19.404     5.947
     5   6 C        3.158     0.142    24.634     8.115
     6   6 C        2.968    -0.008    28.218     8.713
     7   6 C        2.927    -0.049    29.216     8.864
     8   6 C        2.983     0.007    27.858     8.658
     9   6 C        2.920    -0.035    28.862     8.810
    10   6 C        2.915    -0.030    28.744     8.792
    11   6 C        2.916    -0.029    28.733     8.790
    12   6 C        2.917    -0.033    28.828     8.804
    13   6 C        2.987     0.010    27.778     8.645
    14   6 C        2.973    -0.011    28.278     8.723
    15   6 C        2.973    -0.011    28.295     8.725
    16   6 C        3.217     0.141    24.296     8.018
    17   8 O        1.660    -0.288    18.802     5.854
    18   6 C        2.969    -0.004    28.111     8.697
    19   6 C        2.927    -0.051    29.255     8.870
    20   6 C        2.983     0.007    27.847     8.656
    21   6 C        2.920    -0.035    28.870     8.811
    22   6 C        2.915    -0.030    28.754     8.793
    23   6 C        2.916    -0.030    28.757     8.794
    24   6 C        2.917    -0.034    28.845     8.807
    25   6 C        2.987     0.010    27.797     8.649
    26   6 C        2.977     0.018    27.595     8.617
    27   6 C        2.925    -0.035    28.860     8.810
    28   6 C        2.919    -0.030    28.744     8.792
    29   6 C        2.919    -0.032    28.789     8.799
    30   6 C        2.919    -0.031    28.775     8.797
    31   6 C        2.923    -0.030    28.761     8.795
    32   6 C        2.979     0.025    27.450     8.594
    33   6 C        2.925    -0.034    28.859     8.810
    34   6 C        2.919    -0.032    28.794     8.799
    35   6 C        2.920    -0.031    28.772     8.796
    36   6 C        2.919    -0.020    28.503     8.755
    37   6 C        2.924    -0.016    28.405     8.740
    38   1 H        0.902     0.361     0.555     1.165
    39   1 H        0.926     0.046     2.368     2.406
    40   1 H        0.926     0.038     2.477     2.461
    41   1 H        0.926     0.037     2.484     2.465
    42   1 H        0.926     0.036     2.503     2.474
    43   1 H        0.926     0.033     2.538     2.491
    44   1 H        0.926     0.046     2.365     2.405
    45   1 H        0.926     0.038     2.477     2.461
    46   1 H        0.926     0.037     2.486     2.465
    47   1 H        0.926     0.036     2.507     2.476
    48   1 H        0.926     0.033     2.545     2.495
    49   1 H        0.926     0.035     2.521     2.483
    50   1 H        0.926     0.033     2.544     2.494
    51   1 H        0.926     0.031     2.576     2.510
    52   1 H        0.926     0.030     2.584     2.514
    53   1 H        0.926     0.039     2.463     2.454
    54   1 H        0.926     0.030     2.583     2.513
    55   1 H        0.926     0.032     2.560     2.502
    56   1 H        0.926     0.029     2.596     2.519
    57   1 H        0.926     0.031     2.573     2.508
    58   1 H        0.926     0.035     2.518     2.481
    59   6 C        3.763    -0.130    23.045     6.843
    60   6 C        2.891     0.117    25.419     8.266
    61   7 N        1.939    -0.223    26.709     7.663
    62   6 C        2.918     0.082    26.176     8.390
    63   6 C        2.925    -0.048    29.202     8.862
    64   6 C        2.919    -0.031    28.775     8.797
    65   6 C        2.918    -0.038    28.933     8.821
    66   6 C        2.919    -0.028    28.706     8.786
    67   6 C        2.920    -0.045    29.113     8.848
    68   6 C        2.971     0.004    27.921     8.667
    69   6 C        2.924    -0.025    28.630     8.775
    70   6 C        2.918    -0.028    28.706     8.786
    71   6 C        2.919    -0.024    28.615     8.772
    72   6 C        2.918    -0.026    28.659     8.779
    73   6 C        2.924    -0.022    28.552     8.763
    74   1 H        0.925     0.073     2.057     2.243
    75   1 H        0.925     0.065     2.140     2.288
    76   1 H        0.924     0.072     2.066     2.248
    77   1 H        0.926     0.040     2.450     2.448
    78   1 H        0.926     0.033     2.542     2.493
    79   1 H        0.926     0.032     2.553     2.498
    80   1 H        0.926     0.035     2.518     2.482
    81   1 H        0.926     0.053     2.279     2.361
    82   1 H        0.926     0.039     2.468     2.457
    83   1 H        0.926     0.041     2.437     2.441
    84   1 H        0.926     0.041     2.432     2.439
    85   1 H        0.926     0.039     2.457     2.451
    86   1 H        0.926     0.038     2.477     2.461
    87   6 C        3.652     0.035    20.287     6.468
    88   8 O        1.705    -0.278    18.621     5.826
    89   6 C        2.727     0.344    21.148     7.529
    90   8 O        0.856    -0.448    22.666     6.383
    91   6 C        2.956    -0.062    29.541     8.915
    92   6 C        2.891     0.087    26.055     8.369
    93   6 C        3.759    -0.135    23.154     6.860
    94   7 N        2.712    -0.117    23.558     7.209
    95   6 C        2.887     0.079    26.236     8.398
    96   6 C        3.758    -0.125    22.957     6.831
    97   6 C        2.955    -0.070    29.745     8.945
    98   6 C        2.724     0.341    21.204     7.538
    99   8 O        0.857    -0.470    23.137     6.449
   100   8 O        1.704    -0.282    18.680     5.835
   101   6 C        3.650     0.036    20.281     6.469
   102   6 C        3.817    -0.054    21.537     6.605
   103   1 H        0.925     0.063     2.166     2.302
   104   1 H        0.924     0.065     2.141     2.288
   105   1 H        0.924     0.052     2.293     2.368
   106   1 H        0.925     0.078     1.999     2.211
   107   1 H        0.925     0.105     1.738     2.062
   108   1 H        0.925     0.052     2.291     2.367
   109   1 H        0.860     0.195     1.130     1.665
   110   1 H        0.925     0.080     1.976     2.198
   111   1 H        0.925     0.061     2.188     2.313
   112   1 H        0.925     0.076     2.024     2.225
   113   1 H        0.924     0.062     2.170     2.304
   114   1 H        0.924     0.053     2.278     2.360
   115   1 H        0.925     0.067     2.114     2.274
   116   1 H        0.925     0.069     2.099     2.266
   117   1 H        0.923     0.040     2.443     2.444

 Mol. C6AA /au·bohr⁶  :     183888.323930
 Mol. C8AA /au·bohr⁸  :    4623811.813143
 Mol. α(0) /au        :        682.404516


Wiberg/Mayer (AO) data.
largest (>0.10) Wiberg bond orders for each atom

 ---------------------------------------------------------------------------
     #   Z sym  total        # sym  WBO       # sym  WBO       # sym  WBO
 ---------------------------------------------------------------------------
     1   8 O    2.029 --     2 P    1.788
     2  15 P    5.451 --     1 O    1.788     3 O    1.313    17 O    1.129
                             4 O    1.083
     3   8 O    2.200 --     2 P    1.313    38 H    0.646
     4   8 O    2.303 --     2 P    1.083     5 C    0.974
     5   6 C    3.915 --    14 C    1.461     6 C    1.245     4 O    0.974
     6   6 C    3.986 --     7 C    1.495     5 C    1.245    26 C    1.045
     7   6 C    3.984 --     6 C    1.495     8 C    1.285    39 H    0.964
                            14 C    0.102
     8   6 C    3.988 --     7 C    1.285     9 C    1.276    13 C    1.250
     9   6 C    3.986 --    10 C    1.557     8 C    1.276    40 H    0.968
                            12 C    0.117
    10   6 C    3.988 --     9 C    1.557    11 C    1.322    41 H    0.970
    11   6 C    3.984 --    12 C    1.552    10 C    1.322    42 H    0.971
    12   6 C    3.990 --    11 C    1.552    13 C    1.286    43 H    0.966
                             9 C    0.117
    13   6 C    3.985 --    12 C    1.286     8 C    1.250    14 C    1.236
    14   6 C    3.985 --     5 C    1.461    13 C    1.236    15 C    1.030
                             7 C    0.102
    15   6 C    3.984 --    16 C    1.462    25 C    1.234    14 C    1.030
                            19 C    0.102
    16   6 C    3.908 --    15 C    1.462    18 C    1.247    17 O    0.959
    17   8 O    2.330 --     2 P    1.129    16 C    0.959
    18   6 C    3.985 --    19 C    1.497    16 C    1.247    32 C    1.040
    19   6 C    3.984 --    18 C    1.497    20 C    1.283    44 H    0.965
                            15 C    0.102
    20   6 C    3.988 --    19 C    1.283    21 C    1.277    25 C    1.251
    21   6 C    3.984 --    22 C    1.556    20 C    1.277    45 H    0.968
                            24 C    0.117
    22   6 C    3.988 --    21 C    1.556    23 C    1.322    46 H    0.970
    23   6 C    3.986 --    24 C    1.551    22 C    1.322    47 H    0.971
    24   6 C    3.990 --    23 C    1.551    25 C    1.286    48 H    0.966
                            21 C    0.117
    25   6 C    3.985 --    24 C    1.286    20 C    1.251    15 C    1.234
    26   6 C    3.988 --    31 C    1.391    27 C    1.386     6 C    1.045
                            29 C    0.105
    27   6 C    3.989 --    28 C    1.453    26 C    1.386    49 H    0.968
                            30 C    0.108
    28   6 C    3.992 --    27 C    1.453    29 C    1.431    50 H    0.970
                            31 C    0.109
    29   6 C    3.987 --    30 C    1.437    28 C    1.431    51 H    0.971
                            26 C    0.105
    30   6 C    3.992 --    31 C    1.448    29 C    1.437    52 H    0.970
                            27 C    0.108
    31   6 C    3.987 --    30 C    1.448    26 C    1.391    53 H    0.969
                            28 C    0.109
    32   6 C    3.988 --    37 C    1.393    33 C    1.389    18 C    1.040
                            35 C    0.105
    33   6 C    3.987 --    34 C    1.451    32 C    1.389    54 H    0.969
                            36 C    0.109
    34   6 C    3.992 --    33 C    1.451    35 C    1.432    55 H    0.971
                            37 C    0.109
    35   6 C    3.988 --    36 C    1.438    34 C    1.432    56 H    0.972
                            32 C    0.105
    36   6 C    3.992 --    37 C    1.447    35 C    1.438    57 H    0.971
                            33 C    0.109
    37   6 C    3.987 --    36 C    1.447    32 C    1.393    58 H    0.970
                            34 C    0.109
    38   1 H    0.869 --     3 O    0.646    61 N    0.183
    39   1 H    0.997 --     7 C    0.964
    40   1 H    0.998 --     9 C    0.968
    41   1 H    0.998 --    10 C    0.970
    42   1 H    0.998 --    11 C    0.971
    43   1 H    0.998 --    12 C    0.966
    44   1 H    0.997 --    19 C    0.965
    45   1 H    0.998 --    21 C    0.968
    46   1 H    0.998 --    22 C    0.970
    47   1 H    0.998 --    23 C    0.971
    48   1 H    0.998 --    24 C    0.966
    49   1 H    0.999 --    27 C    0.968
    50   1 H    0.998 --    28 C    0.970
    51   1 H    0.999 --    29 C    0.971
    52   1 H    0.998 --    30 C    0.970
    53   1 H    0.998 --    31 C    0.969
    54   1 H    0.999 --    33 C    0.969
    55   1 H    0.998 --    34 C    0.971
    56   1 H    0.999 --    35 C    0.972
    57   1 H    0.998 --    36 C    0.971
    58   1 H    0.999 --    37 C    0.970
    59   6 C    3.990 --    60 C    1.026    75 H    0.970    74 H    0.966
                            76 H    0.947
    60   6 C    3.958 --    61 N    1.725    68 C    1.045    59 C    1.026
    61   7 N    3.320 --    60 C    1.725    62 C    1.091    38 H    0.183
    62   6 C    3.972 --    63 C    1.356    67 C    1.354    61 N    1.091
    63   6 C    3.983 --    64 C    1.459    62 C    1.356    77 H    0.966
                            66 C    0.105
    64   6 C    3.991 --    63 C    1.459    65 C    1.427    78 H    0.970
                            67 C    0.105
    65   6 C    3.986 --    66 C    1.432    64 C    1.427    79 H    0.971
    66   6 C    3.991 --    67 C    1.454    65 C    1.432    80 H    0.970
                            63 C    0.105
    67   6 C    3.988 --    66 C    1.454    62 C    1.354    81 H    0.960
                            64 C    0.105
    68   6 C    3.988 --    69 C    1.380    73 C    1.378    60 C    1.045
                            71 C    0.103
    69   6 C    3.986 --    70 C    1.454    68 C    1.380    82 H    0.967
                            72 C    0.106
    70   6 C    3.991 --    69 C    1.454    71 C    1.432    83 H    0.969
                            73 C    0.106
    71   6 C    3.988 --    70 C    1.432    72 C    1.431    84 H    0.971
                            68 C    0.103
    72   6 C    3.991 --    73 C    1.455    71 C    1.431    85 H    0.970
                            69 C    0.106
    73   6 C    3.991 --    72 C    1.455    68 C    1.378    86 H    0.964
                            70 C    0.106
    74   1 H    0.994 --    59 C    0.966
    75   1 H    0.994 --    59 C    0.970
    76   1 H    0.992 --    59 C    0.947
    77   1 H    0.998 --    63 C    0.966
    78   1 H    0.998 --    64 C    0.970
    79   1 H    0.999 --    65 C    0.971
    80   1 H    0.998 --    66 C    0.970
    81   1 H    0.997 --    67 C    0.960
    82   1 H    0.998 --    69 C    0.967
    83   1 H    0.998 --    70 C    0.969
    84   1 H    0.998 --    71 C    0.971
    85   1 H    0.998 --    72 C    0.970
    86   1 H    0.999 --    73 C    0.964
    87   6 C    3.932 --   103 H    0.981   105 H    0.977   104 H    0.973
                            88 O    0.966
    88   8 O    2.273 --    89 C    1.085    87 C    0.966    90 O    0.152
    89   6 C    3.920 --    90 O    1.668    88 O    1.085    91 C    1.071
    90   8 O    2.006 --    89 C    1.668    88 O    0.152
    91   6 C    3.972 --    92 C    1.625    89 C    1.071   102 C    1.001
    92   6 C    3.967 --    91 C    1.625    94 N    1.139    93 C    1.039
    93   6 C    3.985 --    92 C    1.039   108 H    0.979   106 H    0.960
                           107 H    0.937
    94   7 N    3.521 --    95 C    1.170    92 C    1.139   109 H    0.924
    95   6 C    3.967 --    97 C    1.602    94 N    1.170    96 C    1.029
    96   6 C    3.990 --    95 C    1.029   111 H    0.979   112 H    0.962
                           110 H    0.962
    97   6 C    3.970 --    95 C    1.602    98 C    1.088   102 C    0.997
    98   6 C    3.923 --    99 O    1.652    97 C    1.088   100 O    1.082
    99   8 O    1.979 --    98 C    1.652   100 O    0.148
   100   8 O    2.268 --    98 C    1.082   101 C    0.963    99 O    0.148
   101   6 C    3.929 --   115 H    0.981   114 H    0.977   113 H    0.974
                           100 O    0.963
   102   6 C    3.993 --    91 C    1.001    97 C    0.997   116 H    0.956
                           117 H    0.955
   103   1 H    0.996 --    87 C    0.981
   104   1 H    0.995 --    87 C    0.973
   105   1 H    0.997 --    87 C    0.977
   106   1 H    0.994 --    93 C    0.960
   107   1 H    0.989 --    93 C    0.937
   108   1 H    0.997 --    93 C    0.979
   109   1 H    0.961 --    94 N    0.924
   110   1 H    0.993 --    96 C    0.962
   111   1 H    0.996 --    96 C    0.979
   112   1 H    0.994 --    96 C    0.962
   113   1 H    0.996 --   101 C    0.974
   114   1 H    0.996 --   101 C    0.977
   115   1 H    0.995 --   101 C    0.981
   116   1 H    0.995 --   102 C    0.956
   117   1 H    0.998 --   102 C    0.955
 ---------------------------------------------------------------------------

Topologies differ in total number of bonds
Writing topology from bond orders to xtbtopo.mol

molecular dipole:
                 x           y           z       tot (Debye)
 q only:       -0.540       0.599      -1.854
   full:       -0.770       0.891      -1.896       5.673
molecular quadrupole (traceless):
                xx          xy          yy          xz          yz          zz
 q only:       -2.456      -3.174      14.710      -5.947     -52.709     -12.254
  q+dip:       -2.118      -4.443      15.523     -11.890     -55.534     -13.405
   full:       -4.549      -3.107      17.139      -5.642     -52.670     -12.590

           -------------------------------------------------
          |               Frequency Printout                |
           -------------------------------------------------
 projected vibrational frequencies (cm⁻¹)
eigval :       -0.00    -0.00     0.00     0.00     0.00     0.00
eigval :        7.65     9.75    15.77    18.38    25.56    28.80
eigval :       32.41    35.27    36.70    41.24    45.12    48.98
eigval :       52.65    56.47    60.15    62.68    66.61    67.33
eigval :       68.81    74.24    77.59    79.96    81.99    82.41
eigval :       84.99    95.63    98.34   100.34   100.91   103.51
eigval :      107.42   113.49   124.82   130.87   140.42   143.76
eigval :      144.32   149.48   151.90   158.19   162.21   166.51
eigval :      175.45   177.04   185.28   192.63   207.47   209.52
eigval :      213.10   236.88   244.41   251.80   256.82   268.62
eigval :      277.71   286.51   289.32   296.03   299.56   301.37
eigval :      313.00   315.93   318.35   320.73   325.58   331.13
eigval :      336.17   343.01   354.08   357.61   374.47   376.49
eigval :      381.84   384.30   385.70   388.98   397.95   413.25
eigval :      426.04   436.53   439.67   442.66   463.29   473.94
eigval :      477.10   479.11   489.66   493.94   501.54   513.05
eigval :      516.59   523.81   527.33   527.90   539.17   546.49
eigval :      549.71   562.77   574.65   575.54   585.69   586.05
eigval :      588.23   588.99   592.59   592.97   623.23   628.25
eigval :      631.19   634.42   641.76   650.25   658.66   666.22
eigval :      667.38   670.77   676.49   682.88   683.55   695.75
eigval :      704.07   709.75   719.76   729.59   730.68   742.30
eigval :      759.56   762.99   766.17   768.52   770.95   771.58
eigval :      775.35   784.21   786.56   824.61   833.34   840.53
eigval :      843.52   852.49   860.63   864.35   865.23   874.01
eigval :      875.54   876.98   877.90   878.30   885.55   900.28
eigval :      900.61   908.83   911.80   914.49   916.04   918.24
eigval :      920.26   924.73   925.63   926.84   928.25   928.31
eigval :      932.16   934.40   934.70   936.05   943.00   950.95
eigval :      961.53   969.48   969.85   974.37   980.65   983.57
eigval :      989.29   997.52  1001.80  1013.94  1017.67  1025.64
eigval :     1027.23  1029.84  1071.77  1081.49  1082.09  1083.56
eigval :     1084.09  1084.52  1084.79  1089.79  1094.85  1098.20
eigval :     1119.05  1121.37  1122.30  1122.67  1127.07  1128.94
eigval :     1130.14  1130.79  1147.75  1151.07  1152.79  1164.17
eigval :     1168.58  1176.97  1177.94  1179.10  1179.16  1179.87
eigval :     1181.70  1182.20  1187.32  1195.62  1199.56  1201.02
eigval :     1204.54  1206.78  1207.28  1211.24  1213.36  1231.08
eigval :     1246.04  1248.54  1250.12  1255.15  1259.17  1269.33
eigval :     1270.08  1282.49  1283.02  1283.78  1285.52  1290.70
eigval :     1291.92  1312.18  1313.22  1319.07  1319.27  1321.59
eigval :     1334.79  1344.73  1365.03  1382.57  1385.78  1386.48
eigval :     1387.25  1387.40  1392.29  1394.31  1402.53  1413.77
eigval :     1414.78  1416.51  1425.62  1428.95  1429.85  1431.89
eigval :     1437.07  1437.93  1441.61  1445.95  1447.30  1450.08
eigval :     1455.06  1459.52  1462.85  1463.43  1465.45  1468.38
eigval :     1468.58  1471.51  1481.19  1482.67  1483.50  1488.73
eigval :     1491.69  1548.81  1554.87  1571.23  1574.63  1576.33
eigval :     1577.14  1582.83  1584.06  1585.71  1591.31  1598.57
eigval :     1600.28  1606.14  1606.44  1614.82  1648.09  1671.77
eigval :     1676.00  1702.31  1894.52  2866.86  2956.93  2964.13
eigval :     2981.80  2990.13  2996.93  3020.92  3023.19  3025.17
eigval :     3028.27  3030.84  3031.50  3033.71  3037.01  3043.67
eigval :     3058.78  3061.38  3066.50  3066.86  3068.35  3069.74
eigval :     3069.77  3070.14  3073.69  3074.03  3074.75  3075.28
eigval :     3075.47  3076.49  3076.85  3077.31  3078.10  3078.93
eigval :     3080.64  3084.99  3086.35  3086.78  3087.12  3090.01
eigval :     3092.36  3093.02  3094.51  3096.47  3098.49  3100.24
eigval :     3101.37  3107.38  3415.50
 reduced masses (amu)
   1: 11.97   2: 12.41   3: 12.35   4: 12.33   5: 11.40   6: 12.11   7: 12.01   8: 11.38
   9: 11.43  10: 12.65  11: 11.69  12: 11.43  13: 11.41  14: 11.52  15: 11.47  16: 11.37
  17: 11.18  18: 11.69  19: 11.06  20: 11.92  21: 11.62  22: 11.09  23: 13.08  24: 11.02
  25: 11.17  26: 11.37  27: 10.51  28: 10.97  29: 10.64  30: 10.22  31: 11.13  32: 12.28
  33: 12.23  34:  6.57  35: 10.78  36: 11.52  37:  9.13  38: 10.54  39:  6.79  40:  9.85
  41: 10.69  42: 10.16  43:  6.32  44:  9.07  45:  7.34  46:  7.05  47: 10.27  48:  9.98
  49:  4.06  50:  8.74  51: 11.18  52: 11.89  53: 10.03  54: 10.26  55: 11.19  56: 13.23
  57: 11.72  58: 12.93  59: 10.76  60: 10.96  61: 12.65  62: 11.61  63: 12.72  64: 11.08
  65: 11.09  66: 11.07  67: 10.37  68: 11.21  69:  9.36  70: 11.68  71: 12.69  72: 11.57
  73: 10.96  74: 12.48  75: 10.49  76: 13.63  77:  8.99  78:  9.12  79: 12.31  80:  9.52
  81:  9.31  82: 11.28  83: 10.64  84: 12.88  85: 16.24  86: 11.04  87: 13.63  88: 12.85
  89: 13.98  90: 10.52  91: 12.19  92: 10.57  93: 10.07  94: 10.85  95:  6.45  96: 12.04
  97:  9.05  98: 12.09  99: 11.35 100: 11.00 101: 11.32 102: 11.57 103:  9.96 104: 10.06
 105: 11.60 106: 10.99 107: 11.35 108: 11.26 109: 11.18 110: 11.33 111: 11.10 112: 11.18
 113: 11.21 114: 11.31 115: 11.26 116: 11.40 117: 11.95 118: 13.53 119: 12.93 120:  9.74
 121: 10.51 122: 10.54 123:  9.05 124: 11.33 125:  9.88 126: 11.19 127: 12.21 128: 11.08
 129: 12.48 130:  9.72 131: 11.08 132: 14.14 133:  5.67 134:  4.84 135:  4.93 136: 10.88
 137:  5.30 138:  5.16 139:  7.02 140: 13.02 141: 15.28 142: 11.72 143:  6.30 144:  9.38
 145: 10.31 146: 10.48 147: 10.41 148:  3.97 149:  4.33 150:  3.47 151:  3.50 152:  3.74
 153:  3.30 154:  3.82 155:  3.29 156:  3.76 157:  4.05 158:  3.80 159:  3.93 160:  9.43
 161:  3.98 162:  6.20 163: 17.93 164:  4.14 165:  3.79 166:  3.20 167:  3.12 168:  3.05
 169:  3.82 170:  3.69 171:  3.17 172:  3.61 173:  3.20 174:  7.27 175: 11.63 176: 10.73
 177: 11.30 178: 10.88 179:  9.50 180:  7.91 181:  8.15 182:  6.11 183: 10.85 184:  4.88
 185:  4.57 186: 10.47 187:  5.35 188:  6.32 189: 12.51 190:  7.72 191:  6.62 192:  7.07
 193:  7.40 194:  8.00 195:  6.89 196:  7.51 197:  7.62 198: 12.34 199:  5.76 200:  5.34
 201:  4.20 202:  4.20 203:  4.54 204:  7.22 205:  4.04 206:  5.52 207:  6.55 208:  5.34
 209:  6.29 210:  9.92 211:  4.63 212:  4.04 213:  3.87 214:  1.41 215:  1.30 216:  2.83
 217:  1.36 218:  1.39 219:  6.79 220:  2.33 221:  2.51 222:  2.47 223:  2.78 224:  4.48
 225:  6.75 226:  6.89 227:  6.40 228: 16.61 229: 10.96 230:  5.55 231:  7.04 232: 12.06
 233:  5.81 234:  9.83 235:  8.85 236:  3.74 237:  3.59 238:  4.07 239:  4.49 240:  8.75
 241: 10.97 242:  8.96 243: 11.68 244: 11.69 245: 11.91 246: 10.98 247:  9.73 248:  7.61
 249: 10.21 250:  9.07 251: 10.23 252:  2.72 253:  3.10 254:  2.63 255:  3.74 256: 10.54
 257:  4.23 258: 10.64 259: 10.67 260:  8.27 261:  8.78 262:  9.18 263:  9.29 264:  8.78
 265:  5.26 266:  6.16 267:  1.74 268:  1.59 269: 10.49 270:  1.55 271:  4.47 272:  2.44
 273:  5.86 274:  2.39 275:  1.74 276:  6.79 277:  2.44 278:  1.90 279:  9.57 280:  9.60
 281:  2.10 282: 10.70 283: 10.80 284: 11.77 285: 11.73 286: 11.44 287: 11.58 288: 11.44
 289: 11.58 290: 11.57 291: 11.55 292: 11.49 293: 11.45 294: 11.48 295: 11.48 296: 11.41
 297: 11.41 298: 11.50 299: 11.86 300: 12.37 301: 13.25 302: 13.10 303:  3.16 304:  1.77
 305:  1.78 306:  1.88 307:  1.47 308:  1.56 309:  1.77 310:  1.66 311:  1.62 312:  1.93
 313:  1.89 314:  1.80 315:  1.77 316:  1.78 317:  1.66 318:  1.43 319:  1.65 320:  1.74
 321:  1.79 322:  1.75 323:  1.79 324:  1.78 325:  1.78 326:  1.76 327:  1.83 328:  1.76
 329:  1.82 330:  1.81 331:  1.80 332:  1.80 333:  1.80 334:  1.71 335:  1.84 336:  1.80
 337:  1.89 338:  1.86 339:  1.87 340:  1.89 341:  1.88 342:  1.88 343:  1.88 344:  1.90
 345:  1.89 346:  1.86 347:  1.86 348:  1.85 349:  1.87 350:  1.85 351:  1.84
 IR intensities (km·mol⁻¹)
   1:  0.02   2:  0.04   3:  0.03   4:  0.01   5:  0.06   6:  0.06   7:  0.44   8:  0.04
   9:  0.18  10:  2.49  11:  0.73  12:  1.01  13:  0.04  14:  0.13  15:  1.77  16:  1.84
  17:  0.52  18:  0.40  19:  2.37  20:  1.06  21:  0.82  22:  0.92  23:  9.07  24:  0.78
  25:  0.84  26:  0.42  27:  2.23  28:  0.30  29:  2.67  30:  1.51  31:  1.75  32:  0.61
  33: 16.62  34:  1.39  35:  0.47  36:  0.59  37:  3.39  38: 16.17  39:  0.52  40:  1.45
  41:  0.23  42:  3.15  43:  1.56  44:  0.47  45:  1.40  46:  4.11  47:  8.31  48:  1.68
  49:  3.48  50:  2.53  51:  0.36  52: 21.78  53:  9.26  54: 11.60  55:  4.09  56: 77.20
  57: 11.54  58:  5.98  59:  5.22  60:  2.83  61: 32.42  62: 16.46  63: 39.75  64:  5.83
  65:  2.10  66:  1.11  67:  4.40  68: 26.28  69:  1.27  70:  8.51  71: 24.95  72:  2.80
  73:  9.79  74:  1.60  75:  6.33  76: 18.64  77:  1.29  78:  1.76  79:  0.51  80:  0.23
  81:  0.13  82:  0.25  83:  0.43  84: 18.51  85:107.29  86:  5.69  87: 11.38  88: 11.49
  89: 66.21  90: 82.61  91: 18.95  92:  9.64  93: 11.15  94:  8.60  95: 72.87  96: 30.96
  97: 24.01  98: 58.84  99:  9.35 100:  2.14 101:  2.11 102: 14.96 103:  5.25 104:  3.42
 105: 32.15 106:  4.22 107: 12.38 108:  1.96 109:  0.33 110:  1.46 111:  2.42 112:  5.44
 113:  9.28 114: 78.20 115:  2.64 116:  8.88 117:  7.19 118: 27.76 119: 24.04 120:  0.89
 121:  1.92 122:  2.67 123: 29.91 124: 59.76 125: 42.80 126:  9.29 127:  9.59 128: 39.96
 129: 26.44 130:143.23 131:  2.49 132: 47.91 133: 10.87 134: 16.87 135: 25.41 136: 97.18
 137: 70.57 138: 15.05 139:  2.36 140: 15.31 141:161.89 142: 15.20 143:367.14 144:146.30
 145: 45.80 146:  1.56 147: 50.76 148:  8.21 149:  4.25 150:  2.19 151:  3.41 152:  4.08
 153:  0.83 154:  3.10 155:  1.43 156:  0.19 157: 11.63 158:  1.47 159: 10.76 160:  2.88
 161:  5.37 162:  7.16 163:475.13 164:  1.39 165: 17.61 166:  0.91 167:  0.62 168:  0.13
 169:  1.25 170:  3.09 171:  0.15 172:  4.14 173:  1.20 174: 15.00 175: 49.36 176: 77.40
 177: 59.21 178:  9.21 179: 16.63 180: 39.20 181:  2.41 182: 12.79 183: 45.44 184: 61.70
 185: 30.00 186: 27.56 187: 39.64 188: 51.68 189:245.90 190: 13.03 191:  7.21 192:  3.14
 193: 11.20 194:  4.45 195:  0.67 196:105.56 197:  8.87 198:194.95 199:123.20 200:100.18
 201:  6.01 202:  3.24 203: 78.10 204:145.21 205:  5.84 206:139.20 207: 19.21 208:  7.06
 209: 16.34 210: 91.36 211:  6.48 212:127.65 213: 30.10 214:  2.57 215:  1.04 216: 29.92
 217:  0.47 218:  1.12 219: 43.63 220: 29.63 221: 22.22 222:  3.70 223: 29.93 224:  1.93
 225:149.71 226:346.77 227:157.69 228:170.69 229: 66.93 230:  1.00 231:  0.45 232:243.05
 233: 36.85 234:  3.36 235:150.19 236:  2.38 237:  0.94 238:  1.83 239: 20.58 240:  2.79
 241:101.21 242:  2.16 243:  1.33 244:  0.18 245:  0.69 246:  0.34 247: 12.79 248: 11.22
 249: 14.81 250: 24.78 251:  5.99 252: 58.89 253: 14.15 254: 12.45 255:122.25 256: 30.43
 257:120.12 258:225.85 259: 47.27 260:296.51 261:  3.38 262:  0.75 263:  1.27 264:  0.06
 265:  6.67 266:  0.75 267:  5.66 268: 11.90 269: 51.87 270:  6.67 271: 19.07 272: 12.30
 273: 17.83 274:  1.27 275:  6.01 276: 40.69 277:  9.49 278:  0.14 279: 11.67 280:  7.82
 281:  2.96 282:  2.76 283:  0.22 284:  4.09 285:  0.26 286:  2.67 287: 26.19 288:  0.21
 289:  5.07 290:  7.24 291:  1.27 292: 33.33 293: 29.87 294:  1.36 295:  1.03 296:  0.51
 297:  0.86 298:329.91 299:419.20 300:670.53 301:437.80 302:329.77 303:****** 304: 56.15
 305: 41.22 306: 28.70 307: 22.74 308: 16.77 309:  1.38 310:  0.84 311: 44.96 312:  6.17
 313: 19.01 314: 34.29 315: 12.84 316: 16.92 317: 12.09 318:  2.64 319: 15.79 320:  5.35
 321: 25.80 322: 15.30 323: 11.50 324:  7.08 325:  4.64 326: 11.76 327: 48.32 328:  5.94
 329: 47.36 330: 19.77 331: 40.93 332: 40.09 333: 26.08 334:  7.49 335: 46.05 336: 34.85
 337:145.87 338:164.12 339:124.23 340: 74.30 341:114.45 342: 69.58 343: 54.94 344: 30.73
 345: 79.06 346: 17.83 347: 52.32 348: 31.40 349:  1.80 350: 16.91 351: 54.37
 Raman intensities (Ä⁴*amu⁻¹)
   1:  0.00   2:  0.00   3:  0.00   4:  0.00   5:  0.00   6:  0.00   7:  0.00   8:  0.00
   9:  0.00  10:  0.00  11:  0.00  12:  0.00  13:  0.00  14:  0.00  15:  0.00  16:  0.00
  17:  0.00  18:  0.00  19:  0.00  20:  0.00  21:  0.00  22:  0.00  23:  0.00  24:  0.00
  25:  0.00  26:  0.00  27:  0.00  28:  0.00  29:  0.00  30:  0.00  31:  0.00  32:  0.00
  33:  0.00  34:  0.00  35:  0.00  36:  0.00  37:  0.00  38:  0.00  39:  0.00  40:  0.00
  41:  0.00  42:  0.00  43:  0.00  44:  0.00  45:  0.00  46:  0.00  47:  0.00  48:  0.00
  49:  0.00  50:  0.00  51:  0.00  52:  0.00  53:  0.00  54:  0.00  55:  0.00  56:  0.00
  57:  0.00  58:  0.00  59:  0.00  60:  0.00  61:  0.00  62:  0.00  63:  0.00  64:  0.00
  65:  0.00  66:  0.00  67:  0.00  68:  0.00  69:  0.00  70:  0.00  71:  0.00  72:  0.00
  73:  0.00  74:  0.00  75:  0.00  76:  0.00  77:  0.00  78:  0.00  79:  0.00  80:  0.00
  81:  0.00  82:  0.00  83:  0.00  84:  0.00  85:  0.00  86:  0.00  87:  0.00  88:  0.00
Refinement of some symmetry elements was terminated before convergence was reached.
Some symmetry elements may remain unidentified.
Molecule has no symmetry elements
It seems to be the C1 point group
  89:  0.00  90:  0.00  91:  0.00  92:  0.00  93:  0.00  94:  0.00  95:  0.00  96:  0.00
  97:  0.00  98:  0.00  99:  0.00 100:  0.00 101:  0.00 102:  0.00 103:  0.00 104:  0.00
 105:  0.00 106:  0.00 107:  0.00 108:  0.00 109:  0.00 110:  0.00 111:  0.00 112:  0.00
 113:  0.00 114:  0.00 115:  0.00 116:  0.00 117:  0.00 118:  0.00 119:  0.00 120:  0.00
 121:  0.00 122:  0.00 123:  0.00 124:  0.00 125:  0.00 126:  0.00 127:  0.00 128:  0.00
 129:  0.00 130:  0.00 131:  0.00 132:  0.00 133:  0.00 134:  0.00 135:  0.00 136:  0.00
 137:  0.00 138:  0.00 139:  0.00 140:  0.00 141:  0.00 142:  0.00 143:  0.00 144:  0.00
 145:  0.00 146:  0.00 147:  0.00 148:  0.00 149:  0.00 150:  0.00 151:  0.00 152:  0.00
 153:  0.00 154:  0.00 155:  0.00 156:  0.00 157:  0.00 158:  0.00 159:  0.00 160:  0.00
 161:  0.00 162:  0.00 163:  0.00 164:  0.00 165:  0.00 166:  0.00 167:  0.00 168:  0.00
 169:  0.00 170:  0.00 171:  0.00 172:  0.00 173:  0.00 174:  0.00 175:  0.00 176:  0.00
 177:  0.00 178:  0.00 179:  0.00 180:  0.00 181:  0.00 182:  0.00 183:  0.00 184:  0.00
 185:  0.00 186:  0.00 187:  0.00 188:  0.00 189:  0.00 190:  0.00 191:  0.00 192:  0.00
 193:  0.00 194:  0.00 195:  0.00 196:  0.00 197:  0.00 198:  0.00 199:  0.00 200:  0.00
 201:  0.00 202:  0.00 203:  0.00 204:  0.00 205:  0.00 206:  0.00 207:  0.00 208:  0.00
 209:  0.00 210:  0.00 211:  0.00 212:  0.00 213:  0.00 214:  0.00 215:  0.00 216:  0.00
 217:  0.00 218:  0.00 219:  0.00 220:  0.00 221:  0.00 222:  0.00 223:  0.00 224:  0.00
 225:  0.00 226:  0.00 227:  0.00 228:  0.00 229:  0.00 230:  0.00 231:  0.00 232:  0.00
 233:  0.00 234:  0.00 235:  0.00 236:  0.00 237:  0.00 238:  0.00 239:  0.00 240:  0.00
 241:  0.00 242:  0.00 243:  0.00 244:  0.00 245:  0.00 246:  0.00 247:  0.00 248:  0.00
 249:  0.00 250:  0.00 251:  0.00 252:  0.00 253:  0.00 254:  0.00 255:  0.00 256:  0.00
 257:  0.00 258:  0.00 259:  0.00 260:  0.00 261:  0.00 262:  0.00 263:  0.00 264:  0.00
 265:  0.00 266:  0.00 267:  0.00 268:  0.00 269:  0.00 270:  0.00 271:  0.00 272:  0.00
 273:  0.00 274:  0.00 275:  0.00 276:  0.00 277:  0.00 278:  0.00 279:  0.00 280:  0.00
 281:  0.00 282:  0.00 283:  0.00 284:  0.00 285:  0.00 286:  0.00 287:  0.00 288:  0.00
 289:  0.00 290:  0.00 291:  0.00 292:  0.00 293:  0.00 294:  0.00 295:  0.00 296:  0.00
 297:  0.00 298:  0.00 299:  0.00 300:  0.00 301:  0.00 302:  0.00 303:  0.00 304:  0.00
 305:  0.00 306:  0.00 307:  0.00 308:  0.00 309:  0.00 310:  0.00 311:  0.00 312:  0.00
 313:  0.00 314:  0.00 315:  0.00 316:  0.00 317:  0.00 318:  0.00 319:  0.00 320:  0.00
 321:  0.00 322:  0.00 323:  0.00 324:  0.00 325:  0.00 326:  0.00 327:  0.00 328:  0.00
 329:  0.00 330:  0.00 331:  0.00 332:  0.00 333:  0.00 334:  0.00 335:  0.00 336:  0.00
 337:  0.00 338:  0.00 339:  0.00 340:  0.00 341:  0.00 342:  0.00 343:  0.00 344:  0.00
 345:  0.00 346:  0.00 347:  0.00 348:  0.00 349:  0.00 350:  0.00 351:  0.00
 output can be read by thermo (or use thermo option).
 writing <g98.out> molden fake output.
 recommended (thermochemical) frequency scaling factor: 1.0
           -------------------------------------------------
          |             Thermodynamic Functions             |
           -------------------------------------------------

c1  symmetry found (for desy threshold:  0.10E+00) used in thermo

          ...................................................
          :                      SETUP                      :
          :.................................................:
          :  # frequencies                         345      :
          :  # imaginary freq.                       0      :
          :  linear?                             false      :
          :  only rotor calc.                    false      :
          :  symmetry                               c1      :
          :  rotational number                       1      :
          :  scaling factor                  1.0000000      :
          :  rotor cutoff                   50.0000000 cm⁻¹ :
          :  imag. cutoff                  -20.0000000 cm⁻¹ :
          :.................................................:

    mode    ω/cm⁻¹     T·S(HO)/kcal·mol⁻¹    T·S(FR)/kcal·mol⁻¹   T·S(vib)
   ------------------------------------------------------------------------
       1      7.65    -2.54699 (  0.05%)    -1.61255 ( 99.95%)    -1.61307
       2      9.75    -2.40338 (  0.14%)    -1.54075 ( 99.86%)    -1.54199
       3     15.77    -2.11857 (  0.98%)    -1.39831 ( 99.02%)    -1.40537
       4     18.38    -2.02787 (  1.79%)    -1.35294 ( 98.21%)    -1.36505
       5     25.56    -1.83271 (  6.40%)    -1.25527 ( 93.60%)    -1.29221
       6     28.80    -1.76214 (  9.92%)    -1.21994 ( 90.08%)    -1.27372
       7     32.41    -1.69229 ( 15.01%)    -1.18495 ( 84.99%)    -1.26110
       8     35.27    -1.64241 ( 19.84%)    -1.15996 ( 80.16%)    -1.25567
       9     36.70    -1.61891 ( 22.49%)    -1.14818 ( 77.51%)    -1.25405
      10     41.24    -1.55002 ( 31.63%)    -1.11363 ( 68.37%)    -1.25166
      11     45.12    -1.49684 ( 39.88%)    -1.08695 ( 60.12%)    -1.25041
      12     48.98    -1.44851 ( 47.93%)    -1.06268 ( 52.07%)    -1.24761
      13     52.65    -1.40591 ( 55.14%)    -1.04127 ( 44.86%)    -1.24232
      14     56.47    -1.36461 ( 61.93%)    -1.02050 ( 38.07%)    -1.23362
      15     60.15    -1.32748 ( 67.68%)    -1.00182 ( 32.32%)    -1.22222
      16     62.68    -1.30320 ( 71.18%)    -0.98959 ( 28.82%)    -1.21282
      17     66.61    -1.26749 ( 75.90%)    -0.97159 ( 24.10%)    -1.19618
      18     67.33    -1.26114 ( 76.68%)    -0.96838 ( 23.32%)    -1.19287
      19     68.81    -1.24839 ( 78.20%)    -0.96195 ( 21.80%)    -1.18594
      20     74.24    -1.20385 ( 82.93%)    -0.93946 ( 17.07%)    -1.15873
      21     77.59    -1.17795 ( 85.29%)    -0.92636 ( 14.71%)    -1.14095
      22     79.96    -1.16039 ( 86.74%)    -0.91748 ( 13.26%)    -1.12817
      23     81.99    -1.14567 ( 87.85%)    -0.91003 ( 12.15%)    -1.11704
      24     82.41    -1.14269 ( 88.07%)    -0.90851 ( 11.93%)    -1.11474
      25     84.99    -1.12467 ( 89.30%)    -0.89938 ( 10.70%)    -1.10057
      26     95.63    -1.05588 ( 93.05%)    -0.86444 (  6.95%)    -1.04257
      27     98.34    -1.03966 ( 93.73%)    -0.85618 (  6.27%)    -1.02816
      28    100.34    -1.02793 ( 94.19%)    -0.85020 (  5.81%)    -1.01760
      29    100.91    -1.02465 ( 94.31%)    -0.84853 (  5.69%)    -1.01464
      30    103.51    -1.00988 ( 94.84%)    -0.84100 (  5.16%)    -1.00116
      31    107.42    -0.98838 ( 95.52%)    -0.83001 (  4.48%)    -0.98128
      32    113.49    -0.95658 ( 96.37%)    -0.81373 (  3.63%)    -0.95139
      33    124.82    -0.90171 ( 97.49%)    -0.78553 (  2.51%)    -0.89879
      34    130.87    -0.87452 ( 97.91%)    -0.77150 (  2.09%)    -0.87237
      35    140.42    -0.83425 ( 98.42%)    -0.75063 (  1.58%)    -0.83292
      36    143.76    -0.82086 ( 98.56%)    -0.74367 (  1.44%)    -0.81974
      37    144.32    -0.81865 ( 98.58%)    -0.74252 (  1.42%)    -0.81757
      38    149.48    -0.79869 ( 98.76%)    -0.73212 (  1.24%)    -0.79786
      39    151.90    -0.78958 ( 98.84%)    -0.72736 (  1.16%)    -0.78886
      40    158.19    -0.76665 ( 99.01%)    -0.71535 (  0.99%)    -0.76614
      41    162.21    -0.75249 ( 99.11%)    -0.70791 (  0.89%)    -0.75210
      42    166.51    -0.73779 ( 99.19%)    -0.70017 (  0.81%)    -0.73749
      43    175.45    -0.70847 ( 99.34%)    -0.68466 (  0.66%)    -0.70832
      44    177.04    -0.70347 ( 99.37%)    -0.68200 (  0.63%)    -0.70333
      45    185.28    -0.67815 ( 99.47%)    -0.66852 (  0.53%)    -0.67810
      46    192.63    -0.65663 ( 99.55%)    -0.65699 (  0.45%)    -0.65663
      47    207.47    -0.61594 ( 99.66%)    -0.63501 (  0.34%)    -0.61600
      48    209.52    -0.61056 ( 99.68%)    -0.63209 (  0.32%)    -0.61063
      49    213.10    -0.60136 ( 99.70%)    -0.62708 (  0.30%)    -0.60144
      50    236.88    -0.54447 ( 99.80%)    -0.59573 (  0.20%)    -0.54457
      51    244.41    -0.52788 ( 99.83%)    -0.58646 (  0.17%)    -0.52798
Note: The following floating-point exceptions are signalling: IEEE_DIVIDE_BY_ZERO IEEE_UNDERFLOW_FLAG IEEE_DENORMAL
normal termination of xtb
      52    251.80    -0.51220 ( 99.84%)    -0.57764 (  0.16%)    -0.51230
      53    256.82    -0.50187 ( 99.86%)    -0.57179 (  0.14%)    -0.50197
      54    268.62    -0.47855 ( 99.88%)    -0.55848 (  0.12%)    -0.47864
      55    277.71    -0.46146 ( 99.90%)    -0.54863 (  0.10%)    -0.46155
      56    286.51    -0.44557 ( 99.91%)    -0.53938 (  0.09%)    -0.44566
      57    289.32    -0.44065 ( 99.91%)    -0.53650 (  0.09%)    -0.44074
      58    296.03    -0.42910 ( 99.92%)    -0.52970 (  0.08%)    -0.42919
      59    299.56    -0.42318 ( 99.92%)    -0.52619 (  0.08%)    -0.42326
   ------------------------------------------------------------------------

   temp. (K)  partition function   enthalpy   heat capacity  entropy
                                   cal/mol     cal/K/mol   cal/K/mol   J/K/mol
 298.15  VIB  0.492E+31            38098.284    225.274    244.440
         ROT  0.147E+09              888.752      2.981     40.353
         INT  0.723E+39            38987.036    228.255    284.793
         TR   0.270E+29             1481.254      4.968     46.315
         TOT                       40468.2904   233.2231   331.1080  1385.3557

       T/K    H(0)-H(T)+PV         H(T)/Eh          T*S/Eh         G(T)/Eh
   ------------------------------------------------------------------------
    298.15    0.644903E-01    0.962749E+00    0.157320E+00    0.805429E+00
   ------------------------------------------------------------------------

         :::::::::::::::::::::::::::::::::::::::::::::::::::::
         ::                  THERMODYNAMIC                  ::
         :::::::::::::::::::::::::::::::::::::::::::::::::::::
         :: total free energy        -187.435495350843 Eh   ::
         ::.................................................::
         :: total energy             -188.240924006979 Eh   ::
         :: zero point energy           0.898258410088 Eh   ::
         :: G(RRHO) w/o ZPVE           -0.092829753952 Eh   ::
         :: G(RRHO) contrib.            0.805428656136 Eh   ::
         :::::::::::::::::::::::::::::::::::::::::::::::::::::

           -------------------------------------------------
          | TOTAL ENERGY             -188.240924006979 Eh   |
          | TOTAL ENTHALPY           -187.278175271229 Eh   |
          | TOTAL FREE ENERGY        -187.435495350843 Eh   |
          | GRADIENT NORM               0.000093929696 Eh/α |
          | HOMO-LUMO GAP               1.984156611264 eV   |
           -------------------------------------------------

------------------------------------------------------------------------
 * finished run on 2026/09/10 at 23:38:11.295     
------------------------------------------------------------------------
 total:
 * wall-time:     0 d,  0 h,  5 min, 32.840 sec
 *  cpu-time:     0 d,  0 h,  1 min, 16.266 sec
 * ratio c/w:     0.229 speedup
 SCF:
 * wall-time:     0 d,  0 h,  0 min,  0.320 sec
 *  cpu-time:     0 d,  0 h,  0 min,  0.031 sec
 * ratio c/w:     0.098 speedup
 analytical hessian:
 * wall-time:     0 d,  0 h,  5 min, 32.266 sec
 *  cpu-time:     0 d,  0 h,  1 min, 16.172 sec
 * ratio c/w:     0.229 speedup

