      -----------------------------------------------------------      
     |                   =====================                   |     
     |                           x T B                           |     
     |                   =====================                   |     
     |                         S. Grimme                         |     
     |          Mulliken Center for Theoretical Chemistry        |     
     |                    University of Bonn                     |     
      -----------------------------------------------------------      

   * xtb version 6.7.1 (edcfbbe) compiled by 'VssAdministrator@runnervm171ch' on 2026-06-10

   xtb is free software: you can redistribute it and/or modify it under
   the terms of the GNU Lesser General Public License as published by
   the Free Software Foundation, either version 3 of the License, or
   (at your option) any later version.
   
   xtb is distributed in the hope that it will be useful,
   but WITHOUT ANY WARRANTY; without even the implied warranty of
   MERCHANTABILITY or FITNESS FOR A PARTICULAR PURPOSE.  See the
   GNU Lesser General Public License for more details.
   
   Cite this work as:
   * C. Bannwarth, E. Caldeweyher, S. Ehlert, A. Hansen, P. Pracht,
     J. Seibert, S. Spicher, S. Grimme, WIREs Comput. Mol. Sci., 2020, 11,
     e01493. DOI: 10.1002/wcms.1493
   
   for GFN2-xTB:
   * C. Bannwarth, S. Ehlert and S. Grimme., J. Chem. Theory Comput., 2019,
     15, 1652-1671. DOI: 10.1021/acs.jctc.8b01176
   for GFN1-xTB:
   * S. Grimme, C. Bannwarth, P. Shushkov, J. Chem. Theory Comput., 2017,
     13, 1989-2009. DOI: 10.1021/acs.jctc.7b00118
   for GFN0-xTB:
   * P. Pracht, E. Caldeweyher, S. Ehlert, S. Grimme, ChemRxiv, 2019, preprint.
     DOI: 10.26434/chemrxiv.8326202.v1
   for GFN-FF:
   * S. Spicher and S. Grimme, Angew. Chem. Int. Ed., 2020, 59, 15665-15673.
     DOI: 10.1002/anie.202004239
   
   for ALPB and GBSA implicit solvation:
   * S. Ehlert, M. Stahn, S. Spicher, S. Grimme, J. Chem. Theory Comput.,
     2021, 17, 4250-4261. DOI: 10.1021/acs.jctc.1c00471
   
   for ddCOSMO and CPCM-X implicit solvation:
   * M. Stahn, S. Ehlert, S. Grimme, J. Phys. Chem. A,
     2023, XX, XXXX-XXXX. DOI: 10.1021/acs.jpca.3c04382
   
   for DFT-D4:
   * E. Caldeweyher, C. Bannwarth and S. Grimme, J. Chem. Phys., 2017,
     147, 034112. DOI: 10.1063/1.4993215
   * E. Caldeweyher, S. Ehlert, A. Hansen, H. Neugebauer, S. Spicher,
     C. Bannwarth and S. Grimme, J. Chem. Phys., 2019, 150, 154122.
     DOI: 10.1063/1.5090222
   * E. Caldeweyher, J.-M. Mewes, S. Ehlert and S. Grimme, Phys. Chem. Chem. Phys.
     2020, 22, 8499-8512. DOI: 10.1039/D0CP00502A
   
   for sTDA-xTB:
   * S. Grimme and C. Bannwarth, J. Chem. Phys., 2016, 145, 054103.
     DOI: 10.1063/1.4959605
   
   in the mass-spec context:
   * V. Asgeirsson, C. Bauer and S. Grimme, Chem. Sci., 2017, 8, 4879.
     DOI: 10.1039/c7sc00601b
   * J. Koopman and S. Grimme, ACS Omega 2019, 4, 12, 15120-15133.
     DOI: 10.1021/acsomega.9b02011
   
   for metadynamics refer to:
   * S. Grimme, J. Chem. Theory Comput., 2019, 155, 2847-2862
     DOI: 10.1021/acs.jctc.9b00143
   
   for SPH calculations refer to:
   * S. Spicher and S. Grimme, J. Chem. Theory Comput., 2021, 17, 1701-1714
     DOI: 10.1021/acs.jctc.0c01306
   
   for ONIOM refer to:
   * C. Plett, A. Katbashev, S. Ehlert, S. Grimme, M. Bursch,
     Phys. Chem. Chem. Phys., 2023, 25, 17860-17868. DOI: 10.1039/D3CP02178E
   
   for DIPRO refer to:
   * J. Kohn, N. Gildemeister, S. Grimme, D. Fazzi, A. Hansen,
     J. Chem. Phys., 2023, just accepted.
   
   for PTB refer to:
   * S. Grimme, M. Mueller, A. Hansen, J. Chem. Phys., 2023, 158, 124111.
     DOI: 10.1063/5.0137838
   
   with help from (in alphabetical order)
   P. Atkinson, C. Bannwarth, F. Bohle, G. Brandenburg, E. Caldeweyher
   M. Checinski, S. Dohm, S. Ehlert, S. Ehrlich, I. Gerasimov, C. Hölzer
   A. Katbashev, J. Kohn, J. Koopman, C. Lavigne, S. Lehtola, F. März, M. Müller,
   F. Musil, H. Neugebauer, J. Pisarek, C. Plett, P. Pracht, F. Pultar,
   J. Seibert, P. Shushkov, S. Spicher, M. Stahn, M. Steiner, T. Strunk,
   J. Stückrath, T. Rose, and J. Unsleber
   
 * started run on 2026/09/10 at 23:29:48.347     
   ID    Z sym.   atoms
    1    8 O      1, 3, 4, 17, 88, 90, 99, 100
    2   15 P      2
    3    6 C      5-16, 18-37, 59, 60, 62-73, 87, 89, 91-93, 95-98, 101, 102
    4    1 H      38-58, 74-86, 103-117
    5    7 N      61, 94

           -------------------------------------------------
          |                Calculation Setup                |
           -------------------------------------------------

          program call               : C:\Users\HUIWEI\miniconda3\envs\phase2ff\Library\bin\xtb.exe input.xyz --gfn 2 --chrg 0 --uhf 0 --alpb toluene --acc 0.2 --opt vtight
          coordinate file            : input.xyz
          omp threads                :                     1


molecular fragmentation (1/2 indicates fragments):
111111111111111111111111111111111111111111111111111111111122222222222222
222222222222222222222222222222222222222222222
# atoms in fragment 1/2:    58    59
 fragment masses (1/2) :      500.48      420.50
CMA distance (Bohr)    :  12.455
constraining FC (au)   :  0.0500

           -------------------------------------------------
          |                 G F N 2 - x T B                 |
           -------------------------------------------------

        Reference                      10.1021/acs.jctc.8b01176
      * Hamiltonian:
        H0-scaling (s, p, d)           1.850000    2.230000    2.230000
        zeta-weighting                 0.500000
      * Dispersion:
        s8                             2.700000
        a1                             0.520000
        a2                             5.000000
        s9                             5.000000
      * Repulsion:
        kExp                           1.500000    1.000000
        rExp                           1.000000
      * Coulomb:
        alpha                          2.000000
        third order                    shell-resolved
        anisotropic                    true
        a3                             3.000000
        a5                             4.000000
        cn-shift                       1.200000
        cn-exp                         4.000000
        max-rad                        5.000000

      * Solvation model:               ALPB
        Solvent                        toluene
        Parameter file                 internal GFN2-xTB/ALPB
        Dielectric constant                7.0000E+00
        Reference state                gsolv [1 M gas/solution]
        Free energy shift                  2.2081E-03 Eh       1.3856E+00 kcal/mol
        Temperature                        2.9815E+02 K
        Density                            8.6700E-01 kg/L
        Solvent mass                       7.8110E+01 g/mol
        Interaction kernel             P16
        Born radius scaling (c1)           1.7172E+00
        Born radii integrator          GBOBC
        Born offset                        0.0000E+00 a0       0.0000E+00 AA
        H-bond correction              false
        Ion screening                  false
        Surface tension                    1.0000E-05 Eh       1.5569E+01 dyn/cm
        Grid points                               230 per atom

          ...................................................
          :                      SETUP                      :
          :.................................................:
          :  # basis functions                 327          :
          :  # atomic orbitals                 326          :
          :  # shells                          186          :
          :  # electrons                       340          :
          :  max. iterations                   250          :
          :  Hamiltonian                  GFN2-xTB          :
          :  restarted?                      false          :
          :  GBSA solvation                   true          :
          :  PC potential                    false          :
          :  electronic temp.          300.0000000     K    :
          :  accuracy                    0.2000000          :
          :  -> integral cutoff          0.3198970E+02      :
          :  -> integral neglect         0.2000000E-08      :
          :  -> SCF convergence          0.2000000E-06 Eh   :
          :  -> wf. convergence          0.2000000E-04 e    :
          :  Broyden damping             0.4000000          :
          :  net charge                          0          :
          :  unpaired electrons                  0          :
          ...................................................

 iter      E             dE          RMSdq      gap      omega  full diag
   1   -190.5134435 -0.190513E+03  0.477E+00    1.84       0.0  T
   2   -190.7289733 -0.215530E+00  0.281E+00    1.62       1.0  T
   3   -190.6579723  0.710010E-01  0.144E+00    1.81       1.0  T
   4   -190.7729011 -0.114929E+00  0.526E-01    1.43       1.0  T
   5   -190.7906224 -0.177212E-01  0.215E-01    1.50       1.0  T
   6   -190.7922483 -0.162595E-02  0.118E-01    1.55       1.0  T
   7   -190.7935270 -0.127866E-02  0.532E-02    1.53       1.0  T
   8   -190.7936883 -0.161335E-03  0.284E-02    1.53       1.0  T
   9   -190.7937150 -0.267016E-04  0.121E-02    1.53       1.0  T
  10   -190.7937200 -0.503016E-05  0.553E-03    1.53       1.7  T
  11   -190.7937214 -0.138756E-05  0.221E-03    1.53       4.2  T
  12   -190.7937215 -0.628647E-07  0.110E-03    1.53       8.4  T
  13   -190.7937216 -0.780119E-07  0.436E-04    1.53      21.2  T
  14   -190.7937216 -0.872296E-08  0.135E-04    1.53      68.5  T
  15   -190.7937216 -0.113150E-08  0.695E-05    1.53     132.9  T

   *** convergence criteria satisfied after 15 iterations ***

         #    Occupation            Energy/Eh            Energy/eV
      -------------------------------------------------------------
         1        2.0000           -0.7417322             -20.1836
       ...           ...                  ...                  ...
       164        2.0000           -0.3894022             -10.5962
       165        2.0000           -0.3876366             -10.5481
       166        2.0000           -0.3863534             -10.5132
       167        2.0000           -0.3847543             -10.4697
       168        2.0000           -0.3729789             -10.1493
       169        2.0000           -0.3656315              -9.9493
       170        2.0000           -0.3428161              -9.3285 (HOMO)
       171                         -0.2865809              -7.7983 (LUMO)
       172                         -0.2686787              -7.3111
       173                         -0.2624353              -7.1412
       174                         -0.2586983              -7.0395
       175                         -0.2452606              -6.6739
       ...                                ...                  ...
       326                          1.2595932              34.2753
      -------------------------------------------------------------
                  HL-Gap            0.0562351 Eh            1.5302 eV
             Fermi-level           -0.3146985 Eh           -8.5634 eV

 SCC (total)                   0 d,  0 h,  0 min,  0.649 sec
 SCC setup                      ...        0 min,  0.007 sec (  1.018%)
 Dispersion                     ...        0 min,  0.004 sec (  0.625%)
 classical contributions        ...        0 min,  0.001 sec (  0.152%)
 integral evaluation            ...        0 min,  0.052 sec (  8.015%)
 iterations                     ...        0 min,  0.349 sec ( 53.822%)
 molecular gradient             ...        0 min,  0.233 sec ( 35.922%)
 printout                       ...        0 min,  0.003 sec (  0.438%)

         :::::::::::::::::::::::::::::::::::::::::::::::::::::
         ::                     SUMMARY                     ::
         :::::::::::::::::::::::::::::::::::::::::::::::::::::
         :: total energy            -187.982898802292 Eh    ::
         :: total w/o Gsasa/hb      -187.910095989053 Eh    ::
         :: gradient norm              0.223566623752 Eh/a0 ::
         :: HOMO-LUMO gap              1.530235970290 eV    ::
         ::.................................................::
         :: SCC energy              -190.785637705324 Eh    ::
         :: -> isotropic ES            0.237873809018 Eh    ::
         :: -> anisotropic ES         -0.002132527038 Eh    ::
         :: -> anisotropic XC          0.091964185165 Eh    ::
         :: -> dispersion             -0.188409991146 Eh    ::
         :: -> Gsolv                  -0.083132061549 Eh    ::
         ::    -> Gelec               -0.010329248310 Eh    ::
         ::    -> Gsasa               -0.075010956378 Eh    ::
         ::    -> Ghb                  0.000000000000 Eh    ::
         ::    -> Gshift               0.002208143139 Eh    ::
         :: repulsion energy           2.802738903032 Eh    ::
         :: add. restraining           0.000000000000 Eh    ::
         :: total charge               0.000000000000 e     ::
         :::::::::::::::::::::::::::::::::::::::::::::::::::::

      ----------------------------------------------------------- 
     |                   =====================                   |
     |                        A N C O P T                        |
     |                   =====================                   |
     |               Approximate Normal Coordinate               |
     |                Rational Function Optimizer                |
      ----------------------------------------------------------- 
      ----------------------------------------------------------- 
     |                   =====================                   |
     |                        A N C O P T                        |
     |                   =====================                   |
     |               Approximate Normal Coordinate               |
     |                Rational Function Optimizer                |
      ----------------------------------------------------------- 

          ...................................................
          :                      SETUP                      :
          :.................................................:
          :   optimization level         verytight          :
          :   max. optcycles                  2340          :
          :   ANC micro-cycles                  20          :
          :   degrees of freedom               345          :
          :.................................................:
          :   RF solver                   davidson          :
          :   write xtbopt.log                true          :
          :   linear?                        false          :
          :   energy convergence         0.1000000E-06 Eh   :
          :   grad. convergence          0.2000000E-03 Eh/α :
          :   maxmium RF displ.          1.0000000          :
          :   Hlow (freq-cutoff)         0.1000000E-01      :
          :   Hmax (freq-cutoff)         5.0000000          :
          :   S6 in model hess.         20.0000000          :
          ...................................................

generating ANC from exact Hessian ...
Using Lindh-Hessian (1995)
 Shifting diagonal of input Hessian by    9.8777182672412384E-003
 Lowest  eigenvalues of input Hessian
    0.000000    0.000000    0.000000    0.000000    0.000000    0.000000
    0.010000    0.010024    0.010163    0.010391    0.010420    0.010436
    0.010499    0.010547    0.010753    0.010820    0.010966    0.011049
 Highest eigenvalues
    2.079196    2.117258    2.199838    2.302201    2.307667    2.845449


........................................................................
.............................. CYCLE    1 ..............................
........................................................................

 iter      E             dE          RMSdq      gap      omega  full diag
   1   -190.7937216 -0.190794E+03  0.304E-05    1.53       0.0  T
   2   -190.7937216 -0.160583E-10  0.211E-05    1.53     437.2  T
   3   -190.7937216 -0.314628E-10  0.126E-05    1.53     733.4  T
     SCC iter.                  ...        0 min,  0.081 sec
     gradient                   ...        0 min,  0.239 sec
 * total energy  :  -187.9828988 Eh     change       -0.2345644E-09 Eh
   gradient norm :     0.2235672 Eh/α   predicted     0.0000000E+00 (-100.00%)
   displ. norm   :     0.7447806 α      lambda       -0.1269173E+00
   maximum displ.:     0.1582184 α      in ANC's #108, #91, #57, ...

........................................................................
.............................. CYCLE    2 ..............................
........................................................................

 iter      E             dE          RMSdq      gap      omega  full diag
   1   -190.9954604 -0.190995E+03  0.263E-01    1.65       0.0  T
   2   -190.9960284 -0.567975E-03  0.157E-01    1.65       1.0  T
   3   -190.9955535  0.474946E-03  0.956E-02    1.66       1.0  T
   4   -190.9963143 -0.760864E-03  0.230E-02    1.64       1.0  T
   5   -190.9963382 -0.238456E-04  0.104E-02    1.65       1.0  T
   6   -190.9963453 -0.712809E-05  0.358E-03    1.64       2.6  T
   7   -190.9963458 -0.485147E-06  0.141E-03    1.64       6.5  T
   8   -190.9963459 -0.106499E-06  0.615E-04    1.65      15.0  T
   9   -190.9963459 -0.104851E-07  0.357E-04    1.64      25.9  T
  10   -190.9963459 -0.992520E-08  0.151E-04    1.65      61.1  T
  11   -190.9963459 -0.118877E-08  0.572E-05    1.64     161.7  T
     SCC iter.                  ...        0 min,  0.217 sec
     gradient                   ...        0 min,  0.232 sec
 * total energy  :  -188.0760342 Eh     change       -0.9313539E-01 Eh
   gradient norm :     0.1080054 Eh/α   predicted    -0.9871876E-01 (   5.99%)
   displ. norm   :     0.6733356 α      lambda       -0.5305712E-01
   maximum displ.:     0.1829543 α      in ANC's #27, #31, #57, ...

........................................................................
.............................. CYCLE    3 ..............................
........................................................................

 iter      E             dE          RMSdq      gap      omega  full diag
   1   -191.0936841 -0.191094E+03  0.203E-01    1.76       0.0  T
   2   -191.0938651 -0.181017E-03  0.118E-01    1.77       1.0  T
   3   -191.0935408  0.324240E-03  0.660E-02    1.78       1.0  T
   4   -191.0939648 -0.423935E-03  0.131E-02    1.77       1.0  T
   5   -191.0939731 -0.829294E-05  0.561E-03    1.77       1.6  T
   6   -191.0939747 -0.160241E-05  0.231E-03    1.77       4.0  T
   7   -191.0939749 -0.256838E-06  0.871E-04    1.77      10.6  T
   8   -191.0939749 -0.323415E-07  0.470E-04    1.77      19.7  T
   9   -191.0939750 -0.101183E-07  0.234E-04    1.77      39.5  T
  10   -191.0939750 -0.389639E-08  0.932E-05    1.77      99.2  T
  11   -191.0939750 -0.329976E-09  0.382E-05    1.77     241.8  T
     SCC iter.                  ...        0 min,  0.266 sec
     gradient                   ...        0 min,  0.254 sec
 * total energy  :  -188.1178819 Eh     change       -0.4184767E-01 Eh
   gradient norm :     0.0524890 Eh/α   predicted    -0.3855611E-01 (  -7.87%)
   displ. norm   :     0.7324002 α      lambda       -0.3244190E-01
   maximum displ.:     0.2227711 α      in ANC's #27, #31, #24, ...

........................................................................
.............................. CYCLE    4 ..............................
........................................................................

 iter      E             dE          RMSdq      gap      omega  full diag
   1   -191.1262121 -0.191126E+03  0.184E-01    1.85       0.0  T
   2   -191.1263244 -0.112327E-03  0.106E-01    1.86       1.0  T
   3   -191.1260857  0.238640E-03  0.533E-02    1.87       1.0  T
   4   -191.1263769 -0.291133E-03  0.100E-02    1.86       1.0  T
   5   -191.1263825 -0.565157E-05  0.409E-03    1.86       2.3  T
   6   -191.1263831 -0.575311E-06  0.206E-03    1.86       4.5  T
   7   -191.1263834 -0.251858E-06  0.761E-04    1.86      12.1  T
   8   -191.1263834 -0.362582E-07  0.382E-04    1.86      24.2  T
   9   -191.1263834 -0.704185E-08  0.163E-04    1.86      56.6  T
  10   -191.1263834 -0.150817E-08  0.724E-05    1.86     127.6  T
     SCC iter.                  ...        0 min,  0.237 sec
     gradient                   ...        0 min,  0.249 sec
 * total energy  :  -188.1444861 Eh     change       -0.2660429E-01 Eh
   gradient norm :     0.0335148 Eh/α   predicted    -0.2492222E-01 (  -6.32%)
   displ. norm   :     0.7633354 α      lambda       -0.2180808E-01
   maximum displ.:     0.2518255 α      in ANC's #27, #31, #24, ...

........................................................................
.............................. CYCLE    5 ..............................
........................................................................

 iter      E             dE          RMSdq      gap      omega  full diag
   1   -191.1406512 -0.191141E+03  0.164E-01    1.90       0.0  T
   2   -191.1407146 -0.633848E-04  0.946E-02    1.91       1.0  T
   3   -191.1405397  0.174888E-03  0.446E-02    1.92       1.0  T
   4   -191.1407475 -0.207853E-03  0.740E-03    1.91       1.2  T
   5   -191.1407507 -0.319034E-05  0.323E-03    1.91       2.9  T
   6   -191.1407511 -0.388941E-06  0.173E-03    1.91       5.3  T
   7   -191.1407513 -0.184553E-06  0.704E-04    1.91      13.1  T
   8   -191.1407513 -0.331848E-07  0.325E-04    1.91      28.5  T
   9   -191.1407513 -0.432141E-08  0.129E-04    1.91      71.5  T
  10   -191.1407513 -0.852168E-09  0.618E-05    1.91     149.6  T
     SCC iter.                  ...        0 min,  0.232 sec
     gradient                   ...        0 min,  0.229 sec
 * total energy  :  -188.1628083 Eh     change       -0.1832220E-01 Eh
   gradient norm :     0.0259919 Eh/α   predicted    -0.1725762E-01 (  -5.81%)
   displ. norm   :     0.7841139 α      lambda       -0.1566261E-01
   maximum displ.:     0.2675920 α      in ANC's #27, #31, #24, ...

........................................................................
.............................. CYCLE    6 ..............................
........................................................................

 iter      E             dE          RMSdq      gap      omega  full diag
   1   -191.1515191 -0.191152E+03  0.143E-01    1.94       0.0  T
   2   -191.1515599 -0.407739E-04  0.835E-02    1.94       1.0  T
   3   -191.1514094  0.150483E-03  0.414E-02    1.95       1.0  T
   4   -191.1515875 -0.178070E-03  0.547E-03    1.94       1.7  T
   5   -191.1515890 -0.153217E-05  0.269E-03    1.94       3.4  T
   6   -191.1515894 -0.343273E-06  0.148E-03    1.94       6.2  T
   7   -191.1515895 -0.121264E-06  0.649E-04    1.94      14.3  T
   8   -191.1515895 -0.262471E-07  0.283E-04    1.94      32.7  T
   9   -191.1515895 -0.327498E-08  0.108E-04    1.94      86.0  T
  10   -191.1515895 -0.483624E-09  0.549E-05    1.94     168.3  T
     SCC iter.                  ...        0 min,  0.237 sec
     gradient                   ...        0 min,  0.236 sec
 * total energy  :  -188.1761711 Eh     change       -0.1336271E-01 Eh
   gradient norm :     0.0208847 Eh/α   predicted    -0.1264627E-01 (  -5.36%)
   displ. norm   :     0.7981168 α      lambda       -0.1170029E-01
   maximum displ.:     0.2685509 α      in ANC's #27, #24, #31, ...

........................................................................
.............................. CYCLE    7 ..............................
........................................................................

 iter      E             dE          RMSdq      gap      omega  full diag
   1   -191.1601081 -0.191160E+03  0.130E-01    1.97       0.0  T
   2   -191.1601356 -0.275618E-04  0.766E-02    1.96       1.0  T
   3   -191.1600129  0.122742E-03  0.367E-02    1.97       1.0  T
   4   -191.1601558 -0.142962E-03  0.446E-03    1.97       2.1  T
   5   -191.1601568 -0.985432E-06  0.234E-03    1.97       4.0  T
   6   -191.1601571 -0.272317E-06  0.132E-03    1.97       7.0  T
   7   -191.1601572 -0.846751E-07  0.583E-04    1.97      15.9  T
   8   -191.1601572 -0.213525E-07  0.242E-04    1.97      38.3  T
   9   -191.1601572 -0.248653E-08  0.928E-05    1.97      99.6  T
  10   -191.1601572 -0.275008E-09  0.484E-05    1.97     190.9  T
     SCC iter.                  ...        0 min,  0.212 sec
     gradient                   ...        0 min,  0.267 sec
 * total energy  :  -188.1862470 Eh     change       -0.1007591E-01 Eh
   gradient norm :     0.0165704 Eh/α   predicted    -0.9576632E-02 (  -4.96%)
   displ. norm   :     0.8057189 α      lambda       -0.8898864E-02
   maximum displ.:     0.2984046 α      in ANC's #24, #27, #31, ...

........................................................................
.............................. CYCLE    8 ..............................
........................................................................

 iter      E             dE          RMSdq      gap      omega  full diag
   1   -191.1661438 -0.191166E+03  0.128E-01    1.99       0.0  T
   2   -191.1661680 -0.241543E-04  0.755E-02    1.98       1.0  T
   3   -191.1660737  0.942698E-04  0.315E-02    1.99       1.0  T
   4   -191.1661816 -0.107889E-03  0.442E-03    1.98       2.1  T
   5   -191.1661828 -0.120533E-05  0.206E-03    1.99       4.5  T
   6   -191.1661830 -0.140544E-06  0.127E-03    1.99       7.3  T
   7   -191.1661831 -0.893098E-07  0.523E-04    1.99      17.7  T
   8   -191.1661831 -0.165778E-07  0.228E-04    1.99      40.6  T
   9   -191.1661831 -0.251040E-08  0.862E-05    1.99     107.3  T
  10   -191.1661831 -0.222855E-09  0.425E-05    1.99     217.5  T
     SCC iter.                  ...        0 min,  0.261 sec
     gradient                   ...        0 min,  0.286 sec
 * total energy  :  -188.1939313 Eh     change       -0.7684323E-02 Eh
   gradient norm :     0.0136718 Eh/α   predicted    -0.7337931E-02 (  -4.51%)
   displ. norm   :     0.8058988 α      lambda       -0.6767075E-02
   maximum displ.:     0.3254359 α      in ANC's #24, #27, #31, ...

........................................................................
.............................. CYCLE    9 ..............................
........................................................................

 iter      E             dE          RMSdq      gap      omega  full diag
   1   -191.1702434 -0.191170E+03  0.127E-01    2.00       0.0  T
   2   -191.1702578 -0.143765E-04  0.750E-02    2.00       1.0  T
   3   -191.1702044  0.533365E-04  0.229E-02    2.00       1.0  T
   4   -191.1702646 -0.601932E-04  0.400E-03    2.00       2.3  T
   5   -191.1702656 -0.101319E-05  0.181E-03    2.00       5.1  T
   6   -191.1702657 -0.689275E-07  0.113E-03    2.00       8.2  T
   7   -191.1702658 -0.753373E-07  0.441E-04    2.00      20.9  T
   8   -191.1702658 -0.117055E-07  0.201E-04    2.00      46.0  T
   9   -191.1702658 -0.235815E-08  0.765E-05    2.00     120.9  T
  10   -191.1702658 -0.138158E-09  0.364E-05    2.00     254.3  T
     SCC iter.                  ...        0 min,  0.258 sec
     gradient                   ...        0 min,  0.239 sec
 * total energy  :  -188.1997548 Eh     change       -0.5823492E-02 Eh
   gradient norm :     0.0107403 Eh/α   predicted    -0.5581059E-02 (  -4.16%)
   displ. norm   :     0.8000283 α      lambda       -0.5116868E-02
   maximum displ.:     0.3335361 α      in ANC's #24, #27, #31, ...

........................................................................
.............................. CYCLE   10 ..............................
........................................................................

 iter      E             dE          RMSdq      gap      omega  full diag
   1   -191.1711442 -0.191171E+03  0.127E-01    2.02       0.0  T
   2   -191.1711815 -0.372488E-04  0.749E-02    2.02       1.0  T
   3   -191.1711301  0.514350E-04  0.238E-02    2.02       1.0  T
   4   -191.1711872 -0.571825E-04  0.606E-03    2.02       1.5  T
   5   -191.1711908 -0.356029E-05  0.172E-03    2.02       5.4  T
   6   -191.1711909 -0.730813E-07  0.975E-04    2.02       9.5  T
   7   -191.1711909 -0.244098E-07  0.456E-04    2.02      20.3  T
   8   -191.1711909 -0.121272E-07  0.211E-04    2.02      43.8  T
   9   -191.1711909 -0.256679E-08  0.925E-05    2.02      99.9  T
  10   -191.1711909 -0.643325E-09  0.358E-05    2.02     258.5  T
     SCC iter.                  ...        0 min,  0.226 sec
     gradient                   ...        0 min,  0.288 sec
 * total energy  :  -188.2040756 Eh     change       -0.4320808E-02 Eh
   gradient norm :     0.0164453 Eh/α   predicted    -0.4195951E-02 (  -2.89%)
   displ. norm   :     0.7985567 α      lambda       -0.4210881E-02
   maximum displ.:     0.3656402 α      in ANC's #24, #11, #22, ...

........................................................................
.............................. CYCLE   11 ..............................
........................................................................

 iter      E             dE          RMSdq      gap      omega  full diag
   1   -191.1758928 -0.191176E+03  0.117E-01    2.02       0.0  T
   2   -191.1759617 -0.689695E-04  0.700E-02    2.01       1.0  T
   3   -191.1759366  0.251440E-04  0.195E-02    2.03       1.0  T
   4   -191.1759639 -0.273053E-04  0.748E-03    2.02       1.2  T
   5   -191.1759698 -0.585674E-05  0.214E-03    2.02       4.3  T
   6   -191.1759700 -0.277925E-06  0.992E-04    2.02       9.3  T
   7   -191.1759700 -0.204636E-09  0.545E-04    2.02      17.0  T
   8   -191.1759701 -0.255899E-07  0.207E-04    2.02      44.7  T
   9   -191.1759701 -0.166597E-08  0.930E-05    2.02      99.4  T
  10   -191.1759701 -0.505423E-09  0.401E-05    2.02     230.3  T
     SCC iter.                  ...        0 min,  0.289 sec
     gradient                   ...        0 min,  0.288 sec
 * total energy  :  -188.2071180 Eh     change       -0.3042418E-02 Eh
   gradient norm :     0.0240237 Eh/α   predicted    -0.3448068E-02 (  13.33%)
   displ. norm   :     0.7415036 α      lambda       -0.3534205E-02
   maximum displ.:     0.3063653 α      in ANC's #24, #11, #22, ...

........................................................................
.............................. CYCLE   12 ..............................
........................................................................

 iter      E             dE          RMSdq      gap      omega  full diag
   1   -191.1710423 -0.191171E+03  0.119E-01    2.05       0.0  T
   2   -191.1711689 -0.126602E-03  0.705E-02    2.07       1.0  T
   3   -191.1711155  0.534118E-04  0.314E-02    2.05       1.0  T
   4   -191.1711804 -0.649263E-04  0.107E-02    2.05       1.0  T
   5   -191.1711918 -0.114263E-04  0.240E-03    2.05       3.9  T
   6   -191.1711921 -0.303343E-06  0.122E-03    2.05       7.6  T
   7   -191.1711921 -0.977448E-08  0.626E-04    2.05      14.8  T
   8   -191.1711921 -0.179627E-07  0.318E-04    2.05      29.1  T
   9   -191.1711921 -0.574224E-08  0.125E-04    2.05      74.0  T
  10   -191.1711921 -0.124183E-08  0.486E-05    2.05     190.1  T
     SCC iter.                  ...        0 min,  0.290 sec
     gradient                   ...        0 min,  0.315 sec
 * total energy  :  -188.2096918 Eh     change       -0.2573743E-02 Eh
   gradient norm :     0.0168402 Eh/α   predicted    -0.2738706E-02 (   6.41%)
   displ. norm   :     0.7016849 α      lambda       -0.2223516E-02
   maximum displ.:     0.3180529 α      in ANC's #24, #11, #5, ...

........................................................................
.............................. CYCLE   13 ..............................
........................................................................

 iter      E             dE          RMSdq      gap      omega  full diag
   1   -191.1744044 -0.191174E+03  0.914E-02    2.05       0.0  T
   2   -191.1744227 -0.183451E-04  0.541E-02    2.05       1.0  T
   3   -191.1743974  0.252992E-04  0.160E-02    2.05       1.0  T
   4   -191.1744255 -0.280846E-04  0.456E-03    2.06       2.0  T
   5   -191.1744276 -0.210764E-05  0.133E-03    2.05       7.0  T
   6   -191.1744277 -0.803951E-07  0.645E-04    2.05      14.3  T
   7   -191.1744277 -0.237532E-08  0.281E-04    2.05      32.9  T
   8   -191.1744277 -0.540015E-08  0.108E-04    2.05      85.3  T
   9   -191.1744277 -0.167176E-09  0.570E-05    2.05     162.1  T
     SCC iter.                  ...        0 min,  0.253 sec
     gradient                   ...        0 min,  0.291 sec
 * total energy  :  -188.2114996 Eh     change       -0.1807812E-02 Eh
   gradient norm :     0.0195963 Eh/α   predicted    -0.1659149E-02 (  -8.22%)
   displ. norm   :     0.7393182 α      lambda       -0.2155669E-02
   maximum displ.:     0.3202323 α      in ANC's #24, #5, #11, ...

........................................................................
.............................. CYCLE   14 ..............................
........................................................................

 iter      E             dE          RMSdq      gap      omega  full diag
   1   -191.1758331 -0.191176E+03  0.907E-02    2.06       0.0  T
   2   -191.1758671 -0.340197E-04  0.535E-02    2.07       1.0  T
   3   -191.1758546  0.124697E-04  0.141E-02    2.07       1.0  T
   4   -191.1758686 -0.139695E-04  0.507E-03    2.07       1.8  T
   5   -191.1758712 -0.266738E-05  0.160E-03    2.07       5.8  T
   6   -191.1758714 -0.129699E-06  0.778E-04    2.07      11.9  T
   7   -191.1758714 -0.818710E-08  0.389E-04    2.07      23.8  T
   8   -191.1758714 -0.960728E-08  0.161E-04    2.07      57.2  T
   9   -191.1758714 -0.107968E-08  0.808E-05    2.07     114.4  T
     SCC iter.                  ...        0 min,  0.219 sec
     gradient                   ...        0 min,  0.281 sec
 * total energy  :  -188.2131353 Eh     change       -0.1635720E-02 Eh
   gradient norm :     0.0106198 Eh/α   predicted    -0.1666976E-02 (   1.91%)
   displ. norm   :     0.7070677 α      lambda       -0.1660511E-02
   maximum displ.:     0.2911349 α      in ANC's #24, #5, #23, ...

........................................................................
.............................. CYCLE   15 ..............................
........................................................................

 iter      E             dE          RMSdq      gap      omega  full diag
   1   -191.1782867 -0.191178E+03  0.880E-02    2.07       0.0  T
   2   -191.1782950 -0.829230E-05  0.520E-02    2.07       1.0  T
   3   -191.1782736  0.214314E-04  0.142E-02    2.07       1.0  T
   4   -191.1782980 -0.244738E-04  0.292E-03    2.07       3.2  T
   5   -191.1782986 -0.609329E-06  0.130E-03    2.07       7.1  T
   6   -191.1782987 -0.460404E-07  0.706E-04    2.07      13.1  T
   7   -191.1782987 -0.128305E-07  0.272E-04    2.07      33.9  T
   8   -191.1782987 -0.404222E-08  0.125E-04    2.07      73.7  T
   9   -191.1782987 -0.736975E-09  0.607E-05    2.07     152.3  T
     SCC iter.                  ...        0 min,  0.228 sec
     gradient                   ...        0 min,  0.275 sec
 * total energy  :  -188.2144611 Eh     change       -0.1325839E-02 Eh
   gradient norm :     0.0092117 Eh/α   predicted    -0.1245339E-02 (  -6.07%)
   displ. norm   :     0.7170381 α      lambda       -0.1536185E-02
   maximum displ.:     0.2889824 α      in ANC's #5, #24, #23, ...

........................................................................
.............................. CYCLE   16 ..............................
........................................................................

 iter      E             dE          RMSdq      gap      omega  full diag
   1   -191.1834177 -0.191183E+03  0.965E-02    2.07       0.0  T
   2   -191.1834447 -0.269664E-04  0.567E-02    2.07       1.0  T
   3   -191.1834068  0.378665E-04  0.210E-02    2.07       1.0  T
   4   -191.1834497 -0.429030E-04  0.544E-03    2.07       1.7  T
   5   -191.1834525 -0.283168E-05  0.149E-03    2.07       6.2  T
   6   -191.1834526 -0.694447E-07  0.799E-04    2.07      11.6  T
   7   -191.1834526 -0.443040E-08  0.358E-04    2.07      25.9  T
   8   -191.1834526 -0.945553E-08  0.118E-04    2.07      78.3  T
   9   -191.1834526 -0.384830E-09  0.597E-05    2.07     154.8  T
     SCC iter.                  ...        0 min,  0.238 sec
     gradient                   ...        0 min,  0.274 sec
 * total energy  :  -188.2155366 Eh     change       -0.1075436E-02 Eh
   gradient norm :     0.0129854 Eh/α   predicted    -0.1163018E-02 (   8.14%)
   displ. norm   :     0.6754087 α      lambda       -0.1307207E-02
   maximum displ.:     0.2915351 α      in ANC's #5, #24, #23, ...

........................................................................
.............................. CYCLE   17 ..............................
........................................................................

 iter      E             dE          RMSdq      gap      omega  full diag
   1   -191.1761536 -0.191176E+03  0.893E-02    2.08       0.0  T
   2   -191.1761690 -0.153834E-04  0.523E-02    2.09       1.0  T
   3   -191.1761490  0.200289E-04  0.153E-02    2.08       1.0  T
   4   -191.1761722 -0.232374E-04  0.383E-03    2.08       2.4  T
   5   -191.1761734 -0.116097E-05  0.142E-03    2.08       6.5  T
   6   -191.1761734 -0.311451E-07  0.784E-04    2.08      11.8  T
   7   -191.1761734 -0.146088E-07  0.319E-04    2.08      29.0  T
   8   -191.1761734 -0.542764E-08  0.137E-04    2.08      67.7  T
   9   -191.1761734 -0.802714E-09  0.665E-05    2.08     139.1  T
     SCC iter.                  ...        0 min,  0.209 sec
     gradient                   ...        0 min,  0.279 sec
 * total energy  :  -188.2165454 Eh     change       -0.1008877E-02 Eh
   gradient norm :     0.0100740 Eh/α   predicted    -0.9517676E-03 (  -5.66%)
   displ. norm   :     0.6369641 α      lambda       -0.1181083E-02
   maximum displ.:     0.3123707 α      in ANC's #5, #23, #24, ...

........................................................................
.............................. CYCLE   18 ..............................
........................................................................

 iter      E             dE          RMSdq      gap      omega  full diag
   1   -191.1808331 -0.191181E+03  0.904E-02    2.09       0.0  T
   2   -191.1808732 -0.401499E-04  0.527E-02    2.09       1.0  T
   3   -191.1808405  0.327039E-04  0.230E-02    2.10       1.0  T
   4   -191.1808788 -0.382533E-04  0.648E-03    2.10       1.4  T
   5   -191.1808825 -0.370962E-05  0.178E-03    2.10       5.2  T
   6   -191.1808826 -0.820317E-07  0.103E-03    2.10       9.0  T
   7   -191.1808826 -0.868627E-08  0.437E-04    2.10      21.2  T
   8   -191.1808826 -0.112726E-07  0.174E-04    2.10      53.1  T
   9   -191.1808826 -0.159045E-08  0.727E-05    2.10     127.1  T
     SCC iter.                  ...        0 min,  0.215 sec
     gradient                   ...        0 min,  0.256 sec
 * total energy  :  -188.2174284 Eh     change       -0.8829834E-03 Eh
   gradient norm :     0.0122735 Eh/α   predicted    -0.8301386E-03 (  -5.98%)
   displ. norm   :     0.6464772 α      lambda       -0.1078872E-02
   maximum displ.:     0.3419037 α      in ANC's #5, #23, #3, ...

........................................................................
.............................. CYCLE   19 ..............................
........................................................................

 iter      E             dE          RMSdq      gap      omega  full diag
   1   -191.1786509 -0.191179E+03  0.975E-02    2.10       0.0  T
   2   -191.1786787 -0.278088E-04  0.574E-02    2.11       1.0  T
   3   -191.1786148  0.639129E-04  0.287E-02    2.11       1.0  T
   4   -191.1786922 -0.774208E-04  0.491E-03    2.11       1.9  T
   5   -191.1786937 -0.152021E-05  0.178E-03    2.11       5.2  T
   6   -191.1786938 -0.458488E-07  0.935E-04    2.11       9.9  T
   7   -191.1786938 -0.903310E-08  0.449E-04    2.11      20.6  T
   8   -191.1786938 -0.108512E-07  0.196E-04    2.11      47.1  T
   9   -191.1786938 -0.262287E-08  0.726E-05    2.11     127.3  T
     SCC iter.                  ...        0 min,  0.200 sec
     gradient                   ...        0 min,  0.266 sec
 * total energy  :  -188.2182796 Eh     change       -0.8511513E-03 Eh
   gradient norm :     0.0158736 Eh/α   predicted    -0.7648906E-03 ( -10.13%)
   displ. norm   :     0.5622268 α      lambda       -0.1104648E-02
   maximum displ.:     0.3097602 α      in ANC's #5, #23, #3, ...

........................................................................
.............................. CYCLE   20 ..............................
........................................................................

 iter      E             dE          RMSdq      gap      omega  full diag
   1   -191.1796431 -0.191180E+03  0.914E-02    2.12       0.0  T
   2   -191.1796661 -0.229354E-04  0.540E-02    2.13       1.0  T
   3   -191.1796111  0.549600E-04  0.256E-02    2.13       1.0  T
   4   -191.1796764 -0.652718E-04  0.440E-03    2.12       2.1  T
   5   -191.1796777 -0.130953E-05  0.178E-03    2.13       5.2  T
   6   -191.1796777 -0.411309E-07  0.968E-04    2.13       9.5  T
   7   -191.1796778 -0.133526E-07  0.402E-04    2.13      23.0  T
   8   -191.1796778 -0.107746E-07  0.173E-04    2.13      53.4  T
   9   -191.1796778 -0.171192E-08  0.720E-05    2.13     128.4  T
     SCC iter.                  ...        0 min,  0.222 sec
     gradient                   ...        0 min,  0.232 sec
 * total energy  :  -188.2190781 Eh     change       -0.7984803E-03 Eh
   gradient norm :     0.0164980 Eh/α   predicted    -0.7269174E-03 (  -8.96%)
   displ. norm   :     0.5272593 α      lambda       -0.9150386E-03
   maximum displ.:     0.2936848 α      in ANC's #5, #1, #2, ...
 * RMSD in coord.:     1.0689954 α      energy gain  -0.2361793E+00 Eh

generating ANC from exact Hessian ...
Using Lindh-Hessian (1995)
 Shifting diagonal of input Hessian by    1.0044309449279082E-002
 Lowest  eigenvalues of input Hessian
    0.010000    0.000000    0.000000    0.000000    0.000000    0.000000
    0.000000    0.010090    0.010118    0.010156    0.010230    0.010274
    0.010296    0.010462    0.010520    0.010590    0.010661    0.010732
 Highest eigenvalues
    2.159541    2.178006    2.295303    2.321728    2.339408    3.118260


........................................................................
.............................. CYCLE   21 ..............................
........................................................................

 iter      E             dE          RMSdq      gap      omega  full diag
   1   -191.1800305 -0.191180E+03  0.861E-02    2.13       0.0  T
   2   -191.1800426 -0.121314E-04  0.511E-02    2.13       1.0  T
   3   -191.1799868  0.557658E-04  0.252E-02    2.14       1.0  T
   4   -191.1800525 -0.656661E-04  0.334E-03    2.13       2.8  T
   5   -191.1800530 -0.483338E-06  0.157E-03    2.13       5.9  T
   6   -191.1800530 -0.375887E-07  0.809E-04    2.13      11.4  T
   7   -191.1800530 -0.206688E-08  0.448E-04    2.13      20.6  T
   8   -191.1800530 -0.169044E-07  0.154E-04    2.13      60.1  T
   9   -191.1800530 -0.129373E-08  0.660E-05    2.13     140.1  T
     SCC iter.                  ...        0 min,  0.246 sec
     gradient                   ...        0 min,  0.303 sec
 * total energy  :  -188.2197170 Eh     change       -0.6389298E-03 Eh
   gradient norm :     0.0136380 Eh/α   predicted     0.0000000E+00 (-100.00%)
   displ. norm   :     0.1213667 α      lambda       -0.4458843E-03
   maximum displ.:     0.0541488 α      in ANC's #12, #10, #2, ...

........................................................................
.............................. CYCLE   22 ..............................
........................................................................

 iter      E             dE          RMSdq      gap      omega  full diag
   1   -191.1835341 -0.191184E+03  0.264E-02    2.13       0.0  T
   2   -191.1835371 -0.300275E-05  0.160E-02    2.13       1.0  T
   3   -191.1835326  0.449462E-05  0.733E-03    2.13       1.3  T
   4   -191.1835381 -0.542700E-05  0.176E-03    2.13       5.2  T
   5   -191.1835383 -0.236489E-06  0.539E-04    2.13      17.2  T
   6   -191.1835383 -0.582989E-08  0.264E-04    2.13      35.1  T
   7   -191.1835383 -0.771990E-09  0.135E-04    2.13      68.4  T
   8   -191.1835383 -0.911342E-09  0.633E-05    2.13     146.0  T
     SCC iter.                  ...        0 min,  0.211 sec
     gradient                   ...        0 min,  0.268 sec
 * total energy  :  -188.2200444 Eh     change       -0.3274458E-03 Eh
   gradient norm :     0.0051725 Eh/α   predicted    -0.2262292E-03 ( -30.91%)
   displ. norm   :     0.2643809 α      lambda       -0.4611006E-03
   maximum displ.:     0.1294787 α      in ANC's #12, #10, #2, ...

........................................................................
.............................. CYCLE   23 ..............................
........................................................................

 iter      E             dE          RMSdq      gap      omega  full diag
   1   -191.1864674 -0.191186E+03  0.422E-02    2.12       0.0  T
   2   -191.1864708 -0.340261E-05  0.249E-02    2.12       1.0  T
   3   -191.1864647  0.612146E-05  0.794E-03    2.12       1.2  T
   4   -191.1864718 -0.712492E-05  0.198E-03    2.12       4.7  T
   5   -191.1864721 -0.276743E-06  0.777E-04    2.12      11.9  T
   6   -191.1864721 -0.127503E-07  0.397E-04    2.12      23.3  T
   7   -191.1864721 -0.394402E-08  0.207E-04    2.12      44.8  T
   8   -191.1864721 -0.273448E-08  0.883E-05    2.12     104.7  T
   9   -191.1864721 -0.357886E-09  0.383E-05    2.12     241.3  T
     SCC iter.                  ...        0 min,  0.230 sec
     gradient                   ...        0 min,  0.293 sec
 * total energy  :  -188.2203788 Eh     change       -0.3343387E-03 Eh
   gradient norm :     0.0069533 Eh/α   predicted    -0.2466982E-03 ( -26.21%)
   displ. norm   :     0.3493478 α      lambda       -0.3954674E-03
   maximum displ.:     0.1718637 α      in ANC's #10, #12, #2, ...

........................................................................
.............................. CYCLE   24 ..............................
........................................................................

 iter      E             dE          RMSdq      gap      omega  full diag
   1   -191.1863087 -0.191186E+03  0.524E-02    2.12       0.0  T
   2   -191.1863114 -0.269247E-05  0.307E-02    2.12       1.0  T
   3   -191.1863057  0.571037E-05  0.783E-03    2.12       1.2  T
   4   -191.1863124 -0.666591E-05  0.170E-03    2.12       5.4  T
   5   -191.1863125 -0.176392E-06  0.820E-04    2.12      11.3  T
   6   -191.1863126 -0.108047E-07  0.464E-04    2.12      19.9  T
   7   -191.1863126 -0.753354E-08  0.170E-04    2.12      54.4  T
   8   -191.1863126 -0.233962E-08  0.754E-05    2.12     122.6  T
     SCC iter.                  ...        0 min,  0.181 sec
     gradient                   ...        0 min,  0.241 sec
 * total energy  :  -188.2207138 Eh     change       -0.3349852E-03 Eh
   gradient norm :     0.0088515 Eh/α   predicted    -0.2218663E-03 ( -33.77%)
   displ. norm   :     0.5261306 α      lambda       -0.5575689E-03
   maximum displ.:     0.2608378 α      in ANC's #10, #12, #2, ...

........................................................................
.............................. CYCLE   25 ..............................
........................................................................

 iter      E             dE          RMSdq      gap      omega  full diag
   1   -191.1838970 -0.191184E+03  0.757E-02    2.11       0.0  T
   2   -191.1839039 -0.696249E-05  0.447E-02    2.11       1.0  T
   3   -191.1838765  0.274424E-04  0.170E-02    2.11       1.0  T
   4   -191.1839082 -0.316920E-04  0.253E-03    2.11       3.7  T
   5   -191.1839085 -0.354616E-06  0.117E-03    2.11       7.9  T
   6   -191.1839085 -0.149068E-07  0.608E-04    2.11      15.2  T
   7   -191.1839085 -0.438635E-08  0.281E-04    2.11      32.9  T
   8   -191.1839085 -0.622887E-08  0.107E-04    2.11      86.4  T
   9   -191.1839085 -0.730836E-09  0.517E-05    2.11     178.8  T
     SCC iter.                  ...        0 min,  0.190 sec
     gradient                   ...        0 min,  0.315 sec
 * total energy  :  -188.2211986 Eh     change       -0.4848313E-03 Eh
   gradient norm :     0.0089280 Eh/α   predicted    -0.3559579E-03 ( -26.58%)
   displ. norm   :     0.6257401 α      lambda       -0.6449129E-03
   maximum displ.:     0.3160033 α      in ANC's #10, #12, #2, ...

........................................................................
.............................. CYCLE   26 ..............................
........................................................................

 iter      E             dE          RMSdq      gap      omega  full diag
   1   -191.1806420 -0.191181E+03  0.868E-02    2.09       0.0  T
   2   -191.1806520 -0.994638E-05  0.515E-02    2.10       1.0  T
   3   -191.1806014  0.505436E-04  0.232E-02    2.09       1.0  T
   4   -191.1806600 -0.586208E-04  0.291E-03    2.09       3.2  T
   5   -191.1806605 -0.463040E-06  0.126E-03    2.09       7.3  T
   6   -191.1806605 -0.172314E-07  0.620E-04    2.09      14.9  T
   7   -191.1806605 -0.210093E-08  0.329E-04    2.09      28.1  T
   8   -191.1806605 -0.691597E-08  0.127E-04    2.09      72.8  T
   9   -191.1806605 -0.131550E-08  0.530E-05    2.09     174.4  T
     SCC iter.                  ...        0 min,  0.253 sec
     gradient                   ...        0 min,  0.262 sec
 * total energy  :  -188.2217503 Eh     change       -0.5516992E-03 Eh
   gradient norm :     0.0098811 Eh/α   predicted    -0.4487218E-03 ( -18.67%)
   displ. norm   :     0.6294532 α      lambda       -0.6654316E-03
   maximum displ.:     0.3252509 α      in ANC's #10, #12, #2, ...

........................................................................
.............................. CYCLE   27 ..............................
........................................................................

 iter      E             dE          RMSdq      gap      omega  full diag
   1   -191.1794542 -0.191179E+03  0.830E-02    2.08       0.0  T
   2   -191.1794604 -0.618407E-05  0.491E-02    2.08       1.0  T
   3   -191.1794155  0.448778E-04  0.217E-02    2.08       1.0  T
   4   -191.1794670 -0.514624E-04  0.222E-03    2.08       4.2  T
   5   -191.1794672 -0.183758E-06  0.107E-03    2.08       8.7  T
   6   -191.1794672 -0.207577E-07  0.543E-04    2.08      17.0  T
   7   -191.1794672 -0.362152E-08  0.305E-04    2.08      30.3  T
   8   -191.1794672 -0.576333E-08  0.124E-04    2.08      74.5  T
   9   -191.1794672 -0.128051E-08  0.475E-05    2.08     194.6  T
     SCC iter.                  ...        0 min,  0.219 sec
     gradient                   ...        0 min,  0.215 sec
 * total energy  :  -188.2223140 Eh     change       -0.5637090E-03 Eh
   gradient norm :     0.0093995 Eh/α   predicted    -0.4645744E-03 ( -17.59%)
   displ. norm   :     0.6414891 α      lambda       -0.6618400E-03
   maximum displ.:     0.3353131 α      in ANC's #10, #12, #2, ...

........................................................................
.............................. CYCLE   28 ..............................
........................................................................

 iter      E             dE          RMSdq      gap      omega  full diag
   1   -191.1806084 -0.191181E+03  0.824E-02    2.07       0.0  T
   2   -191.1806137 -0.529119E-05  0.484E-02    2.07       1.0  T
   3   -191.1805746  0.391312E-04  0.201E-02    2.07       1.0  T
   4   -191.1806193 -0.446761E-04  0.208E-03    2.07       4.4  T
   5   -191.1806194 -0.147703E-06  0.104E-03    2.07       8.9  T
   6   -191.1806194 -0.130327E-07  0.589E-04    2.07      15.7  T
   7   -191.1806195 -0.170834E-07  0.281E-04    2.07      32.9  T
   8   -191.1806195 -0.341527E-08  0.140E-04    2.07      66.0  T
   9   -191.1806195 -0.153526E-08  0.481E-05    2.07     192.2  T
     SCC iter.                  ...        0 min,  0.181 sec
     gradient                   ...        0 min,  0.205 sec
 * total energy  :  -188.2228685 Eh     change       -0.5544948E-03 Eh
   gradient norm :     0.0085200 Eh/α   predicted    -0.4670967E-03 ( -15.76%)
   displ. norm   :     0.6781919 α      lambda       -0.6070507E-03
   maximum displ.:     0.3548148 α      in ANC's #10, #12, #2, ...

........................................................................
.............................. CYCLE   29 ..............................
........................................................................

 iter      E             dE          RMSdq      gap      omega  full diag
   1   -191.1814675 -0.191181E+03  0.846E-02    2.06       0.0  T
   2   -191.1814725 -0.495060E-05  0.497E-02    2.06       1.0  T
   3   -191.1814389  0.336037E-04  0.182E-02    2.06       1.0  T
   4   -191.1814770 -0.381493E-04  0.209E-03    2.06       4.4  T
   5   -191.1814772 -0.174261E-06  0.106E-03    2.06       8.7  T
   6   -191.1814772 -0.110691E-07  0.630E-04    2.06      14.7  T
   7   -191.1814772 -0.237257E-07  0.267E-04    2.06      34.6  T
   8   -191.1814772 -0.376974E-08  0.128E-04    2.06      72.2  T
   9   -191.1814772 -0.103037E-08  0.468E-05    2.06     197.5  T
     SCC iter.                  ...        0 min,  0.180 sec
     gradient                   ...        0 min,  0.213 sec
 * total energy  :  -188.2233893 Eh     change       -0.5208599E-03 Eh
   gradient norm :     0.0079930 Eh/α   predicted    -0.4431314E-03 ( -14.92%)
   displ. norm   :     0.6925700 α      lambda       -0.5956261E-03
   maximum displ.:     0.3615673 α      in ANC's #10, #12, #2, ...

........................................................................
.............................. CYCLE   30 ..............................
........................................................................

 iter      E             dE          RMSdq      gap      omega  full diag
   1   -191.1840538 -0.191184E+03  0.841E-02    2.06       0.0  T
   2   -191.1840575 -0.371021E-05  0.494E-02    2.05       1.0  T
   3   -191.1840362  0.213281E-04  0.143E-02    2.05       1.0  T
   4   -191.1840603 -0.241534E-04  0.197E-03    2.05       4.7  T
   5   -191.1840605 -0.186932E-06  0.102E-03    2.05       9.0  T
   6   -191.1840605 -0.120692E-07  0.604E-04    2.05      15.3  T
   7   -191.1840606 -0.227996E-07  0.224E-04    2.05      41.3  T
   8   -191.1840606 -0.321884E-08  0.107E-04    2.05      86.2  T
   9   -191.1840606 -0.569486E-09  0.425E-05    2.05     217.6  T
     SCC iter.                  ...        0 min,  0.180 sec
     gradient                   ...        0 min,  0.204 sec
 * total energy  :  -188.2239005 Eh     change       -0.5111085E-03 Eh
   gradient norm :     0.0067718 Eh/α   predicted    -0.4406607E-03 ( -13.78%)
   displ. norm   :     0.7400990 α      lambda       -0.5720557E-03
   maximum displ.:     0.3810823 α      in ANC's #10, #12, #2, ...

........................................................................
.............................. CYCLE   31 ..............................
........................................................................

 iter      E             dE          RMSdq      gap      omega  full diag
   1   -191.1823959 -0.191182E+03  0.899E-02    2.05       0.0  T
   2   -191.1824020 -0.604331E-05  0.530E-02    2.05       1.0  T
   3   -191.1823749  0.271058E-04  0.162E-02    2.05       1.0  T
   4   -191.1824057 -0.307931E-04  0.233E-03    2.05       4.0  T
   5   -191.1824060 -0.309410E-06  0.109E-03    2.05       8.5  T
   6   -191.1824060 -0.123001E-07  0.610E-04    2.05      15.1  T
   7   -191.1824060 -0.146416E-07  0.298E-04    2.05      31.1  T
   8   -191.1824060 -0.707300E-08  0.102E-04    2.05      90.3  T
   9   -191.1824060 -0.478934E-09  0.458E-05    2.05     201.8  T
     SCC iter.                  ...        0 min,  0.191 sec
     gradient                   ...        0 min,  0.232 sec
 * total energy  :  -188.2243877 Eh     change       -0.4872660E-03 Eh
   gradient norm :     0.0079778 Eh/α   predicted    -0.4427051E-03 (  -9.15%)
   displ. norm   :     0.6732222 α      lambda       -0.6514438E-03
   maximum displ.:     0.3249200 α      in ANC's #10, #2, #12, ...

........................................................................
.............................. CYCLE   32 ..............................
........................................................................

 iter      E             dE          RMSdq      gap      omega  full diag
   1   -191.1939477 -0.191194E+03  0.865E-02    2.05       0.0  T
   2   -191.1939649 -0.171526E-04  0.513E-02    2.03       1.0  T
   3   -191.1939288  0.361221E-04  0.187E-02    2.04       1.0  T
   4   -191.1939701 -0.413665E-04  0.406E-03    2.04       2.3  T
   5   -191.1939716 -0.146690E-05  0.114E-03    2.04       8.1  T
   6   -191.1939716 -0.241585E-07  0.569E-04    2.04      16.2  T
   7   -191.1939716 -0.303197E-08  0.328E-04    2.04      28.2  T
   8   -191.1939716 -0.786474E-08  0.136E-04    2.04      67.8  T
   9   -191.1939716 -0.742119E-09  0.620E-05    2.04     149.2  T
     SCC iter.                  ...        0 min,  0.194 sec
     gradient                   ...        0 min,  0.245 sec
 * total energy  :  -188.2247537 Eh     change       -0.3660144E-03 Eh
   gradient norm :     0.0129242 Eh/α   predicted    -0.4733492E-03 (  29.33%)
   displ. norm   :     0.6730055 α      lambda       -0.5816102E-03
   maximum displ.:     0.3375694 α      in ANC's #10, #2, #12, ...

........................................................................
.............................. CYCLE   33 ..............................
........................................................................

 iter      E             dE          RMSdq      gap      omega  full diag
   1   -191.1820808 -0.191182E+03  0.849E-02    2.03       0.0  T
   2   -191.1820991 -0.182977E-04  0.507E-02    2.04       1.0  T
   3   -191.1820535  0.456002E-04  0.224E-02    2.04       1.0  T
   4   -191.1821072 -0.537178E-04  0.389E-03    2.04       2.4  T
   5   -191.1821084 -0.118127E-05  0.121E-03    2.04       7.7  T
   6   -191.1821084 -0.219415E-07  0.652E-04    2.04      14.2  T
   7   -191.1821084  0.224446E-09  0.326E-04    2.04      28.4  T
   8   -191.1821084 -0.746931E-08  0.133E-04    2.04      69.4  T
   9   -191.1821084 -0.116711E-08  0.570E-05    2.04     162.1  T
     SCC iter.                  ...        0 min,  0.216 sec
     gradient                   ...        0 min,  0.275 sec
 * total energy  :  -188.2251624 Eh     change       -0.4086195E-03 Eh
   gradient norm :     0.0085689 Eh/α   predicted    -0.4225272E-03 (   3.40%)
   displ. norm   :     0.5026576 α      lambda       -0.3439307E-03
   maximum displ.:     0.2411088 α      in ANC's #10, #2, #12, ...

........................................................................
.............................. CYCLE   34 ..............................
........................................................................

 iter      E             dE          RMSdq      gap      omega  full diag
   1   -191.1809127 -0.191181E+03  0.611E-02    2.04       0.0  T
   2   -191.1809173 -0.463094E-05  0.363E-02    2.04       1.0  T
   3   -191.1808992  0.181025E-04  0.135E-02    2.04       1.0  T
   4   -191.1809199 -0.206626E-04  0.196E-03    2.04       4.7  T
   5   -191.1809202 -0.267799E-06  0.736E-04    2.04      12.6  T
   6   -191.1809202 -0.115879E-07  0.405E-04    2.04      22.8  T
   7   -191.1809202 -0.208567E-08  0.176E-04    2.04      52.5  T
   8   -191.1809202 -0.164215E-08  0.702E-05    2.04     131.7  T
     SCC iter.                  ...        0 min,  0.213 sec
     gradient                   ...        0 min,  0.263 sec
 * total energy  :  -188.2254489 Eh     change       -0.2865494E-03 Eh
   gradient norm :     0.0099514 Eh/α   predicted    -0.2154176E-03 ( -24.82%)
   displ. norm   :     0.5413845 α      lambda       -0.5439808E-03
   maximum displ.:     0.2619641 α      in ANC's #2, #10, #17, ...

........................................................................
.............................. CYCLE   35 ..............................
........................................................................

 iter      E             dE          RMSdq      gap      omega  full diag
   1   -191.1846579 -0.191185E+03  0.699E-02    2.03       0.0  T
   2   -191.1846626 -0.466078E-05  0.415E-02    2.03       1.0  T
   3   -191.1846478  0.147269E-04  0.121E-02    2.03       1.0  T
   4   -191.1846644 -0.165275E-04  0.256E-03    2.03       3.6  T
   5   -191.1846650 -0.664198E-06  0.956E-04    2.03       9.7  T
   6   -191.1846651 -0.186591E-07  0.584E-04    2.03      15.8  T
   7   -191.1846651 -0.810638E-08  0.276E-04    2.03      33.5  T
   8   -191.1846651 -0.606192E-08  0.108E-04    2.03      85.2  T
   9   -191.1846651 -0.437467E-09  0.568E-05    2.03     162.8  T
     SCC iter.                  ...        0 min,  0.223 sec
     gradient                   ...        0 min,  0.258 sec
 * total energy  :  -188.2258770 Eh     change       -0.4281089E-03 Eh
   gradient norm :     0.0067483 Eh/α   predicted    -0.3517128E-03 ( -17.85%)
   displ. norm   :     0.6435050 α      lambda       -0.4981527E-03
   maximum displ.:     0.3084461 α      in ANC's #2, #10, #17, ...

........................................................................
.............................. CYCLE   36 ..............................
........................................................................

 iter      E             dE          RMSdq      gap      omega  full diag
   1   -191.1876043 -0.191188E+03  0.901E-02    2.03       0.0  T
   2   -191.1876099 -0.552705E-05  0.532E-02    2.03       1.0  T
   3   -191.1875853  0.246032E-04  0.152E-02    2.03       1.0  T
   4   -191.1876129 -0.276339E-04  0.244E-03    2.03       3.8  T
   5   -191.1876134 -0.480615E-06  0.105E-03    2.03       8.8  T
   6   -191.1876134 -0.263124E-07  0.615E-04    2.03      15.0  T
   7   -191.1876134 -0.110919E-07  0.270E-04    2.03      34.2  T
   8   -191.1876134 -0.499392E-08  0.115E-04    2.03      80.2  T
   9   -191.1876134 -0.776254E-09  0.526E-05    2.03     175.8  T
     SCC iter.                  ...        0 min,  0.219 sec
     gradient                   ...        0 min,  0.213 sec
 * total energy  :  -188.2262882 Eh     change       -0.4111768E-03 Eh
   gradient norm :     0.0087870 Eh/α   predicted    -0.3522217E-03 ( -14.34%)
   displ. norm   :     0.6526307 α      lambda       -0.5640421E-03
   maximum displ.:     0.3028688 α      in ANC's #2, #17, #4, ...

........................................................................
.............................. CYCLE   37 ..............................
........................................................................

 iter      E             dE          RMSdq      gap      omega  full diag
   1   -191.1908812 -0.191191E+03  0.930E-02    2.04       0.0  T
   2   -191.1908860 -0.480079E-05  0.548E-02    2.03       1.0  T
   3   -191.1908579  0.281027E-04  0.157E-02    2.04       1.0  T
   4   -191.1908895 -0.316290E-04  0.222E-03    2.03       4.2  T
   5   -191.1908898 -0.304568E-06  0.120E-03    2.03       7.7  T
   6   -191.1908899 -0.394417E-07  0.632E-04    2.03      14.6  T
   7   -191.1908899 -0.123237E-07  0.270E-04    2.03      34.2  T
   8   -191.1908899 -0.599516E-08  0.113E-04    2.03      81.9  T
   9   -191.1908899 -0.648328E-09  0.517E-05    2.03     178.8  T
     SCC iter.                  ...        0 min,  0.193 sec
     gradient                   ...        0 min,  0.264 sec
 * total energy  :  -188.2267667 Eh     change       -0.4784886E-03 Eh
   gradient norm :     0.0095935 Eh/α   predicted    -0.4021553E-03 ( -15.95%)
   displ. norm   :     0.6956025 α      lambda       -0.6790729E-03
   maximum displ.:     0.3097253 α      in ANC's #2, #4, #17, ...

........................................................................
.............................. CYCLE   38 ..............................
........................................................................

 iter      E             dE          RMSdq      gap      omega  full diag
   1   -191.1914793 -0.191191E+03  0.102E-01    2.05       0.0  T
   2   -191.1914851 -0.580976E-05  0.601E-02    2.05       1.0  T
   3   -191.1914509  0.341835E-04  0.171E-02    2.05       1.0  T
   4   -191.1914895 -0.385782E-04  0.222E-03    2.05       4.2  T
   5   -191.1914897 -0.219710E-06  0.135E-03    2.05       6.9  T
   6   -191.1914898 -0.786456E-07  0.635E-04    2.05      14.6  T
   7   -191.1914898 -0.113216E-07  0.273E-04    2.05      33.9  T
   8   -191.1914898 -0.575659E-08  0.120E-04    2.05      77.4  T
   9   -191.1914898 -0.795836E-09  0.513E-05    2.05     180.2  T
     SCC iter.                  ...        0 min,  0.214 sec
     gradient                   ...        0 min,  0.268 sec
 * total energy  :  -188.2273562 Eh     change       -0.5895258E-03 Eh
   gradient norm :     0.0095432 Eh/α   predicted    -0.5038282E-03 ( -14.54%)
   displ. norm   :     0.7185928 α      lambda       -0.8333711E-03
   maximum displ.:     0.2945957 α      in ANC's #2, #4, #17, ...

........................................................................
.............................. CYCLE   39 ..............................
........................................................................

 iter      E             dE          RMSdq      gap      omega  full diag
   1   -191.1895690 -0.191190E+03  0.108E-01    2.07       0.0  T
   2   -191.1895804 -0.114282E-04  0.638E-02    2.07       1.0  T
   3   -191.1895394  0.410293E-04  0.192E-02    2.07       1.0  T
   4   -191.1895859 -0.465583E-04  0.332E-03    2.07       2.8  T
   5   -191.1895868 -0.821443E-06  0.160E-03    2.07       5.8  T
   6   -191.1895868 -0.701469E-07  0.868E-04    2.07      10.7  T
   7   -191.1895869 -0.309832E-07  0.337E-04    2.07      27.5  T
   8   -191.1895869 -0.852464E-08  0.142E-04    2.07      65.0  T
   9   -191.1895869 -0.103290E-08  0.667E-05    2.07     138.7  T
     SCC iter.                  ...        0 min,  0.250 sec
     gradient                   ...        0 min,  0.282 sec
 * total energy  :  -188.2280206 Eh     change       -0.6644182E-03 Eh
   gradient norm :     0.0095680 Eh/α   predicted    -0.6318540E-03 (  -4.90%)
   displ. norm   :     0.6738109 α      lambda       -0.7790996E-03
   maximum displ.:     0.2967672 α      in ANC's #4, #2, #14, ...

........................................................................
.............................. CYCLE   40 ..............................
........................................................................

 iter      E             dE          RMSdq      gap      omega  full diag
   1   -191.1936030 -0.191194E+03  0.100E-01    2.09       0.0  T
   2   -191.1936131 -0.100760E-04  0.591E-02    2.09       1.0  T
   3   -191.1935863  0.268351E-04  0.154E-02    2.10       1.0  T
   4   -191.1936163 -0.300522E-04  0.372E-03    2.10       2.5  T
   5   -191.1936178 -0.152453E-05  0.156E-03    2.10       5.9  T
   6   -191.1936179 -0.776560E-07  0.896E-04    2.10      10.3  T
   7   -191.1936179 -0.313132E-07  0.332E-04    2.10      27.9  T
   8   -191.1936179 -0.841430E-08  0.139E-04    2.10      66.5  T
   9   -191.1936180 -0.104851E-08  0.616E-05    2.10     150.0  T
     SCC iter.                  ...        0 min,  0.213 sec
     gradient                   ...        0 min,  0.254 sec
 * total energy  :  -188.2285223 Eh     change       -0.5016473E-03 Eh
   gradient norm :     0.0115277 Eh/α   predicted    -0.5664155E-03 (  12.91%)
   displ. norm   :     0.7906687 α      lambda       -0.8917346E-03
   maximum displ.:     0.3498859 α      in ANC's #2, #4, #10, ...

........................................................................
.............................. CYCLE   41 ..............................
........................................................................

 iter      E             dE          RMSdq      gap      omega  full diag
   1   -191.1715985 -0.191172E+03  0.121E-01    2.10       0.0  T
   2   -191.1716114 -0.129498E-04  0.711E-02    2.10       1.0  T
   3   -191.1715863  0.251188E-04  0.151E-02    2.11       1.0  T
   4   -191.1716147 -0.284357E-04  0.374E-03    2.11       2.5  T
   5   -191.1716160 -0.123472E-05  0.164E-03    2.10       5.7  T
   6   -191.1716160 -0.519688E-07  0.943E-04    2.10       9.8  T
   7   -191.1716161 -0.449375E-07  0.303E-04    2.10      30.5  T
   8   -191.1716161 -0.692901E-08  0.134E-04    2.10      68.8  T
   9   -191.1716161 -0.984699E-09  0.611E-05    2.10     151.4  T
     SCC iter.                  ...        0 min,  0.219 sec
     gradient                   ...        0 min,  0.262 sec
 * total energy  :  -188.2287453 Eh     change       -0.2229931E-03 Eh
   gradient norm :     0.0192868 Eh/α   predicted    -0.7246033E-03 ( 224.94%)
   displ. norm   :     0.2451441 α      lambda       -0.9072631E-03
   maximum displ.:     0.0956883 α      in ANC's #8, #12, #4, ...

........................................................................
.............................. CYCLE   42 ..............................
........................................................................

 iter      E             dE          RMSdq      gap      omega  full diag
   1   -191.1862670 -0.191186E+03  0.428E-02    2.11       0.0  T
   2   -191.1862847 -0.177151E-04  0.246E-02    2.10       1.0  T
   3   -191.1862832  0.150671E-05  0.903E-03    2.10       1.0  T
   4   -191.1862853 -0.205849E-05  0.310E-03    2.10       3.0  T
   5   -191.1862863 -0.102902E-05  0.128E-03    2.10       7.2  T
   6   -191.1862865 -0.147647E-06  0.526E-04    2.10      17.6  T
   7   -191.1862865  0.142137E-09  0.267E-04    2.10      34.7  T
   8   -191.1862865 -0.659838E-08  0.783E-05    2.10     118.1  T
   9   -191.1862865 -0.273985E-09  0.393E-05    2.10     235.4  T
     SCC iter.                  ...        0 min,  0.212 sec
     gradient                   ...        0 min,  0.235 sec
 * total energy  :  -188.2291997 Eh     change       -0.4543888E-03 Eh
   gradient norm :     0.0139620 Eh/α   predicted    -0.4808962E-03 (   5.83%)
   displ. norm   :     0.3706135 α      lambda       -0.8370842E-03
   maximum displ.:     0.1715188 α      in ANC's #4, #2, #3, ...
 * RMSD in coord.:     0.9567494 α      energy gain  -0.1012160E-01 Eh

generating ANC from exact Hessian ...
Using Lindh-Hessian (1995)
 Shifting diagonal of input Hessian by    1.0039882572697783E-002
 Lowest  eigenvalues of input Hessian
    0.010000    0.000000    0.000000    0.000000    0.000000    0.000000
    0.000000    0.010087    0.010121    0.010155    0.010203    0.010233
    0.010338    0.010497    0.010502    0.010532    0.010631    0.010780
 Highest eigenvalues
    2.152987    2.221484    2.307469    2.315775    2.340110    3.134078


........................................................................
.............................. CYCLE   43 ..............................
........................................................................

 iter      E             dE          RMSdq      gap      omega  full diag
   1   -191.1948637 -0.191195E+03  0.558E-02    2.11       0.0  T
   2   -191.1948831 -0.193361E-04  0.331E-02    2.11       1.0  T
   3   -191.1948721  0.109774E-04  0.137E-02    2.11       1.0  T
   4   -191.1948858 -0.137382E-04  0.432E-03    2.11       2.1  T
   5   -191.1948876 -0.176941E-05  0.131E-03    2.11       7.1  T
   6   -191.1948877 -0.719281E-07  0.655E-04    2.11      14.1  T
   7   -191.1948877 -0.402537E-09  0.376E-04    2.11      24.6  T
   8   -191.1948877 -0.128917E-07  0.106E-04    2.11      87.4  T
   9   -191.1948877 -0.611010E-09  0.482E-05    2.11     191.9  T
     SCC iter.                  ...        0 min,  0.226 sec
     gradient                   ...        0 min,  0.282 sec
 * total energy  :  -188.2294334 Eh     change       -0.2337673E-03 Eh
   gradient norm :     0.0149078 Eh/α   predicted     0.0000000E+00 (-100.00%)
   displ. norm   :     0.0970638 α      lambda       -0.4533305E-03
   maximum displ.:     0.0367805 α      in ANC's #8, #4, #20, ...

........................................................................
.............................. CYCLE   44 ..............................
........................................................................

 iter      E             dE          RMSdq      gap      omega  full diag
   1   -191.1931919 -0.191193E+03  0.248E-02    2.10       0.0  T
   2   -191.1931951 -0.315271E-05  0.148E-02    2.10       1.0  T
   3   -191.1931927  0.239831E-05  0.585E-03    2.10       1.6  T
   4   -191.1931957 -0.306121E-05  0.164E-03    2.10       5.6  T
   5   -191.1931959 -0.232015E-06  0.508E-04    2.10      18.2  T
   6   -191.1931960 -0.490328E-08  0.266E-04    2.10      34.7  T
   7   -191.1931960 -0.998426E-09  0.107E-04    2.10      86.2  T
   8   -191.1931960 -0.810843E-09  0.377E-05    2.10     245.1  T
     SCC iter.                  ...        0 min,  0.181 sec
     gradient                   ...        0 min,  0.241 sec
 * total energy  :  -188.2297405 Eh     change       -0.3070577E-03 Eh
   gradient norm :     0.0042986 Eh/α   predicted    -0.2288021E-03 ( -25.49%)
   displ. norm   :     0.1622664 α      lambda       -0.2257690E-03
   maximum displ.:     0.0677897 α      in ANC's #8, #4, #20, ...

........................................................................
.............................. CYCLE   45 ..............................
........................................................................

 iter      E             dE          RMSdq      gap      omega  full diag
   1   -191.1922013 -0.191192E+03  0.279E-02    2.10       0.0  T
   2   -191.1922028 -0.150413E-05  0.164E-02    2.09       1.0  T
   3   -191.1922005  0.225158E-05  0.480E-03    2.10       1.9  T
   4   -191.1922032 -0.267041E-05  0.111E-03    2.10       8.4  T
   5   -191.1922033 -0.104728E-06  0.399E-04    2.10      23.1  T
   6   -191.1922033 -0.292573E-08  0.222E-04    2.10      41.7  T
   7   -191.1922033 -0.122915E-08  0.854E-05    2.10     108.3  T
   8   -191.1922033 -0.463814E-09  0.334E-05    2.10     276.8  T
     SCC iter.                  ...        0 min,  0.185 sec
     gradient                   ...        0 min,  0.276 sec
 * total energy  :  -188.2299097 Eh     change       -0.1691721E-03 Eh
   gradient norm :     0.0044534 Eh/α   predicted    -0.1158750E-03 ( -31.50%)
   displ. norm   :     0.2985743 α      lambda       -0.2756977E-03
   maximum displ.:     0.1250444 α      in ANC's #8, #4, #20, ...

........................................................................
.............................. CYCLE   46 ..............................
........................................................................

 iter      E             dE          RMSdq      gap      omega  full diag
   1   -191.1910306 -0.191191E+03  0.481E-02    2.08       0.0  T
   2   -191.1910328 -0.214670E-05  0.282E-02    2.08       1.0  T
   3   -191.1910271  0.569846E-05  0.698E-03    2.09       1.3  T
   4   -191.1910337 -0.662280E-05  0.124E-03    2.08       7.5  T
   5   -191.1910338 -0.124209E-06  0.549E-04    2.08      16.8  T
   6   -191.1910338 -0.903560E-08  0.312E-04    2.08      29.6  T
   7   -191.1910338 -0.312011E-08  0.109E-04    2.08      85.1  T
   8   -191.1910338 -0.726629E-09  0.481E-05    2.08     192.4  T
     SCC iter.                  ...        0 min,  0.179 sec
     gradient                   ...        0 min,  0.224 sec
 * total energy  :  -188.2301317 Eh     change       -0.2220274E-03 Eh
   gradient norm :     0.0087347 Eh/α   predicted    -0.1501646E-03 ( -32.37%)
   displ. norm   :     0.4665360 α      lambda       -0.3878335E-03
   maximum displ.:     0.1962561 α      in ANC's #8, #4, #20, ...

........................................................................
.............................. CYCLE   47 ..............................
........................................................................

 iter      E             dE          RMSdq      gap      omega  full diag
   1   -191.1893736 -0.191189E+03  0.726E-02    2.07       0.0  T
   2   -191.1893772 -0.360627E-05  0.426E-02    2.07       1.0  T
   3   -191.1893630  0.141530E-04  0.107E-02    2.07       1.0  T
   4   -191.1893794 -0.163197E-04  0.154E-03    2.07       6.0  T
   5   -191.1893795 -0.160229E-06  0.796E-04    2.07      11.6  T
   6   -191.1893795 -0.243748E-07  0.417E-04    2.07      22.2  T
   7   -191.1893795 -0.470925E-08  0.144E-04    2.07      64.2  T
   8   -191.1893795 -0.153884E-08  0.626E-05    2.07     147.6  T
     SCC iter.                  ...        0 min,  0.171 sec
     gradient                   ...        0 min,  0.249 sec
 * total energy  :  -188.2304489 Eh     change       -0.3172315E-03 Eh
   gradient norm :     0.0105563 Eh/α   predicted    -0.2362981E-03 ( -25.51%)
   displ. norm   :     0.5261108 α      lambda       -0.4409667E-03
   maximum displ.:     0.2279345 α      in ANC's #8, #4, #20, ...

........................................................................
.............................. CYCLE   48 ..............................
........................................................................

 iter      E             dE          RMSdq      gap      omega  full diag
   1   -191.1885968 -0.191189E+03  0.785E-02    2.06       0.0  T
   2   -191.1886013 -0.448745E-05  0.461E-02    2.06       1.0  T
   3   -191.1885805  0.207623E-04  0.130E-02    2.06       1.0  T
   4   -191.1886043 -0.238027E-04  0.177E-03    2.06       5.2  T
   5   -191.1886045 -0.213162E-06  0.885E-04    2.06      10.4  T
   6   -191.1886046 -0.238354E-07  0.435E-04    2.06      21.3  T
   7   -191.1886046 -0.504428E-08  0.181E-04    2.06      51.1  T
   8   -191.1886046 -0.272433E-08  0.679E-05    2.06     136.2  T
     SCC iter.                  ...        0 min,  0.196 sec
     gradient                   ...        0 min,  0.243 sec
 * total energy  :  -188.2308089 Eh     change       -0.3599762E-03 Eh
   gradient norm :     0.0084235 Eh/α   predicted    -0.2815124E-03 ( -21.80%)
   displ. norm   :     0.5276220 α      lambda       -0.4397687E-03
   maximum displ.:     0.2382251 α      in ANC's #8, #4, #12, ...

........................................................................
.............................. CYCLE   49 ..............................
........................................................................

 iter      E             dE          RMSdq      gap      omega  full diag
   1   -191.1901328 -0.191190E+03  0.737E-02    2.05       0.0  T
   2   -191.1901378 -0.496545E-05  0.434E-02    2.05       1.0  T
   3   -191.1901145  0.232762E-04  0.140E-02    2.05       1.0  T
   4   -191.1901412 -0.266841E-04  0.194E-03    2.05       4.8  T
   5   -191.1901415 -0.290634E-06  0.862E-04    2.05      10.7  T
   6   -191.1901415 -0.145599E-07  0.443E-04    2.05      20.9  T
   7   -191.1901415 -0.663957E-08  0.199E-04    2.05      46.5  T
   8   -191.1901415 -0.306582E-08  0.752E-05    2.05     122.9  T
     SCC iter.                  ...        0 min,  0.172 sec
     gradient                   ...        0 min,  0.253 sec
 * total energy  :  -188.2311589 Eh     change       -0.3500586E-03 Eh
   gradient norm :     0.0052141 Eh/α   predicted    -0.2811029E-03 ( -19.70%)
   displ. norm   :     0.5542683 α      lambda       -0.3701423E-03
   maximum displ.:     0.2555070 α      in ANC's #8, #4, #12, ...

........................................................................
.............................. CYCLE   50 ..............................
........................................................................

 iter      E             dE          RMSdq      gap      omega  full diag
   1   -191.1911136 -0.191191E+03  0.734E-02    2.04       0.0  T
   2   -191.1911189 -0.527170E-05  0.432E-02    2.04       1.0  T
   3   -191.1910927  0.261735E-04  0.149E-02    2.04       1.0  T
   4   -191.1911227 -0.299887E-04  0.202E-03    2.04       4.6  T
   5   -191.1911230 -0.333826E-06  0.869E-04    2.04      10.6  T
   6   -191.1911230 -0.237178E-07  0.462E-04    2.04      20.0  T
   7   -191.1911230 -0.565120E-08  0.221E-04    2.04      41.8  T
   8   -191.1911230 -0.372765E-08  0.820E-05    2.04     112.8  T
   9   -191.1911230 -0.446420E-09  0.358E-05    2.04     258.3  T
     SCC iter.                  ...        0 min,  0.194 sec
     gradient                   ...        0 min,  0.238 sec
 * total energy  :  -188.2314706 Eh     change       -0.3116526E-03 Eh
   gradient norm :     0.0052930 Eh/α   predicted    -0.2419382E-03 ( -22.37%)
   displ. norm   :     0.5887866 α      lambda       -0.3904843E-03
   maximum displ.:     0.2791434 α      in ANC's #4, #8, #12, ...

........................................................................
.............................. CYCLE   51 ..............................
........................................................................

 iter      E             dE          RMSdq      gap      omega  full diag
   1   -191.1929394 -0.191193E+03  0.734E-02    2.03       0.0  T
   2   -191.1929453 -0.591292E-05  0.432E-02    2.03       1.0  T
   3   -191.1929177  0.276691E-04  0.154E-02    2.03       1.0  T
   4   -191.1929494 -0.317185E-04  0.218E-03    2.03       4.2  T
   5   -191.1929498 -0.421340E-06  0.932E-04    2.03       9.9  T
   6   -191.1929499 -0.478448E-07  0.474E-04    2.03      19.5  T
   7   -191.1929499 -0.399106E-08  0.241E-04    2.03      38.3  T
   8   -191.1929499 -0.447832E-08  0.886E-05    2.03     104.4  T
   9   -191.1929499 -0.458783E-09  0.388E-05    2.03     238.4  T
     SCC iter.                  ...        0 min,  0.261 sec
     gradient                   ...        0 min,  0.277 sec
 * total energy  :  -188.2318040 Eh     change       -0.3333801E-03 Eh
   gradient norm :     0.0052249 Eh/α   predicted    -0.2629275E-03 ( -21.13%)
   displ. norm   :     0.6397784 α      lambda       -0.3896558E-03
   maximum displ.:     0.3118794 α      in ANC's #4, #8, #12, ...

........................................................................
.............................. CYCLE   52 ..............................
........................................................................

 iter      E             dE          RMSdq      gap      omega  full diag
   1   -191.1930112 -0.191193E+03  0.777E-02    2.02       0.0  T
   2   -191.1930177 -0.653149E-05  0.457E-02    2.02       1.0  T
   3   -191.1929866  0.311618E-04  0.161E-02    2.03       1.0  T
   4   -191.1930222 -0.356307E-04  0.227E-03    2.03       4.1  T
   5   -191.1930227 -0.480251E-06  0.104E-03    2.02       8.9  T
   6   -191.1930227 -0.731404E-07  0.495E-04    2.03      18.7  T
   7   -191.1930228 -0.340361E-08  0.253E-04    2.02      36.5  T
   8   -191.1930228 -0.497667E-08  0.899E-05    2.02     102.8  T
   9   -191.1930228 -0.447699E-09  0.397E-05    2.02     232.8  T
     SCC iter.                  ...        0 min,  0.217 sec
     gradient                   ...        0 min,  0.275 sec
 * total energy  :  -188.2321330 Eh     change       -0.3289839E-03 Eh
   gradient norm :     0.0051133 Eh/α   predicted    -0.2745768E-03 ( -16.54%)
   displ. norm   :     0.5987717 α      lambda       -0.3651522E-03
   maximum displ.:     0.3067971 α      in ANC's #4, #8, #1, ...

........................................................................
.............................. CYCLE   53 ..............................
........................................................................

 iter      E             dE          RMSdq      gap      omega  full diag
   1   -191.1966708 -0.191197E+03  0.693E-02    2.02       0.0  T
   2   -191.1966766 -0.576594E-05  0.407E-02    2.02       1.0  T
   3   -191.1966508  0.257784E-04  0.146E-02    2.03       1.0  T
   4   -191.1966802 -0.293946E-04  0.225E-03    2.03       4.1  T
   5   -191.1966807 -0.473813E-06  0.111E-03    2.03       8.3  T
   6   -191.1966808 -0.875649E-07  0.501E-04    2.03      18.5  T
   7   -191.1966808 -0.416975E-08  0.248E-04    2.03      37.3  T
   8   -191.1966808 -0.490522E-08  0.909E-05    2.03     101.8  T
   9   -191.1966808 -0.374428E-09  0.430E-05    2.03     214.9  T
     SCC iter.                  ...        0 min,  0.233 sec
     gradient                   ...        0 min,  0.253 sec
 * total energy  :  -188.2324142 Eh     change       -0.2812495E-03 Eh
   gradient norm :     0.0062328 Eh/α   predicted    -0.2480358E-03 ( -11.81%)
   displ. norm   :     0.6636665 α      lambda       -0.3347934E-03
   maximum displ.:     0.3367416 α      in ANC's #4, #8, #1, ...

........................................................................
.............................. CYCLE   54 ..............................
........................................................................

 iter      E             dE          RMSdq      gap      omega  full diag
   1   -191.1903336 -0.191190E+03  0.809E-02    2.02       0.0  T
   2   -191.1903405 -0.691812E-05  0.475E-02    2.02       1.0  T
   3   -191.1903077  0.328169E-04  0.160E-02    2.03       1.0  T
   4   -191.1903452 -0.374948E-04  0.225E-03    2.02       4.1  T
   5   -191.1903457 -0.534314E-06  0.108E-03    2.02       8.6  T
   6   -191.1903458 -0.766791E-07  0.468E-04    2.02      19.8  T
   7   -191.1903458 -0.294239E-08  0.224E-04    2.02      41.3  T
   8   -191.1903458 -0.387473E-08  0.795E-05    2.02     116.4  T
   9   -191.1903458 -0.323723E-09  0.395E-05    2.02     234.0  T
     SCC iter.                  ...        0 min,  0.258 sec
     gradient                   ...        0 min,  0.277 sec
 * total energy  :  -188.2326216 Eh     change       -0.2073798E-03 Eh
   gradient norm :     0.0073082 Eh/α   predicted    -0.2411272E-03 (  16.27%)
   displ. norm   :     0.3630803 α      lambda       -0.2917716E-03
   maximum displ.:     0.1972371 α      in ANC's #4, #8, #1, ...

........................................................................
.............................. CYCLE   55 ..............................
........................................................................

 iter      E             dE          RMSdq      gap      omega  full diag
   1   -191.1943443 -0.191194E+03  0.440E-02    2.03       0.0  T
   2   -191.1943468 -0.250785E-05  0.257E-02    2.03       1.0  T
   3   -191.1943373  0.947521E-05  0.848E-03    2.03       1.1  T
   4   -191.1943480 -0.106844E-04  0.159E-03    2.03       5.8  T
   5   -191.1943482 -0.203895E-06  0.831E-04    2.03      11.1  T
   6   -191.1943482 -0.383857E-07  0.394E-04    2.03      23.5  T
   7   -191.1943482 -0.536474E-08  0.155E-04    2.03      59.7  T
   8   -191.1943482 -0.196067E-08  0.675E-05    2.03     136.9  T
     SCC iter.                  ...        0 min,  0.254 sec
     gradient                   ...        0 min,  0.299 sec
 * total energy  :  -188.2328460 Eh     change       -0.2243865E-03 Eh
   gradient norm :     0.0042911 Eh/α   predicted    -0.1651192E-03 ( -26.41%)
   displ. norm   :     0.4497412 α      lambda       -0.2543326E-03
   maximum displ.:     0.2539619 α      in ANC's #4, #1, #8, ...

........................................................................
.............................. CYCLE   56 ..............................
........................................................................

 iter      E             dE          RMSdq      gap      omega  full diag
   1   -191.1963651 -0.191196E+03  0.510E-02    2.04       0.0  T
   2   -191.1963679 -0.281974E-05  0.298E-02    2.04       1.0  T
   3   -191.1963558  0.120730E-04  0.948E-03    2.04       1.0  T
   4   -191.1963695 -0.136930E-04  0.170E-03    2.04       5.4  T
   5   -191.1963698 -0.242217E-06  0.899E-04    2.04      10.3  T
   6   -191.1963698 -0.453201E-07  0.388E-04    2.04      23.8  T
   7   -191.1963698 -0.443927E-08  0.164E-04    2.04      56.5  T
   8   -191.1963698 -0.221380E-08  0.747E-05    2.04     123.8  T
     SCC iter.                  ...        0 min,  0.276 sec
     gradient                   ...        0 min,  0.312 sec
 * total energy  :  -188.2330453 Eh     change       -0.1993022E-03 Eh
   gradient norm :     0.0040835 Eh/α   predicted    -0.1528914E-03 ( -23.29%)
   displ. norm   :     0.4415248 α      lambda       -0.2039216E-03
   maximum displ.:     0.2540953 α      in ANC's #4, #1, #3, ...

........................................................................
.............................. CYCLE   57 ..............................
........................................................................

 iter      E             dE          RMSdq      gap      omega  full diag
   1   -191.1964318 -0.191196E+03  0.476E-02    2.05       0.0  T
   2   -191.1964341 -0.230036E-05  0.278E-02    2.04       1.0  T
   3   -191.1964241  0.100123E-04  0.870E-03    2.05       1.1  T
   4   -191.1964355 -0.113689E-04  0.147E-03    2.04       6.3  T
   5   -191.1964357 -0.183202E-06  0.768E-04    2.04      12.0  T
   6   -191.1964357 -0.358028E-07  0.318E-04    2.04      29.1  T
   7   -191.1964357 -0.208368E-08  0.149E-04    2.04      62.1  T
   8   -191.1964357 -0.175780E-08  0.653E-05    2.04     141.5  T
     SCC iter.                  ...        0 min,  0.249 sec
     gradient                   ...        0 min,  0.260 sec
 * total energy  :  -188.2332095 Eh     change       -0.1641752E-03 Eh
   gradient norm :     0.0047218 Eh/α   predicted    -0.1218379E-03 ( -25.79%)
   displ. norm   :     0.4083639 α      lambda       -0.1809369E-03
   maximum displ.:     0.2369261 α      in ANC's #4, #1, #3, ...

........................................................................
.............................. CYCLE   58 ..............................
........................................................................

 iter      E             dE          RMSdq      gap      omega  full diag
   1   -191.1963508 -0.191196E+03  0.419E-02    2.05       0.0  T
   2   -191.1963529 -0.202723E-05  0.245E-02    2.05       1.0  T
   3   -191.1963448  0.801325E-05  0.810E-03    2.05       1.1  T
   4   -191.1963541 -0.928387E-05  0.118E-03    2.05       7.8  T
   5   -191.1963542 -0.105385E-06  0.631E-04    2.05      14.7  T
   6   -191.1963543 -0.251736E-07  0.251E-04    2.05      36.9  T
   7   -191.1963543 -0.127307E-08  0.128E-04    2.05      72.3  T
   8   -191.1963543 -0.105675E-08  0.551E-05    2.05     167.7  T
     SCC iter.                  ...        0 min,  0.240 sec
     gradient                   ...        0 min,  0.273 sec
 * total energy  :  -188.2333545 Eh     change       -0.1450061E-03 Eh
   gradient norm :     0.0046166 Eh/α   predicted    -0.1055624E-03 ( -27.20%)
   displ. norm   :     0.4261583 α      lambda       -0.1893838E-03
   maximum displ.:     0.2462673 α      in ANC's #4, #1, #3, ...

........................................................................
.............................. CYCLE   59 ..............................
........................................................................

 iter      E             dE          RMSdq      gap      omega  full diag
   1   -191.1960735 -0.191196E+03  0.416E-02    2.05       0.0  T
   2   -191.1960751 -0.158095E-05  0.245E-02    2.05       1.0  T
   3   -191.1960696  0.555133E-05  0.673E-03    2.05       1.4  T
   4   -191.1960760 -0.639419E-05  0.112E-03    2.05       8.3  T
   5   -191.1960760 -0.763812E-07  0.606E-04    2.05      15.3  T
   6   -191.1960761 -0.202230E-07  0.266E-04    2.05      34.8  T
   7   -191.1960761 -0.228519E-08  0.127E-04    2.05      73.0  T
   8   -191.1960761 -0.768495E-09  0.607E-05    2.05     152.3  T
     SCC iter.                  ...        0 min,  0.233 sec
     gradient                   ...        0 min,  0.336 sec
 * total energy  :  -188.2334991 Eh     change       -0.1446768E-03 Eh
   gradient norm :     0.0045091 Eh/α   predicted    -0.1118909E-03 ( -22.66%)
   displ. norm   :     0.4416933 α      lambda       -0.1885365E-03
   maximum displ.:     0.2532468 α      in ANC's #4, #1, #3, ...

........................................................................
.............................. CYCLE   60 ..............................
........................................................................

 iter      E             dE          RMSdq      gap      omega  full diag
   1   -191.1955524 -0.191196E+03  0.416E-02    2.05       0.0  T
   2   -191.1955546 -0.214020E-05  0.245E-02    2.05       1.0  T
   3   -191.1955485  0.607606E-05  0.735E-03    2.05       1.3  T
   4   -191.1955556 -0.716251E-05  0.111E-03    2.05       8.3  T
   5   -191.1955557 -0.764654E-07  0.564E-04    2.05      16.4  T
   6   -191.1955557 -0.105166E-07  0.320E-04    2.05      28.9  T
   7   -191.1955557 -0.480108E-08  0.135E-04    2.05      68.3  T
   8   -191.1955557 -0.915350E-09  0.650E-05    2.05     142.3  T
     SCC iter.                  ...        0 min,  0.319 sec
     gradient                   ...        0 min,  0.292 sec
 * total energy  :  -188.2336490 Eh     change       -0.1499015E-03 Eh
   gradient norm :     0.0042273 Eh/α   predicted    -0.1126598E-03 ( -24.84%)
   displ. norm   :     0.4743496 α      lambda       -0.1974983E-03
   maximum displ.:     0.2670493 α      in ANC's #4, #1, #2, ...

........................................................................
.............................. CYCLE   61 ..............................
........................................................................

 iter      E             dE          RMSdq      gap      omega  full diag
   1   -191.1958020 -0.191196E+03  0.426E-02    2.04       0.0  T
   2   -191.1958046 -0.262261E-05  0.252E-02    2.04       1.0  T
   3   -191.1957974  0.716461E-05  0.794E-03    2.04       1.2  T
   4   -191.1958058 -0.833759E-05  0.137E-03    2.04       6.7  T
   5   -191.1958059 -0.152809E-06  0.602E-04    2.04      15.3  T
   6   -191.1958059 -0.121728E-07  0.353E-04    2.04      26.2  T
   7   -191.1958059 -0.436344E-08  0.163E-04    2.04      56.8  T
   8   -191.1958059 -0.166534E-08  0.715E-05    2.04     129.4  T
     SCC iter.                  ...        0 min,  0.243 sec
     gradient                   ...        0 min,  0.266 sec
 * total energy  :  -188.2338147 Eh     change       -0.1657083E-03 Eh
   gradient norm :     0.0048771 Eh/α   predicted    -0.1209704E-03 ( -27.00%)
   displ. norm   :     0.5576035 α      lambda       -0.2464999E-03
   maximum displ.:     0.3060893 α      in ANC's #4, #1, #2, ...

........................................................................
.............................. CYCLE   62 ..............................
........................................................................

 iter      E             dE          RMSdq      gap      omega  full diag
   1   -191.1963339 -0.191196E+03  0.508E-02    2.03       0.0  T
   2   -191.1963372 -0.330319E-05  0.300E-02    2.03       1.0  T
   3   -191.1963273  0.992260E-05  0.948E-03    2.03       1.0  T
   4   -191.1963386 -0.113057E-04  0.171E-03    2.03       5.4  T
   5   -191.1963389 -0.262797E-06  0.684E-04    2.03      13.5  T
   6   -191.1963389 -0.193211E-07  0.411E-04    2.03      22.5  T
   7   -191.1963389 -0.501225E-08  0.191E-04    2.03      48.5  T
   8   -191.1963389 -0.234186E-08  0.765E-05    2.03     120.9  T
     SCC iter.                  ...        0 min,  0.193 sec
     gradient                   ...        0 min,  0.272 sec
 * total energy  :  -188.2340172 Eh     change       -0.2024160E-03 Eh
   gradient norm :     0.0062605 Eh/α   predicted    -0.1615716E-03 ( -20.18%)
   displ. norm   :     0.5984706 α      lambda       -0.2640474E-03
   maximum displ.:     0.3203995 α      in ANC's #4, #1, #2, ...

........................................................................
.............................. CYCLE   63 ..............................
........................................................................

 iter      E             dE          RMSdq      gap      omega  full diag
   1   -191.1971469 -0.191197E+03  0.540E-02    2.02       0.0  T
   2   -191.1971508 -0.388329E-05  0.319E-02    2.02       1.0  T
   3   -191.1971381  0.126421E-04  0.105E-02    2.02       1.0  T
   4   -191.1971524 -0.143168E-04  0.188E-03    2.02       4.9  T
   5   -191.1971528 -0.343992E-06  0.759E-04    2.02      12.2  T
   6   -191.1971528 -0.365771E-07  0.405E-04    2.02      22.8  T
   7   -191.1971528 -0.334788E-08  0.200E-04    2.02      46.2  T
   8   -191.1971528 -0.282489E-08  0.724E-05    2.02     127.8  T
     SCC iter.                  ...        0 min,  0.221 sec
     gradient                   ...        0 min,  0.288 sec
 * total energy  :  -188.2342304 Eh     change       -0.2132359E-03 Eh
   gradient norm :     0.0058167 Eh/α   predicted    -0.1793112E-03 ( -15.91%)
   displ. norm   :     0.5980480 α      lambda       -0.2565420E-03
   maximum displ.:     0.3126878 α      in ANC's #4, #1, #2, ...

........................................................................
.............................. CYCLE   64 ..............................
........................................................................

 iter      E             dE          RMSdq      gap      omega  full diag
   1   -191.1978311 -0.191198E+03  0.531E-02    2.00       0.0  T
   2   -191.1978336 -0.257624E-05  0.312E-02    2.00       1.0  T
   3   -191.1978238  0.980439E-05  0.912E-03    2.00       1.0  T
   4   -191.1978349 -0.110324E-04  0.165E-03    2.00       5.6  T
   5   -191.1978351 -0.239388E-06  0.768E-04    2.00      12.0  T
   6   -191.1978351 -0.376672E-07  0.375E-04    2.00      24.6  T
   7   -191.1978351 -0.332406E-08  0.169E-04    2.00      54.6  T
   8   -191.1978351 -0.240124E-08  0.641E-05    2.00     144.3  T
     SCC iter.                  ...        0 min,  0.218 sec
     gradient                   ...        0 min,  0.262 sec
 * total energy  :  -188.2344386 Eh     change       -0.2081946E-03 Eh
   gradient norm :     0.0051263 Eh/α   predicted    -0.1741501E-03 ( -16.35%)
   displ. norm   :     0.5947259 α      lambda       -0.2636501E-03
   maximum displ.:     0.3010122 α      in ANC's #4, #1, #2, ...

........................................................................
.............................. CYCLE   65 ..............................
........................................................................

 iter      E             dE          RMSdq      gap      omega  full diag
   1   -191.1993050 -0.191199E+03  0.535E-02    1.99       0.0  T
   2   -191.1993077 -0.269069E-05  0.313E-02    1.99       1.0  T
   3   -191.1992978  0.994650E-05  0.952E-03    1.99       1.0  T
   4   -191.1993091 -0.112941E-04  0.171E-03    1.99       5.4  T
   5   -191.1993093 -0.226161E-06  0.806E-04    1.99      11.5  T
   6   -191.1993093 -0.312184E-07  0.378E-04    1.99      24.4  T
   7   -191.1993093 -0.610123E-08  0.156E-04    1.99      59.2  T
   8   -191.1993093 -0.204045E-08  0.695E-05    1.99     133.1  T
     SCC iter.                  ...        0 min,  0.195 sec
     gradient                   ...        0 min,  0.276 sec
 * total energy  :  -188.2346477 Eh     change       -0.2091324E-03 Eh
   gradient norm :     0.0053599 Eh/α   predicted    -0.1784537E-03 ( -14.67%)
   displ. norm   :     0.5882286 α      lambda       -0.2474820E-03
   maximum displ.:     0.2950818 α      in ANC's #4, #1, #2, ...

........................................................................
.............................. CYCLE   66 ..............................
........................................................................

 iter      E             dE          RMSdq      gap      omega  full diag
   1   -191.1989883 -0.191199E+03  0.502E-02    1.99       0.0  T
   2   -191.1989906 -0.233353E-05  0.293E-02    1.99       1.0  T
   3   -191.1989803  0.103451E-04  0.998E-03    1.99       1.0  T
   4   -191.1989922 -0.118834E-04  0.156E-03    1.99       5.9  T
   5   -191.1989923 -0.144339E-06  0.751E-04    1.99      12.3  T
   6   -191.1989923 -0.158967E-07  0.332E-04    1.99      27.9  T
   7   -191.1989923 -0.692762E-08  0.122E-04    1.99      75.7  T
   8   -191.1989923 -0.835399E-09  0.664E-05    1.99     139.3  T
     SCC iter.                  ...        0 min,  0.216 sec
     gradient                   ...        0 min,  0.282 sec
 * total energy  :  -188.2348502 Eh     change       -0.2024417E-03 Eh
   gradient norm :     0.0053350 Eh/α   predicted    -0.1665624E-03 ( -17.72%)
   displ. norm   :     0.5595063 α      lambda       -0.2351988E-03
   maximum displ.:     0.2766110 α      in ANC's #1, #4, #2, ...
 * RMSD in coord.:     0.9072428 α      energy gain  -0.5650514E-02 Eh

generating ANC from exact Hessian ...
Using Lindh-Hessian (1995)
 Shifting diagonal of input Hessian by    1.0049875135203938E-002
 Lowest  eigenvalues of input Hessian
    0.010000    0.000000    0.000000    0.000000    0.000000    0.000000
    0.000000    0.010108    0.010148    0.010232    0.010257    0.010289
    0.010399    0.010527    0.010549    0.010604    0.010781    0.010868
 Highest eigenvalues
    2.165268    2.214729    2.323797    2.329232    2.341641    3.145163


........................................................................
.............................. CYCLE   67 ..............................
........................................................................

 iter      E             dE          RMSdq      gap      omega  full diag
   1   -191.2004541 -0.191200E+03  0.452E-02    1.98       0.0  T
   2   -191.2004564 -0.227145E-05  0.264E-02    1.98       1.0  T
   3   -191.2004443  0.120687E-04  0.109E-02    1.99       1.0  T
   4   -191.2004582 -0.139434E-04  0.146E-03    1.98       6.3  T
   5   -191.2004583 -0.123300E-06  0.688E-04    1.98      13.4  T
   6   -191.2004584 -0.116340E-07  0.327E-04    1.98      28.3  T
   7   -191.2004584 -0.657982E-08  0.135E-04    1.98      68.4  T
   8   -191.2004584 -0.135341E-08  0.645E-05    1.98     143.4  T
     SCC iter.                  ...        0 min,  0.206 sec
     gradient                   ...        0 min,  0.266 sec
 * total energy  :  -188.2350407 Eh     change       -0.1904989E-03 Eh
   gradient norm :     0.0060234 Eh/α   predicted     0.0000000E+00 (-100.00%)
   displ. norm   :     0.0626377 α      lambda       -0.1778541E-04
   maximum displ.:     0.0209610 α      in ANC's #8, #1, #2, ...

........................................................................
.............................. CYCLE   68 ..............................
........................................................................

 iter      E             dE          RMSdq      gap      omega  full diag
   1   -191.1996469 -0.191200E+03  0.112E-02    1.99       0.0  T
   2   -191.1996471 -0.270747E-06  0.663E-03    1.99       1.4  T
   3   -191.1996465  0.597897E-06  0.256E-03    1.99       3.6  T
   4   -191.1996472 -0.662160E-06  0.749E-04    1.99      12.3  T
   5   -191.1996473 -0.587294E-07  0.251E-04    1.99      36.8  T
   6   -191.1996473 -0.184485E-08  0.148E-04    1.99      62.5  T
   7   -191.1996473 -0.164707E-08  0.457E-05    1.99     202.2  T
     SCC iter.                  ...        0 min,  0.158 sec
     gradient                   ...        0 min,  0.255 sec
 * total energy  :  -188.2351110 Eh     change       -0.7033780E-04 Eh
   gradient norm :     0.0034876 Eh/α   predicted    -0.4305194E-04 ( -38.79%)
   displ. norm   :     0.2057088 α      lambda       -0.1732170E-03
   maximum displ.:     0.0728244 α      in ANC's #8, #1, #2, ...

........................................................................
.............................. CYCLE   69 ..............................
........................................................................

 iter      E             dE          RMSdq      gap      omega  full diag
   1   -191.1983647 -0.191198E+03  0.289E-02    1.99       0.0  T
   2   -191.1983665 -0.173509E-05  0.169E-02    2.00       1.0  T
   3   -191.1983623  0.416684E-05  0.657E-03    2.00       1.4  T
   4   -191.1983669 -0.458164E-05  0.197E-03    2.00       4.7  T
   5   -191.1983673 -0.426226E-06  0.657E-04    2.00      14.1  T
   6   -191.1983673 -0.141055E-07  0.383E-04    2.00      24.1  T
   7   -191.1983673 -0.103909E-07  0.114E-04    2.00      81.3  T
   8   -191.1983673 -0.672742E-09  0.610E-05    2.00     151.5  T
     SCC iter.                  ...        0 min,  0.211 sec
     gradient                   ...        0 min,  0.256 sec
 * total energy  :  -188.2352275 Eh     change       -0.1165376E-03 Eh
   gradient norm :     0.0034328 Eh/α   predicted    -0.9027782E-04 ( -22.53%)
   displ. norm   :     0.1913570 α      lambda       -0.9049627E-04
   maximum displ.:     0.0697165 α      in ANC's #8, #1, #2, ...

........................................................................
.............................. CYCLE   70 ..............................
........................................................................

 iter      E             dE          RMSdq      gap      omega  full diag
   1   -191.1982656 -0.191198E+03  0.234E-02    2.00       0.0  T
   2   -191.1982663 -0.676271E-06  0.136E-02    2.00       1.0  T
   3   -191.1982639  0.240814E-05  0.448E-03    2.00       2.1  T
   4   -191.1982665 -0.261099E-05  0.122E-03    2.00       7.6  T
   5   -191.1982666 -0.168874E-06  0.432E-04    2.00      21.4  T
   6   -191.1982666 -0.733746E-08  0.242E-04    2.00      38.2  T
   7   -191.1982666 -0.343960E-08  0.758E-05    2.00     121.9  T
   8   -191.1982666 -0.320171E-09  0.388E-05    2.00     238.2  T
     SCC iter.                  ...        0 min,  0.251 sec
     gradient                   ...        0 min,  0.302 sec
 * total energy  :  -188.2353010 Eh     change       -0.7350731E-04 Eh
   gradient norm :     0.0053492 Eh/α   predicted    -0.4690622E-04 ( -36.19%)
   displ. norm   :     0.3236582 α      lambda       -0.1465288E-03
   maximum displ.:     0.1188009 α      in ANC's #1, #8, #2, ...

........................................................................
.............................. CYCLE   71 ..............................
........................................................................

 iter      E             dE          RMSdq      gap      omega  full diag
   1   -191.1985866 -0.191199E+03  0.362E-02    2.01       0.0  T
   2   -191.1985877 -0.114464E-05  0.212E-02    2.01       1.0  T
   3   -191.1985829  0.482089E-05  0.592E-03    2.01       1.6  T
   4   -191.1985881 -0.524097E-05  0.142E-03    2.01       6.5  T
   5   -191.1985883 -0.226794E-06  0.538E-04    2.01      17.2  T
   6   -191.1985884 -0.137577E-07  0.291E-04    2.01      31.7  T
   7   -191.1985884 -0.315777E-08  0.109E-04    2.01      84.9  T
   8   -191.1985884 -0.919187E-09  0.473E-05    2.01     195.5  T
     SCC iter.                  ...        0 min,  0.256 sec
     gradient                   ...        0 min,  0.317 sec
 * total energy  :  -188.2354204 Eh     change       -0.1193650E-03 Eh
   gradient norm :     0.0063077 Eh/α   predicted    -0.8094265E-04 ( -32.19%)
   displ. norm   :     0.4265483 α      lambda       -0.1840925E-03
   maximum displ.:     0.1641122 α      in ANC's #1, #8, #2, ...

........................................................................
.............................. CYCLE   72 ..............................
........................................................................

 iter      E             dE          RMSdq      gap      omega  full diag
   1   -191.1989442 -0.191199E+03  0.439E-02    2.01       0.0  T
   2   -191.1989458 -0.155834E-05  0.258E-02    2.01       1.0  T
   3   -191.1989399  0.590536E-05  0.647E-03    2.01       1.4  T
   4   -191.1989464 -0.645354E-05  0.142E-03    2.01       6.5  T
   5   -191.1989466 -0.233339E-06  0.562E-04    2.01      16.5  T
   6   -191.1989466 -0.158688E-07  0.312E-04    2.01      29.6  T
   7   -191.1989466 -0.185287E-08  0.128E-04    2.01      72.4  T
   8   -191.1989466 -0.165423E-08  0.421E-05    2.01     219.8  T
     SCC iter.                  ...        0 min,  0.221 sec
     gradient                   ...        0 min,  0.260 sec
 * total energy  :  -188.2355720 Eh     change       -0.1516001E-03 Eh
   gradient norm :     0.0058346 Eh/α   predicted    -0.1088026E-03 ( -28.23%)
   displ. norm   :     0.4892269 α      lambda       -0.2068210E-03
   maximum displ.:     0.1972915 α      in ANC's #1, #8, #2, ...

........................................................................
.............................. CYCLE   73 ..............................
........................................................................

 iter      E             dE          RMSdq      gap      omega  full diag
   1   -191.1993084 -0.191199E+03  0.465E-02    2.01       0.0  T
   2   -191.1993106 -0.216913E-05  0.275E-02    2.01       1.0  T
   3   -191.1993047  0.590356E-05  0.684E-03    2.01       1.4  T
   4   -191.1993112 -0.651406E-05  0.157E-03    2.01       5.9  T
   5   -191.1993115 -0.276089E-06  0.592E-04    2.01      15.6  T
   6   -191.1993115 -0.124352E-07  0.348E-04    2.01      26.6  T
   7   -191.1993115 -0.337280E-08  0.141E-04    2.01      65.4  T
   8   -191.1993115 -0.173426E-08  0.534E-05    2.01     173.1  T
     SCC iter.                  ...        0 min,  0.243 sec
     gradient                   ...        0 min,  0.271 sec
 * total energy  :  -188.2357427 Eh     change       -0.1706381E-03 Eh
   gradient norm :     0.0045138 Eh/α   predicted    -0.1281759E-03 ( -24.88%)
   displ. norm   :     0.5091758 α      lambda       -0.2110230E-03
   maximum displ.:     0.2150462 α      in ANC's #1, #8, #2, ...

........................................................................
.............................. CYCLE   74 ..............................
........................................................................

 iter      E             dE          RMSdq      gap      omega  full diag
   1   -191.1998569 -0.191200E+03  0.450E-02    2.00       0.0  T
   2   -191.1998597 -0.278575E-05  0.266E-02    2.00       1.0  T
   3   -191.1998539  0.574842E-05  0.731E-03    2.00       1.3  T
   4   -191.1998605 -0.653210E-05  0.168E-03    2.00       5.5  T
   5   -191.1998607 -0.267443E-06  0.648E-04    2.00      14.3  T
   6   -191.1998607 -0.103564E-07  0.358E-04    2.00      25.8  T
   7   -191.1998607 -0.381885E-08  0.148E-04    2.00      62.6  T
   8   -191.1998607 -0.146972E-08  0.693E-05    2.00     133.4  T
     SCC iter.                  ...        0 min,  0.196 sec
     gradient                   ...        0 min,  0.272 sec
 * total energy  :  -188.2359155 Eh     change       -0.1728113E-03 Eh
   gradient norm :     0.0039825 Eh/α   predicted    -0.1329358E-03 ( -23.07%)
   displ. norm   :     0.5174121 α      lambda       -0.2007831E-03
   maximum displ.:     0.2261464 α      in ANC's #1, #8, #2, ...

........................................................................
.............................. CYCLE   75 ..............................
........................................................................

 iter      E             dE          RMSdq      gap      omega  full diag
   1   -191.2001098 -0.191200E+03  0.428E-02    1.99       0.0  T
   2   -191.2001125 -0.270297E-05  0.254E-02    1.98       1.0  T
   3   -191.2001065  0.596939E-05  0.764E-03    1.98       1.2  T
   4   -191.2001135 -0.696234E-05  0.156E-03    1.98       5.9  T
   5   -191.2001136 -0.186478E-06  0.704E-04    1.98      13.1  T
   6   -191.2001137 -0.151920E-07  0.365E-04    1.98      25.3  T
   7   -191.2001137 -0.388351E-08  0.158E-04    1.98      58.7  T
   8   -191.2001137 -0.162385E-08  0.731E-05    1.98     126.5  T
     SCC iter.                  ...        0 min,  0.201 sec
     gradient                   ...        0 min,  0.251 sec
 * total energy  :  -188.2360820 Eh     change       -0.1665674E-03 Eh
   gradient norm :     0.0050147 Eh/α   predicted    -0.1272690E-03 ( -23.59%)
   displ. norm   :     0.5195073 α      lambda       -0.2077881E-03
   maximum displ.:     0.2337826 α      in ANC's #1, #2, #8, ...

........................................................................
.............................. CYCLE   76 ..............................
........................................................................

 iter      E             dE          RMSdq      gap      omega  full diag
   1   -191.2008044 -0.191201E+03  0.407E-02    1.97       0.0  T
   2   -191.2008069 -0.244880E-05  0.240E-02    1.97       1.0  T
   3   -191.2008002  0.663150E-05  0.790E-03    1.97       1.2  T
   4   -191.2008080 -0.778355E-05  0.145E-03    1.97       6.4  T
   5   -191.2008081 -0.142448E-06  0.757E-04    1.97      12.2  T
   6   -191.2008082 -0.239286E-07  0.364E-04    1.97      25.4  T
   7   -191.2008082 -0.402997E-08  0.162E-04    1.97      57.2  T
   8   -191.2008082 -0.163774E-08  0.721E-05    1.97     128.3  T
     SCC iter.                  ...        0 min,  0.202 sec
     gradient                   ...        0 min,  0.260 sec
 * total energy  :  -188.2362558 Eh     change       -0.1737764E-03 Eh
   gradient norm :     0.0059903 Eh/α   predicted    -0.1319387E-03 ( -24.08%)
   displ. norm   :     0.5541165 α      lambda       -0.2281154E-03
   maximum displ.:     0.2531242 α      in ANC's #1, #2, #8, ...

........................................................................
.............................. CYCLE   77 ..............................
........................................................................

 iter      E             dE          RMSdq      gap      omega  full diag
   1   -191.2006603 -0.191201E+03  0.419E-02    1.96       0.0  T
   2   -191.2006626 -0.227030E-05  0.246E-02    1.96       1.0  T
   3   -191.2006537  0.889377E-05  0.883E-03    1.95       1.0  T
   4   -191.2006641 -0.103615E-04  0.147E-03    1.96       6.3  T
   5   -191.2006642 -0.139263E-06  0.837E-04    1.96      11.0  T
   6   -191.2006642 -0.291514E-07  0.386E-04    1.96      24.0  T
   7   -191.2006642 -0.578564E-08  0.164E-04    1.96      56.4  T
   8   -191.2006642 -0.167691E-08  0.801E-05    1.96     115.3  T
     SCC iter.                  ...        0 min,  0.189 sec
     gradient                   ...        0 min,  0.255 sec
 * total energy  :  -188.2364476 Eh     change       -0.1918420E-03 Eh
   gradient norm :     0.0059225 Eh/α   predicted    -0.1490787E-03 ( -22.29%)
   displ. norm   :     0.5502203 α      lambda       -0.2541870E-03
   maximum displ.:     0.2525263 α      in ANC's #1, #2, #8, ...

........................................................................
.............................. CYCLE   78 ..............................
........................................................................

 iter      E             dE          RMSdq      gap      omega  full diag
   1   -191.2027835 -0.191203E+03  0.449E-02    1.94       0.0  T
   2   -191.2027873 -0.375328E-05  0.262E-02    1.94       1.0  T
   3   -191.2027767  0.105715E-04  0.995E-03    1.94       1.0  T
   4   -191.2027891 -0.124170E-04  0.190E-03    1.94       4.9  T
   5   -191.2027894 -0.279847E-06  0.977E-04    1.94       9.5  T
   6   -191.2027894 -0.358584E-07  0.530E-04    1.94      17.4  T
   7   -191.2027894 -0.135950E-07  0.201E-04    1.94      45.9  T
   8   -191.2027894 -0.241070E-08  0.102E-04    1.94      90.4  T
   9   -191.2027894 -0.476945E-09  0.412E-05    1.94     224.3  T
     SCC iter.                  ...        0 min,  0.217 sec
     gradient                   ...        0 min,  0.242 sec
 * total energy  :  -188.2366354 Eh     change       -0.1877227E-03 Eh
   gradient norm :     0.0049549 Eh/α   predicted    -0.1655739E-03 ( -11.80%)
   displ. norm   :     0.6327288 α      lambda       -0.2347169E-03
   maximum displ.:     0.2931458 α      in ANC's #1, #2, #8, ...

........................................................................
.............................. CYCLE   79 ..............................
........................................................................

 iter      E             dE          RMSdq      gap      omega  full diag
   1   -191.1973560 -0.191197E+03  0.445E-02    1.93       0.0  T
   2   -191.1973604 -0.440876E-05  0.261E-02    1.94       1.0  T
   3   -191.1973518  0.859494E-05  0.950E-03    1.93       1.0  T
   4   -191.1973618 -0.999365E-05  0.237E-03    1.94       3.9  T
   5   -191.1973623 -0.522271E-06  0.109E-03    1.94       8.5  T
   6   -191.1973624 -0.467976E-07  0.605E-04    1.94      15.3  T
   7   -191.1973624 -0.212995E-07  0.200E-04    1.94      46.3  T
   8   -191.1973624 -0.201405E-08  0.106E-04    1.94      87.3  T
     SCC iter.                  ...        0 min,  0.167 sec
     gradient                   ...        0 min,  0.256 sec
 * total energy  :  -188.2367505 Eh     change       -0.1151700E-03 Eh
   gradient norm :     0.0075324 Eh/α   predicted    -0.1643430E-03 (  42.70%)
   displ. norm   :     0.2457133 α      lambda       -0.1629913E-03
   maximum displ.:     0.1104736 α      in ANC's #1, #2, #3, ...

........................................................................
.............................. CYCLE   80 ..............................
........................................................................

 iter      E             dE          RMSdq      gap      omega  full diag
   1   -191.2004141 -0.191200E+03  0.242E-02    1.93       0.0  T
   2   -191.2004160 -0.183852E-05  0.142E-02    1.93       1.0  T
   3   -191.2004133  0.268823E-05  0.566E-03    1.93       1.6  T
   4   -191.2004165 -0.319921E-05  0.134E-03    1.93       6.9  T
   5   -191.2004166 -0.158017E-06  0.545E-04    1.93      17.0  T
   6   -191.2004166 -0.778056E-08  0.315E-04    1.93      29.4  T
   7   -191.2004166 -0.586110E-08  0.125E-04    1.93      74.1  T
   8   -191.2004166 -0.942265E-09  0.592E-05    1.93     156.2  T
     SCC iter.                  ...        0 min,  0.185 sec
     gradient                   ...        0 min,  0.258 sec
 * total energy  :  -188.2368626 Eh     change       -0.1120500E-03 Eh
   gradient norm :     0.0042866 Eh/α   predicted    -0.8641835E-04 ( -22.88%)
   displ. norm   :     0.3663487 α      lambda       -0.1117837E-03
   maximum displ.:     0.1769542 α      in ANC's #1, #2, #3, ...

........................................................................
.............................. CYCLE   81 ..............................
........................................................................

 iter      E             dE          RMSdq      gap      omega  full diag
   1   -191.2010074 -0.191201E+03  0.245E-02    1.93       0.0  T
   2   -191.2010088 -0.139608E-05  0.144E-02    1.93       1.0  T
   3   -191.2010058  0.302668E-05  0.563E-03    1.93       1.6  T
   4   -191.2010093 -0.352379E-05  0.112E-03    1.93       8.2  T
   5   -191.2010094 -0.105387E-06  0.481E-04    1.93      19.2  T
   6   -191.2010094 -0.991534E-08  0.253E-04    1.93      36.6  T
   7   -191.2010094 -0.245910E-08  0.109E-04    1.93      85.0  T
   8   -191.2010094 -0.836081E-09  0.500E-05    1.93     185.1  T
     SCC iter.                  ...        0 min,  0.179 sec
     gradient                   ...        0 min,  0.259 sec
 * total energy  :  -188.2369505 Eh     change       -0.8790522E-04 Eh
   gradient norm :     0.0035412 Eh/α   predicted    -0.6339360E-04 ( -27.88%)
   displ. norm   :     0.4107703 α      lambda       -0.1222827E-03
   maximum displ.:     0.1997507 α      in ANC's #1, #2, #3, ...

........................................................................
.............................. CYCLE   82 ..............................
........................................................................

 iter      E             dE          RMSdq      gap      omega  full diag
   1   -191.2017945 -0.191202E+03  0.285E-02    1.93       0.0  T
   2   -191.2017956 -0.109237E-05  0.168E-02    1.92       1.0  T
   3   -191.2017918  0.383543E-05  0.616E-03    1.92       1.5  T
   4   -191.2017962 -0.440334E-05  0.943E-04    1.92       9.8  T
   5   -191.2017963 -0.616805E-07  0.454E-04    1.92      20.3  T
   6   -191.2017963 -0.820245E-08  0.231E-04    1.92      40.1  T
   7   -191.2017963 -0.160745E-08  0.102E-04    1.92      90.6  T
   8   -191.2017963 -0.741323E-09  0.467E-05    1.92     197.8  T
     SCC iter.                  ...        0 min,  0.202 sec
     gradient                   ...        0 min,  0.243 sec
 * total energy  :  -188.2370431 Eh     change       -0.9257851E-04 Eh
   gradient norm :     0.0032430 Eh/α   predicted    -0.7145983E-04 ( -22.81%)
   displ. norm   :     0.3948793 α      lambda       -0.8989825E-04
   maximum displ.:     0.1934361 α      in ANC's #1, #2, #3, ...

........................................................................
.............................. CYCLE   83 ..............................
........................................................................

 iter      E             dE          RMSdq      gap      omega  full diag
   1   -191.2008461 -0.191201E+03  0.277E-02    1.92       0.0  T
   2   -191.2008470 -0.904460E-06  0.162E-02    1.92       1.0  T
   3   -191.2008443  0.261306E-05  0.525E-03    1.92       1.8  T
   4   -191.2008474 -0.302592E-05  0.905E-04    1.92      10.2  T
   5   -191.2008474 -0.519295E-07  0.418E-04    1.92      22.1  T
   6   -191.2008474 -0.413053E-08  0.212E-04    1.92      43.6  T
   7   -191.2008474 -0.154850E-08  0.889E-05    1.92     104.0  T
   8   -191.2008474 -0.436700E-09  0.445E-05    1.92     207.6  T
     SCC iter.                  ...        0 min,  0.181 sec
     gradient                   ...        0 min,  0.242 sec
 * total energy  :  -188.2371095 Eh     change       -0.6646676E-04 Eh
   gradient norm :     0.0032604 Eh/α   predicted    -0.5195963E-04 ( -21.83%)
   displ. norm   :     0.2852470 α      lambda       -0.6845409E-04
   maximum displ.:     0.1407844 α      in ANC's #1, #2, #3, ...

........................................................................
.............................. CYCLE   84 ..............................
........................................................................

 iter      E             dE          RMSdq      gap      omega  full diag
   1   -191.2016708 -0.191202E+03  0.237E-02    1.93       0.0  T
   2   -191.2016716 -0.796617E-06  0.138E-02    1.93       1.0  T
   3   -191.2016703  0.129553E-05  0.397E-03    1.93       2.3  T
   4   -191.2016718 -0.150853E-05  0.894E-04    1.93      10.3  T
   5   -191.2016719 -0.580100E-07  0.367E-04    1.93      25.2  T
   6   -191.2016719 -0.263017E-08  0.199E-04    1.93      46.4  T
   7   -191.2016719 -0.151925E-08  0.866E-05    1.93     106.8  T
     SCC iter.                  ...        0 min,  0.154 sec
     gradient                   ...        0 min,  0.230 sec
 * total energy  :  -188.2371620 Eh     change       -0.5247347E-04 Eh
   gradient norm :     0.0031023 Eh/α   predicted    -0.3701453E-04 ( -29.46%)
   displ. norm   :     0.3142676 α      lambda       -0.7721351E-04
   maximum displ.:     0.1564746 α      in ANC's #1, #2, #3, ...

........................................................................
.............................. CYCLE   85 ..............................
........................................................................

 iter      E             dE          RMSdq      gap      omega  full diag
   1   -191.2009983 -0.191201E+03  0.259E-02    1.93       0.0  T
   2   -191.2009992 -0.861807E-06  0.152E-02    1.93       1.0  T
   3   -191.2009975  0.164471E-05  0.423E-03    1.93       2.2  T
   4   -191.2009994 -0.188881E-05  0.965E-04    1.93       9.6  T
   5   -191.2009995 -0.672684E-07  0.421E-04    1.93      22.0  T
   6   -191.2009995 -0.408866E-08  0.232E-04    1.93      39.8  T
   7   -191.2009995 -0.265919E-08  0.966E-05    1.93      95.7  T
   8   -191.2009995 -0.529639E-09  0.485E-05    1.93     190.4  T
     SCC iter.                  ...        0 min,  0.189 sec
     gradient                   ...        0 min,  0.273 sec
 * total energy  :  -188.2372237 Eh     change       -0.6169873E-04 Eh
   gradient norm :     0.0033623 Eh/α   predicted    -0.4242312E-04 ( -31.24%)
   displ. norm   :     0.3610802 α      lambda       -0.1040592E-03
   maximum displ.:     0.1728145 α      in ANC's #1, #2, #10, ...

........................................................................
.............................. CYCLE   86 ..............................
........................................................................

 iter      E             dE          RMSdq      gap      omega  full diag
   1   -191.2017219 -0.191202E+03  0.343E-02    1.93       0.0  T
   2   -191.2017229 -0.106251E-05  0.202E-02    1.93       1.0  T
   3   -191.2017202  0.274362E-05  0.505E-03    1.94       1.8  T
   4   -191.2017233 -0.311080E-05  0.112E-03    1.94       8.3  T
   5   -191.2017234 -0.830750E-07  0.544E-04    1.94      17.0  T
   6   -191.2017234 -0.108270E-07  0.278E-04    1.94      33.2  T
   7   -191.2017234 -0.401340E-08  0.121E-04    1.94      76.7  T
   8   -191.2017234 -0.788674E-09  0.578E-05    1.94     159.9  T
     SCC iter.                  ...        0 min,  0.211 sec
     gradient                   ...        0 min,  0.273 sec
 * total energy  :  -188.2373040 Eh     change       -0.8023816E-04 Eh
   gradient norm :     0.0042781 Eh/α   predicted    -0.5881549E-04 ( -26.70%)
   displ. norm   :     0.3869508 α      lambda       -0.1074050E-03
   maximum displ.:     0.1875528 α      in ANC's #2, #1, #10, ...

........................................................................
.............................. CYCLE   87 ..............................
........................................................................

 iter      E             dE          RMSdq      gap      omega  full diag
   1   -191.2009363 -0.191201E+03  0.373E-02    1.93       0.0  T
   2   -191.2009375 -0.117748E-05  0.219E-02    1.94       1.0  T
   3   -191.2009347  0.277246E-05  0.477E-03    1.94       1.9  T
   4   -191.2009379 -0.317111E-05  0.107E-03    1.94       8.6  T
   5   -191.2009379 -0.636746E-07  0.594E-04    1.94      15.6  T
   6   -191.2009379 -0.201036E-07  0.276E-04    1.94      33.5  T
   7   -191.2009379 -0.303677E-08  0.118E-04    1.94      78.6  T
   8   -191.2009379 -0.851259E-09  0.547E-05    1.94     169.1  T
     SCC iter.                  ...        0 min,  0.187 sec
     gradient                   ...        0 min,  0.295 sec
 * total energy  :  -188.2373860 Eh     change       -0.8207302E-04 Eh
   gradient norm :     0.0048362 Eh/α   predicted    -0.6174440E-04 ( -24.77%)
   displ. norm   :     0.3799483 α      lambda       -0.1054590E-03
   maximum displ.:     0.1825909 α      in ANC's #2, #1, #10, ...

........................................................................
.............................. CYCLE   88 ..............................
........................................................................

 iter      E             dE          RMSdq      gap      omega  full diag
   1   -191.2011821 -0.191201E+03  0.381E-02    1.94       0.0  T
   2   -191.2011834 -0.125054E-05  0.224E-02    1.94       1.0  T
   3   -191.2011810  0.233659E-05  0.438E-03    1.94       2.1  T
   4   -191.2011837 -0.268089E-05  0.114E-03    1.94       8.1  T
   5   -191.2011838 -0.985590E-07  0.608E-04    1.94      15.2  T
   6   -191.2011838 -0.207833E-07  0.274E-04    1.94      33.8  T
   7   -191.2011838 -0.360217E-08  0.108E-04    1.94      85.9  T
   8   -191.2011838 -0.668933E-09  0.509E-05    1.94     181.7  T
     SCC iter.                  ...        0 min,  0.202 sec
     gradient                   ...        0 min,  0.292 sec
 * total energy  :  -188.2374658 Eh     change       -0.7977658E-04 Eh
   gradient norm :     0.0040578 Eh/α   predicted    -0.6034426E-04 ( -24.36%)
   displ. norm   :     0.3384279 α      lambda       -0.1007556E-03
   maximum displ.:     0.1624168 α      in ANC's #10, #2, #1, ...

........................................................................
.............................. CYCLE   89 ..............................
........................................................................

 iter      E             dE          RMSdq      gap      omega  full diag
   1   -191.2022672 -0.191202E+03  0.357E-02    1.94       0.0  T
   2   -191.2022689 -0.166609E-05  0.210E-02    1.94       1.0  T
   3   -191.2022656  0.326126E-05  0.531E-03    1.94       1.7  T
   4   -191.2022693 -0.370006E-05  0.131E-03    1.94       7.1  T
   5   -191.2022695 -0.148269E-06  0.592E-04    1.94      15.6  T
   6   -191.2022695 -0.143399E-07  0.289E-04    1.94      32.0  T
   7   -191.2022695 -0.399348E-08  0.115E-04    1.94      80.5  T
   8   -191.2022695 -0.798082E-09  0.569E-05    1.94     162.4  T
     SCC iter.                  ...        0 min,  0.180 sec
     gradient                   ...        0 min,  0.246 sec
 * total energy  :  -188.2375339 Eh     change       -0.6810198E-04 Eh
   gradient norm :     0.0028184 Eh/α   predicted    -0.5614823E-04 ( -17.55%)
   displ. norm   :     0.4317775 α      lambda       -0.9880014E-04
   maximum displ.:     0.2250174 α      in ANC's #2, #1, #10, ...

........................................................................
.............................. CYCLE   90 ..............................
........................................................................

 iter      E             dE          RMSdq      gap      omega  full diag
   1   -191.2000690 -0.191200E+03  0.403E-02    1.94       0.0  T
   2   -191.2000713 -0.227219E-05  0.237E-02    1.94       1.0  T
   3   -191.2000664  0.489228E-05  0.680E-03    1.94       1.4  T
   4   -191.2000720 -0.560407E-05  0.164E-03    1.94       5.6  T
   5   -191.2000722 -0.219355E-06  0.650E-04    1.94      14.2  T
   6   -191.2000722 -0.609180E-08  0.348E-04    1.94      26.5  T
   7   -191.2000722 -0.691617E-08  0.105E-04    1.94      88.3  T
   8   -191.2000722 -0.448097E-09  0.553E-05    1.94     167.2  T
     SCC iter.                  ...        0 min,  0.187 sec
     gradient                   ...        0 min,  0.270 sec
 * total energy  :  -188.2375805 Eh     change       -0.4659618E-04 Eh
   gradient norm :     0.0052257 Eh/α   predicted    -0.5861092E-04 (  25.78%)
   displ. norm   :     0.1639818 α      lambda       -0.9214000E-04
   maximum displ.:     0.0725890 α      in ANC's #8, #10, #2, ...

........................................................................
.............................. CYCLE   91 ..............................
........................................................................

 iter      E             dE          RMSdq      gap      omega  full diag
   1   -191.2027598 -0.191203E+03  0.199E-02    1.94       0.0  T
   2   -191.2027608 -0.952545E-06  0.116E-02    1.94       1.0  T
   3   -191.2027591  0.167651E-05  0.411E-03    1.93       2.2  T
   4   -191.2027610 -0.189044E-05  0.990E-04    1.94       9.3  T
   5   -191.2027611 -0.886817E-07  0.345E-04    1.93      26.8  T
   6   -191.2027611 -0.263793E-08  0.194E-04    1.93      47.7  T
   7   -191.2027611 -0.127622E-08  0.534E-05    1.94     173.3  T
     SCC iter.                  ...        0 min,  0.161 sec
     gradient                   ...        0 min,  0.245 sec
 * total energy  :  -188.2376416 Eh     change       -0.6107131E-04 Eh
   gradient norm :     0.0046536 Eh/α   predicted    -0.4731048E-04 ( -22.53%)
   displ. norm   :     0.2928523 α      lambda       -0.1127984E-03
   maximum displ.:     0.1479182 α      in ANC's #2, #1, #10, ...

........................................................................
.............................. CYCLE   92 ..............................
........................................................................

 iter      E             dE          RMSdq      gap      omega  full diag
   1   -191.2033421 -0.191203E+03  0.313E-02    1.93       0.0  T
   2   -191.2033431 -0.964793E-06  0.185E-02    1.93       1.0  T
   3   -191.2033405  0.262138E-05  0.485E-03    1.93       1.9  T
   4   -191.2033435 -0.298859E-05  0.103E-03    1.93       9.0  T
   5   -191.2033435 -0.720833E-07  0.450E-04    1.93      20.5  T
   6   -191.2033435 -0.455543E-08  0.247E-04    1.93      37.5  T
   7   -191.2033435 -0.239299E-08  0.773E-05    1.93     119.7  T
   8   -191.2033435 -0.369482E-09  0.358E-05    1.93     258.5  T
     SCC iter.                  ...        0 min,  0.196 sec
     gradient                   ...        0 min,  0.271 sec
 * total energy  :  -188.2377217 Eh     change       -0.8016765E-04 Eh
   gradient norm :     0.0045752 Eh/α   predicted    -0.6124119E-04 ( -23.61%)
   displ. norm   :     0.4487070 α      lambda       -0.1326677E-03
   maximum displ.:     0.2390186 α      in ANC's #2, #1, #10, ...
 * RMSD in coord.:     0.7303561 α      energy gain  -0.2871572E-02 Eh

generating ANC from exact Hessian ...
Using Lindh-Hessian (1995)
 Shifting diagonal of input Hessian by    1.0066301790011556E-002
 Lowest  eigenvalues of input Hessian
    0.010000    0.000000    0.000000    0.000000    0.000000    0.000000
    0.000000    0.010127    0.010171    0.010228    0.010294    0.010377
    0.010455    0.010558    0.010598    0.010706    0.010879    0.010907
 Highest eigenvalues
    2.160631    2.226373    2.319907    2.332774    2.345804    3.163539


........................................................................
.............................. CYCLE   93 ..............................
........................................................................

 iter      E             dE          RMSdq      gap      omega  full diag
   1   -191.2017711 -0.191202E+03  0.444E-02    1.93       0.0  T
   2   -191.2017725 -0.136595E-05  0.262E-02    1.93       1.0  T
   3   -191.2017682  0.425565E-05  0.619E-03    1.92       1.5  T
   4   -191.2017731 -0.491680E-05  0.120E-03    1.93       7.7  T
   5   -191.2017732 -0.690819E-07  0.627E-04    1.93      14.7  T
   6   -191.2017732 -0.118532E-07  0.317E-04    1.93      29.1  T
   7   -191.2017732 -0.375303E-08  0.116E-04    1.93      79.9  T
   8   -191.2017732 -0.896648E-09  0.540E-05    1.93     171.1  T
     SCC iter.                  ...        0 min,  0.199 sec
     gradient                   ...        0 min,  0.332 sec
 * total energy  :  -188.2378252 Eh     change       -0.1034970E-03 Eh
   gradient norm :     0.0041941 Eh/α   predicted     0.0000000E+00 (-100.00%)
   displ. norm   :     0.0449596 α      lambda       -0.1979225E-04
   maximum displ.:     0.0207935 α      in ANC's #30, #31, #16, ...

........................................................................
.............................. CYCLE   94 ..............................
........................................................................

 iter      E             dE          RMSdq      gap      omega  full diag
   1   -191.2024285 -0.191202E+03  0.843E-03    1.93       0.0  T
   2   -191.2024286 -0.147475E-06  0.497E-03    1.93       1.9  T
   3   -191.2024283  0.364498E-06  0.203E-03    1.93       4.5  T
   4   -191.2024287 -0.420066E-06  0.504E-04    1.93      18.4  T
   5   -191.2024287 -0.206157E-07  0.169E-04    1.93      54.7  T
   6   -191.2024287 -0.573550E-10  0.942E-05    1.93      98.1  T
     SCC iter.                  ...        0 min,  0.128 sec
     gradient                   ...        0 min,  0.233 sec
 * total energy  :  -188.2378663 Eh     change       -0.4110008E-04 Eh
   gradient norm :     0.0024565 Eh/α   predicted    -0.2415575E-04 ( -41.23%)
   displ. norm   :     0.1637481 α      lambda       -0.1149618E-03
   maximum displ.:     0.0787242 α      in ANC's #30, #31, #16, ...

........................................................................
.............................. CYCLE   95 ..............................
........................................................................

 iter      E             dE          RMSdq      gap      omega  full diag
   1   -191.2029821 -0.191203E+03  0.266E-02    1.93       0.0  T
   2   -191.2029833 -0.121471E-05  0.157E-02    1.93       1.0  T
   3   -191.2029803  0.302279E-05  0.570E-03    1.93       1.6  T
   4   -191.2029837 -0.342446E-05  0.147E-03    1.93       6.3  T
   5   -191.2029839 -0.187036E-06  0.509E-04    1.93      18.2  T
   6   -191.2029839 -0.568093E-09  0.285E-04    1.93      32.4  T
   7   -191.2029839 -0.518696E-08  0.875E-05    1.93     105.7  T
   8   -191.2029839 -0.245109E-09  0.474E-05    1.93     195.0  T
     SCC iter.                  ...        0 min,  0.192 sec
     gradient                   ...        0 min,  0.268 sec
 * total energy  :  -188.2379380 Eh     change       -0.7164217E-04 Eh
   gradient norm :     0.0025109 Eh/α   predicted    -0.5902255E-04 ( -17.61%)
   displ. norm   :     0.1111396 α      lambda       -0.3958403E-04
   maximum displ.:     0.0542981 α      in ANC's #30, #16, #31, ...

........................................................................
.............................. CYCLE   96 ..............................
........................................................................

 iter      E             dE          RMSdq      gap      omega  full diag
   1   -191.2028000 -0.191203E+03  0.149E-02    1.93       0.0  T
   2   -191.2028002 -0.224282E-06  0.881E-03    1.93       1.0  T
   3   -191.2027996  0.602343E-06  0.241E-03    1.93       3.8  T
   4   -191.2028003 -0.676150E-06  0.618E-04    1.93      15.0  T
   5   -191.2028003 -0.329197E-07  0.243E-04    1.93      38.1  T
   6   -191.2028003 -0.808313E-10  0.127E-04    1.93      72.9  T
   7   -191.2028003 -0.111660E-08  0.377E-05    1.93     245.5  T
     SCC iter.                  ...        0 min,  0.170 sec
     gradient                   ...        0 min,  0.270 sec
 * total energy  :  -188.2379711 Eh     change       -0.3315265E-04 Eh
   gradient norm :     0.0034533 Eh/α   predicted    -0.2003691E-04 ( -39.56%)
   displ. norm   :     0.3031029 α      lambda       -0.1091924E-03
   maximum displ.:     0.1451919 α      in ANC's #30, #16, #2, ...

........................................................................
.............................. CYCLE   97 ..............................
........................................................................

 iter      E             dE          RMSdq      gap      omega  full diag
   1   -191.2014346 -0.191201E+03  0.382E-02    1.94       0.0  T
   2   -191.2014358 -0.119416E-05  0.226E-02    1.94       1.0  T
   3   -191.2014329  0.291602E-05  0.510E-03    1.94       1.8  T
   4   -191.2014362 -0.330663E-05  0.123E-03    1.94       7.5  T
   5   -191.2014363 -0.125014E-06  0.541E-04    1.94      17.1  T
   6   -191.2014363 -0.140284E-08  0.266E-04    1.94      34.8  T
   7   -191.2014363 -0.457553E-08  0.779E-05    1.94     118.7  T
   8   -191.2014363 -0.266880E-09  0.375E-05    1.94     246.7  T
     SCC iter.                  ...        0 min,  0.222 sec
     gradient                   ...        0 min,  0.291 sec
 * total energy  :  -188.2380465 Eh     change       -0.7539641E-04 Eh
   gradient norm :     0.0050514 Eh/α   predicted    -0.5961423E-04 ( -20.93%)
   displ. norm   :     0.2202040 α      lambda       -0.8829458E-04
   maximum displ.:     0.0911478 α      in ANC's #30, #2, #16, ...

........................................................................
.............................. CYCLE   98 ..............................
........................................................................

 iter      E             dE          RMSdq      gap      omega  full diag
   1   -191.2008448 -0.191201E+03  0.269E-02    1.94       0.0  T
   2   -191.2008453 -0.529953E-06  0.159E-02    1.94       1.0  T
   3   -191.2008445  0.867541E-06  0.279E-03    1.94       3.3  T
   4   -191.2008455 -0.995712E-06  0.687E-04    1.94      13.4  T
   5   -191.2008455 -0.378762E-07  0.309E-04    1.94      29.9  T
   6   -191.2008455 -0.146281E-08  0.142E-04    1.94      65.2  T
   7   -191.2008455 -0.630450E-09  0.477E-05    1.94     193.9  T
     SCC iter.                  ...        0 min,  0.259 sec
     gradient                   ...        0 min,  0.281 sec
 * total energy  :  -188.2381150 Eh     change       -0.6850030E-04 Eh
   gradient norm :     0.0047326 Eh/α   predicted    -0.4629382E-04 ( -32.42%)
   displ. norm   :     0.2324339 α      lambda       -0.1329333E-03
   maximum displ.:     0.0757967 α      in ANC's #2, #1, #30, ...

........................................................................
.............................. CYCLE   99 ..............................
........................................................................

 iter      E             dE          RMSdq      gap      omega  full diag
   1   -191.2019484 -0.191202E+03  0.306E-02    1.94       0.0  T
   2   -191.2019494 -0.106633E-05  0.180E-02    1.94       1.0  T
   3   -191.2019486  0.774069E-06  0.300E-03    1.94       3.1  T
   4   -191.2019495 -0.886780E-06  0.109E-03    1.94       8.5  T
   5   -191.2019496 -0.104911E-06  0.414E-04    1.94      22.3  T
   6   -191.2019496 -0.203084E-08  0.229E-04    1.94      40.4  T
   7   -191.2019496 -0.245353E-08  0.767E-05    1.94     120.6  T
   8   -191.2019496 -0.336797E-09  0.383E-05    1.94     241.2  T
     SCC iter.                  ...        0 min,  0.220 sec
     gradient                   ...        0 min,  0.348 sec
 * total energy  :  -188.2381973 Eh     change       -0.8224165E-04 Eh
   gradient norm :     0.0030342 Eh/α   predicted    -0.7005764E-04 ( -14.81%)
   displ. norm   :     0.3118317 α      lambda       -0.7406603E-04
   maximum displ.:     0.1280861 α      in ANC's #30, #2, #1, ...

........................................................................
.............................. CYCLE  100 ..............................
........................................................................

 iter      E             dE          RMSdq      gap      omega  full diag
   1   -191.2001789 -0.191200E+03  0.368E-02    1.95       0.0  T
   2   -191.2001802 -0.135149E-05  0.216E-02    1.94       1.0  T
   3   -191.2001794  0.835540E-06  0.321E-03    1.94       2.9  T
   4   -191.2001804 -0.953482E-06  0.115E-03    1.94       8.0  T
   5   -191.2001805 -0.124278E-06  0.441E-04    1.94      21.0  T
   6   -191.2001805 -0.113616E-08  0.237E-04    1.94      39.1  T
   7   -191.2001805 -0.347191E-08  0.737E-05    1.94     125.5  T
   8   -191.2001805 -0.482089E-09  0.312E-05    1.94     296.2  T
     SCC iter.                  ...        0 min,  0.228 sec
     gradient                   ...        0 min,  0.323 sec
 * total energy  :  -188.2382269 Eh     change       -0.2966863E-04 Eh
   gradient norm :     0.0055121 Eh/α   predicted    -0.4065184E-04 (  37.02%)
   displ. norm   :     0.0619335 α      lambda       -0.7230692E-04
   maximum displ.:     0.0251915 α      in ANC's #1, #2, #5, ...

........................................................................
.............................. CYCLE  101 ..............................
........................................................................

 iter      E             dE          RMSdq      gap      omega  full diag
   1   -191.2025758 -0.191203E+03  0.120E-02    1.94       0.0  T
   2   -191.2025763 -0.446081E-06  0.702E-03    1.94       1.3  T
   3   -191.2025755  0.784678E-06  0.280E-03    1.94       3.3  T
   4   -191.2025764 -0.920926E-06  0.720E-04    1.94      12.8  T
   5   -191.2025765 -0.435828E-07  0.288E-04    1.94      32.1  T
   6   -191.2025765 -0.386677E-09  0.178E-04    1.94      52.1  T
   7   -191.2025765 -0.227575E-08  0.577E-05    1.94     160.1  T
     SCC iter.                  ...        0 min,  0.220 sec
     gradient                   ...        0 min,  0.290 sec
 * total energy  :  -188.2382771 Eh     change       -0.5012253E-04 Eh
   gradient norm :     0.0027376 Eh/α   predicted    -0.3632720E-04 ( -27.52%)
   displ. norm   :     0.2070559 α      lambda       -0.6539718E-04
   maximum displ.:     0.0847831 α      in ANC's #1, #2, #5, ...

........................................................................
.............................. CYCLE  102 ..............................
........................................................................

 iter      E             dE          RMSdq      gap      omega  full diag
   1   -191.2034186 -0.191203E+03  0.239E-02    1.94       0.0  T
   2   -191.2034191 -0.480504E-06  0.141E-02    1.94       1.0  T
   3   -191.2034157  0.337073E-05  0.520E-03    1.94       1.8  T
   4   -191.2034196 -0.380894E-05  0.715E-04    1.94      12.9  T
   5   -191.2034196 -0.178182E-07  0.379E-04    1.94      24.4  T
   6   -191.2034196 -0.298701E-08  0.200E-04    1.94      46.2  T
   7   -191.2034196 -0.247724E-08  0.812E-05    1.94     113.9  T
   8   -191.2034196 -0.395801E-09  0.392E-05    1.94     235.9  T
     SCC iter.                  ...        0 min,  0.244 sec
     gradient                   ...        0 min,  0.328 sec
 * total energy  :  -188.2383292 Eh     change       -0.5216102E-04 Eh
   gradient norm :     0.0023992 Eh/α   predicted    -0.3411075E-04 ( -34.60%)
   displ. norm   :     0.3444036 α      lambda       -0.8776649E-04
   maximum displ.:     0.1461666 α      in ANC's #1, #2, #5, ...

........................................................................
.............................. CYCLE  103 ..............................
........................................................................

 iter      E             dE          RMSdq      gap      omega  full diag
   1   -191.2024766 -0.191202E+03  0.371E-02    1.94       0.0  T
   2   -191.2024779 -0.139333E-05  0.220E-02    1.95       1.0  T
   3   -191.2024697  0.819911E-05  0.821E-03    1.94       1.1  T
   4   -191.2024790 -0.927379E-05  0.115E-03    1.95       8.0  T
   5   -191.2024791 -0.553044E-07  0.586E-04    1.95      15.8  T
   6   -191.2024791 -0.712535E-08  0.308E-04    1.95      30.0  T
   7   -191.2024791 -0.495331E-08  0.128E-04    1.95      72.2  T
   8   -191.2024791 -0.107144E-08  0.580E-05    1.95     159.5  T
     SCC iter.                  ...        0 min,  0.242 sec
     gradient                   ...        0 min,  0.303 sec
 * total energy  :  -188.2383921 Eh     change       -0.6283964E-04 Eh
   gradient norm :     0.0034187 Eh/α   predicted    -0.4909443E-04 ( -21.87%)
   displ. norm   :     0.2374757 α      lambda       -0.6925641E-04
   maximum displ.:     0.1163120 α      in ANC's #1, #2, #5, ...

........................................................................
.............................. CYCLE  104 ..............................
........................................................................

 iter      E             dE          RMSdq      gap      omega  full diag
   1   -191.2028190 -0.191203E+03  0.264E-02    1.94       0.0  T
   2   -191.2028203 -0.128010E-05  0.157E-02    1.95       1.0  T
   3   -191.2028153  0.495727E-05  0.668E-03    1.95       1.4  T
   4   -191.2028210 -0.574444E-05  0.114E-03    1.95       8.1  T
   5   -191.2028211 -0.673932E-07  0.524E-04    1.95      17.7  T
   6   -191.2028211 -0.641418E-08  0.278E-04    1.95      33.3  T
   7   -191.2028211 -0.397259E-08  0.105E-04    1.95      87.7  T
   8   -191.2028211 -0.438860E-09  0.511E-05    1.95     181.0  T
     SCC iter.                  ...        0 min,  0.263 sec
     gradient                   ...        0 min,  0.307 sec
 * total energy  :  -188.2384377 Eh     change       -0.4564210E-04 Eh
   gradient norm :     0.0036920 Eh/α   predicted    -0.3659121E-04 ( -19.83%)
   displ. norm   :     0.2258449 α      lambda       -0.5038400E-04
   maximum displ.:     0.1145877 α      in ANC's #1, #2, #5, ...

........................................................................
.............................. CYCLE  105 ..............................
........................................................................

 iter      E             dE          RMSdq      gap      omega  full diag
   1   -191.2021655 -0.191202E+03  0.220E-02    1.95       0.0  T
   2   -191.2021664 -0.906896E-06  0.130E-02    1.95       1.0  T
   3   -191.2021643  0.206399E-05  0.463E-03    1.95       2.0  T
   4   -191.2021667 -0.240506E-05  0.942E-04    1.95       9.8  T
   5   -191.2021668 -0.591386E-07  0.404E-04    1.95      22.9  T
   6   -191.2021668 -0.283254E-08  0.220E-04    1.95      41.9  T
   7   -191.2021668 -0.312872E-08  0.794E-05    1.95     116.4  T
   8   -191.2021668 -0.252243E-09  0.398E-05    1.95     232.5  T
     SCC iter.                  ...        0 min,  0.283 sec
     gradient                   ...        0 min,  0.294 sec
 * total energy  :  -188.2384760 Eh     change       -0.3829101E-04 Eh
   gradient norm :     0.0034588 Eh/α   predicted    -0.2647780E-04 ( -30.85%)
   displ. norm   :     0.2718317 α      lambda       -0.1106135E-03
   maximum displ.:     0.1461916 α      in ANC's #1, #2, #5, ...

........................................................................
.............................. CYCLE  106 ..............................
........................................................................

 iter      E             dE          RMSdq      gap      omega  full diag
   1   -191.2043328 -0.191204E+03  0.340E-02    1.94       0.0  T
   2   -191.2043354 -0.266186E-05  0.199E-02    1.94       1.0  T
   3   -191.2043295  0.589808E-05  0.808E-03    1.94       1.1  T
   4   -191.2043364 -0.689456E-05  0.172E-03    1.94       5.4  T
   5   -191.2043366 -0.236067E-06  0.710E-04    1.94      13.0  T
   6   -191.2043367 -0.130288E-07  0.425E-04    1.94      21.8  T
   7   -191.2043367 -0.128888E-07  0.145E-04    1.94      63.5  T
   8   -191.2043367 -0.111567E-08  0.693E-05    1.94     133.5  T
     SCC iter.                  ...        0 min,  0.331 sec
     gradient                   ...        0 min,  0.373 sec
 * total energy  :  -188.2385277 Eh     change       -0.5170527E-04 Eh
   gradient norm :     0.0035691 Eh/α   predicted    -0.5939524E-04 (  14.87%)
   displ. norm   :     0.2696828 α      lambda       -0.7012647E-04
   maximum displ.:     0.1435793 α      in ANC's #1, #2, #5, ...

........................................................................
.............................. CYCLE  107 ..............................
........................................................................

 iter      E             dE          RMSdq      gap      omega  full diag
   1   -191.2018133 -0.191202E+03  0.252E-02    1.94       0.0  T
   2   -191.2018147 -0.136942E-05  0.148E-02    1.94       1.0  T
   3   -191.2018123  0.237537E-05  0.514E-03    1.94       1.8  T
   4   -191.2018150 -0.269870E-05  0.117E-03    1.94       7.9  T
   5   -191.2018152 -0.121140E-06  0.456E-04    1.94      20.3  T
   6   -191.2018152 -0.549593E-08  0.264E-04    1.94      35.0  T
   7   -191.2018152 -0.375374E-08  0.971E-05    1.94      95.2  T
   8   -191.2018152 -0.745871E-09  0.368E-05    1.94     251.2  T
     SCC iter.                  ...        0 min,  0.288 sec
     gradient                   ...        0 min,  0.305 sec
 * total energy  :  -188.2385639 Eh     change       -0.3615971E-04 Eh
   gradient norm :     0.0044908 Eh/α   predicted    -0.3761569E-04 (   4.03%)
   displ. norm   :     0.0555425 α      lambda       -0.3899113E-04
   maximum displ.:     0.0310184 α      in ANC's #1, #2, #61, ...

........................................................................
.............................. CYCLE  108 ..............................
........................................................................

 iter      E             dE          RMSdq      gap      omega  full diag
   1   -191.2026140 -0.191203E+03  0.960E-03    1.94       0.0  T
   2   -191.2026142 -0.282567E-06  0.560E-03    1.94       1.7  T
   3   -191.2026139  0.290757E-06  0.185E-03    1.94       5.0  T
   4   -191.2026143 -0.355256E-06  0.509E-04    1.94      18.2  T
   5   -191.2026143 -0.196809E-07  0.232E-04    1.94      39.9  T
   6   -191.2026143 -0.163158E-08  0.137E-04    1.94      67.4  T
   7   -191.2026143 -0.131467E-08  0.509E-05    1.94     181.6  T
     SCC iter.                  ...        0 min,  0.248 sec
     gradient                   ...        0 min,  0.279 sec
 * total energy  :  -188.2385960 Eh     change       -0.3210970E-04 Eh
   gradient norm :     0.0032680 Eh/α   predicted    -0.1955898E-04 ( -39.09%)
   displ. norm   :     0.1974442 α      lambda       -0.8663601E-04
   maximum displ.:     0.1215651 α      in ANC's #1, #2, #6, ...

........................................................................
.............................. CYCLE  109 ..............................
........................................................................

 iter      E             dE          RMSdq      gap      omega  full diag
   1   -191.2035897 -0.191204E+03  0.256E-02    1.94       0.0  T
   2   -191.2035914 -0.168214E-05  0.150E-02    1.94       1.0  T
   3   -191.2035885  0.289878E-05  0.556E-03    1.94       1.7  T
   4   -191.2035919 -0.346678E-05  0.129E-03    1.94       7.2  T
   5   -191.2035920 -0.112790E-06  0.573E-04    1.94      16.1  T
   6   -191.2035921 -0.820464E-08  0.321E-04    1.94      28.8  T
   7   -191.2035921 -0.646787E-08  0.126E-04    1.94      73.5  T
   8   -191.2035921 -0.670894E-09  0.660E-05    1.94     140.1  T
     SCC iter.                  ...        0 min,  0.245 sec
     gradient                   ...        0 min,  0.306 sec
 * total energy  :  -188.2386512 Eh     change       -0.5527443E-04 Eh
   gradient norm :     0.0023347 Eh/α   predicted    -0.4501005E-04 ( -18.57%)
   displ. norm   :     0.2416421 α      lambda       -0.4771545E-04
   maximum displ.:     0.1559400 α      in ANC's #1, #2, #30, ...

........................................................................
.............................. CYCLE  110 ..............................
........................................................................

 iter      E             dE          RMSdq      gap      omega  full diag
   1   -191.2029569 -0.191203E+03  0.211E-02    1.94       0.0  T
   2   -191.2029575 -0.550770E-06  0.124E-02    1.94       1.0  T
   3   -191.2029552  0.230173E-05  0.466E-03    1.94       2.0  T
   4   -191.2029578 -0.266365E-05  0.770E-04    1.94      12.0  T
   5   -191.2029578 -0.299383E-07  0.402E-04    1.94      23.0  T
   6   -191.2029579 -0.556071E-08  0.190E-04    1.94      48.5  T
   7   -191.2029579 -0.135580E-08  0.786E-05    1.94     117.6  T
     SCC iter.                  ...        0 min,  0.250 sec
     gradient                   ...        0 min,  0.321 sec
 * total energy  :  -188.2386886 Eh     change       -0.3732256E-04 Eh
   gradient norm :     0.0030946 Eh/α   predicted    -0.2525108E-04 ( -32.34%)
   displ. norm   :     0.2534951 α      lambda       -0.5188824E-04
   maximum displ.:     0.1676526 α      in ANC's #1, #2, #43, ...

........................................................................
.............................. CYCLE  111 ..............................
........................................................................

 iter      E             dE          RMSdq      gap      omega  full diag
   1   -191.2024709 -0.191202E+03  0.200E-02    1.94       0.0  T
   2   -191.2024715 -0.552490E-06  0.119E-02    1.94       1.0  T
   3   -191.2024688  0.273406E-05  0.520E-03    1.94       1.8  T
   4   -191.2024719 -0.317010E-05  0.730E-04    1.94      12.7  T
   5   -191.2024720 -0.314849E-07  0.353E-04    1.94      26.2  T
   6   -191.2024720 -0.409889E-08  0.170E-04    1.94      54.4  T
   7   -191.2024720 -0.863764E-09  0.668E-05    1.94     138.5  T
     SCC iter.                  ...        0 min,  0.170 sec
     gradient                   ...        0 min,  0.311 sec
 * total energy  :  -188.2387322 Eh     change       -0.4361422E-04 Eh
   gradient norm :     0.0029003 Eh/α   predicted    -0.2761420E-04 ( -36.69%)
   displ. norm   :     0.3053998 α      lambda       -0.6384103E-04
   maximum displ.:     0.2096031 α      in ANC's #1, #2, #43, ...

........................................................................
.............................. CYCLE  112 ..............................
........................................................................

 iter      E             dE          RMSdq      gap      omega  full diag
   1   -191.2023684 -0.191202E+03  0.230E-02    1.94       0.0  T
   2   -191.2023694 -0.977905E-06  0.136E-02    1.94       1.0  T
   3   -191.2023655  0.394632E-05  0.649E-03    1.94       1.4  T
   4   -191.2023701 -0.465776E-05  0.953E-04    1.94       9.7  T
   5   -191.2023702 -0.632081E-07  0.410E-04    1.94      22.5  T
   6   -191.2023702 -0.499497E-08  0.212E-04    1.94      43.7  T
   7   -191.2023702 -0.139133E-08  0.901E-05    1.94     102.6  T
   8   -191.2023702 -0.561045E-09  0.414E-05    1.94     223.1  T
     SCC iter.                  ...        0 min,  0.277 sec
     gradient                   ...        0 min,  0.332 sec
 * total energy  :  -188.2387838 Eh     change       -0.5160534E-04 Eh
   gradient norm :     0.0027011 Eh/α   predicted    -0.3489727E-04 ( -32.38%)
   displ. norm   :     0.3155932 α      lambda       -0.6002469E-04
   maximum displ.:     0.2230802 α      in ANC's #1, #2, #43, ...

........................................................................
.............................. CYCLE  113 ..............................
........................................................................

 iter      E             dE          RMSdq      gap      omega  full diag
   1   -191.2022544 -0.191202E+03  0.236E-02    1.94       0.0  T
   2   -191.2022554 -0.998851E-06  0.140E-02    1.93       1.0  T
   3   -191.2022511  0.431048E-05  0.684E-03    1.93       1.4  T
   4   -191.2022562 -0.512332E-05  0.960E-04    1.93       9.6  T
   5   -191.2022563 -0.606757E-07  0.427E-04    1.93      21.6  T
   6   -191.2022563 -0.456023E-08  0.215E-04    1.93      43.0  T
   7   -191.2022563 -0.159156E-08  0.856E-05    1.93     108.0  T
   8   -191.2022563 -0.508436E-09  0.399E-05    1.93     231.8  T
     SCC iter.                  ...        0 min,  0.267 sec
     gradient                   ...        0 min,  0.312 sec
 * total energy  :  -188.2388334 Eh     change       -0.4962260E-04 Eh
   gradient norm :     0.0028529 Eh/α   predicted    -0.3300096E-04 ( -33.50%)
   displ. norm   :     0.3153650 α      lambda       -0.6292929E-04
   maximum displ.:     0.2304361 α      in ANC's #1, #2, #43, ...

........................................................................
.............................. CYCLE  114 ..............................
........................................................................

 iter      E             dE          RMSdq      gap      omega  full diag
   1   -191.2029934 -0.191203E+03  0.239E-02    1.93       0.0  T
   2   -191.2029943 -0.927024E-06  0.141E-02    1.93       1.0  T
   3   -191.2029899  0.447353E-05  0.694E-03    1.93       1.3  T
   4   -191.2029952 -0.532811E-05  0.937E-04    1.93       9.9  T
   5   -191.2029952 -0.510697E-07  0.440E-04    1.93      21.0  T
   6   -191.2029952 -0.546638E-08  0.205E-04    1.93      45.1  T
   7   -191.2029952 -0.137948E-08  0.820E-05    1.93     112.7  T
   8   -191.2029952 -0.397847E-09  0.384E-05    1.93     240.9  T
     SCC iter.                  ...        0 min,  0.315 sec
     gradient                   ...        0 min,  0.307 sec
 * total energy  :  -188.2388853 Eh     change       -0.5189204E-04 Eh
   gradient norm :     0.0026869 Eh/α   predicted    -0.3459345E-04 ( -33.34%)
   displ. norm   :     0.3874280 α      lambda       -0.7004683E-04
   maximum displ.:     0.2777745 α      in ANC's #1, #2, #43, ...

........................................................................
.............................. CYCLE  115 ..............................
........................................................................

 iter      E             dE          RMSdq      gap      omega  full diag
   1   -191.2019757 -0.191202E+03  0.295E-02    1.92       0.0  T
   2   -191.2019773 -0.151793E-05  0.173E-02    1.92       1.0  T
   3   -191.2019705  0.677029E-05  0.850E-03    1.92       1.1  T
   4   -191.2019785 -0.800512E-05  0.113E-03    1.92       8.2  T
   5   -191.2019786 -0.728513E-07  0.536E-04    1.92      17.3  T
   6   -191.2019786 -0.840211E-08  0.265E-04    1.92      34.8  T
   7   -191.2019786 -0.258768E-08  0.113E-04    1.92      81.9  T
   8   -191.2019786 -0.949399E-09  0.490E-05    1.92     188.6  T
     SCC iter.                  ...        0 min,  0.337 sec
     gradient                   ...        0 min,  0.355 sec
 * total energy  :  -188.2389392 Eh     change       -0.5387950E-04 Eh
   gradient norm :     0.0037228 Eh/α   predicted    -0.4028149E-04 ( -25.24%)
   displ. norm   :     0.3839735 α      lambda       -0.9401020E-04
   maximum displ.:     0.2903035 α      in ANC's #1, #2, #35, ...

........................................................................
.............................. CYCLE  116 ..............................
........................................................................

 iter      E             dE          RMSdq      gap      omega  full diag
   1   -191.2037664 -0.191204E+03  0.294E-02    1.92       0.0  T
   2   -191.2037677 -0.127701E-05  0.173E-02    1.91       1.0  T
   3   -191.2037611  0.657017E-05  0.815E-03    1.91       1.1  T
   4   -191.2037688 -0.772934E-05  0.114E-03    1.91       8.1  T
   5   -191.2037689 -0.668297E-07  0.571E-04    1.91      16.2  T
   6   -191.2037689 -0.134085E-07  0.264E-04    1.91      35.0  T
   7   -191.2037689 -0.221371E-08  0.129E-04    1.91      71.4  T
   8   -191.2037689 -0.139542E-08  0.494E-05    1.91     187.2  T
     SCC iter.                  ...        0 min,  0.320 sec
     gradient                   ...        0 min,  0.348 sec
 * total energy  :  -188.2390040 Eh     change       -0.6481750E-04 Eh
   gradient norm :     0.0028116 Eh/α   predicted    -0.5393692E-04 ( -16.79%)
   displ. norm   :     0.4403902 α      lambda       -0.7733340E-04
   maximum displ.:     0.3245368 α      in ANC's #1, #2, #47, ...

........................................................................
.............................. CYCLE  117 ..............................
........................................................................

 iter      E             dE          RMSdq      gap      omega  full diag
   1   -191.2028210 -0.191203E+03  0.327E-02    1.90       0.0  T
   2   -191.2028228 -0.173040E-05  0.192E-02    1.90       1.0  T
   3   -191.2028141  0.864963E-05  0.921E-03    1.90       1.0  T
   4   -191.2028242 -0.100954E-04  0.123E-03    1.90       7.5  T
   5   -191.2028243 -0.924977E-07  0.589E-04    1.90      15.7  T
   6   -191.2028243 -0.116488E-07  0.313E-04    1.90      29.6  T
   7   -191.2028243 -0.362175E-08  0.137E-04    1.90      67.3  T
   8   -191.2028243 -0.158576E-08  0.538E-05    1.90     171.9  T
     SCC iter.                  ...        0 min,  0.228 sec
     gradient                   ...        0 min,  0.310 sec
 * total energy  :  -188.2390658 Eh     change       -0.6180344E-04 Eh
   gradient norm :     0.0038254 Eh/α   predicted    -0.4616467E-04 ( -25.30%)
   displ. norm   :     0.4161521 α      lambda       -0.8117077E-04
   maximum displ.:     0.3122944 α      in ANC's #1, #2, #47, ...

........................................................................
.............................. CYCLE  118 ..............................
........................................................................

 iter      E             dE          RMSdq      gap      omega  full diag
   1   -191.2022950 -0.191202E+03  0.313E-02    1.90       0.0  T
   2   -191.2022963 -0.133995E-05  0.184E-02    1.90       1.0  T
   3   -191.2022884  0.789500E-05  0.845E-03    1.90       1.1  T
   4   -191.2022975 -0.908618E-05  0.109E-03    1.90       8.4  T
   5   -191.2022976 -0.752281E-07  0.531E-04    1.90      17.4  T
   6   -191.2022976 -0.850468E-08  0.292E-04    1.90      31.6  T
   7   -191.2022976 -0.296546E-08  0.129E-04    1.90      71.9  T
   8   -191.2022976 -0.151920E-08  0.468E-05    1.90     197.5  T
     SCC iter.                  ...        0 min,  0.327 sec
     gradient                   ...        0 min,  0.285 sec
 * total energy  :  -188.2391356 Eh     change       -0.6975878E-04 Eh
   gradient norm :     0.0041559 Eh/α   predicted    -0.4761436E-04 ( -31.74%)
   displ. norm   :     0.4724855 α      lambda       -0.1229824E-03
   maximum displ.:     0.3585325 α      in ANC's #1, #2, #47, ...

........................................................................
.............................. CYCLE  119 ..............................
........................................................................

 iter      E             dE          RMSdq      gap      omega  full diag
   1   -191.2032737 -0.191203E+03  0.402E-02    1.89       0.0  T
   2   -191.2032753 -0.165080E-05  0.234E-02    1.89       1.0  T
   3   -191.2032644  0.108889E-04  0.960E-03    1.89       1.0  T
   4   -191.2032768 -0.123937E-04  0.128E-03    1.89       7.2  T
   5   -191.2032769 -0.895897E-07  0.651E-04    1.89      14.2  T
   6   -191.2032769 -0.114384E-07  0.348E-04    1.89      26.5  T
   7   -191.2032769 -0.488674E-08  0.155E-04    1.89      59.8  T
   8   -191.2032769 -0.198497E-08  0.625E-05    1.89     147.8  T
     SCC iter.                  ...        0 min,  0.244 sec
     gradient                   ...        0 min,  0.295 sec
 * total energy  :  -188.2392321 Eh     change       -0.9655527E-04 Eh
   gradient norm :     0.0037688 Eh/α   predicted    -0.7521447E-04 ( -22.10%)
   displ. norm   :     0.5756002 α      lambda       -0.1158697E-03
   maximum displ.:     0.4375163 α      in ANC's #1, #2, #47, ...

........................................................................
.............................. CYCLE  120 ..............................
........................................................................

 iter      E             dE          RMSdq      gap      omega  full diag
   1   -191.2019072 -0.191202E+03  0.471E-02    1.89       0.0  T
   2   -191.2019102 -0.299236E-05  0.274E-02    1.89       1.0  T
   3   -191.2018969  0.133126E-04  0.109E-02    1.89       1.0  T
   4   -191.2019122 -0.152439E-04  0.166E-03    1.89       5.6  T
   5   -191.2019123 -0.177822E-06  0.754E-04    1.89      12.3  T
   6   -191.2019124 -0.116925E-07  0.414E-04    1.89      22.3  T
   7   -191.2019124 -0.610979E-08  0.182E-04    1.89      50.7  T
   8   -191.2019124 -0.263603E-08  0.769E-05    1.89     120.3  T
     SCC iter.                  ...        0 min,  0.265 sec
     gradient                   ...        0 min,  0.291 sec
 * total energy  :  -188.2393221 Eh     change       -0.8994326E-04 Eh
   gradient norm :     0.0049538 Eh/α   predicted    -0.7712477E-04 ( -14.25%)
   displ. norm   :     0.5522171 α      lambda       -0.1242583E-03
   maximum displ.:     0.4241691 α      in ANC's #1, #2, #47, ...
 * RMSD in coord.:     0.5839978 α      energy gain  -0.1600319E-02 Eh

generating ANC from exact Hessian ...
Using Lindh-Hessian (1995)
 Shifting diagonal of input Hessian by    1.0072526129181048E-002
 Lowest  eigenvalues of input Hessian
    0.010000    0.000000    0.000000    0.000000    0.000000    0.000000
    0.000000    0.010136    0.010171    0.010232    0.010310    0.010339
    0.010458    0.010551    0.010609    0.010708    0.010853    0.010895
 Highest eigenvalues
    2.160821    2.224114    2.330511    2.338350    2.347346    3.158271


........................................................................
.............................. CYCLE  121 ..............................
........................................................................

 iter      E             dE          RMSdq      gap      omega  full diag
   1   -191.2016157 -0.191202E+03  0.473E-02    1.89       0.0  T
   2   -191.2016180 -0.230933E-05  0.275E-02    1.89       1.0  T
   3   -191.2016092  0.880311E-05  0.875E-03    1.89       1.1  T
   4   -191.2016193 -0.101055E-04  0.153E-03    1.89       6.0  T
   5   -191.2016195 -0.151645E-06  0.709E-04    1.89      13.0  T
   6   -191.2016195 -0.941776E-08  0.359E-04    1.89      25.7  T
   7   -191.2016195 -0.495959E-08  0.159E-04    1.89      58.1  T
   8   -191.2016195 -0.150078E-08  0.759E-05    1.89     121.7  T
     SCC iter.                  ...        0 min,  0.251 sec
     gradient                   ...        0 min,  0.278 sec
 * total energy  :  -188.2394145 Eh     change       -0.9242471E-04 Eh
   gradient norm :     0.0047454 Eh/α   predicted     0.0000000E+00 (-100.00%)
   displ. norm   :     0.0387876 α      lambda       -0.5108507E-04
   maximum displ.:     0.0122050 α      in ANC's #42, #22, #31, ...

........................................................................
.............................. CYCLE  122 ..............................
........................................................................

 iter      E             dE          RMSdq      gap      omega  full diag
   1   -191.2036410 -0.191204E+03  0.911E-03    1.90       0.0  T
   2   -191.2036413 -0.274884E-06  0.536E-03    1.89       1.7  T
   3   -191.2036405  0.797612E-06  0.316E-03    1.90       2.9  T
   4   -191.2036415 -0.102875E-05  0.426E-04    1.90      21.7  T
   5   -191.2036415 -0.922915E-08  0.202E-04    1.90      45.8  T
   6   -191.2036415 -0.505452E-09  0.112E-04    1.90      82.4  T
   7   -191.2036415 -0.472397E-09  0.483E-05    1.90     191.4  T
     SCC iter.                  ...        0 min,  0.179 sec
     gradient                   ...        0 min,  0.354 sec
 * total energy  :  -188.2394567 Eh     change       -0.4218418E-04 Eh
   gradient norm :     0.0023802 Eh/α   predicted    -0.2682756E-04 ( -36.40%)
   displ. norm   :     0.0974649 α      lambda       -0.7012932E-04
   maximum displ.:     0.0325715 α      in ANC's #42, #1, #22, ...

........................................................................
.............................. CYCLE  123 ..............................
........................................................................

 iter      E             dE          RMSdq      gap      omega  full diag
   1   -191.2056295 -0.191206E+03  0.202E-02    1.91       0.0  T
   2   -191.2056304 -0.957523E-06  0.119E-02    1.90       1.0  T
   3   -191.2056264  0.407486E-05  0.674E-03    1.90       1.4  T
   4   -191.2056314 -0.506843E-05  0.842E-04    1.90      11.0  T
   5   -191.2056315 -0.299433E-07  0.425E-04    1.90      21.8  T
   6   -191.2056315 -0.209900E-08  0.233E-04    1.90      39.7  T
   7   -191.2056315 -0.275361E-08  0.107E-04    1.90      86.6  T
   8   -191.2056315 -0.966821E-09  0.421E-05    1.90     219.8  T
     SCC iter.                  ...        0 min,  0.277 sec
     gradient                   ...        0 min,  0.311 sec
 * total energy  :  -188.2395026 Eh     change       -0.4595625E-04 Eh
   gradient norm :     0.0021655 Eh/α   predicted    -0.3539801E-04 ( -22.97%)
   displ. norm   :     0.0888292 α      lambda       -0.3310858E-04
   maximum displ.:     0.0315661 α      in ANC's #42, #1, #22, ...

........................................................................
.............................. CYCLE  124 ..............................
........................................................................

 iter      E             dE          RMSdq      gap      omega  full diag
   1   -191.2057451 -0.191206E+03  0.163E-02    1.91       0.0  T
   2   -191.2057455 -0.445118E-06  0.960E-03    1.91       1.0  T
   3   -191.2057431  0.242043E-05  0.495E-03    1.91       1.9  T
   4   -191.2057460 -0.289949E-05  0.626E-04    1.91      14.8  T
   5   -191.2057460 -0.146122E-07  0.323E-04    1.91      28.6  T
   6   -191.2057460 -0.616325E-09  0.165E-04    1.91      55.9  T
   7   -191.2057460 -0.165900E-08  0.801E-05    1.91     115.4  T
     SCC iter.                  ...        0 min,  0.291 sec
     gradient                   ...        0 min,  0.283 sec
 * total energy  :  -188.2395286 Eh     change       -0.2598470E-04 Eh
   gradient norm :     0.0027554 Eh/α   predicted    -0.1680504E-04 ( -35.33%)
   displ. norm   :     0.1574881 α      lambda       -0.4998217E-04
   maximum displ.:     0.0592778 α      in ANC's #42, #1, #30, ...

........................................................................
.............................. CYCLE  125 ..............................
........................................................................

 iter      E             dE          RMSdq      gap      omega  full diag
   1   -191.2049081 -0.191205E+03  0.268E-02    1.92       0.0  T
   2   -191.2049092 -0.110906E-05  0.158E-02    1.92       1.0  T
   3   -191.2049033  0.586043E-05  0.748E-03    1.92       1.2  T
   4   -191.2049102 -0.691462E-05  0.101E-03    1.92       9.2  T
   5   -191.2049103 -0.402596E-07  0.517E-04    1.92      17.9  T
   6   -191.2049103 -0.190349E-08  0.233E-04    1.92      39.6  T
   7   -191.2049103 -0.224466E-08  0.111E-04    1.92      83.5  T
   8   -191.2049103 -0.107806E-08  0.472E-05    1.92     195.7  T
     SCC iter.                  ...        0 min,  0.227 sec
     gradient                   ...        0 min,  0.252 sec
 * total energy  :  -188.2395643 Eh     change       -0.3570736E-04 Eh
   gradient norm :     0.0027907 Eh/α   predicted    -0.2569228E-04 ( -28.05%)
   displ. norm   :     0.1554860 α      lambda       -0.4109009E-04
   maximum displ.:     0.0637534 α      in ANC's #1, #42, #47, ...

........................................................................
.............................. CYCLE  126 ..............................
........................................................................

 iter      E             dE          RMSdq      gap      omega  full diag
   1   -191.2038862 -0.191204E+03  0.239E-02    1.93       0.0  T
   2   -191.2038872 -0.948763E-06  0.141E-02    1.93       1.0  T
   3   -191.2038828  0.436385E-05  0.643E-03    1.93       1.4  T
   4   -191.2038879 -0.511800E-05  0.923E-04    1.93      10.0  T
   5   -191.2038880 -0.423705E-07  0.442E-04    1.93      20.9  T
   6   -191.2038880 -0.152411E-08  0.225E-04    1.93      41.0  T
   7   -191.2038880 -0.178332E-08  0.922E-05    1.93     100.3  T
   8   -191.2038880 -0.721201E-09  0.363E-05    1.93     254.9  T
     SCC iter.                  ...        0 min,  0.242 sec
     gradient                   ...        0 min,  0.277 sec
 * total energy  :  -188.2395952 Eh     change       -0.3091647E-04 Eh
   gradient norm :     0.0026719 Eh/α   predicted    -0.2104307E-04 ( -31.94%)
   displ. norm   :     0.1892909 α      lambda       -0.5158660E-04
   maximum displ.:     0.0832108 α      in ANC's #1, #42, #47, ...

........................................................................
.............................. CYCLE  127 ..............................
........................................................................

 iter      E             dE          RMSdq      gap      omega  full diag
   1   -191.2030308 -0.191203E+03  0.270E-02    1.93       0.0  T
   2   -191.2030320 -0.127474E-05  0.159E-02    1.93       1.0  T
   3   -191.2030266  0.548328E-05  0.720E-03    1.94       1.3  T
   4   -191.2030329 -0.638744E-05  0.108E-03    1.93       8.5  T
   5   -191.2030330 -0.741327E-07  0.479E-04    1.93      19.3  T
   6   -191.2030330 -0.313571E-08  0.285E-04    1.93      32.4  T
   7   -191.2030330 -0.285658E-08  0.122E-04    1.93      75.8  T
   8   -191.2030330 -0.123819E-08  0.444E-05    1.93     208.3  T
     SCC iter.                  ...        0 min,  0.208 sec
     gradient                   ...        0 min,  0.222 sec
 * total energy  :  -188.2396339 Eh     change       -0.3868822E-04 Eh
   gradient norm :     0.0031814 Eh/α   predicted    -0.2672771E-04 ( -30.92%)
   displ. norm   :     0.1983353 α      lambda       -0.6094062E-04
   maximum displ.:     0.0933925 α      in ANC's #1, #42, #47, ...

........................................................................
.............................. CYCLE  128 ..............................
........................................................................

 iter      E             dE          RMSdq      gap      omega  full diag
   1   -191.2029702 -0.191203E+03  0.269E-02    1.94       0.0  T
   2   -191.2029713 -0.112636E-05  0.157E-02    1.94       1.0  T
   3   -191.2029665  0.483788E-05  0.672E-03    1.94       1.4  T
   4   -191.2029721 -0.554907E-05  0.111E-03    1.94       8.3  T
   5   -191.2029722 -0.962318E-07  0.459E-04    1.94      20.1  T
   6   -191.2029722 -0.542673E-08  0.274E-04    1.94      33.7  T
   7   -191.2029722 -0.278362E-08  0.121E-04    1.94      76.4  T
   8   -191.2029722 -0.103728E-08  0.456E-05    1.94     202.7  T
     SCC iter.                  ...        0 min,  0.181 sec
     gradient                   ...        0 min,  0.330 sec
 * total energy  :  -188.2396782 Eh     change       -0.4430238E-04 Eh
   gradient norm :     0.0039135 Eh/α   predicted    -0.3173305E-04 ( -28.37%)
   displ. norm   :     0.1585863 α      lambda       -0.5571491E-04
   maximum displ.:     0.0803820 α      in ANC's #1, #42, #47, ...

........................................................................
.............................. CYCLE  129 ..............................
........................................................................

 iter      E             dE          RMSdq      gap      omega  full diag
   1   -191.2039906 -0.191204E+03  0.213E-02    1.93       0.0  T
   2   -191.2039910 -0.492411E-06  0.124E-02    1.93       1.0  T
   3   -191.2039890  0.207614E-05  0.430E-03    1.94       2.1  T
   4   -191.2039913 -0.233382E-05  0.854E-04    1.93      10.8  T
   5   -191.2039914 -0.628081E-07  0.368E-04    1.93      25.1  T
   6   -191.2039914 -0.402670E-08  0.208E-04    1.93      44.5  T
   7   -191.2039914 -0.210164E-08  0.794E-05    1.94     116.4  T
   8   -191.2039914 -0.421863E-09  0.363E-05    1.93     254.8  T
     SCC iter.                  ...        0 min,  0.234 sec
     gradient                   ...        0 min,  0.306 sec
 * total energy  :  -188.2397192 Eh     change       -0.4095622E-04 Eh
   gradient norm :     0.0034366 Eh/α   predicted    -0.2856125E-04 ( -30.26%)
   displ. norm   :     0.2025780 α      lambda       -0.4997362E-04
   maximum displ.:     0.1064637 α      in ANC's #1, #42, #47, ...

........................................................................
.............................. CYCLE  130 ..............................
........................................................................

 iter      E             dE          RMSdq      gap      omega  full diag
   1   -191.2042709 -0.191204E+03  0.246E-02    1.93       0.0  T
   2   -191.2042716 -0.757981E-06  0.144E-02    1.93       1.0  T
   3   -191.2042692  0.239376E-05  0.480E-03    1.93       1.9  T
   4   -191.2042720 -0.272428E-05  0.991E-04    1.93       9.3  T
   5   -191.2042720 -0.825621E-07  0.394E-04    1.93      23.5  T
   6   -191.2042720 -0.139303E-08  0.247E-04    1.93      37.5  T
   7   -191.2042720 -0.288790E-08  0.981E-05    1.93      94.3  T
   8   -191.2042720 -0.725720E-09  0.385E-05    1.93     239.8  T
     SCC iter.                  ...        0 min,  0.180 sec
     gradient                   ...        0 min,  0.273 sec
 * total energy  :  -188.2397540 Eh     change       -0.3479273E-04 Eh
   gradient norm :     0.0027096 Eh/α   predicted    -0.2605677E-04 ( -25.11%)
   displ. norm   :     0.1172253 α      lambda       -0.4279538E-04
   maximum displ.:     0.0676398 α      in ANC's #1, #10, #23, ...

........................................................................
.............................. CYCLE  131 ..............................
........................................................................

 iter      E             dE          RMSdq      gap      omega  full diag
   1   -191.2059672 -0.191206E+03  0.150E-02    1.93       0.0  T
   2   -191.2059679 -0.653354E-06  0.877E-03    1.93       1.1  T
   3   -191.2059668  0.101761E-05  0.332E-03    1.93       2.8  T
   4   -191.2059681 -0.122016E-05  0.745E-04    1.93      12.4  T
   5   -191.2059681 -0.386672E-07  0.315E-04    1.93      29.4  T
   6   -191.2059681 -0.158090E-08  0.184E-04    1.93      50.2  T
   7   -191.2059681 -0.172830E-08  0.645E-05    1.93     143.2  T
     SCC iter.                  ...        0 min,  0.151 sec
     gradient                   ...        0 min,  0.281 sec
 * total energy  :  -188.2397756 Eh     change       -0.2167211E-04 Eh
   gradient norm :     0.0023615 Eh/α   predicted    -0.2169337E-04 (   0.10%)
   displ. norm   :     0.1416576 α      lambda       -0.2694802E-04
   maximum displ.:     0.0788486 α      in ANC's #1, #42, #10, ...

........................................................................
.............................. CYCLE  132 ..............................
........................................................................

 iter      E             dE          RMSdq      gap      omega  full diag
   1   -191.2048640 -0.191205E+03  0.160E-02    1.93       0.0  T
   2   -191.2048645 -0.562748E-06  0.946E-03    1.93       1.0  T
   3   -191.2048631  0.142820E-05  0.383E-03    1.93       2.4  T
   4   -191.2048648 -0.165425E-05  0.758E-04    1.93      12.2  T
   5   -191.2048648 -0.535608E-07  0.278E-04    1.93      33.3  T
   6   -191.2048648 -0.606150E-09  0.170E-04    1.93      54.3  T
   7   -191.2048648 -0.700510E-09  0.861E-05    1.93     107.4  T
     SCC iter.                  ...        0 min,  0.179 sec
     gradient                   ...        0 min,  0.290 sec
 * total energy  :  -188.2397928 Eh     change       -0.1719361E-04 Eh
   gradient norm :     0.0020744 Eh/α   predicted    -0.1374512E-04 ( -20.06%)
   displ. norm   :     0.0682234 α      lambda       -0.1853534E-04
   maximum displ.:     0.0421397 α      in ANC's #1, #10, #35, ...

........................................................................
.............................. CYCLE  133 ..............................
........................................................................

 iter      E             dE          RMSdq      gap      omega  full diag
   1   -191.2044803 -0.191204E+03  0.816E-03    1.93       0.0  T
   2   -191.2044804 -0.119375E-06  0.486E-03    1.93       1.9  T
   3   -191.2044799  0.494164E-06  0.212E-03    1.92       4.4  T
   4   -191.2044804 -0.557617E-06  0.430E-04    1.93      21.5  T
   5   -191.2044805 -0.209284E-07  0.184E-04    1.93      50.1  T
   6   -191.2044805 -0.264939E-08  0.912E-05    1.93     101.4  T
     SCC iter.                  ...        0 min,  0.159 sec
     gradient                   ...        0 min,  0.266 sec
 * total energy  :  -188.2398075 Eh     change       -0.1465991E-04 Eh
   gradient norm :     0.0016311 Eh/α   predicted    -0.9311612E-05 ( -36.48%)
   displ. norm   :     0.1324413 α      lambda       -0.2144876E-04
   maximum displ.:     0.0791537 α      in ANC's #1, #10, #5, ...

........................................................................
.............................. CYCLE  134 ..............................
........................................................................

 iter      E             dE          RMSdq      gap      omega  full diag
   1   -191.2042014 -0.191204E+03  0.165E-02    1.92       0.0  T
   2   -191.2042019 -0.458649E-06  0.972E-03    1.92       1.0  T
   3   -191.2042001  0.182630E-05  0.407E-03    1.92       2.3  T
   4   -191.2042021 -0.204799E-05  0.844E-04    1.92      11.0  T
   5   -191.2042022 -0.744048E-07  0.354E-04    1.92      26.1  T
   6   -191.2042022 -0.868599E-08  0.180E-04    1.92      51.3  T
   7   -191.2042022 -0.101087E-08  0.787E-05    1.92     117.4  T
     SCC iter.                  ...        0 min,  0.175 sec
     gradient                   ...        0 min,  0.270 sec
 * total energy  :  -188.2398240 Eh     change       -0.1647732E-04 Eh
   gradient norm :     0.0016436 Eh/α   predicted    -0.1080868E-04 ( -34.40%)
   displ. norm   :     0.0682418 α      lambda       -0.6807890E-05
   maximum displ.:     0.0453494 α      in ANC's #1, #10, #5, ...

........................................................................
.............................. CYCLE  135 ..............................
........................................................................

 iter      E             dE          RMSdq      gap      omega  full diag
   1   -191.2041626 -0.191204E+03  0.612E-03    1.92       0.0  T
   2   -191.2041626 -0.706287E-07  0.361E-03    1.92       2.6  T
   3   -191.2041623  0.289535E-06  0.162E-03    1.92       5.7  T
   4   -191.2041627 -0.334604E-06  0.276E-04    1.92      33.5  T
   5   -191.2041627 -0.444092E-08  0.121E-04    1.92      76.3  T
   6   -191.2041627 -0.321137E-09  0.626E-05    1.92     147.6  T
     SCC iter.                  ...        0 min,  0.142 sec
     gradient                   ...        0 min,  0.278 sec
 * total energy  :  -188.2398321 Eh     change       -0.8110903E-05 Eh
   gradient norm :     0.0010025 Eh/α   predicted    -0.3418025E-05 ( -57.86%)
   displ. norm   :     0.0763873 α      lambda       -0.9278941E-05
   maximum displ.:     0.0518364 α      in ANC's #1, #5, #16, ...

........................................................................
.............................. CYCLE  136 ..............................
........................................................................

 iter      E             dE          RMSdq      gap      omega  full diag
   1   -191.2047471 -0.191205E+03  0.847E-03    1.92       0.0  T
   2   -191.2047472 -0.172282E-06  0.497E-03    1.92       1.9  T
   3   -191.2047466  0.598149E-06  0.241E-03    1.92       3.8  T
   4   -191.2047473 -0.706049E-06  0.407E-04    1.92      22.7  T
   5   -191.2047474 -0.107649E-07  0.187E-04    1.92      49.3  T
   6   -191.2047474 -0.171315E-08  0.995E-05    1.92      92.9  T
     SCC iter.                  ...        0 min,  0.225 sec
     gradient                   ...        0 min,  0.412 sec
 * total energy  :  -188.2398413 Eh     change       -0.9216752E-05 Eh
   gradient norm :     0.0009137 Eh/α   predicted    -0.4653166E-05 ( -49.51%)
   displ. norm   :     0.0702110 α      lambda       -0.5710572E-05
   maximum displ.:     0.0490977 α      in ANC's #1, #5, #8, ...

........................................................................
.............................. CYCLE  137 ..............................
........................................................................

 iter      E             dE          RMSdq      gap      omega  full diag
   1   -191.2047366 -0.191205E+03  0.750E-03    1.92       0.0  T
   2   -191.2047367 -0.797224E-07  0.435E-03    1.92       2.1  T
   3   -191.2047366  0.145142E-06  0.114E-03    1.92       8.1  T
   4   -191.2047367 -0.159700E-06  0.322E-04    1.92      28.7  T
   5   -191.2047367 -0.109293E-07  0.134E-04    1.92      69.1  T
   6   -191.2047367 -0.106900E-08  0.665E-05    1.92     139.0  T
     SCC iter.                  ...        0 min,  0.294 sec
     gradient                   ...        0 min,  0.400 sec
 * total energy  :  -188.2398481 Eh     change       -0.6816903E-05 Eh
   gradient norm :     0.0009863 Eh/α   predicted    -0.2863806E-05 ( -57.99%)
   displ. norm   :     0.0781353 α      lambda       -0.6407565E-05
   maximum displ.:     0.0535731 α      in ANC's #1, #5, #8, ...

........................................................................
.............................. CYCLE  138 ..............................
........................................................................

 iter      E             dE          RMSdq      gap      omega  full diag
   1   -191.2045599 -0.191205E+03  0.873E-03    1.92       0.0  T
   2   -191.2045599 -0.607627E-07  0.509E-03    1.92       1.8  T
   3   -191.2045598  0.190700E-06  0.127E-03    1.92       7.3  T
   4   -191.2045600 -0.218389E-06  0.289E-04    1.92      31.9  T
   5   -191.2045600 -0.549707E-08  0.148E-04    1.92      62.6  T
   6   -191.2045600 -0.781483E-09  0.748E-05    1.92     123.6  T
     SCC iter.                  ...        0 min,  0.221 sec
     gradient                   ...        0 min,  0.364 sec
 * total energy  :  -188.2398562 Eh     change       -0.8043841E-05 Eh
   gradient norm :     0.0008836 Eh/α   predicted    -0.3215512E-05 ( -60.03%)
   displ. norm   :     0.0978872 α      lambda       -0.7770757E-05
   maximum displ.:     0.0665479 α      in ANC's #1, #5, #8, ...

........................................................................
.............................. CYCLE  139 ..............................
........................................................................

 iter      E             dE          RMSdq      gap      omega  full diag
   1   -191.2045834 -0.191205E+03  0.102E-02    1.92       0.0  T
   2   -191.2045835 -0.133389E-06  0.596E-03    1.92       1.6  T
   3   -191.2045831  0.414372E-06  0.190E-03    1.92       4.9  T
   4   -191.2045836 -0.474350E-06  0.376E-04    1.92      24.6  T
   5   -191.2045836 -0.107089E-07  0.171E-04    1.92      54.0  T
   6   -191.2045836 -0.720405E-09  0.948E-05    1.92      97.6  T
     SCC iter.                  ...        0 min,  0.215 sec
     gradient                   ...        0 min,  0.343 sec
 * total energy  :  -188.2398655 Eh     change       -0.9325757E-05 Eh
   gradient norm :     0.0007573 Eh/α   predicted    -0.3904455E-05 ( -58.13%)
   displ. norm   :     0.0965179 α      lambda       -0.6647770E-05
   maximum displ.:     0.0672764 α      in ANC's #1, #5, #8, ...

........................................................................
.............................. CYCLE  140 ..............................
........................................................................

 iter      E             dE          RMSdq      gap      omega  full diag
   1   -191.2043966 -0.191204E+03  0.874E-03    1.92       0.0  T
   2   -191.2043967 -0.948240E-07  0.512E-03    1.92       1.8  T
   3   -191.2043964  0.243659E-06  0.146E-03    1.92       6.3  T
   4   -191.2043967 -0.279995E-06  0.331E-04    1.92      28.0  T
   5   -191.2043967 -0.845228E-08  0.155E-04    1.92      59.8  T
   6   -191.2043967 -0.534527E-09  0.830E-05    1.92     111.4  T
     SCC iter.                  ...        0 min,  0.208 sec
     gradient                   ...        0 min,  0.301 sec
 * total energy  :  -188.2398739 Eh     change       -0.8376689E-05 Eh
   gradient norm :     0.0006294 Eh/α   predicted    -0.3341090E-05 ( -60.11%)
   displ. norm   :     0.0962829 α      lambda       -0.6353468E-05
   maximum displ.:     0.0676825 α      in ANC's #1, #5, #8, ...

........................................................................
.............................. CYCLE  141 ..............................
........................................................................

 iter      E             dE          RMSdq      gap      omega  full diag
   1   -191.2044150 -0.191204E+03  0.773E-03    1.92       0.0  T
   2   -191.2044151 -0.714904E-07  0.453E-03    1.92       2.0  T
   3   -191.2044149  0.161080E-06  0.120E-03    1.92       7.7  T
   4   -191.2044151 -0.186389E-06  0.263E-04    1.92      35.1  T
   5   -191.2044151 -0.468495E-08  0.127E-04    1.92      72.7  T
   6   -191.2044151 -0.391054E-09  0.676E-05    1.92     136.7  T
     SCC iter.                  ...        0 min,  0.251 sec
     gradient                   ...        0 min,  0.375 sec
 * total energy  :  -188.2398823 Eh     change       -0.8425757E-05 Eh
   gradient norm :     0.0006832 Eh/α   predicted    -0.3193344E-05 ( -62.10%)
   displ. norm   :     0.1016923 α      lambda       -0.6972197E-05
   maximum displ.:     0.0712589 α      in ANC's #1, #5, #8, ...

........................................................................
.............................. CYCLE  142 ..............................
........................................................................

 iter      E             dE          RMSdq      gap      omega  full diag
   1   -191.2044655 -0.191204E+03  0.810E-03    1.92       0.0  T
   2   -191.2044656 -0.787137E-07  0.474E-03    1.92       1.9  T
   3   -191.2044655  0.145183E-06  0.112E-03    1.92       8.3  T
   4   -191.2044656 -0.170063E-06  0.246E-04    1.92      37.5  T
   5   -191.2044656 -0.356854E-08  0.122E-04    1.92      75.9  T
   6   -191.2044656 -0.277964E-09  0.625E-05    1.92     148.0  T
     SCC iter.                  ...        0 min,  0.187 sec
     gradient                   ...        0 min,  0.375 sec
 * total energy  :  -188.2398913 Eh     change       -0.8989703E-05 Eh
   gradient norm :     0.0006843 Eh/α   predicted    -0.3505150E-05 ( -61.01%)
   displ. norm   :     0.1178353 α      lambda       -0.7706830E-05
   maximum displ.:     0.0831209 α      in ANC's #1, #5, #3, ...

........................................................................
.............................. CYCLE  143 ..............................
........................................................................

 iter      E             dE          RMSdq      gap      omega  full diag
   1   -191.2044412 -0.191204E+03  0.960E-03    1.92       0.0  T
   2   -191.2044413 -0.829843E-07  0.564E-03    1.92       1.6  T
   3   -191.2044411  0.196936E-06  0.126E-03    1.92       7.3  T
   4   -191.2044413 -0.228429E-06  0.258E-04    1.92      35.8  T
   5   -191.2044413 -0.315774E-08  0.142E-04    1.92      65.2  T
   6   -191.2044413 -0.688459E-09  0.669E-05    1.92     138.3  T
     SCC iter.                  ...        0 min,  0.224 sec
     gradient                   ...        0 min,  0.368 sec
 * total energy  :  -188.2399009 Eh     change       -0.9573310E-05 Eh
   gradient norm :     0.0007348 Eh/α   predicted    -0.3880698E-05 ( -59.46%)
   displ. norm   :     0.1081129 α      lambda       -0.6387559E-05
   maximum displ.:     0.0773203 α      in ANC's #1, #5, #3, ...

........................................................................
.............................. CYCLE  144 ..............................
........................................................................

 iter      E             dE          RMSdq      gap      omega  full diag
   1   -191.2044977 -0.191204E+03  0.924E-03    1.92       0.0  T
   2   -191.2044978 -0.920654E-07  0.542E-03    1.92       1.7  T
   3   -191.2044976  0.179664E-06  0.120E-03    1.92       7.7  T
   4   -191.2044979 -0.208378E-06  0.256E-04    1.92      36.1  T
   5   -191.2044979 -0.469876E-08  0.134E-04    1.92      69.1  T
   6   -191.2044979 -0.549022E-09  0.711E-05    1.92     130.0  T
     SCC iter.                  ...        0 min,  0.223 sec
     gradient                   ...        0 min,  0.295 sec
 * total energy  :  -188.2399092 Eh     change       -0.8318908E-05 Eh
   gradient norm :     0.0005837 Eh/α   predicted    -0.3213881E-05 ( -61.37%)
   displ. norm   :     0.0963435 α      lambda       -0.5633690E-05
   maximum displ.:     0.0706920 α      in ANC's #1, #5, #3, ...

........................................................................
.............................. CYCLE  145 ..............................
........................................................................

 iter      E             dE          RMSdq      gap      omega  full diag
   1   -191.2046028 -0.191205E+03  0.852E-03    1.92       0.0  T
   2   -191.2046029 -0.641614E-07  0.500E-03    1.92       1.9  T
   3   -191.2046027  0.176185E-06  0.118E-03    1.92       7.8  T
   4   -191.2046029 -0.201555E-06  0.238E-04    1.92      38.9  T
   5   -191.2046029 -0.385572E-08  0.124E-04    1.92      74.5  T
   6   -191.2046029 -0.509800E-09  0.626E-05    1.92     147.7  T
     SCC iter.                  ...        0 min,  0.164 sec
     gradient                   ...        0 min,  0.315 sec
 * total energy  :  -188.2399170 Eh     change       -0.7793636E-05 Eh
   gradient norm :     0.0005175 Eh/α   predicted    -0.2832127E-05 ( -63.66%)
   displ. norm   :     0.0906454 α      lambda       -0.5877969E-05
   maximum displ.:     0.0670193 α      in ANC's #1, #5, #2, ...

........................................................................
.............................. CYCLE  146 ..............................
........................................................................

 iter      E             dE          RMSdq      gap      omega  full diag
   1   -191.2045605 -0.191205E+03  0.857E-03    1.92       0.0  T
   2   -191.2045605 -0.614407E-07  0.503E-03    1.92       1.8  T
   3   -191.2045603  0.226471E-06  0.135E-03    1.92       6.9  T
   4   -191.2045606 -0.256699E-06  0.253E-04    1.92      36.5  T
   5   -191.2045606 -0.463351E-08  0.122E-04    1.92      75.6  T
   6   -191.2045606 -0.333301E-09  0.634E-05    1.92     145.8  T
     SCC iter.                  ...        0 min,  0.190 sec
     gradient                   ...        0 min,  0.284 sec
 * total energy  :  -188.2399252 Eh     change       -0.8208508E-05 Eh
   gradient norm :     0.0004138 Eh/α   predicted    -0.2953171E-05 ( -64.02%)
   displ. norm   :     0.1018544 α      lambda       -0.6949504E-05
   maximum displ.:     0.0754716 α      in ANC's #1, #5, #2, ...

........................................................................
.............................. CYCLE  147 ..............................
........................................................................

 iter      E             dE          RMSdq      gap      omega  full diag
   1   -191.2046493 -0.191205E+03  0.966E-03    1.92       0.0  T
   2   -191.2046494 -0.673762E-07  0.567E-03    1.92       1.6  T
   3   -191.2046491  0.274644E-06  0.150E-03    1.92       6.2  T
   4   -191.2046495 -0.310244E-06  0.264E-04    1.92      35.1  T
   5   -191.2046495 -0.502618E-08  0.126E-04    1.92      73.1  T
   6   -191.2046495 -0.239424E-09  0.686E-05    1.92     134.7  T
     SCC iter.                  ...        0 min,  0.175 sec
     gradient                   ...        0 min,  0.313 sec
 * total energy  :  -188.2399348 Eh     change       -0.9620365E-05 Eh
   gradient norm :     0.0004948 Eh/α   predicted    -0.3494422E-05 ( -63.68%)
   displ. norm   :     0.1158365 α      lambda       -0.7659649E-05
   maximum displ.:     0.0855982 α      in ANC's #1, #5, #2, ...

........................................................................
.............................. CYCLE  148 ..............................
........................................................................

 iter      E             dE          RMSdq      gap      omega  full diag
   1   -191.2045832 -0.191205E+03  0.109E-02    1.92       0.0  T
   2   -191.2045833 -0.838386E-07  0.641E-03    1.92       1.4  T
   3   -191.2045828  0.410090E-06  0.186E-03    1.92       5.0  T
   4   -191.2045833 -0.463515E-06  0.287E-04    1.92      32.2  T
   5   -191.2045833 -0.579047E-08  0.133E-04    1.92      69.5  T
   6   -191.2045833 -0.146542E-09  0.726E-05    1.92     127.3  T
     SCC iter.                  ...        0 min,  0.168 sec
     gradient                   ...        0 min,  0.248 sec
 * total energy  :  -188.2399454 Eh     change       -0.1057800E-04 Eh
   gradient norm :     0.0005784 Eh/α   predicted    -0.3856705E-05 ( -63.54%)
   displ. norm   :     0.1178644 α      lambda       -0.7560186E-05
   maximum displ.:     0.0874700 α      in ANC's #1, #5, #2, ...

........................................................................
.............................. CYCLE  149 ..............................
........................................................................

 iter      E             dE          RMSdq      gap      omega  full diag
   1   -191.2046079 -0.191205E+03  0.107E-02    1.93       0.0  T
   2   -191.2046080 -0.770951E-07  0.628E-03    1.92       1.5  T
   3   -191.2046076  0.391945E-06  0.184E-03    1.92       5.0  T
   4   -191.2046080 -0.443322E-06  0.275E-04    1.92      33.6  T
   5   -191.2046080 -0.521067E-08  0.128E-04    1.92      72.4  T
   6   -191.2046080 -0.157058E-09  0.685E-05    1.92     134.9  T
     SCC iter.                  ...        0 min,  0.183 sec
     gradient                   ...        0 min,  0.306 sec
 * total energy  :  -188.2399559 Eh     change       -0.1057533E-04 Eh
   gradient norm :     0.0006553 Eh/α   predicted    -0.3807593E-05 ( -64.00%)
   displ. norm   :     0.1153762 α      lambda       -0.7470849E-05
   maximum displ.:     0.0861139 α      in ANC's #1, #5, #2, ...

........................................................................
.............................. CYCLE  150 ..............................
........................................................................

 iter      E             dE          RMSdq      gap      omega  full diag
   1   -191.2045653 -0.191205E+03  0.101E-02    1.93       0.0  T
   2   -191.2045654 -0.804581E-07  0.596E-03    1.92       1.6  T
   3   -191.2045650  0.418761E-06  0.195E-03    1.92       4.7  T
   4   -191.2045654 -0.475882E-06  0.287E-04    1.92      32.2  T
   5   -191.2045654 -0.524551E-08  0.133E-04    1.92      69.4  T
   6   -191.2045654 -0.250054E-09  0.691E-05    1.92     133.9  T
     SCC iter.                  ...        0 min,  0.201 sec
     gradient                   ...        0 min,  0.293 sec
 * total energy  :  -188.2399665 Eh     change       -0.1059303E-04 Eh
   gradient norm :     0.0006058 Eh/α   predicted    -0.3761938E-05 ( -64.49%)
   displ. norm   :     0.1122336 α      lambda       -0.7564198E-05
   maximum displ.:     0.0842065 α      in ANC's #1, #5, #2, ...
 * RMSD in coord.:     0.2030661 α      energy gain  -0.6444835E-03 Eh

generating ANC from exact Hessian ...
Using Lindh-Hessian (1995)
 Shifting diagonal of input Hessian by    1.0072821091955581E-002
 Lowest  eigenvalues of input Hessian
    0.010000    0.000000    0.000000    0.000000    0.000000    0.000000
    0.000000    0.010135    0.010175    0.010213    0.010253    0.010314
    0.010459    0.010545    0.010609    0.010693    0.010824    0.010899
 Highest eigenvalues
    2.163791    2.226574    2.332918    2.340142    2.350648    3.161681


........................................................................
.............................. CYCLE  151 ..............................
........................................................................

 iter      E             dE          RMSdq      gap      omega  full diag
   1   -191.2045787 -0.191205E+03  0.949E-03    1.93       0.0  T
   2   -191.2045788 -0.776204E-07  0.559E-03    1.92       1.7  T
   3   -191.2045785  0.344977E-06  0.179E-03    1.92       5.2  T
   4   -191.2045789 -0.394135E-06  0.301E-04    1.92      30.7  T
   5   -191.2045789 -0.558089E-08  0.140E-04    1.92      66.1  T
   6   -191.2045789 -0.317243E-09  0.725E-05    1.92     127.5  T
     SCC iter.                  ...        0 min,  0.173 sec
     gradient                   ...        0 min,  0.265 sec
 * total energy  :  -188.2399772 Eh     change       -0.1064500E-04 Eh
   gradient norm :     0.0004855 Eh/α   predicted     0.0000000E+00 (-100.00%)
   displ. norm   :     0.0207744 α      lambda       -0.2210269E-05
   maximum displ.:     0.0168326 α      in ANC's #1, #4, #22, ...

........................................................................
.............................. CYCLE  152 ..............................
........................................................................

 iter      E             dE          RMSdq      gap      omega  full diag
   1   -191.2046052 -0.191205E+03  0.194E-03    1.92       0.0  T
   2   -191.2046052 -0.912425E-08  0.113E-03    1.92       8.2  T
   3   -191.2046052  0.161763E-07  0.427E-04    1.92      21.6  T
   4   -191.2046052 -0.192262E-07  0.107E-04    1.92      86.1  T
   5   -191.2046052 -0.850804E-09  0.477E-05    1.92     193.6  T
     SCC iter.                  ...        0 min,  0.150 sec
     gradient                   ...        0 min,  0.269 sec
 * total energy  :  -188.2399805 Eh     change       -0.3322625E-05 Eh
   gradient norm :     0.0003271 Eh/α   predicted    -0.1189596E-05 ( -64.20%)
   displ. norm   :     0.0523489 α      lambda       -0.4998329E-05
   maximum displ.:     0.0373933 α      in ANC's #1, #4, #22, ...

........................................................................
.............................. CYCLE  153 ..............................
........................................................................

 iter      E             dE          RMSdq      gap      omega  full diag
   1   -191.2045740 -0.191205E+03  0.524E-03    1.92       0.0  T
   2   -191.2045741 -0.519998E-07  0.305E-03    1.92       3.0  T
   3   -191.2045740  0.985116E-07  0.102E-03    1.92       9.1  T
   4   -191.2045741 -0.118834E-06  0.224E-04    1.92      41.3  T
   5   -191.2045741 -0.302333E-08  0.109E-04    1.92      84.4  T
   6   -191.2045741 -0.536062E-09  0.551E-05    1.92     167.7  T
     SCC iter.                  ...        0 min,  0.129 sec
     gradient                   ...        0 min,  0.249 sec
 * total energy  :  -188.2399871 Eh     change       -0.6627980E-05 Eh
   gradient norm :     0.0002289 Eh/α   predicted    -0.2625986E-05 ( -60.38%)
   displ. norm   :     0.0715538 α      lambda       -0.5384604E-05
   maximum displ.:     0.0517758 α      in ANC's #1, #4, #22, ...

........................................................................
.............................. CYCLE  154 ..............................
........................................................................

 iter      E             dE          RMSdq      gap      omega  full diag
   1   -191.2045225 -0.191205E+03  0.685E-03    1.92       0.0  T
   2   -191.2045226 -0.772833E-07  0.402E-03    1.92       2.3  T
   3   -191.2045224  0.192281E-06  0.134E-03    1.92       6.9  T
   4   -191.2045226 -0.228488E-06  0.272E-04    1.92      34.0  T
   5   -191.2045226 -0.458056E-08  0.139E-04    1.92      66.5  T
   6   -191.2045226 -0.987683E-09  0.669E-05    1.92     138.2  T
     SCC iter.                  ...        0 min,  0.174 sec
     gradient                   ...        0 min,  0.215 sec
 * total energy  :  -188.2399935 Eh     change       -0.6313004E-05 Eh
   gradient norm :     0.0004479 Eh/α   predicted    -0.2702451E-05 ( -57.19%)
   displ. norm   :     0.0591427 α      lambda       -0.3506949E-05
   maximum displ.:     0.0439897 α      in ANC's #1, #4, #15, ...

........................................................................
.............................. CYCLE  155 ..............................
........................................................................

 iter      E             dE          RMSdq      gap      omega  full diag
   1   -191.2045339 -0.191205E+03  0.504E-03    1.92       0.0  T
   2   -191.2045339 -0.408211E-07  0.298E-03    1.92       3.1  T
   3   -191.2045338  0.132670E-06  0.109E-03    1.92       8.5  T
   4   -191.2045339 -0.157031E-06  0.181E-04    1.92      51.1  T
   5   -191.2045339 -0.188422E-08  0.966E-05    1.92      95.7  T
     SCC iter.                  ...        0 min,  0.102 sec
     gradient                   ...        0 min,  0.227 sec
 * total energy  :  -188.2399978 Eh     change       -0.4364735E-05 Eh
   gradient norm :     0.0005444 Eh/α   predicted    -0.1784872E-05 ( -59.11%)
   displ. norm   :     0.0461242 α      lambda       -0.2934359E-05
   maximum displ.:     0.0351283 α      in ANC's #1, #4, #2, ...

........................................................................
.............................. CYCLE  156 ..............................
........................................................................

 iter      E             dE          RMSdq      gap      omega  full diag
   1   -191.2045476 -0.191205E+03  0.421E-03    1.92       0.0  T
   2   -191.2045477 -0.199320E-07  0.250E-03    1.92       3.7  T
   3   -191.2045476  0.933024E-07  0.848E-04    1.92      10.9  T
   4   -191.2045477 -0.107684E-06  0.137E-04    1.92      67.7  T
   5   -191.2045477 -0.120869E-08  0.744E-05    1.92     124.2  T
     SCC iter.                  ...        0 min,  0.103 sec
     gradient                   ...        0 min,  0.228 sec
 * total energy  :  -188.2400019 Eh     change       -0.4058256E-05 Eh
   gradient norm :     0.0004580 Eh/α   predicted    -0.1468888E-05 ( -63.80%)
   displ. norm   :     0.0551284 α      lambda       -0.4036191E-05
   maximum displ.:     0.0413314 α      in ANC's #1, #4, #2, ...

........................................................................
.............................. CYCLE  157 ..............................
........................................................................

 iter      E             dE          RMSdq      gap      omega  full diag
   1   -191.2045560 -0.191205E+03  0.569E-03    1.92       0.0  T
   2   -191.2045560 -0.295468E-07  0.336E-03    1.92       2.8  T
   3   -191.2045559  0.162681E-06  0.112E-03    1.92       8.3  T
   4   -191.2045561 -0.185343E-06  0.181E-04    1.92      50.9  T
   5   -191.2045561 -0.233422E-08  0.910E-05    1.92     101.6  T
     SCC iter.                  ...        0 min,  0.119 sec
     gradient                   ...        0 min,  0.296 sec
 * total energy  :  -188.2400074 Eh     change       -0.5557178E-05 Eh
   gradient norm :     0.0002867 Eh/α   predicted    -0.2021065E-05 ( -63.63%)
   displ. norm   :     0.0814894 α      lambda       -0.5756944E-05
   maximum displ.:     0.0601923 α      in ANC's #1, #4, #2, ...

........................................................................
.............................. CYCLE  158 ..............................
........................................................................

 iter      E             dE          RMSdq      gap      omega  full diag
   1   -191.2045587 -0.191205E+03  0.902E-03    1.92       0.0  T
   2   -191.2045587 -0.701019E-07  0.532E-03    1.92       1.7  T
   3   -191.2045583  0.437935E-06  0.184E-03    1.92       5.0  T
   4   -191.2045588 -0.498065E-06  0.276E-04    1.92      33.5  T
   5   -191.2045588 -0.523121E-08  0.135E-04    1.92      68.4  T
   6   -191.2045588 -0.329010E-09  0.723E-05    1.92     127.9  T
     SCC iter.                  ...        0 min,  0.192 sec
     gradient                   ...        0 min,  0.266 sec
 * total energy  :  -188.2400150 Eh     change       -0.7527446E-05 Eh
   gradient norm :     0.0002739 Eh/α   predicted    -0.2888042E-05 ( -61.63%)
   displ. norm   :     0.0968890 α      lambda       -0.5864174E-05
   maximum displ.:     0.0716078 α      in ANC's #1, #4, #2, ...

........................................................................
.............................. CYCLE  159 ..............................
........................................................................

 iter      E             dE          RMSdq      gap      omega  full diag
   1   -191.2045697 -0.191205E+03  0.105E-02    1.92       0.0  T
   2   -191.2045698 -0.868678E-07  0.619E-03    1.92       1.5  T
   3   -191.2045692  0.552342E-06  0.208E-03    1.92       4.4  T
   4   -191.2045698 -0.628903E-06  0.293E-04    1.92      31.5  T
   5   -191.2045698 -0.606022E-08  0.145E-04    1.92      63.8  T
   6   -191.2045698 -0.396625E-09  0.766E-05    1.92     120.7  T
     SCC iter.                  ...        0 min,  0.208 sec
     gradient                   ...        0 min,  0.271 sec
 * total energy  :  -188.2400224 Eh     change       -0.7484758E-05 Eh
   gradient norm :     0.0004950 Eh/α   predicted    -0.2945069E-05 ( -60.65%)
   displ. norm   :     0.0883325 α      lambda       -0.4792169E-05
   maximum displ.:     0.0657942 α      in ANC's #1, #4, #7, ...

........................................................................
.............................. CYCLE  160 ..............................
........................................................................

 iter      E             dE          RMSdq      gap      omega  full diag
   1   -191.2045673 -0.191205E+03  0.925E-03    1.92       0.0  T
   2   -191.2045673 -0.679566E-07  0.545E-03    1.92       1.7  T
   3   -191.2045669  0.491853E-06  0.197E-03    1.92       4.7  T
   4   -191.2045674 -0.561570E-06  0.244E-04    1.92      37.9  T
   5   -191.2045674 -0.418652E-08  0.120E-04    1.92      77.2  T
   6   -191.2045674 -0.148219E-09  0.593E-05    1.92     155.9  T
     SCC iter.                  ...        0 min,  0.211 sec
     gradient                   ...        0 min,  0.311 sec
 * total energy  :  -188.2400289 Eh     change       -0.6444575E-05 Eh
   gradient norm :     0.0005750 Eh/α   predicted    -0.2410150E-05 ( -62.60%)
   displ. norm   :     0.0764111 α      lambda       -0.4228043E-05
   maximum displ.:     0.0573472 α      in ANC's #1, #4, #7, ...

........................................................................
.............................. CYCLE  161 ..............................
........................................................................

 iter      E             dE          RMSdq      gap      omega  full diag
   1   -191.2045954 -0.191205E+03  0.764E-03    1.92       0.0  T
   2   -191.2045955 -0.473429E-07  0.447E-03    1.92       2.1  T
   3   -191.2045951  0.332905E-06  0.164E-03    1.92       5.6  T
   4   -191.2045955 -0.382297E-06  0.195E-04    1.92      47.4  T
   5   -191.2045955 -0.226888E-08  0.102E-04    1.92      91.1  T
   6   -191.2045955 -0.277794E-09  0.393E-05    1.92     235.2  T
     SCC iter.                  ...        0 min,  0.170 sec
     gradient                   ...        0 min,  0.275 sec
 * total energy  :  -188.2400349 Eh     change       -0.6009915E-05 Eh
   gradient norm :     0.0005199 Eh/α   predicted    -0.2123811E-05 ( -64.66%)
   displ. norm   :     0.0777552 α      lambda       -0.4687296E-05
   maximum displ.:     0.0584512 α      in ANC's #1, #4, #7, ...

........................................................................
.............................. CYCLE  162 ..............................
........................................................................

 iter      E             dE          RMSdq      gap      omega  full diag
   1   -191.2046133 -0.191205E+03  0.758E-03    1.92       0.0  T
   2   -191.2046133 -0.520114E-07  0.441E-03    1.92       2.1  T
   3   -191.2046130  0.335873E-06  0.166E-03    1.92       5.6  T
   4   -191.2046134 -0.387511E-06  0.214E-04    1.92      43.2  T
   5   -191.2046134 -0.218742E-08  0.113E-04    1.92      82.1  T
   6   -191.2046134 -0.482288E-09  0.427E-05    1.92     216.4  T
     SCC iter.                  ...        0 min,  0.196 sec
     gradient                   ...        0 min,  0.286 sec
 * total energy  :  -188.2400415 Eh     change       -0.6623770E-05 Eh
   gradient norm :     0.0003552 Eh/α   predicted    -0.2350905E-05 ( -64.51%)
   displ. norm   :     0.0889408 α      lambda       -0.5335898E-05
   maximum displ.:     0.0666368 α      in ANC's #1, #4, #7, ...

........................................................................
.............................. CYCLE  163 ..............................
........................................................................

 iter      E             dE          RMSdq      gap      omega  full diag
   1   -191.2046131 -0.191205E+03  0.850E-03    1.92       0.0  T
   2   -191.2046132 -0.667078E-07  0.493E-03    1.92       1.9  T
   3   -191.2046128  0.402672E-06  0.181E-03    1.92       5.1  T
   4   -191.2046132 -0.464244E-06  0.250E-04    1.92      37.0  T
   5   -191.2046132 -0.274511E-08  0.130E-04    1.92      70.9  T
   6   -191.2046132 -0.653245E-09  0.534E-05    1.92     173.2  T
     SCC iter.                  ...        0 min,  0.220 sec
     gradient                   ...        0 min,  0.333 sec
 * total energy  :  -188.2400489 Eh     change       -0.7419021E-05 Eh
   gradient norm :     0.0002050 Eh/α   predicted    -0.2678490E-05 ( -63.90%)
   displ. norm   :     0.0966024 α      lambda       -0.5400175E-05
   maximum displ.:     0.0721418 α      in ANC's #1, #4, #7, ...

........................................................................
.............................. CYCLE  164 ..............................
........................................................................

 iter      E             dE          RMSdq      gap      omega  full diag
   1   -191.2046274 -0.191205E+03  0.899E-03    1.92       0.0  T
   2   -191.2046274 -0.725813E-07  0.522E-03    1.92       1.8  T
   3   -191.2046270  0.438034E-06  0.187E-03    1.92       4.9  T
   4   -191.2046275 -0.504475E-06  0.258E-04    1.92      35.8  T
   5   -191.2046275 -0.277154E-08  0.135E-04    1.92      68.3  T
   6   -191.2046275 -0.683713E-09  0.535E-05    1.92     172.9  T
     SCC iter.                  ...        0 min,  0.261 sec
     gradient                   ...        0 min,  0.389 sec
 * total energy  :  -188.2400564 Eh     change       -0.7500162E-05 Eh
   gradient norm :     0.0002708 Eh/α   predicted    -0.2713687E-05 ( -63.82%)
   displ. norm   :     0.0946824 α      lambda       -0.4971400E-05
   maximum displ.:     0.0705216 α      in ANC's #1, #4, #7, ...

........................................................................
.............................. CYCLE  165 ..............................
........................................................................

 iter      E             dE          RMSdq      gap      omega  full diag
   1   -191.2046377 -0.191205E+03  0.857E-03    1.92       0.0  T
   2   -191.2046377 -0.617917E-07  0.498E-03    1.92       1.9  T
   3   -191.2046373  0.397766E-06  0.176E-03    1.92       5.3  T
   4   -191.2046378 -0.456717E-06  0.230E-04    1.92      40.2  T
   5   -191.2046378 -0.222076E-08  0.124E-04    1.92      74.4  T
   6   -191.2046378 -0.533362E-09  0.495E-05    1.92     186.9  T
     SCC iter.                  ...        0 min,  0.197 sec
     gradient                   ...        0 min,  0.367 sec
 * total energy  :  -188.2400635 Eh     change       -0.7024674E-05 Eh
   gradient norm :     0.0003901 Eh/α   predicted    -0.2498631E-05 ( -64.43%)
   displ. norm   :     0.0889980 α      lambda       -0.4635915E-05
   maximum displ.:     0.0661573 α      in ANC's #1, #4, #6, ...

........................................................................
.............................. CYCLE  166 ..............................
........................................................................

 iter      E             dE          RMSdq      gap      omega  full diag
   1   -191.2046667 -0.191205E+03  0.789E-03    1.92       0.0  T
   2   -191.2046667 -0.503530E-07  0.461E-03    1.92       2.0  T
   3   -191.2046664  0.352672E-06  0.163E-03    1.92       5.7  T
   4   -191.2046668 -0.403661E-06  0.205E-04    1.92      45.0  T
   5   -191.2046668 -0.185369E-08  0.118E-04    1.92      78.6  T
   6   -191.2046668 -0.407141E-09  0.525E-05    1.92     176.1  T
     SCC iter.                  ...        0 min,  0.290 sec
     gradient                   ...        0 min,  0.394 sec
 * total energy  :  -188.2400701 Eh     change       -0.6661997E-05 Eh
   gradient norm :     0.0004272 Eh/α   predicted    -0.2329459E-05 ( -65.03%)
   displ. norm   :     0.0869825 α      lambda       -0.4665321E-05
   maximum displ.:     0.0645266 α      in ANC's #1, #6, #4, ...

........................................................................
.............................. CYCLE  167 ..............................
........................................................................

 iter      E             dE          RMSdq      gap      omega  full diag
   1   -191.2046970 -0.191205E+03  0.777E-03    1.93       0.0  T
   2   -191.2046970 -0.469728E-07  0.455E-03    1.93       2.0  T
   3   -191.2046967  0.356618E-06  0.162E-03    1.93       5.7  T
   4   -191.2046971 -0.406681E-06  0.203E-04    1.93      45.6  T
   5   -191.2046971 -0.204236E-08  0.119E-04    1.93      77.8  T
   6   -191.2046971 -0.370477E-09  0.564E-05    1.93     163.9  T
     SCC iter.                  ...        0 min,  0.236 sec
     gradient                   ...        0 min,  0.332 sec
 * total energy  :  -188.2400769 Eh     change       -0.6730769E-05 Eh
   gradient norm :     0.0003816 Eh/α   predicted    -0.2343359E-05 ( -65.18%)
   displ. norm   :     0.0907508 α      lambda       -0.4972829E-05
   maximum displ.:     0.0672405 α      in ANC's #1, #6, #4, ...

........................................................................
.............................. CYCLE  168 ..............................
........................................................................

 iter      E             dE          RMSdq      gap      omega  full diag
   1   -191.2047232 -0.191205E+03  0.827E-03    1.93       0.0  T
   2   -191.2047232 -0.523290E-07  0.486E-03    1.93       1.9  T
   3   -191.2047228  0.397141E-06  0.170E-03    1.93       5.4  T
   4   -191.2047233 -0.452240E-06  0.219E-04    1.93      42.1  T
   5   -191.2047233 -0.253044E-08  0.129E-04    1.93      71.8  T
   6   -191.2047233 -0.390514E-09  0.618E-05    1.93     149.5  T
     SCC iter.                  ...        0 min,  0.233 sec
     gradient                   ...        0 min,  0.381 sec
 * total energy  :  -188.2400840 Eh     change       -0.7150319E-05 Eh
   gradient norm :     0.0002810 Eh/α   predicted    -0.2497714E-05 ( -65.07%)
   displ. norm   :     0.0966411 α      lambda       -0.5273108E-05
   maximum displ.:     0.0716847 α      in ANC's #1, #6, #4, ...

........................................................................
.............................. CYCLE  169 ..............................
........................................................................

 iter      E             dE          RMSdq      gap      omega  full diag
   1   -191.2047511 -0.191205E+03  0.902E-03    1.93       0.0  T
   2   -191.2047511 -0.599973E-07  0.530E-03    1.93       1.7  T
   3   -191.2047507  0.465485E-06  0.184E-03    1.93       5.0  T
   4   -191.2047512 -0.529284E-06  0.240E-04    1.93      38.5  T
   5   -191.2047512 -0.329049E-08  0.138E-04    1.93      66.9  T
   6   -191.2047512 -0.385114E-09  0.659E-05    1.93     140.2  T
     SCC iter.                  ...        0 min,  0.257 sec
     gradient                   ...        0 min,  0.384 sec
 * total energy  :  -188.2400916 Eh     change       -0.7592848E-05 Eh
   gradient norm :     0.0001824 Eh/α   predicted    -0.2649258E-05 ( -65.11%)
   displ. norm   :     0.0998949 α      lambda       -0.5368642E-05
   maximum displ.:     0.0741935 α      in ANC's #1, #6, #4, ...

........................................................................
.............................. CYCLE  170 ..............................
........................................................................

 iter      E             dE          RMSdq      gap      omega  full diag
   1   -191.2047732 -0.191205E+03  0.948E-03    1.93       0.0  T
   2   -191.2047732 -0.641368E-07  0.557E-03    1.93       1.7  T
   3   -191.2047727  0.484902E-06  0.187E-03    1.93       4.9  T
   4   -191.2047733 -0.550933E-06  0.250E-04    1.93      37.0  T
   5   -191.2047733 -0.390168E-08  0.140E-04    1.93      66.2  T
   6   -191.2047733 -0.315197E-09  0.667E-05    1.93     138.6  T
     SCC iter.                  ...        0 min,  0.251 sec
     gradient                   ...        0 min,  0.345 sec
 * total energy  :  -188.2400994 Eh     change       -0.7772816E-05 Eh
   gradient norm :     0.0001875 Eh/α   predicted    -0.2698215E-05 ( -65.29%)
   displ. norm   :     0.1000143 α      lambda       -0.5375387E-05
   maximum displ.:     0.0743287 α      in ANC's #1, #6, #4, ...

........................................................................
.............................. CYCLE  171 ..............................
........................................................................

 iter      E             dE          RMSdq      gap      omega  full diag
   1   -191.2047903 -0.191205E+03  0.954E-03    1.93       0.0  T
   2   -191.2047904 -0.637023E-07  0.561E-03    1.93       1.6  T
   3   -191.2047899  0.466662E-06  0.184E-03    1.93       5.0  T
   4   -191.2047905 -0.530136E-06  0.247E-04    1.93      37.4  T
   5   -191.2047905 -0.430927E-08  0.132E-04    1.93      69.8  T
   6   -191.2047905 -0.231580E-09  0.628E-05    1.93     147.2  T
     SCC iter.                  ...        0 min,  0.212 sec
     gradient                   ...        0 min,  0.306 sec
 * total energy  :  -188.2401072 Eh     change       -0.7859835E-05 Eh
   gradient norm :     0.0002600 Eh/α   predicted    -0.2701851E-05 ( -65.62%)
   displ. norm   :     0.1016056 α      lambda       -0.5597473E-05
   maximum displ.:     0.0752856 α      in ANC's #1, #6, #5, ...

........................................................................
.............................. CYCLE  172 ..............................
........................................................................

 iter      E             dE          RMSdq      gap      omega  full diag
   1   -191.2048012 -0.191205E+03  0.970E-03    1.93       0.0  T
   2   -191.2048013 -0.664263E-07  0.570E-03    1.93       1.6  T
   3   -191.2048008  0.457525E-06  0.183E-03    1.93       5.0  T
   4   -191.2048013 -0.519995E-06  0.251E-04    1.93      36.8  T
   5   -191.2048013 -0.488814E-08  0.129E-04    1.93      71.9  T
   6   -191.2048014 -0.205119E-09  0.611E-05    1.93     151.4  T
     SCC iter.                  ...        0 min,  0.232 sec
     gradient                   ...        0 min,  0.305 sec
 * total energy  :  -188.2401155 Eh     change       -0.8232953E-05 Eh
   gradient norm :     0.0003176 Eh/α   predicted    -0.2814161E-05 ( -65.82%)
   displ. norm   :     0.1088120 α      lambda       -0.6193754E-05
   maximum displ.:     0.0801638 α      in ANC's #1, #6, #5, ...

........................................................................
.............................. CYCLE  173 ..............................
........................................................................

 iter      E             dE          RMSdq      gap      omega  full diag
   1   -191.2047944 -0.191205E+03  0.104E-02    1.93       0.0  T
   2   -191.2047945 -0.786743E-07  0.609E-03    1.93       1.5  T
   3   -191.2047940  0.505144E-06  0.194E-03    1.93       4.8  T
   4   -191.2047945 -0.575060E-06  0.268E-04    1.93      34.5  T
   5   -191.2047945 -0.595762E-08  0.131E-04    1.93      70.3  T
   6   -191.2047945 -0.267221E-09  0.622E-05    1.93     148.7  T
     SCC iter.                  ...        0 min,  0.155 sec
     gradient                   ...        0 min,  0.300 sec
 * total energy  :  -188.2401246 Eh     change       -0.9114963E-05 Eh
   gradient norm :     0.0003361 Eh/α   predicted    -0.3115957E-05 ( -65.81%)
   displ. norm   :     0.1224388 α      lambda       -0.7128376E-05
   maximum displ.:     0.0896560 α      in ANC's #1, #6, #5, ...

........................................................................
.............................. CYCLE  174 ..............................
........................................................................

 iter      E             dE          RMSdq      gap      omega  full diag
   1   -191.2047761 -0.191205E+03  0.116E-02    1.93       0.0  T
   2   -191.2047762 -0.103579E-06  0.681E-03    1.93       1.4  T
   3   -191.2047755  0.623773E-06  0.217E-03    1.93       4.3  T
   4   -191.2047763 -0.711343E-06  0.306E-04    1.93      30.2  T
   5   -191.2047763 -0.795194E-08  0.148E-04    1.93      62.6  T
   6   -191.2047763 -0.431498E-09  0.693E-05    1.93     133.4  T
     SCC iter.                  ...        0 min,  0.130 sec
     gradient                   ...        0 min,  0.227 sec
 * total energy  :  -188.2401350 Eh     change       -0.1044498E-04 Eh
   gradient norm :     0.0003171 Eh/α   predicted    -0.3590919E-05 ( -65.62%)
   displ. norm   :     0.1380466 α      lambda       -0.8040292E-05
   maximum displ.:     0.1008122 α      in ANC's #1, #6, #10, ...

........................................................................
.............................. CYCLE  175 ..............................
........................................................................

 iter      E             dE          RMSdq      gap      omega  full diag
   1   -191.2047394 -0.191205E+03  0.130E-02    1.93       0.0  T
   2   -191.2047396 -0.137291E-06  0.764E-03    1.93       1.2  T
   3   -191.2047388  0.796412E-06  0.247E-03    1.93       3.7  T
   4   -191.2047397 -0.909695E-06  0.347E-04    1.93      26.6  T
   5   -191.2047397 -0.104659E-07  0.164E-04    1.93      56.2  T
   6   -191.2047397 -0.595406E-09  0.778E-05    1.93     118.8  T
     SCC iter.                  ...        0 min,  0.148 sec
     gradient                   ...        0 min,  0.289 sec
 * total energy  :  -188.2401467 Eh     change       -0.1168652E-04 Eh
   gradient norm :     0.0002698 Eh/α   predicted    -0.4056425E-05 ( -65.29%)
   displ. norm   :     0.1469784 α      lambda       -0.8358847E-05
   maximum displ.:     0.1075399 α      in ANC's #1, #6, #10, ...

........................................................................
.............................. CYCLE  176 ..............................
........................................................................

 iter      E             dE          RMSdq      gap      omega  full diag
   1   -191.2047059 -0.191205E+03  0.138E-02    1.93       0.0  T
   2   -191.2047061 -0.158924E-06  0.806E-03    1.93       1.1  T
   3   -191.2047051  0.907377E-06  0.264E-03    1.93       3.5  T
   4   -191.2047062 -0.103752E-05  0.373E-04    1.93      24.8  T
   5   -191.2047062 -0.119769E-07  0.177E-04    1.93      52.1  T
   6   -191.2047062 -0.738510E-09  0.842E-05    1.93     109.8  T
     SCC iter.                  ...        0 min,  0.156 sec
     gradient                   ...        0 min,  0.258 sec
 * total energy  :  -188.2401588 Eh     change       -0.1209243E-04 Eh
   gradient norm :     0.0002149 Eh/α   predicted    -0.4220714E-05 ( -65.10%)
   displ. norm   :     0.1428104 α      lambda       -0.7847469E-05
   maximum displ.:     0.1051633 α      in ANC's #1, #6, #10, ...

........................................................................
.............................. CYCLE  177 ..............................
........................................................................

 iter      E             dE          RMSdq      gap      omega  full diag
   1   -191.2046786 -0.191205E+03  0.134E-02    1.93       0.0  T
   2   -191.2046787 -0.157115E-06  0.784E-03    1.93       1.2  T
   3   -191.2046778  0.900034E-06  0.264E-03    1.93       3.5  T
   4   -191.2046789 -0.102999E-05  0.370E-04    1.93      25.0  T
   5   -191.2046789 -0.118966E-07  0.174E-04    1.93      53.2  T
   6   -191.2046789 -0.670553E-09  0.850E-05    1.93     108.8  T
     SCC iter.                  ...        0 min,  0.179 sec
     gradient                   ...        0 min,  0.291 sec
 * total energy  :  -188.2401701 Eh     change       -0.1134169E-04 Eh
   gradient norm :     0.0001935 Eh/α   predicted    -0.3959966E-05 ( -65.08%)
   displ. norm   :     0.1258938 α      lambda       -0.6729443E-05
   maximum displ.:     0.0937063 α      in ANC's #1, #6, #10, ...

........................................................................
.............................. CYCLE  178 ..............................
........................................................................

 iter      E             dE          RMSdq      gap      omega  full diag
   1   -191.2046752 -0.191205E+03  0.118E-02    1.93       0.0  T
   2   -191.2046754 -0.126675E-06  0.688E-03    1.93       1.3  T
   3   -191.2046746  0.734004E-06  0.240E-03    1.93       3.9  T
   4   -191.2046755 -0.840841E-06  0.331E-04    1.93      27.9  T
   5   -191.2046755 -0.936291E-08  0.158E-04    1.93      58.4  T
   6   -191.2046755 -0.568491E-09  0.785E-05    1.93     117.7  T
     SCC iter.                  ...        0 min,  0.144 sec
     gradient                   ...        0 min,  0.259 sec
 * total energy  :  -188.2401799 Eh     change       -0.9793454E-05 Eh
   gradient norm :     0.0001796 Eh/α   predicted    -0.3388785E-05 ( -65.40%)
   displ. norm   :     0.1038021 α      lambda       -0.5534356E-05
   maximum displ.:     0.0784153 α      in ANC's #1, #6, #10, ...

........................................................................
.............................. CYCLE  179 ..............................
........................................................................

 iter      E             dE          RMSdq      gap      omega  full diag
   1   -191.2046825 -0.191205E+03  0.978E-03    1.93       0.0  T
   2   -191.2046826 -0.934657E-07  0.573E-03    1.93       1.6  T
   3   -191.2046820  0.548095E-06  0.208E-03    1.93       4.4  T
   4   -191.2046827 -0.629056E-06  0.285E-04    1.93      32.4  T
   5   -191.2046827 -0.680956E-08  0.137E-04    1.93      67.3  T
   6   -191.2046827 -0.420329E-09  0.699E-05    1.93     132.3  T
     SCC iter.                  ...        0 min,  0.138 sec
     gradient                   ...        0 min,  0.235 sec
 * total energy  :  -188.2401881 Eh     change       -0.8126869E-05 Eh
   gradient norm :     0.0001875 Eh/α   predicted    -0.2781489E-05 ( -65.77%)
   displ. norm   :     0.0841319 α      lambda       -0.4626314E-05
   maximum displ.:     0.0647313 α      in ANC's #1, #6, #10, ...

........................................................................
.............................. CYCLE  180 ..............................
........................................................................

 iter      E             dE          RMSdq      gap      omega  full diag
   1   -191.2046913 -0.191205E+03  0.806E-03    1.93       0.0  T
   2   -191.2046914 -0.689697E-07  0.473E-03    1.93       2.0  T
   3   -191.2046909  0.407098E-06  0.181E-03    1.93       5.1  T
   4   -191.2046914 -0.468776E-06  0.245E-04    1.93      37.7  T
   5   -191.2046914 -0.478806E-08  0.121E-04    1.93      76.1  T
   6   -191.2046914 -0.344585E-09  0.628E-05    1.93     147.1  T
     SCC iter.                  ...        0 min,  0.133 sec
     gradient                   ...        0 min,  0.267 sec
 * total energy  :  -188.2401949 Eh     change       -0.6844513E-05 Eh
   gradient norm :     0.0001950 Eh/α   predicted    -0.2321721E-05 ( -66.08%)
   displ. norm   :     0.0709318 α      lambda       -0.4132013E-05
   maximum displ.:     0.0556009 α      in ANC's #1, #6, #10, ...

........................................................................
.............................. CYCLE  181 ..............................
........................................................................

 iter      E             dE          RMSdq      gap      omega  full diag
   1   -191.2047034 -0.191205E+03  0.701E-03    1.94       0.0  T
   2   -191.2047034 -0.572155E-07  0.411E-03    1.94       2.2  T
   3   -191.2047031  0.334549E-06  0.166E-03    1.94       5.6  T
   4   -191.2047035 -0.387072E-06  0.223E-04    1.94      41.4  T
   5   -191.2047035 -0.372472E-08  0.114E-04    1.94      80.8  T
   6   -191.2047035 -0.328072E-09  0.597E-05    1.94     154.9  T
     SCC iter.                  ...        0 min,  0.145 sec
     gradient                   ...        0 min,  0.278 sec
 * total energy  :  -188.2402011 Eh     change       -0.6146827E-05 Eh
   gradient norm :     0.0001911 Eh/α   predicted    -0.2071669E-05 ( -66.30%)
   displ. norm   :     0.0654552 α      lambda       -0.4073729E-05
   maximum displ.:     0.0520561 α      in ANC's #1, #6, #10, ...

........................................................................
.............................. CYCLE  182 ..............................
........................................................................

 iter      E             dE          RMSdq      gap      omega  full diag
   1   -191.2047110 -0.191205E+03  0.678E-03    1.94       0.0  T
   2   -191.2047111 -0.588181E-07  0.398E-03    1.94       2.3  T
   3   -191.2047108  0.342340E-06  0.169E-03    1.94       5.5  T
   4   -191.2047112 -0.398651E-06  0.228E-04    1.94      40.5  T
   5   -191.2047112 -0.362004E-08  0.119E-04    1.94      77.5  T
   6   -191.2047112 -0.341259E-09  0.629E-05    1.94     146.9  T
     SCC iter.                  ...        0 min,  0.142 sec
     gradient                   ...        0 min,  0.250 sec
 * total energy  :  -188.2402071 Eh     change       -0.6083461E-05 Eh
   gradient norm :     0.0001919 Eh/α   predicted    -0.2041638E-05 ( -66.44%)
   displ. norm   :     0.0668494 α      lambda       -0.4409967E-05
   maximum displ.:     0.0535241 α      in ANC's #1, #6, #10, ...

........................................................................
.............................. CYCLE  183 ..............................
........................................................................

 iter      E             dE          RMSdq      gap      omega  full diag
   1   -191.2047170 -0.191205E+03  0.725E-03    1.94       0.0  T
   2   -191.2047171 -0.723254E-07  0.425E-03    1.94       2.2  T
   3   -191.2047167  0.413202E-06  0.188E-03    1.94       4.9  T
   4   -191.2047171 -0.483995E-06  0.253E-04    1.94      36.5  T
   5   -191.2047171 -0.421792E-08  0.135E-04    1.94      68.5  T
   6   -191.2047171 -0.439343E-09  0.717E-05    1.94     129.0  T
     SCC iter.                  ...        0 min,  0.128 sec
     gradient                   ...        0 min,  0.242 sec
 * total energy  :  -188.2402137 Eh     change       -0.6589112E-05 Eh
   gradient norm :     0.0001851 Eh/α   predicted    -0.2210359E-05 ( -66.45%)
   displ. norm   :     0.0756656 α      lambda       -0.5190468E-05
   maximum displ.:     0.0605464 α      in ANC's #1, #6, #10, ...
 * RMSD in coord.:     0.1888411 α      energy gain  -0.2471895E-03 Eh

generating ANC from exact Hessian ...
Using Lindh-Hessian (1995)
 Shifting diagonal of input Hessian by    1.0073547236452873E-002
 Lowest  eigenvalues of input Hessian
    0.010000    0.000000    0.000000    0.000000    0.000000    0.000000
    0.000000    0.010137    0.010177    0.010203    0.010241    0.010318
    0.010468    0.010554    0.010621    0.010687    0.010831    0.010899
 Highest eigenvalues
    2.165851    2.226376    2.333533    2.341706    2.350836    3.165944


........................................................................
.............................. CYCLE  184 ..............................
........................................................................

 iter      E             dE          RMSdq      gap      omega  full diag
   1   -191.2047181 -0.191205E+03  0.852E-03    1.94       0.0  T
   2   -191.2047182 -0.105665E-06  0.500E-03    1.94       1.8  T
   3   -191.2047176  0.598943E-06  0.228E-03    1.94       4.1  T
   4   -191.2047183 -0.705454E-06  0.309E-04    1.94      30.0  T
   5   -191.2047183 -0.610567E-08  0.165E-04    1.94      56.0  T
   6   -191.2047183 -0.622236E-09  0.885E-05    1.94     104.5  T
     SCC iter.                  ...        0 min,  0.137 sec
     gradient                   ...        0 min,  0.283 sec
 * total energy  :  -188.2402215 Eh     change       -0.7744815E-05 Eh
   gradient norm :     0.0001878 Eh/α   predicted     0.0000000E+00 (-100.00%)
   displ. norm   :     0.0178514 α      lambda       -0.4496446E-07
   maximum displ.:     0.0166648 α      in ANC's #1, #6, #14, ...

........................................................................
.............................. CYCLE  185 ..............................
........................................................................

 iter      E             dE          RMSdq      gap      omega  full diag
   1   -191.2047469 -0.191205E+03  0.122E-03    1.94       0.0  T
   2   -191.2047469 -0.447920E-08  0.723E-04    1.94      12.8  T
   3   -191.2047469  0.102638E-07  0.309E-04    1.94      30.0  T
   4   -191.2047469 -0.118374E-07  0.692E-05    1.94     133.7  T
   5   -191.2047469 -0.511307E-09  0.276E-05    1.94     335.3  T
     SCC iter.                  ...        0 min,  0.135 sec
     gradient                   ...        0 min,  0.230 sec
 * total energy  :  -188.2402237 Eh     change       -0.2228613E-05 Eh
   gradient norm :     0.0001570 Eh/α   predicted    -0.7536353E-06 ( -66.18%)
   displ. norm   :     0.0283660 α      lambda       -0.2294702E-05
   maximum displ.:     0.0235670 α      in ANC's #1, #6, #14, ...

........................................................................
.............................. CYCLE  186 ..............................
........................................................................

 iter      E             dE          RMSdq      gap      omega  full diag
   1   -191.2047548 -0.191205E+03  0.261E-03    1.94       0.0  T
   2   -191.2047548 -0.925294E-08  0.155E-03    1.94       6.0  T
   3   -191.2047548  0.541167E-07  0.685E-04    1.94      13.5  T
   4   -191.2047549 -0.634140E-07  0.923E-05    1.94     100.2  T
   5   -191.2047549 -0.510710E-09  0.481E-05    1.94     192.0  T
     SCC iter.                  ...        0 min,  0.132 sec
     gradient                   ...        0 min,  0.251 sec
 * total energy  :  -188.2402271 Eh     change       -0.3438647E-05 Eh
   gradient norm :     0.0001676 Eh/α   predicted    -0.1167198E-05 ( -66.06%)
   displ. norm   :     0.0494050 α      lambda       -0.3869079E-05
   maximum displ.:     0.0382388 α      in ANC's #1, #6, #14, ...

........................................................................
.............................. CYCLE  187 ..............................
........................................................................

 iter      E             dE          RMSdq      gap      omega  full diag
   1   -191.2047464 -0.191205E+03  0.506E-03    1.94       0.0  T
   2   -191.2047464 -0.346740E-07  0.300E-03    1.94       3.1  T
   3   -191.2047462  0.215546E-06  0.138E-03    1.94       6.7  T
   4   -191.2047465 -0.254484E-06  0.180E-04    1.94      51.5  T
   5   -191.2047465 -0.183948E-08  0.938E-05    1.94      98.5  T
   6   -191.2047465 -0.136794E-09  0.498E-05    1.94     185.8  T
     SCC iter.                  ...        0 min,  0.140 sec
     gradient                   ...        0 min,  0.251 sec
 * total energy  :  -188.2402327 Eh     change       -0.5590079E-05 Eh
   gradient norm :     0.0001554 Eh/α   predicted    -0.1937014E-05 ( -65.35%)
   displ. norm   :     0.0814718 α      lambda       -0.5926417E-05
   maximum displ.:     0.0611525 α      in ANC's #1, #6, #14, ...

........................................................................
.............................. CYCLE  188 ..............................
........................................................................

 iter      E             dE          RMSdq      gap      omega  full diag
   1   -191.2047325 -0.191205E+03  0.856E-03    1.94       0.0  T
   2   -191.2047326 -0.104937E-06  0.506E-03    1.94       1.8  T
   3   -191.2047320  0.616534E-06  0.233E-03    1.94       4.0  T
   4   -191.2047327 -0.728980E-06  0.316E-04    1.94      29.3  T
   5   -191.2047327 -0.617013E-08  0.164E-04    1.94      56.5  T
   6   -191.2047327 -0.499767E-09  0.913E-05    1.94     101.2  T
     SCC iter.                  ...        0 min,  0.145 sec
     gradient                   ...        0 min,  0.237 sec
 * total energy  :  -188.2402411 Eh     change       -0.8342892E-05 Eh
   gradient norm :     0.0002015 Eh/α   predicted    -0.2975561E-05 ( -64.33%)
   displ. norm   :     0.1120087 α      lambda       -0.7400911E-05
   maximum displ.:     0.0835198 α      in ANC's #1, #6, #5, ...

........................................................................
.............................. CYCLE  189 ..............................
........................................................................

 iter      E             dE          RMSdq      gap      omega  full diag
   1   -191.2046723 -0.191205E+03  0.120E-02    1.94       0.0  T
   2   -191.2046725 -0.221860E-06  0.710E-03    1.94       1.3  T
   3   -191.2046713  0.125463E-05  0.336E-03    1.94       2.8  T
   4   -191.2046728 -0.149403E-05  0.461E-04    1.94      20.1  T
   5   -191.2046728 -0.136249E-07  0.235E-04    1.94      39.4  T
   6   -191.2046728 -0.987285E-09  0.131E-04    1.94      70.5  T
   7   -191.2046728 -0.334325E-09  0.600E-05    1.94     154.0  T
     SCC iter.                  ...        0 min,  0.158 sec
     gradient                   ...        0 min,  0.261 sec
 * total energy  :  -188.2402512 Eh     change       -0.1010801E-04 Eh
   gradient norm :     0.0003284 Eh/α   predicted    -0.3725840E-05 ( -63.14%)
   displ. norm   :     0.1214271 α      lambda       -0.7197214E-05
   maximum displ.:     0.0907763 α      in ANC's #1, #28, #4, ...

........................................................................
.............................. CYCLE  190 ..............................
........................................................................

 iter      E             dE          RMSdq      gap      omega  full diag
   1   -191.2046445 -0.191205E+03  0.129E-02    1.94       0.0  T
   2   -191.2046448 -0.265147E-06  0.757E-03    1.94       1.2  T
   3   -191.2046434  0.139387E-05  0.352E-03    1.94       2.6  T
   4   -191.2046450 -0.166170E-05  0.495E-04    1.94      18.7  T
   5   -191.2046450 -0.164868E-07  0.251E-04    1.94      36.9  T
   6   -191.2046450 -0.133241E-08  0.139E-04    1.94      66.5  T
   7   -191.2046450 -0.319460E-09  0.600E-05    1.94     154.1  T
     SCC iter.                  ...        0 min,  0.189 sec
     gradient                   ...        0 min,  0.286 sec
 * total energy  :  -188.2402609 Eh     change       -0.9695873E-05 Eh
   gradient norm :     0.0003173 Eh/α   predicted    -0.3624312E-05 ( -62.62%)
   displ. norm   :     0.1066023 α      lambda       -0.5791802E-05
   maximum displ.:     0.0807879 α      in ANC's #1, #4, #28, ...

........................................................................
.............................. CYCLE  191 ..............................
........................................................................

 iter      E             dE          RMSdq      gap      omega  full diag
   1   -191.2046714 -0.191205E+03  0.113E-02    1.94       0.0  T
   2   -191.2046716 -0.217120E-06  0.667E-03    1.94       1.4  T
   3   -191.2046705  0.108621E-05  0.314E-03    1.94       2.9  T
   4   -191.2046718 -0.130132E-05  0.443E-04    1.94      20.9  T
   5   -191.2046718 -0.134416E-07  0.225E-04    1.94      41.0  T
   6   -191.2046718 -0.118590E-08  0.124E-04    1.94      74.5  T
   7   -191.2046718 -0.238060E-09  0.542E-05    1.94     170.7  T
     SCC iter.                  ...        0 min,  0.141 sec
     gradient                   ...        0 min,  0.210 sec
 * total energy  :  -188.2402687 Eh     change       -0.7838705E-05 Eh
   gradient norm :     0.0002982 Eh/α   predicted    -0.2913148E-05 ( -62.84%)
   displ. norm   :     0.0870745 α      lambda       -0.4703514E-05
   maximum displ.:     0.0670317 α      in ANC's #1, #4, #28, ...

........................................................................
.............................. CYCLE  192 ..............................
........................................................................

 iter      E             dE          RMSdq      gap      omega  full diag
   1   -191.2047067 -0.191205E+03  0.913E-03    1.95       0.0  T
   2   -191.2047068 -0.141901E-06  0.537E-03    1.95       1.7  T
   3   -191.2047061  0.709091E-06  0.252E-03    1.95       3.7  T
   4   -191.2047069 -0.849493E-06  0.360E-04    1.95      25.6  T
   5   -191.2047070 -0.910370E-08  0.184E-04    1.95      50.2  T
   6   -191.2047070 -0.886843E-09  0.101E-04    1.95      91.2  T
     SCC iter.                  ...        0 min,  0.170 sec
     gradient                   ...        0 min,  0.270 sec
 * total energy  :  -188.2402752 Eh     change       -0.6507444E-05 Eh
   gradient norm :     0.0002389 Eh/α   predicted    -0.2364966E-05 ( -63.66%)
   displ. norm   :     0.0740175 α      lambda       -0.4240047E-05
   maximum displ.:     0.0576201 α      in ANC's #1, #4, #28, ...

........................................................................
.............................. CYCLE  193 ..............................
........................................................................

 iter      E             dE          RMSdq      gap      omega  full diag
   1   -191.2047435 -0.191205E+03  0.770E-03    1.95       0.0  T
   2   -191.2047436 -0.107737E-06  0.452E-03    1.95       2.0  T
   3   -191.2047432  0.474039E-06  0.206E-03    1.95       4.5  T
   4   -191.2047437 -0.565457E-06  0.317E-04    1.95      29.2  T
   5   -191.2047437 -0.783584E-08  0.162E-04    1.95      57.2  T
   6   -191.2047437 -0.924246E-09  0.885E-05    1.95     104.4  T
     SCC iter.                  ...        0 min,  0.130 sec
     gradient                   ...        0 min,  0.227 sec
 * total energy  :  -188.2402812 Eh     change       -0.6002322E-05 Eh
   gradient norm :     0.0001888 Eh/α   predicted    -0.2128127E-05 ( -64.54%)
   displ. norm   :     0.0753653 α      lambda       -0.4578982E-05
   maximum displ.:     0.0583634 α      in ANC's #1, #4, #19, ...

........................................................................
.............................. CYCLE  194 ..............................
........................................................................

 iter      E             dE          RMSdq      gap      omega  full diag
   1   -191.2047578 -0.191205E+03  0.798E-03    1.95       0.0  T
   2   -191.2047579 -0.104298E-06  0.469E-03    1.95       2.0  T
   3   -191.2047574  0.505568E-06  0.210E-03    1.95       4.4  T
   4   -191.2047580 -0.598221E-06  0.315E-04    1.95      29.3  T
   5   -191.2047580 -0.794810E-08  0.161E-04    1.95      57.5  T
   6   -191.2047580 -0.981231E-09  0.863E-05    1.95     107.1  T
     SCC iter.                  ...        0 min,  0.145 sec
     gradient                   ...        0 min,  0.254 sec
 * total energy  :  -188.2402878 Eh     change       -0.6537501E-05 Eh
   gradient norm :     0.0002203 Eh/α   predicted    -0.2297942E-05 ( -64.85%)
   displ. norm   :     0.0883694 α      lambda       -0.5452501E-05
   maximum displ.:     0.0672738 α      in ANC's #1, #4, #19, ...

........................................................................
.............................. CYCLE  195 ..............................
........................................................................

 iter      E             dE          RMSdq      gap      omega  full diag
   1   -191.2047373 -0.191205E+03  0.950E-03    1.95       0.0  T
   2   -191.2047374 -0.137599E-06  0.559E-03    1.95       1.7  T
   3   -191.2047367  0.690053E-06  0.244E-03    1.95       3.8  T
   4   -191.2047376 -0.813402E-06  0.362E-04    1.95      25.5  T
   5   -191.2047376 -0.109103E-07  0.180E-04    1.95      51.4  T
   6   -191.2047376 -0.123279E-08  0.960E-05    1.95      96.3  T
     SCC iter.                  ...        0 min,  0.139 sec
     gradient                   ...        0 min,  0.249 sec
 * total energy  :  -188.2402956 Eh     change       -0.7817533E-05 Eh
   gradient norm :     0.0001664 Eh/α   predicted    -0.2737172E-05 ( -64.99%)
   displ. norm   :     0.1057080 α      lambda       -0.6398794E-05
   maximum displ.:     0.0792766 α      in ANC's #1, #3, #4, ...

........................................................................
.............................. CYCLE  196 ..............................
........................................................................

 iter      E             dE          RMSdq      gap      omega  full diag
   1   -191.2047149 -0.191205E+03  0.112E-02    1.95       0.0  T
   2   -191.2047151 -0.178534E-06  0.661E-03    1.95       1.4  T
   3   -191.2047142  0.909651E-06  0.277E-03    1.95       3.3  T
   4   -191.2047153 -0.106362E-05  0.412E-04    1.95      22.4  T
   5   -191.2047153 -0.147841E-07  0.202E-04    1.95      45.7  T
   6   -191.2047153 -0.166838E-08  0.106E-04    1.95      86.8  T
   7   -191.2047153 -0.131394E-09  0.552E-05    1.95     167.6  T
     SCC iter.                  ...        0 min,  0.166 sec
     gradient                   ...        0 min,  0.275 sec
 * total energy  :  -188.2403048 Eh     change       -0.9194805E-05 Eh
   gradient norm :     0.0001687 Eh/α   predicted    -0.3219585E-05 ( -64.98%)
   displ. norm   :     0.1242793 α      lambda       -0.7389051E-05
   maximum displ.:     0.0919395 α      in ANC's #1, #3, #4, ...

........................................................................
.............................. CYCLE  197 ..............................
........................................................................

 iter      E             dE          RMSdq      gap      omega  full diag
   1   -191.2046762 -0.191205E+03  0.131E-02    1.95       0.0  T
   2   -191.2046764 -0.236059E-06  0.774E-03    1.95       1.2  T
   3   -191.2046752  0.120061E-05  0.318E-03    1.95       2.9  T
   4   -191.2046766 -0.140237E-05  0.462E-04    1.95      20.0  T
   5   -191.2046767 -0.188904E-07  0.225E-04    1.95      41.0  T
   6   -191.2046767 -0.203801E-08  0.119E-04    1.95      77.6  T
   7   -191.2046767 -0.129887E-09  0.623E-05    1.95     148.4  T
     SCC iter.                  ...        0 min,  0.144 sec
     gradient                   ...        0 min,  0.256 sec
 * total energy  :  -188.2403153 Eh     change       -0.1054479E-04 Eh
   gradient norm :     0.0002020 Eh/α   predicted    -0.3720141E-05 ( -64.72%)
   displ. norm   :     0.1373760 α      lambda       -0.8036494E-05
   maximum displ.:     0.1004775 α      in ANC's #1, #3, #4, ...

........................................................................
.............................. CYCLE  198 ..............................
........................................................................

 iter      E             dE          RMSdq      gap      omega  full diag
   1   -191.2046297 -0.191205E+03  0.142E-02    1.95       0.0  T
   2   -191.2046300 -0.264270E-06  0.835E-03    1.95       1.1  T
   3   -191.2046286  0.134023E-05  0.334E-03    1.95       2.8  T
   4   -191.2046302 -0.156035E-05  0.491E-04    1.95      18.8  T
   5   -191.2046302 -0.214891E-07  0.240E-04    1.95      38.5  T
   6   -191.2046302 -0.235246E-08  0.126E-04    1.95      73.4  T
   7   -191.2046302 -0.148759E-09  0.657E-05    1.95     140.8  T
     SCC iter.                  ...        0 min,  0.158 sec
     gradient                   ...        0 min,  0.245 sec
 * total energy  :  -188.2403269 Eh     change       -0.1155947E-04 Eh
   gradient norm :     0.0002479 Eh/α   predicted    -0.4052326E-05 ( -64.94%)
   displ. norm   :     0.1495851 α      lambda       -0.8869380E-05
   maximum displ.:     0.1081267 α      in ANC's #1, #3, #4, ...

........................................................................
.............................. CYCLE  199 ..............................
........................................................................

 iter      E             dE          RMSdq      gap      omega  full diag
   1   -191.2046011 -0.191205E+03  0.150E-02    1.95       0.0  T
   2   -191.2046014 -0.291362E-06  0.884E-03    1.95       1.0  T
   3   -191.2046000  0.144280E-05  0.345E-03    1.95       2.7  T
   4   -191.2046016 -0.167630E-05  0.519E-04    1.95      17.8  T
   5   -191.2046017 -0.243304E-07  0.254E-04    1.95      36.4  T
   6   -191.2046017 -0.267744E-08  0.133E-04    1.95      69.7  T
   7   -191.2046017 -0.172946E-09  0.687E-05    1.95     134.7  T
     SCC iter.                  ...        0 min,  0.177 sec
     gradient                   ...        0 min,  0.286 sec
 * total energy  :  -188.2403397 Eh     change       -0.1283466E-04 Eh
   gradient norm :     0.0002716 Eh/α   predicted    -0.4479263E-05 ( -65.10%)
   displ. norm   :     0.1673192 α      lambda       -0.1023029E-04
   maximum displ.:     0.1195028 α      in ANC's #1, #3, #4, ...

........................................................................
.............................. CYCLE  200 ..............................
........................................................................

 iter      E             dE          RMSdq      gap      omega  full diag
   1   -191.2045586 -0.191205E+03  0.162E-02    1.96       0.0  T
   2   -191.2045589 -0.328503E-06  0.956E-03    1.96       1.0  T
   3   -191.2045573  0.160539E-05  0.363E-03    1.96       2.5  T
   4   -191.2045592 -0.186161E-05  0.557E-04    1.96      16.6  T
   5   -191.2045592 -0.277152E-07  0.276E-04    1.96      33.5  T
   6   -191.2045592 -0.310169E-08  0.143E-04    1.96      64.7  T
   7   -191.2045592 -0.244626E-09  0.725E-05    1.96     127.6  T
     SCC iter.                  ...        0 min,  0.168 sec
     gradient                   ...        0 min,  0.263 sec
 * total energy  :  -188.2403546 Eh     change       -0.1486880E-04 Eh
   gradient norm :     0.0003010 Eh/α   predicted    -0.5179273E-05 ( -65.17%)
   displ. norm   :     0.1963023 α      lambda       -0.1241310E-04
   maximum displ.:     0.1385981 α      in ANC's #1, #3, #6, ...

........................................................................
.............................. CYCLE  201 ..............................
........................................................................

 iter      E             dE          RMSdq      gap      omega  full diag
   1   -191.2045087 -0.191205E+03  0.184E-02    1.96       0.0  T
   2   -191.2045091 -0.404749E-06  0.108E-02    1.96       1.0  T
   3   -191.2045072  0.193694E-05  0.398E-03    1.96       2.3  T
   4   -191.2045094 -0.224002E-05  0.623E-04    1.96      14.8  T
   5   -191.2045095 -0.344521E-07  0.312E-04    1.96      29.6  T
   6   -191.2045095 -0.395696E-08  0.161E-04    1.96      57.5  T
   7   -191.2045095 -0.361752E-09  0.796E-05    1.96     116.1  T
     SCC iter.                  ...        0 min,  0.158 sec
     gradient                   ...        0 min,  0.248 sec
 * total energy  :  -188.2403725 Eh     change       -0.1792231E-04 Eh
   gradient norm :     0.0003154 Eh/α   predicted    -0.6313416E-05 ( -64.77%)
   displ. norm   :     0.2335449 α      lambda       -0.1494134E-04
   maximum displ.:     0.1634869 α      in ANC's #1, #3, #6, ...

........................................................................
.............................. CYCLE  202 ..............................
........................................................................

 iter      E             dE          RMSdq      gap      omega  full diag
   1   -191.2044541 -0.191204E+03  0.212E-02    1.96       0.0  T
   2   -191.2044546 -0.517416E-06  0.125E-02    1.96       1.0  T
   3   -191.2044522  0.240575E-05  0.444E-03    1.96       2.1  T
   4   -191.2044550 -0.277662E-05  0.712E-04    1.96      13.0  T
   5   -191.2044550 -0.443414E-07  0.360E-04    1.96      25.7  T
   6   -191.2044550 -0.533612E-08  0.184E-04    1.96      50.3  T
   7   -191.2044550 -0.553769E-09  0.887E-05    1.96     104.3  T
     SCC iter.                  ...        0 min,  0.154 sec
     gradient                   ...        0 min,  0.211 sec
 * total energy  :  -188.2403937 Eh     change       -0.2122985E-04 Eh
   gradient norm :     0.0003522 Eh/α   predicted    -0.7652187E-05 ( -63.96%)
   displ. norm   :     0.2634625 α      lambda       -0.1651044E-04
   maximum displ.:     0.1835079 α      in ANC's #1, #3, #6, ...

........................................................................
.............................. CYCLE  203 ..............................
........................................................................

 iter      E             dE          RMSdq      gap      omega  full diag
   1   -191.2044154 -0.191204E+03  0.232E-02    1.96       0.0  T
   2   -191.2044160 -0.573781E-06  0.136E-02    1.96       1.0  T
   3   -191.2044134  0.257261E-05  0.458E-03    1.96       2.0  T
   4   -191.2044164 -0.295760E-05  0.757E-04    1.96      12.2  T
   5   -191.2044165 -0.493326E-07  0.387E-04    1.96      23.9  T
   6   -191.2044165 -0.629768E-08  0.196E-04    1.96      47.1  T
   7   -191.2044165 -0.732598E-09  0.918E-05    1.96     100.7  T
     SCC iter.                  ...        0 min,  0.157 sec
     gradient                   ...        0 min,  0.236 sec
 * total energy  :  -188.2404168 Eh     change       -0.2310194E-04 Eh
   gradient norm :     0.0003866 Eh/α   predicted    -0.8510621E-05 ( -63.16%)
   displ. norm   :     0.2725460 α      lambda       -0.1638815E-04
   maximum displ.:     0.1895602 α      in ANC's #1, #3, #6, ...

........................................................................
.............................. CYCLE  204 ..............................
........................................................................

 iter      E             dE          RMSdq      gap      omega  full diag
   1   -191.2044464 -0.191204E+03  0.234E-02    1.96       0.0  T
   2   -191.2044470 -0.558044E-06  0.137E-02    1.96       1.0  T
   3   -191.2044446  0.234610E-05  0.439E-03    1.96       2.1  T
   4   -191.2044473 -0.269087E-05  0.752E-04    1.96      12.3  T
   5   -191.2044474 -0.478020E-07  0.388E-04    1.96      23.8  T
   6   -191.2044474 -0.671972E-08  0.195E-04    1.96      47.4  T
   7   -191.2044474 -0.794472E-09  0.889E-05    1.96     104.0  T
     SCC iter.                  ...        0 min,  0.169 sec
     gradient                   ...        0 min,  0.256 sec
 * total energy  :  -188.2404396 Eh     change       -0.2275735E-04 Eh
   gradient norm :     0.0003924 Eh/α   predicted    -0.8465624E-05 ( -62.80%)
   displ. norm   :     0.2608888 α      lambda       -0.1501594E-04
   maximum displ.:     0.1818462 α      in ANC's #1, #3, #6, ...

........................................................................
.............................. CYCLE  205 ..............................
........................................................................

 iter      E             dE          RMSdq      gap      omega  full diag
   1   -191.2044966 -0.191204E+03  0.220E-02    1.96       0.0  T
   2   -191.2044971 -0.453838E-06  0.129E-02    1.96       1.0  T
   3   -191.2044953  0.178520E-05  0.384E-03    1.96       2.4  T
   4   -191.2044973 -0.203838E-05  0.687E-04    1.96      13.5  T
   5   -191.2044973 -0.391872E-07  0.356E-04    1.96      26.0  T
   6   -191.2044973 -0.595080E-08  0.179E-04    1.96      51.5  T
   7   -191.2044973 -0.765624E-09  0.800E-05    1.96     115.6  T
     SCC iter.                  ...        0 min,  0.198 sec
     gradient                   ...        0 min,  0.240 sec
 * total energy  :  -188.2404605 Eh     change       -0.2088947E-04 Eh
   gradient norm :     0.0004354 Eh/α   predicted    -0.7740201E-05 ( -62.95%)
   displ. norm   :     0.2299949 α      lambda       -0.1302959E-04
   maximum displ.:     0.1607328 α      in ANC's #1, #3, #6, ...

........................................................................
.............................. CYCLE  206 ..............................
........................................................................

 iter      E             dE          RMSdq      gap      omega  full diag
   1   -191.2046478 -0.191205E+03  0.193E-02    1.97       0.0  T
   2   -191.2046481 -0.336238E-06  0.114E-02    1.97       1.0  T
   3   -191.2046470  0.114996E-05  0.311E-03    1.97       3.0  T
   4   -191.2046483 -0.131021E-05  0.592E-04    1.97      15.6  T
   5   -191.2046483 -0.283545E-07  0.309E-04    1.97      30.0  T
   6   -191.2046483 -0.479736E-08  0.155E-04    1.97      59.6  T
   7   -191.2046483 -0.649294E-09  0.674E-05    1.97     137.1  T
     SCC iter.                  ...        0 min,  0.158 sec
     gradient                   ...        0 min,  0.249 sec
 * total energy  :  -188.2404786 Eh     change       -0.1811332E-04 Eh
   gradient norm :     0.0004490 Eh/α   predicted    -0.6668906E-05 ( -63.18%)
   displ. norm   :     0.2103920 α      lambda       -0.1191826E-04
   maximum displ.:     0.1477281 α      in ANC's #1, #3, #6, ...

........................................................................
.............................. CYCLE  207 ..............................
........................................................................

 iter      E             dE          RMSdq      gap      omega  full diag
   1   -191.2047139 -0.191205E+03  0.178E-02    1.97       0.0  T
   2   -191.2047142 -0.262360E-06  0.105E-02    1.97       1.0  T
   3   -191.2047134  0.785064E-06  0.259E-03    1.97       3.6  T
   4   -191.2047143 -0.890392E-06  0.534E-04    1.97      17.3  T
   5   -191.2047143 -0.229165E-07  0.274E-04    1.97      33.7  T
   6   -191.2047143 -0.381365E-08  0.140E-04    1.97      66.0  T
   7   -191.2047143 -0.612090E-09  0.600E-05    1.97     154.2  T
     SCC iter.                  ...        0 min,  0.164 sec
     gradient                   ...        0 min,  0.254 sec
 * total energy  :  -188.2404952 Eh     change       -0.1662985E-04 Eh
   gradient norm :     0.0004412 Eh/α   predicted    -0.6076922E-05 ( -63.46%)
   displ. norm   :     0.1978556 α      lambda       -0.1139919E-04
   maximum displ.:     0.1395387 α      in ANC's #1, #3, #6, ...

........................................................................
.............................. CYCLE  208 ..............................
........................................................................

 iter      E             dE          RMSdq      gap      omega  full diag
   1   -191.2048184 -0.191205E+03  0.171E-02    1.97       0.0  T
   2   -191.2048186 -0.236604E-06  0.101E-02    1.97       1.0  T
   3   -191.2048180  0.600459E-06  0.228E-03    1.97       4.1  T
   4   -191.2048187 -0.679452E-06  0.512E-04    1.97      18.0  T
   5   -191.2048187 -0.211286E-07  0.255E-04    1.97      36.3  T
   6   -191.2048187 -0.311880E-08  0.133E-04    1.97      69.4  T
   7   -191.2048187 -0.636732E-09  0.557E-05    1.97     166.1  T
     SCC iter.                  ...        0 min,  0.139 sec
     gradient                   ...        0 min,  0.237 sec
 * total energy  :  -188.2405111 Eh     change       -0.1582327E-04 Eh
   gradient norm :     0.0004622 Eh/α   predicted    -0.5799319E-05 ( -63.35%)
   displ. norm   :     0.1902418 α      lambda       -0.1100136E-04
   maximum displ.:     0.1350292 α      in ANC's #1, #3, #6, ...

........................................................................
.............................. CYCLE  209 ..............................
........................................................................

 iter      E             dE          RMSdq      gap      omega  full diag
   1   -191.2048673 -0.191205E+03  0.170E-02    1.97       0.0  T
   2   -191.2048675 -0.205740E-06  0.101E-02    1.98       1.0  T
   3   -191.2048671  0.434652E-06  0.195E-03    1.98       4.7  T
   4   -191.2048676 -0.490253E-06  0.498E-04    1.98      18.6  T
   5   -191.2048676 -0.203885E-07  0.238E-04    1.98      38.8  T
   6   -191.2048676 -0.242252E-08  0.129E-04    1.98      71.7  T
   7   -191.2048676 -0.653927E-09  0.518E-05    1.98     178.5  T
     SCC iter.                  ...        0 min,  0.185 sec
     gradient                   ...        0 min,  0.296 sec
 * total energy  :  -188.2405262 Eh     change       -0.1519444E-04 Eh
   gradient norm :     0.0003811 Eh/α   predicted    -0.5589912E-05 ( -63.21%)
   displ. norm   :     0.1772344 α      lambda       -0.1010661E-04
   maximum displ.:     0.1268827 α      in ANC's #1, #3, #6, ...

........................................................................
.............................. CYCLE  210 ..............................
........................................................................

 iter      E             dE          RMSdq      gap      omega  full diag
   1   -191.2048825 -0.191205E+03  0.164E-02    1.98       0.0  T
   2   -191.2048827 -0.174719E-06  0.968E-03    1.98       1.0  T
   3   -191.2048823  0.346869E-06  0.175E-03    1.98       5.3  T
   4   -191.2048827 -0.392186E-06  0.462E-04    1.98      20.0  T
   5   -191.2048827 -0.173306E-07  0.219E-04    1.98      42.3  T
   6   -191.2048827 -0.176132E-08  0.120E-04    1.98      76.8  T
   7   -191.2048827 -0.586482E-09  0.474E-05    1.98     195.1  T
     SCC iter.                  ...        0 min,  0.188 sec
     gradient                   ...        0 min,  0.264 sec
 * total energy  :  -188.2405401 Eh     change       -0.1386557E-04 Eh
   gradient norm :     0.0003873 Eh/α   predicted    -0.5124931E-05 ( -63.04%)
   displ. norm   :     0.1548672 α      lambda       -0.8666203E-05
   maximum displ.:     0.1123303 α      in ANC's #1, #3, #8, ...

........................................................................
.............................. CYCLE  211 ..............................
........................................................................

 iter      E             dE          RMSdq      gap      omega  full diag
   1   -191.2049539 -0.191205E+03  0.146E-02    1.98       0.0  T
   2   -191.2049540 -0.121793E-06  0.862E-03    1.98       1.1  T
   3   -191.2049538  0.207775E-06  0.135E-03    1.98       6.9  T
   4   -191.2049540 -0.236494E-06  0.391E-04    1.98      23.6  T
   5   -191.2049540 -0.124240E-07  0.184E-04    1.98      50.1  T
   6   -191.2049540 -0.104407E-08  0.103E-04    1.98      89.6  T
     SCC iter.                  ...        0 min,  0.146 sec
     gradient                   ...        0 min,  0.268 sec
 * total energy  :  -188.2405520 Eh     change       -0.1193145E-04 Eh
   gradient norm :     0.0003340 Eh/α   predicted    -0.4380404E-05 ( -63.29%)
   displ. norm   :     0.1308181 α      lambda       -0.7296146E-05
   maximum displ.:     0.0961189 α      in ANC's #1, #3, #8, ...

........................................................................
.............................. CYCLE  212 ..............................
........................................................................

 iter      E             dE          RMSdq      gap      omega  full diag
   1   -191.2048931 -0.191205E+03  0.125E-02    1.98       0.0  T
   2   -191.2048932 -0.718908E-07  0.734E-03    1.98       1.3  T
   3   -191.2048930  0.117021E-06  0.103E-03    1.98       9.0  T
   4   -191.2048932 -0.136254E-06  0.301E-04    1.98      30.7  T
   5   -191.2048932 -0.651249E-08  0.158E-04    1.98      58.4  T
   6   -191.2048932 -0.854072E-09  0.859E-05    1.98     107.7  T
     SCC iter.                  ...        0 min,  0.185 sec
     gradient                   ...        0 min,  0.269 sec
 * total energy  :  -188.2405621 Eh     change       -0.1010409E-04 Eh
   gradient norm :     0.0003758 Eh/α   predicted    -0.3677664E-05 ( -63.60%)
   displ. norm   :     0.1094349 α      lambda       -0.6347358E-05
   maximum displ.:     0.0813909 α      in ANC's #1, #3, #8, ...

........................................................................
.............................. CYCLE  213 ..............................
........................................................................

 iter      E             dE          RMSdq      gap      omega  full diag
   1   -191.2049530 -0.191205E+03  0.103E-02    1.98       0.0  T
   2   -191.2049531 -0.537158E-07  0.605E-03    1.99       1.5  T
   3   -191.2049530  0.883897E-07  0.891E-04    1.99      10.4  T
   4   -191.2049531 -0.104099E-06  0.238E-04    1.99      38.8  T
   5   -191.2049531 -0.369482E-08  0.127E-04    1.99      72.6  T
   6   -191.2049531 -0.493600E-09  0.665E-05    1.99     139.0  T
     SCC iter.                  ...        0 min,  0.159 sec
     gradient                   ...        0 min,  0.216 sec
 * total energy  :  -188.2405709 Eh     change       -0.8772520E-05 Eh
   gradient norm :     0.0004051 Eh/α   predicted    -0.3194496E-05 ( -63.59%)
   displ. norm   :     0.0989783 α      lambda       -0.5939028E-05
   maximum displ.:     0.0737882 α      in ANC's #1, #3, #8, ...

........................................................................
.............................. CYCLE  214 ..............................
........................................................................

 iter      E             dE          RMSdq      gap      omega  full diag
   1   -191.2048635 -0.191205E+03  0.899E-03    1.99       0.0  T
   2   -191.2048635 -0.364772E-07  0.527E-03    1.99       1.8  T
   3   -191.2048634  0.602530E-07  0.759E-04    1.99      12.2  T
   4   -191.2048635 -0.732342E-07  0.198E-04    1.99      46.8  T
   5   -191.2048635 -0.165687E-08  0.116E-04    1.99      79.9  T
     SCC iter.                  ...        0 min,  0.110 sec
     gradient                   ...        0 min,  0.253 sec
 * total energy  :  -188.2405792 Eh     change       -0.8260828E-05 Eh
   gradient norm :     0.0003401 Eh/α   predicted    -0.2986968E-05 ( -63.84%)
   displ. norm   :     0.0925782 α      lambda       -0.5710499E-05
   maximum displ.:     0.0690525 α      in ANC's #1, #3, #8, ...

........................................................................
.............................. CYCLE  215 ..............................
........................................................................

 iter      E             dE          RMSdq      gap      omega  full diag
   1   -191.2048255 -0.191205E+03  0.796E-03    1.99       0.0  T
   2   -191.2048255 -0.393008E-07  0.466E-03    1.99       2.0  T
   3   -191.2048255  0.553679E-07  0.760E-04    1.99      12.2  T
   4   -191.2048256 -0.686087E-07  0.180E-04    1.99      51.3  T
   5   -191.2048256 -0.109978E-08  0.102E-04    1.99      90.5  T
     SCC iter.                  ...        0 min,  0.127 sec
     gradient                   ...        0 min,  0.302 sec
 * total energy  :  -188.2405872 Eh     change       -0.7999693E-05 Eh
   gradient norm :     0.0003353 Eh/α   predicted    -0.2869550E-05 ( -64.13%)
   displ. norm   :     0.0922347 α      lambda       -0.5781178E-05
   maximum displ.:     0.0683714 α      in ANC's #1, #8, #3, ...

........................................................................
.............................. CYCLE  216 ..............................
........................................................................

 iter      E             dE          RMSdq      gap      omega  full diag
   1   -191.2047623 -0.191205E+03  0.749E-03    1.99       0.0  T
   2   -191.2047624 -0.484639E-07  0.439E-03    1.99       2.1  T
   3   -191.2047623  0.584645E-07  0.797E-04    1.99      11.6  T
   4   -191.2047624 -0.727542E-07  0.200E-04    1.99      46.1  T
   5   -191.2047624 -0.176948E-08  0.105E-04    1.99      87.6  T
   6   -191.2047624 -0.558202E-09  0.517E-05    1.99     179.0  T
     SCC iter.                  ...        0 min,  0.140 sec
     gradient                   ...        0 min,  0.241 sec
 * total energy  :  -188.2405952 Eh     change       -0.8061486E-05 Eh
   gradient norm :     0.0002797 Eh/α   predicted    -0.2904134E-05 ( -63.98%)
   displ. norm   :     0.0932133 α      lambda       -0.5813392E-05
   maximum displ.:     0.0687183 α      in ANC's #1, #8, #3, ...

........................................................................
.............................. CYCLE  217 ..............................
........................................................................

 iter      E             dE          RMSdq      gap      omega  full diag
   1   -191.2047150 -0.191205E+03  0.712E-03    1.99       0.0  T
   2   -191.2047151 -0.603786E-07  0.421E-03    1.98       2.2  T
   3   -191.2047150  0.599474E-07  0.826E-04    1.98      11.2  T
   4   -191.2047151 -0.729187E-07  0.239E-04    1.98      38.6  T
   5   -191.2047151 -0.396963E-08  0.113E-04    1.98      81.7  T
   6   -191.2047151 -0.602654E-09  0.550E-05    1.98     168.1  T
     SCC iter.                  ...        0 min,  0.131 sec
     gradient                   ...        0 min,  0.237 sec
 * total energy  :  -188.2406033 Eh     change       -0.8020894E-05 Eh
   gradient norm :     0.0002691 Eh/α   predicted    -0.2919974E-05 ( -63.60%)
   displ. norm   :     0.0913454 α      lambda       -0.5516546E-05
   maximum displ.:     0.0672740 α      in ANC's #1, #8, #5, ...

........................................................................
.............................. CYCLE  218 ..............................
........................................................................

 iter      E             dE          RMSdq      gap      omega  full diag
   1   -191.2046405 -0.191205E+03  0.666E-03    1.98       0.0  T
   2   -191.2046406 -0.633335E-07  0.397E-03    1.98       2.3  T
   3   -191.2046405  0.660320E-07  0.851E-04    1.98      10.9  T
   4   -191.2046406 -0.795212E-07  0.241E-04    1.98      38.3  T
   5   -191.2046406 -0.454091E-08  0.114E-04    1.98      81.3  T
   6   -191.2046406 -0.621526E-09  0.565E-05    1.98     163.5  T
     SCC iter.                  ...        0 min,  0.135 sec
     gradient                   ...        0 min,  0.230 sec
 * total energy  :  -188.2406108 Eh     change       -0.7516346E-05 Eh
   gradient norm :     0.0002275 Eh/α   predicted    -0.2769807E-05 ( -63.15%)
   displ. norm   :     0.0836327 α      lambda       -0.4845761E-05
   maximum displ.:     0.0619290 α      in ANC's #1, #2, #5, ...

........................................................................
.............................. CYCLE  219 ..............................
........................................................................

 iter      E             dE          RMSdq      gap      omega  full diag
   1   -191.2046330 -0.191205E+03  0.575E-03    1.98       0.0  T
   2   -191.2046331 -0.520522E-07  0.346E-03    1.98       2.7  T
   3   -191.2046330  0.706391E-07  0.834E-04    1.98      11.1  T
   4   -191.2046331 -0.811829E-07  0.242E-04    1.98      38.3  T
   5   -191.2046331 -0.536735E-08  0.109E-04    1.98      85.0  T
   6   -191.2046331 -0.535550E-09  0.539E-05    1.98     171.4  T
     SCC iter.                  ...        0 min,  0.134 sec
     gradient                   ...        0 min,  0.239 sec
 * total energy  :  -188.2406174 Eh     change       -0.6624241E-05 Eh
   gradient norm :     0.0002412 Eh/α   predicted    -0.2431494E-05 ( -63.29%)
   displ. norm   :     0.0746925 α      lambda       -0.4264748E-05
   maximum displ.:     0.0555471 α      in ANC's #1, #2, #5, ...
 * RMSD in coord.:     0.2905969 α      energy gain  -0.4036739E-03 Eh

generating ANC from exact Hessian ...
Using Lindh-Hessian (1995)
 Shifting diagonal of input Hessian by    1.0075846027578632E-002
 Lowest  eigenvalues of input Hessian
    0.010000    0.000000    0.000000    0.000000    0.000000    0.000000
    0.000000    0.010139    0.010184    0.010236    0.010261    0.010320
    0.010474    0.010569    0.010648    0.010712    0.010865    0.010911
 Highest eigenvalues
    2.166223    2.225184    2.334668    2.339211    2.349699    3.168550


........................................................................
.............................. CYCLE  220 ..............................
........................................................................

 iter      E             dE          RMSdq      gap      omega  full diag
   1   -191.2046219 -0.191205E+03  0.488E-03    1.98       0.0  T
   2   -191.2046219 -0.355827E-07  0.295E-03    1.98       3.1  T
   3   -191.2046219  0.664035E-07  0.782E-04    1.98      11.8  T
   4   -191.2046219 -0.754881E-07  0.205E-04    1.98      45.1  T
   5   -191.2046219 -0.381215E-08  0.964E-05    1.98      95.9  T
   6   -191.2046219 -0.447699E-09  0.484E-05    1.98     191.1  T
     SCC iter.                  ...        0 min,  0.176 sec
     gradient                   ...        0 min,  0.315 sec
 * total energy  :  -188.2406233 Eh     change       -0.5894909E-05 Eh
   gradient norm :     0.0002484 Eh/α   predicted     0.0000000E+00 (-100.00%)
   displ. norm   :     0.0181313 α      lambda       -0.6341560E-07
   maximum displ.:     0.0150363 α      in ANC's #1, #8, #4, ...

........................................................................
.............................. CYCLE  221 ..............................
........................................................................

 iter      E             dE          RMSdq      gap      omega  full diag
   1   -191.2046169 -0.191205E+03  0.143E-03    1.98       0.0  T
   2   -191.2046169 -0.302970E-08  0.848E-04    1.98      10.9  T
   3   -191.2046169  0.910239E-08  0.259E-04    1.98      35.7  T
   4   -191.2046169 -0.102550E-07  0.573E-05    1.98     161.4  T
   5   -191.2046169 -0.302293E-09  0.236E-05    1.98     391.0  T
     SCC iter.                  ...        0 min,  0.155 sec
     gradient                   ...        0 min,  0.345 sec
 * total energy  :  -188.2406257 Eh     change       -0.2381433E-05 Eh
   gradient norm :     0.0002095 Eh/α   predicted    -0.8269534E-06 ( -65.27%)
   displ. norm   :     0.0479003 α      lambda       -0.4096441E-05
   maximum displ.:     0.0332257 α      in ANC's #1, #8, #4, ...

........................................................................
.............................. CYCLE  222 ..............................
........................................................................

 iter      E             dE          RMSdq      gap      omega  full diag
   1   -191.2046446 -0.191205E+03  0.425E-03    1.98       0.0  T
   2   -191.2046446 -0.266820E-07  0.250E-03    1.98       3.7  T
   3   -191.2046445  0.737619E-07  0.747E-04    1.98      12.4  T
   4   -191.2046446 -0.836037E-07  0.167E-04    1.98      55.5  T
   5   -191.2046446 -0.251131E-08  0.685E-05    1.98     135.0  T
     SCC iter.                  ...        0 min,  0.153 sec
     gradient                   ...        0 min,  0.438 sec
 * total energy  :  -188.2406314 Eh     change       -0.5716034E-05 Eh
   gradient norm :     0.0001981 Eh/α   predicted    -0.2050423E-05 ( -64.13%)
   displ. norm   :     0.1014229 α      lambda       -0.7521862E-05
   maximum displ.:     0.0681950 α      in ANC's #1, #8, #4, ...

........................................................................
.............................. CYCLE  223 ..............................
........................................................................

 iter      E             dE          RMSdq      gap      omega  full diag
   1   -191.2047423 -0.191205E+03  0.903E-03    1.98       0.0  T
   2   -191.2047424 -0.119283E-06  0.533E-03    1.98       1.7  T
   3   -191.2047421  0.328436E-06  0.160E-03    1.98       5.8  T
   4   -191.2047425 -0.371809E-06  0.365E-04    1.98      25.4  T
   5   -191.2047425 -0.122183E-07  0.147E-04    1.98      63.1  T
   6   -191.2047425 -0.122799E-08  0.710E-05    1.98     130.2  T
     SCC iter.                  ...        0 min,  0.259 sec
     gradient                   ...        0 min,  0.341 sec
 * total energy  :  -188.2406409 Eh     change       -0.9525731E-05 Eh
   gradient norm :     0.0001522 Eh/α   predicted    -0.3778451E-05 ( -60.33%)
   displ. norm   :     0.1138008 α      lambda       -0.6247192E-05
   maximum displ.:     0.0777908 α      in ANC's #1, #4, #8, ...

........................................................................
.............................. CYCLE  224 ..............................
........................................................................

 iter      E             dE          RMSdq      gap      omega  full diag
   1   -191.2048358 -0.191205E+03  0.963E-03    1.98       0.0  T
   2   -191.2048360 -0.141596E-06  0.568E-03    1.98       1.6  T
   3   -191.2048356  0.402853E-06  0.175E-03    1.98       5.3  T
   4   -191.2048360 -0.455756E-06  0.399E-04    1.98      23.2  T
   5   -191.2048360 -0.147770E-07  0.162E-04    1.98      57.2  T
   6   -191.2048361 -0.144331E-08  0.803E-05    1.98     115.2  T
     SCC iter.                  ...        0 min,  0.241 sec
     gradient                   ...        0 min,  0.313 sec
 * total energy  :  -188.2406484 Eh     change       -0.7448841E-05 Eh
   gradient norm :     0.0002453 Eh/α   predicted    -0.3144271E-05 ( -57.79%)
   displ. norm   :     0.0785267 α      lambda       -0.3397974E-05
   maximum displ.:     0.0557923 α      in ANC's #1, #4, #8, ...

........................................................................
.............................. CYCLE  225 ..............................
........................................................................

 iter      E             dE          RMSdq      gap      omega  full diag
   1   -191.2049305 -0.191205E+03  0.618E-03    1.98       0.0  T
   2   -191.2049305 -0.516569E-07  0.364E-03    1.98       2.5  T
   3   -191.2049304  0.149158E-06  0.108E-03    1.98       8.6  T
   4   -191.2049305 -0.168722E-06  0.252E-04    1.98      36.7  T
   5   -191.2049305 -0.577847E-08  0.104E-04    1.98      88.9  T
   6   -191.2049305 -0.563546E-09  0.519E-05    1.98     178.1  T
     SCC iter.                  ...        0 min,  0.136 sec
     gradient                   ...        0 min,  0.314 sec
 * total energy  :  -188.2406527 Eh     change       -0.4284095E-05 Eh
   gradient norm :     0.0002977 Eh/α   predicted    -0.1718826E-05 ( -59.88%)
   displ. norm   :     0.0514917 α      lambda       -0.2525650E-05
   maximum displ.:     0.0375276 α      in ANC's #1, #4, #2, ...

........................................................................
.............................. CYCLE  226 ..............................
........................................................................

 iter      E             dE          RMSdq      gap      omega  full diag
   1   -191.2049973 -0.191205E+03  0.379E-03    1.98       0.0  T
   2   -191.2049974 -0.174288E-07  0.222E-03    1.98       4.2  T
   3   -191.2049973  0.703448E-07  0.728E-04    1.98      12.7  T
   4   -191.2049974 -0.803859E-07  0.133E-04    1.98      69.4  T
   5   -191.2049974 -0.136887E-08  0.636E-05    1.98     145.3  T
     SCC iter.                  ...        0 min,  0.171 sec
     gradient                   ...        0 min,  0.326 sec
 * total energy  :  -188.2406562 Eh     change       -0.3543351E-05 Eh
   gradient norm :     0.0002583 Eh/α   predicted    -0.1265133E-05 ( -64.30%)
   displ. norm   :     0.0586067 α      lambda       -0.3511878E-05
   maximum displ.:     0.0417366 α      in ANC's #1, #4, #2, ...

........................................................................
.............................. CYCLE  227 ..............................
........................................................................

 iter      E             dE          RMSdq      gap      omega  full diag
   1   -191.2050137 -0.191205E+03  0.453E-03    1.98       0.0  T
   2   -191.2050137 -0.174831E-07  0.265E-03    1.98       3.5  T
   3   -191.2050136  0.790562E-07  0.780E-04    1.98      11.8  T
   4   -191.2050137 -0.911072E-07  0.122E-04    1.98      75.9  T
   5   -191.2050137 -0.758718E-09  0.698E-05    1.98     132.5  T
     SCC iter.                  ...        0 min,  0.148 sec
     gradient                   ...        0 min,  0.342 sec
 * total energy  :  -188.2406613 Eh     change       -0.5067504E-05 Eh
   gradient norm :     0.0002699 Eh/α   predicted    -0.1762519E-05 ( -65.22%)
   displ. norm   :     0.1026118 α      lambda       -0.6490704E-05
   maximum displ.:     0.0704625 α      in ANC's #1, #4, #2, ...

........................................................................
.............................. CYCLE  228 ..............................
........................................................................

 iter      E             dE          RMSdq      gap      omega  full diag
   1   -191.2049574 -0.191205E+03  0.847E-03    1.98       0.0  T
   2   -191.2049575 -0.607950E-07  0.498E-03    1.98       1.9  T
   3   -191.2049573  0.251224E-06  0.142E-03    1.98       6.5  T
   4   -191.2049575 -0.289737E-06  0.230E-04    1.98      40.2  T
   5   -191.2049575 -0.249872E-08  0.132E-04    1.98      69.9  T
   6   -191.2049576 -0.566331E-09  0.670E-05    1.98     137.9  T
     SCC iter.                  ...        0 min,  0.237 sec
     gradient                   ...        0 min,  0.345 sec
 * total energy  :  -188.2406701 Eh     change       -0.8827225E-05 Eh
   gradient norm :     0.0002654 Eh/α   predicted    -0.3261260E-05 ( -63.05%)
   displ. norm   :     0.1537995 α      lambda       -0.8464229E-05
   maximum displ.:     0.1056336 α      in ANC's #1, #4, #2, ...

........................................................................
.............................. CYCLE  229 ..............................
........................................................................

 iter      E             dE          RMSdq      gap      omega  full diag
   1   -191.2048458 -0.191205E+03  0.126E-02    1.98       0.0  T
   2   -191.2048459 -0.142881E-06  0.740E-03    1.98       1.2  T
   3   -191.2048454  0.510054E-06  0.204E-03    1.98       4.5  T
   4   -191.2048460 -0.587526E-06  0.366E-04    1.98      25.3  T
   5   -191.2048460 -0.734184E-08  0.201E-04    1.98      45.9  T
   6   -191.2048460 -0.135236E-08  0.106E-04    1.98      87.4  T
   7   -191.2048460 -0.347200E-09  0.460E-05    1.98     200.8  T
     SCC iter.                  ...        0 min,  0.242 sec
     gradient                   ...        0 min,  0.371 sec
 * total energy  :  -188.2406808 Eh     change       -0.1074113E-04 Eh
   gradient norm :     0.0003025 Eh/α   predicted    -0.4277822E-05 ( -60.17%)
   displ. norm   :     0.1445345 α      lambda       -0.6369729E-05
   maximum displ.:     0.1009775 α      in ANC's #1, #4, #2, ...

........................................................................
.............................. CYCLE  230 ..............................
........................................................................

 iter      E             dE          RMSdq      gap      omega  full diag
   1   -191.2047599 -0.191205E+03  0.113E-02    1.98       0.0  T
   2   -191.2047600 -0.130136E-06  0.663E-03    1.98       1.4  T
   3   -191.2047596  0.403179E-06  0.184E-03    1.98       5.0  T
   4   -191.2047601 -0.464853E-06  0.347E-04    1.98      26.6  T
   5   -191.2047601 -0.770271E-08  0.181E-04    1.98      51.1  T
   6   -191.2047601 -0.100522E-08  0.975E-05    1.98      94.8  T
     SCC iter.                  ...        0 min,  0.269 sec
     gradient                   ...        0 min,  0.330 sec
 * total energy  :  -188.2406887 Eh     change       -0.7834694E-05 Eh
   gradient norm :     0.0003612 Eh/α   predicted    -0.3218094E-05 ( -58.93%)
   displ. norm   :     0.0946024 α      lambda       -0.4038003E-05
   maximum displ.:     0.0682198 α      in ANC's #1, #4, #2, ...

........................................................................
.............................. CYCLE  231 ..............................
........................................................................

 iter      E             dE          RMSdq      gap      omega  full diag
   1   -191.2047642 -0.191205E+03  0.704E-03    1.98       0.0  T
   2   -191.2047642 -0.569477E-07  0.417E-03    1.98       2.2  T
   3   -191.2047641  0.137826E-06  0.108E-03    1.98       8.6  T
   4   -191.2047642 -0.157433E-06  0.256E-04    1.98      36.2  T
   5   -191.2047642 -0.529167E-08  0.123E-04    1.98      75.2  T
   6   -191.2047642 -0.460489E-09  0.675E-05    1.98     136.9  T
     SCC iter.                  ...        0 min,  0.189 sec
     gradient                   ...        0 min,  0.358 sec
 * total energy  :  -188.2406939 Eh     change       -0.5276706E-05 Eh
   gradient norm :     0.0002673 Eh/α   predicted    -0.2028240E-05 ( -61.56%)
   displ. norm   :     0.0623289 α      lambda       -0.3081831E-05
   maximum displ.:     0.0464485 α      in ANC's #1, #4, #2, ...

........................................................................
.............................. CYCLE  232 ..............................
........................................................................

 iter      E             dE          RMSdq      gap      omega  full diag
   1   -191.2048123 -0.191205E+03  0.440E-03    1.98       0.0  T
   2   -191.2048123 -0.240772E-07  0.261E-03    1.98       3.5  T
   3   -191.2048123  0.408891E-07  0.606E-04    1.98      15.3  T
   4   -191.2048123 -0.463621E-07  0.174E-04    1.98      53.1  T
   5   -191.2048123 -0.289106E-08  0.815E-05    1.98     113.4  T
     SCC iter.                  ...        0 min,  0.193 sec
     gradient                   ...        0 min,  0.356 sec
 * total energy  :  -188.2406984 Eh     change       -0.4476137E-05 Eh
   gradient norm :     0.0002299 Eh/α   predicted    -0.1545077E-05 ( -65.48%)
   displ. norm   :     0.0665019 α      lambda       -0.4137765E-05
   maximum displ.:     0.0492330 α      in ANC's #1, #4, #2, ...

........................................................................
.............................. CYCLE  233 ..............................
........................................................................

 iter      E             dE          RMSdq      gap      omega  full diag
   1   -191.2047975 -0.191205E+03  0.535E-03    1.97       0.0  T
   2   -191.2047976 -0.273271E-07  0.318E-03    1.97       2.9  T
   3   -191.2047975  0.499963E-07  0.659E-04    1.97      14.0  T
   4   -191.2047976 -0.571487E-07  0.179E-04    1.97      51.6  T
   5   -191.2047976 -0.282373E-08  0.868E-05    1.97     106.5  T
     SCC iter.                  ...        0 min,  0.147 sec
     gradient                   ...        0 min,  0.345 sec
 * total energy  :  -188.2407043 Eh     change       -0.5905306E-05 Eh
   gradient norm :     0.0001587 Eh/α   predicted    -0.2074072E-05 ( -64.88%)
   displ. norm   :     0.0967697 α      lambda       -0.5975309E-05
   maximum displ.:     0.0700354 α      in ANC's #1, #2, #4, ...

........................................................................
.............................. CYCLE  234 ..............................
........................................................................

 iter      E             dE          RMSdq      gap      omega  full diag
   1   -191.2047147 -0.191205E+03  0.842E-03    1.97       0.0  T
   2   -191.2047148 -0.537151E-07  0.499E-03    1.97       1.9  T
   3   -191.2047147  0.107646E-06  0.960E-04    1.97       9.6  T
   4   -191.2047148 -0.124125E-06  0.243E-04    1.97      38.0  T
   5   -191.2047148 -0.456248E-08  0.125E-04    1.97      74.2  T
   6   -191.2047148 -0.685304E-09  0.617E-05    1.97     149.8  T
     SCC iter.                  ...        0 min,  0.210 sec
     gradient                   ...        0 min,  0.339 sec
 * total energy  :  -188.2407124 Eh     change       -0.8109221E-05 Eh
   gradient norm :     0.0001573 Eh/α   predicted    -0.3003844E-05 ( -62.96%)
   displ. norm   :     0.1204557 α      lambda       -0.6337627E-05
   maximum displ.:     0.0869262 α      in ANC's #1, #2, #4, ...

........................................................................
.............................. CYCLE  235 ..............................
........................................................................

 iter      E             dE          RMSdq      gap      omega  full diag
   1   -191.2047100 -0.191205E+03  0.103E-02    1.97       0.0  T
   2   -191.2047101 -0.674967E-07  0.611E-03    1.97       1.5  T
   3   -191.2047100  0.123716E-06  0.104E-03    1.97       8.9  T
   4   -191.2047101 -0.142885E-06  0.278E-04    1.97      33.3  T
   5   -191.2047101 -0.605587E-08  0.141E-04    1.97      65.4  T
   6   -191.2047101 -0.933056E-09  0.701E-05    1.97     131.8  T
     SCC iter.                  ...        0 min,  0.180 sec
     gradient                   ...        0 min,  0.272 sec
 * total energy  :  -188.2407207 Eh     change       -0.8260111E-05 Eh
   gradient norm :     0.0002303 Eh/α   predicted    -0.3194033E-05 ( -61.33%)
   displ. norm   :     0.1100225 α      lambda       -0.4718729E-05
   maximum displ.:     0.0800725 α      in ANC's #1, #2, #4, ...

........................................................................
.............................. CYCLE  236 ..............................
........................................................................

 iter      E             dE          RMSdq      gap      omega  full diag
   1   -191.2046587 -0.191205E+03  0.900E-03    1.97       0.0  T
   2   -191.2046587 -0.439318E-07  0.531E-03    1.97       1.7  T
   3   -191.2046586  0.799427E-07  0.835E-04    1.96      11.1  T
   4   -191.2046587 -0.935093E-07  0.218E-04    1.96      42.5  T
   5   -191.2046587 -0.345602E-08  0.114E-04    1.96      81.0  T
   6   -191.2046587 -0.627665E-09  0.559E-05    1.97     165.4  T
     SCC iter.                  ...        0 min,  0.195 sec
     gradient                   ...        0 min,  0.309 sec
 * total energy  :  -188.2407270 Eh     change       -0.6342242E-05 Eh
   gradient norm :     0.0002967 Eh/α   predicted    -0.2376079E-05 ( -62.54%)
   displ. norm   :     0.0837469 α      lambda       -0.3426379E-05
   maximum displ.:     0.0616536 α      in ANC's #1, #2, #4, ...

........................................................................
.............................. CYCLE  237 ..............................
........................................................................

 iter      E             dE          RMSdq      gap      omega  full diag
   1   -191.2046791 -0.191205E+03  0.640E-03    1.96       0.0  T
   2   -191.2046791 -0.172769E-07  0.376E-03    1.96       2.5  T
   3   -191.2046791  0.195091E-07  0.439E-04    1.96      21.1  T
   4   -191.2046791 -0.245781E-07  0.131E-04    1.96      70.7  T
   5   -191.2046791 -0.103978E-08  0.712E-05    1.96     129.9  T
     SCC iter.                  ...        0 min,  0.127 sec
     gradient                   ...        0 min,  0.281 sec
 * total energy  :  -188.2407319 Eh     change       -0.4863624E-05 Eh
   gradient norm :     0.0003190 Eh/α   predicted    -0.1720211E-05 ( -64.63%)
   displ. norm   :     0.0735713 α      lambda       -0.3315058E-05
   maximum displ.:     0.0542753 α      in ANC's #1, #2, #8, ...

........................................................................
.............................. CYCLE  238 ..............................
........................................................................

 iter      E             dE          RMSdq      gap      omega  full diag
   1   -191.2047119 -0.191205E+03  0.553E-03    1.96       0.0  T
   2   -191.2047119 -0.110061E-07  0.325E-03    1.96       2.8  T
   3   -191.2047119  0.110534E-07  0.349E-04    1.96      26.5  T
   4   -191.2047120 -0.150395E-07  0.963E-05    1.96      96.0  T
   5   -191.2047120 -0.302350E-09  0.527E-05    1.96     175.3  T
     SCC iter.                  ...        0 min,  0.127 sec
     gradient                   ...        0 min,  0.260 sec
 * total energy  :  -188.2407367 Eh     change       -0.4834522E-05 Eh
   gradient norm :     0.0003110 Eh/α   predicted    -0.1666101E-05 ( -65.54%)
   displ. norm   :     0.0839152 α      lambda       -0.4135972E-05
   maximum displ.:     0.0613679 α      in ANC's #1, #2, #8, ...

........................................................................
.............................. CYCLE  239 ..............................
........................................................................

 iter      E             dE          RMSdq      gap      omega  full diag
   1   -191.2047094 -0.191205E+03  0.661E-03    1.97       0.0  T
   2   -191.2047094 -0.188053E-07  0.389E-03    1.97       2.4  T
   3   -191.2047094  0.210598E-07  0.468E-04    1.97      19.7  T
   4   -191.2047094 -0.273755E-07  0.128E-04    1.97      72.3  T
   5   -191.2047094 -0.629740E-09  0.693E-05    1.97     133.4  T
     SCC iter.                  ...        0 min,  0.184 sec
     gradient                   ...        0 min,  0.326 sec
 * total energy  :  -188.2407427 Eh     change       -0.5920227E-05 Eh
   gradient norm :     0.0002755 Eh/α   predicted    -0.2077417E-05 ( -64.91%)
   displ. norm   :     0.1099869 α      lambda       -0.5373830E-05
   maximum displ.:     0.0802870 α      in ANC's #1, #2, #8, ...

........................................................................
.............................. CYCLE  240 ..............................
........................................................................

 iter      E             dE          RMSdq      gap      omega  full diag
   1   -191.2047214 -0.191205E+03  0.901E-03    1.97       0.0  T
   2   -191.2047214 -0.438926E-07  0.531E-03    1.97       1.7  T
   3   -191.2047214  0.591621E-07  0.758E-04    1.97      12.2  T
   4   -191.2047215 -0.728412E-07  0.194E-04    1.97      47.6  T
   5   -191.2047215 -0.178923E-08  0.104E-04    1.97      89.3  T
     SCC iter.                  ...        0 min,  0.185 sec
     gradient                   ...        0 min,  0.355 sec
 * total energy  :  -188.2407501 Eh     change       -0.7473875E-05 Eh
   gradient norm :     0.0002134 Eh/α   predicted    -0.2703923E-05 ( -63.82%)
   displ. norm   :     0.1236313 α      lambda       -0.5512599E-05
   maximum displ.:     0.0907430 α      in ANC's #1, #2, #8, ...

........................................................................
.............................. CYCLE  241 ..............................
........................................................................

 iter      E             dE          RMSdq      gap      omega  full diag
   1   -191.2047333 -0.191205E+03  0.103E-02    1.97       0.0  T
   2   -191.2047334 -0.649800E-07  0.606E-03    1.97       1.5  T
   3   -191.2047333  0.844803E-07  0.898E-04    1.97      10.3  T
   4   -191.2047334 -0.103339E-06  0.226E-04    1.97      40.9  T
   5   -191.2047334 -0.271800E-08  0.113E-04    1.97      81.6  T
   6   -191.2047334 -0.251902E-09  0.615E-05    1.97     150.3  T
     SCC iter.                  ...        0 min,  0.218 sec
     gradient                   ...        0 min,  0.379 sec
 * total energy  :  -188.2407577 Eh     change       -0.7574404E-05 Eh
   gradient norm :     0.0001707 Eh/α   predicted    -0.2776920E-05 ( -63.34%)
   displ. norm   :     0.1131167 α      lambda       -0.4559963E-05
   maximum displ.:     0.0839926 α      in ANC's #1, #2, #8, ...

........................................................................
.............................. CYCLE  242 ..............................
........................................................................

 iter      E             dE          RMSdq      gap      omega  full diag
   1   -191.2047595 -0.191205E+03  0.939E-03    1.97       0.0  T
   2   -191.2047595 -0.586302E-07  0.554E-03    1.97       1.7  T
   3   -191.2047595  0.853131E-07  0.893E-04    1.97      10.4  T
   4   -191.2047596 -0.101503E-06  0.221E-04    1.97      41.8  T
   5   -191.2047596 -0.293966E-08  0.113E-04    1.97      81.7  T
   6   -191.2047596 -0.425473E-09  0.620E-05    1.97     149.1  T
     SCC iter.                  ...        0 min,  0.190 sec
     gradient                   ...        0 min,  0.321 sec
 * total energy  :  -188.2407641 Eh     change       -0.6390082E-05 Eh
   gradient norm :     0.0001584 Eh/α   predicted    -0.2295039E-05 ( -64.08%)
   displ. norm   :     0.0898238 α      lambda       -0.3534429E-05
   maximum displ.:     0.0675418 α      in ANC's #1, #2, #6, ...

........................................................................
.............................. CYCLE  243 ..............................
........................................................................

 iter      E             dE          RMSdq      gap      omega  full diag
   1   -191.2048204 -0.191205E+03  0.737E-03    1.97       0.0  T
   2   -191.2048204 -0.370996E-07  0.435E-03    1.97       2.1  T
   3   -191.2048204  0.628998E-07  0.754E-04    1.97      12.3  T
   4   -191.2048205 -0.737813E-07  0.175E-04    1.97      52.8  T
   5   -191.2048205 -0.184087E-08  0.912E-05    1.97     101.4  T
     SCC iter.                  ...        0 min,  0.114 sec
     gradient                   ...        0 min,  0.311 sec
 * total energy  :  -188.2407692 Eh     change       -0.5102627E-05 Eh
   gradient norm :     0.0001717 Eh/α   predicted    -0.1778027E-05 ( -65.15%)
   displ. norm   :     0.0759149 α      lambda       -0.3155438E-05
   maximum displ.:     0.0574705 α      in ANC's #1, #2, #6, ...

........................................................................
.............................. CYCLE  244 ..............................
........................................................................

 iter      E             dE          RMSdq      gap      omega  full diag
   1   -191.2048469 -0.191205E+03  0.621E-03    1.98       0.0  T
   2   -191.2048470 -0.257454E-07  0.366E-03    1.98       2.5  T
   3   -191.2048469  0.522095E-07  0.681E-04    1.98      13.6  T
   4   -191.2048470 -0.614326E-07  0.139E-04    1.98      66.6  T
   5   -191.2048470 -0.971312E-09  0.716E-05    1.98     129.0  T
     SCC iter.                  ...        0 min,  0.193 sec
     gradient                   ...        0 min,  0.349 sec
 * total energy  :  -188.2407738 Eh     change       -0.4642686E-05 Eh
   gradient norm :     0.0001928 Eh/α   predicted    -0.1585431E-05 ( -65.85%)
   displ. norm   :     0.0736516 α      lambda       -0.3306054E-05
   maximum displ.:     0.0556629 α      in ANC's #1, #2, #6, ...

........................................................................
.............................. CYCLE  245 ..............................
........................................................................

 iter      E             dE          RMSdq      gap      omega  full diag
   1   -191.2048672 -0.191205E+03  0.601E-03    1.98       0.0  T
   2   -191.2048672 -0.221734E-07  0.354E-03    1.98       2.6  T
   3   -191.2048672  0.538866E-07  0.683E-04    1.98      13.5  T
   4   -191.2048672 -0.631418E-07  0.134E-04    1.98      68.9  T
   5   -191.2048672 -0.790891E-09  0.757E-05    1.98     122.1  T
     SCC iter.                  ...        0 min,  0.212 sec
     gradient                   ...        0 min,  0.438 sec
 * total energy  :  -188.2407787 Eh     change       -0.4853045E-05 Eh
   gradient norm :     0.0002000 Eh/α   predicted    -0.1659146E-05 ( -65.81%)
   displ. norm   :     0.0828477 α      lambda       -0.3832471E-05
   maximum displ.:     0.0619895 α      in ANC's #1, #2, #6, ...

........................................................................
.............................. CYCLE  246 ..............................
........................................................................

 iter      E             dE          RMSdq      gap      omega  full diag
   1   -191.2048768 -0.191205E+03  0.678E-03    1.98       0.0  T
   2   -191.2048769 -0.250723E-07  0.399E-03    1.98       2.3  T
   3   -191.2048768  0.712784E-07  0.787E-04    1.98      11.8  T
   4   -191.2048769 -0.835758E-07  0.148E-04    1.98      62.4  T
   5   -191.2048769 -0.830227E-09  0.881E-05    1.98     104.9  T
     SCC iter.                  ...        0 min,  0.146 sec
     gradient                   ...        0 min,  0.385 sec
 * total energy  :  -188.2407843 Eh     change       -0.5590222E-05 Eh
   gradient norm :     0.0002089 Eh/α   predicted    -0.1923687E-05 ( -65.59%)
   displ. norm   :     0.0991498 α      lambda       -0.4548224E-05
   maximum displ.:     0.0734779 α      in ANC's #1, #2, #6, ...

........................................................................
.............................. CYCLE  247 ..............................
........................................................................

 iter      E             dE          RMSdq      gap      omega  full diag
   1   -191.2048664 -0.191205E+03  0.817E-03    1.98       0.0  T
   2   -191.2048664 -0.323943E-07  0.480E-03    1.98       1.9  T
   3   -191.2048663  0.984218E-07  0.922E-04    1.98      10.0  T
   4   -191.2048664 -0.115813E-06  0.174E-04    1.98      53.1  T
   5   -191.2048664 -0.109944E-08  0.107E-04    1.98      86.5  T
     SCC iter.                  ...        0 min,  0.191 sec
     gradient                   ...        0 min,  0.348 sec
 * total energy  :  -188.2407908 Eh     change       -0.6551230E-05 Eh
   gradient norm :     0.0002068 Eh/α   predicted    -0.2285307E-05 ( -65.12%)
   displ. norm   :     0.1177587 α      lambda       -0.5187865E-05
   maximum displ.:     0.0867072 α      in ANC's #1, #2, #6, ...

........................................................................
.............................. CYCLE  248 ..............................
........................................................................

 iter      E             dE          RMSdq      gap      omega  full diag
   1   -191.2048560 -0.191205E+03  0.977E-03    1.98       0.0  T
   2   -191.2048561 -0.434873E-07  0.574E-03    1.98       1.6  T
   3   -191.2048559  0.138293E-06  0.109E-03    1.98       8.5  T
   4   -191.2048561 -0.162815E-06  0.205E-04    1.98      45.2  T
   5   -191.2048561 -0.159176E-08  0.126E-04    1.98      73.2  T
   6   -191.2048561 -0.429765E-09  0.593E-05    1.98     155.9  T
     SCC iter.                  ...        0 min,  0.247 sec
     gradient                   ...        0 min,  0.300 sec
 * total energy  :  -188.2407981 Eh     change       -0.7283602E-05 Eh
   gradient norm :     0.0002046 Eh/α   predicted    -0.2611526E-05 ( -64.15%)
   displ. norm   :     0.1243775 α      lambda       -0.5054272E-05
   maximum displ.:     0.0915763 α      in ANC's #1, #2, #6, ...

........................................................................
.............................. CYCLE  249 ..............................
........................................................................

 iter      E             dE          RMSdq      gap      omega  full diag
   1   -191.2048641 -0.191205E+03  0.104E-02    1.98       0.0  T
   2   -191.2048641 -0.478979E-07  0.613E-03    1.98       1.5  T
   3   -191.2048640  0.172735E-06  0.119E-03    1.98       7.8  T
   4   -191.2048642 -0.199939E-06  0.229E-04    1.98      40.5  T
   5   -191.2048642 -0.301338E-08  0.134E-04    1.98      69.0  T
   6   -191.2048642 -0.561187E-09  0.619E-05    1.98     149.3  T
     SCC iter.                  ...        0 min,  0.165 sec
     gradient                   ...        0 min,  0.296 sec
 * total energy  :  -188.2408052 Eh     change       -0.7054028E-05 Eh
   gradient norm :     0.0001828 Eh/α   predicted    -0.2546452E-05 ( -63.90%)
   displ. norm   :     0.1209280 α      lambda       -0.4555081E-05
   maximum displ.:     0.0890988 α      in ANC's #1, #2, #6, ...

........................................................................
.............................. CYCLE  250 ..............................
........................................................................

 iter      E             dE          RMSdq      gap      omega  full diag
   1   -191.2048382 -0.191205E+03  0.103E-02    1.98       0.0  T
   2   -191.2048382 -0.478194E-07  0.603E-03    1.98       1.5  T
   3   -191.2048381  0.179790E-06  0.120E-03    1.98       7.7  T
   4   -191.2048383 -0.206690E-06  0.232E-04    1.98      39.8  T
   5   -191.2048383 -0.355951E-08  0.132E-04    1.98      70.2  T
   6   -191.2048383 -0.578524E-09  0.620E-05    1.98     149.2  T
     SCC iter.                  ...        0 min,  0.237 sec
     gradient                   ...        0 min,  0.294 sec
 * total energy  :  -188.2408116 Eh     change       -0.6413738E-05 Eh
   gradient norm :     0.0001671 Eh/α   predicted    -0.2294335E-05 ( -64.23%)
   displ. norm   :     0.1123176 α      lambda       -0.4086678E-05
   maximum displ.:     0.0830521 α      in ANC's #1, #2, #6, ...

........................................................................
.............................. CYCLE  251 ..............................
........................................................................

 iter      E             dE          RMSdq      gap      omega  full diag
   1   -191.2048656 -0.191205E+03  0.969E-03    1.98       0.0  T
   2   -191.2048657 -0.444041E-07  0.569E-03    1.98       1.6  T
   3   -191.2048655  0.189751E-06  0.121E-03    1.98       7.6  T
   4   -191.2048657 -0.215801E-06  0.224E-04    1.98      41.2  T
   5   -191.2048657 -0.388056E-08  0.120E-04    1.98      77.0  T
   6   -191.2048657 -0.505139E-09  0.587E-05    1.98     157.4  T
     SCC iter.                  ...        0 min,  0.186 sec
     gradient                   ...        0 min,  0.303 sec
 * total energy  :  -188.2408174 Eh     change       -0.5826677E-05 Eh
   gradient norm :     0.0001542 Eh/α   predicted    -0.2056949E-05 ( -64.70%)
   displ. norm   :     0.1071201 α      lambda       -0.3838809E-05
   maximum displ.:     0.0791692 α      in ANC's #1, #2, #6, ...

........................................................................
.............................. CYCLE  252 ..............................
........................................................................

 iter      E             dE          RMSdq      gap      omega  full diag
   1   -191.2048230 -0.191205E+03  0.935E-03    1.98       0.0  T
   2   -191.2048231 -0.466805E-07  0.550E-03    1.98       1.7  T
   3   -191.2048228  0.217197E-06  0.129E-03    1.98       7.2  T
   4   -191.2048231 -0.245418E-06  0.232E-04    1.98      39.9  T
   5   -191.2048231 -0.449430E-08  0.119E-04    1.98      77.5  T
   6   -191.2048231 -0.516764E-09  0.598E-05    1.98     154.7  T
     SCC iter.                  ...        0 min,  0.159 sec
     gradient                   ...        0 min,  0.266 sec
 * total energy  :  -188.2408229 Eh     change       -0.5485816E-05 Eh
   gradient norm :     0.0001331 Eh/α   predicted    -0.1930814E-05 ( -64.80%)
   displ. norm   :     0.1040738 α      lambda       -0.3732182E-05
   maximum displ.:     0.0772732 α      in ANC's #1, #2, #6, ...

........................................................................
.............................. CYCLE  253 ..............................
........................................................................

 iter      E             dE          RMSdq      gap      omega  full diag
   1   -191.2048561 -0.191205E+03  0.916E-03    1.98       0.0  T
   2   -191.2048561 -0.488493E-07  0.538E-03    1.98       1.7  T
   3   -191.2048558  0.261545E-06  0.139E-03    1.98       6.6  T
   4   -191.2048561 -0.293641E-06  0.236E-04    1.98      39.1  T
   5   -191.2048561 -0.503647E-08  0.116E-04    1.98      79.6  T
   6   -191.2048561 -0.510767E-09  0.600E-05    1.98     154.0  T
     SCC iter.                  ...        0 min,  0.155 sec
     gradient                   ...        0 min,  0.267 sec
 * total energy  :  -188.2408282 Eh     change       -0.5303463E-05 Eh
   gradient norm :     0.0001817 Eh/α   predicted    -0.1877030E-05 ( -64.61%)
   displ. norm   :     0.1035803 α      lambda       -0.3614983E-05
   maximum displ.:     0.0767712 α      in ANC's #1, #2, #6, ...

........................................................................
.............................. CYCLE  254 ..............................
........................................................................

 iter      E             dE          RMSdq      gap      omega  full diag
   1   -191.2047868 -0.191205E+03  0.914E-03    1.98       0.0  T
   2   -191.2047868 -0.547622E-07  0.537E-03    1.98       1.7  T
   3   -191.2047865  0.311123E-06  0.152E-03    1.98       6.1  T
   4   -191.2047869 -0.349202E-06  0.248E-04    1.98      37.2  T
   5   -191.2047869 -0.563614E-08  0.121E-04    1.98      76.5  T
   6   -191.2047869 -0.542229E-09  0.634E-05    1.98     145.9  T
     SCC iter.                  ...        0 min,  0.179 sec
     gradient                   ...        0 min,  0.320 sec
 * total energy  :  -188.2408333 Eh     change       -0.5100051E-05 Eh
   gradient norm :     0.0001320 Eh/α   predicted    -0.1817736E-05 ( -64.36%)
   displ. norm   :     0.0943565 α      lambda       -0.3221440E-05
   maximum displ.:     0.0705492 α      in ANC's #1, #2, #6, ...

........................................................................
.............................. CYCLE  255 ..............................
........................................................................

 iter      E             dE          RMSdq      gap      omega  full diag
   1   -191.2048286 -0.191205E+03  0.834E-03    1.98       0.0  T
   2   -191.2048287 -0.499566E-07  0.490E-03    1.98       1.9  T
   3   -191.2048283  0.312721E-06  0.152E-03    1.98       6.1  T
   4   -191.2048287 -0.351290E-06  0.234E-04    1.98      39.6  T
   5   -191.2048287 -0.498630E-08  0.113E-04    1.98      82.0  T
   6   -191.2048287 -0.472681E-09  0.597E-05    1.98     154.9  T
     SCC iter.                  ...        0 min,  0.151 sec
     gradient                   ...        0 min,  0.321 sec
 * total energy  :  -188.2408378 Eh     change       -0.4532478E-05 Eh
   gradient norm :     0.0001785 Eh/α   predicted    -0.1619705E-05 ( -64.26%)
   displ. norm   :     0.0812878 α      lambda       -0.2671964E-05
   maximum displ.:     0.0611948 α      in ANC's #1, #2, #6, ...

........................................................................
.............................. CYCLE  256 ..............................
........................................................................

 iter      E             dE          RMSdq      gap      omega  full diag
   1   -191.2047971 -0.191205E+03  0.715E-03    1.98       0.0  T
   2   -191.2047971 -0.381833E-07  0.421E-03    1.98       2.2  T
   3   -191.2047969  0.258242E-06  0.137E-03    1.98       6.8  T
   4   -191.2047971 -0.289968E-06  0.203E-04    1.98      45.6  T
   5   -191.2047971 -0.359310E-08  0.995E-05    1.98      92.9  T
   6   -191.2047971 -0.354049E-09  0.539E-05    1.98     171.6  T
     SCC iter.                  ...        0 min,  0.162 sec
     gradient                   ...        0 min,  0.280 sec
 * total energy  :  -188.2408416 Eh     change       -0.3785053E-05 Eh
   gradient norm :     0.0001415 Eh/α   predicted    -0.1342868E-05 ( -64.52%)
   displ. norm   :     0.0642316 α      lambda       -0.2100781E-05
   maximum displ.:     0.0490152 α      in ANC's #1, #2, #6, ...

........................................................................
.............................. CYCLE  257 ..............................
........................................................................

 iter      E             dE          RMSdq      gap      omega  full diag
   1   -191.2048304 -0.191205E+03  0.560E-03    1.98       0.0  T
   2   -191.2048304 -0.263136E-07  0.329E-03    1.98       2.8  T
   3   -191.2048303  0.180193E-06  0.115E-03    1.98       8.0  T
   4   -191.2048305 -0.203376E-06  0.164E-04    1.98      56.4  T
   5   -191.2048305 -0.223392E-08  0.827E-05    1.98     111.8  T
   6   -191.2048305 -0.234877E-09  0.446E-05    1.98     207.1  T
     SCC iter.                  ...        0 min,  0.154 sec
     gradient                   ...        0 min,  0.257 sec
 * total energy  :  -188.2408447 Eh     change       -0.3036546E-05 Eh
   gradient norm :     0.0001537 Eh/α   predicted    -0.1056444E-05 ( -65.21%)
   displ. norm   :     0.0512657 α      lambda       -0.1732900E-05
   maximum displ.:     0.0397144 α      in ANC's #1, #6, #2, ...

........................................................................
.............................. CYCLE  258 ..............................
........................................................................

 iter      E             dE          RMSdq      gap      omega  full diag
   1   -191.2048251 -0.191205E+03  0.451E-03    1.98       0.0  T
   2   -191.2048251 -0.165520E-07  0.265E-03    1.98       3.5  T
   3   -191.2048250  0.118650E-06  0.928E-04    1.98      10.0  T
   4   -191.2048251 -0.133903E-06  0.128E-04    1.98      72.2  T
   5   -191.2048251 -0.119434E-08  0.680E-05    1.98     136.0  T
     SCC iter.                  ...        0 min,  0.115 sec
     gradient                   ...        0 min,  0.296 sec
 * total energy  :  -188.2408472 Eh     change       -0.2526022E-05 Eh
   gradient norm :     0.0001496 Eh/α   predicted    -0.8705719E-06 ( -65.54%)
   displ. norm   :     0.0420240 α      lambda       -0.1507112E-05
   maximum displ.:     0.0330380 α      in ANC's #1, #6, #2, ...
 * RMSD in coord.:     0.2460050 α      energy gain  -0.2297787E-03 Eh

generating ANC from exact Hessian ...
Using Lindh-Hessian (1995)
 Shifting diagonal of input Hessian by    1.0076434301499017E-002
 Lowest  eigenvalues of input Hessian
    0.010000    0.000000    0.000000    0.000000    0.000000    0.000000
    0.000000    0.010140    0.010189    0.010232    0.010304    0.010325
    0.010473    0.010568    0.010649    0.010734    0.010885    0.010917
 Highest eigenvalues
    2.166243    2.227264    2.334194    2.342788    2.349855    3.170295


........................................................................
.............................. CYCLE  259 ..............................
........................................................................

 iter      E             dE          RMSdq      gap      omega  full diag
   1   -191.2048334 -0.191205E+03  0.375E-03    1.98       0.0  T
   2   -191.2048334 -0.114359E-07  0.220E-03    1.98       4.2  T
   3   -191.2048334  0.831041E-07  0.774E-04    1.98      11.9  T
   4   -191.2048335 -0.940570E-07  0.982E-05    1.98      94.2  T
   5   -191.2048335 -0.558686E-09  0.556E-05    1.98     166.1  T
     SCC iter.                  ...        0 min,  0.197 sec
     gradient                   ...        0 min,  0.258 sec
 * total energy  :  -188.2408494 Eh     change       -0.2201060E-05 Eh
   gradient norm :     0.0001491 Eh/α   predicted     0.0000000E+00 (-100.00%)
   displ. norm   :     0.0115983 α      lambda       -0.3153469E-07
   maximum displ.:     0.0106020 α      in ANC's #1, #30, #2, ...

........................................................................
.............................. CYCLE  260 ..............................
........................................................................

 iter      E             dE          RMSdq      gap      omega  full diag
   1   -191.2047772 -0.191205E+03  0.829E-04    1.98       0.0  T
   2   -191.2047772 -0.966963E-09  0.488E-04    1.98      19.0  T
   3   -191.2047772  0.248582E-08  0.146E-04    1.98      63.3  T
   4   -191.2047772 -0.278067E-08  0.329E-05    1.98     281.4  T
     SCC iter.                  ...        0 min,  0.140 sec
     gradient                   ...        0 min,  0.332 sec
 * total energy  :  -188.2408504 Eh     change       -0.9721904E-06 Eh
   gradient norm :     0.0001065 Eh/α   predicted    -0.3366052E-06 ( -65.38%)
   displ. norm   :     0.0205629 α      lambda       -0.1076354E-05
   maximum displ.:     0.0166072 α      in ANC's #1, #30, #2, ...

........................................................................
.............................. CYCLE  261 ..............................
........................................................................

 iter      E             dE          RMSdq      gap      omega  full diag
   1   -191.2047562 -0.191205E+03  0.178E-03    1.98       0.0  T
   2   -191.2047562 -0.228803E-08  0.105E-03    1.98       8.8  T
   3   -191.2047562  0.761440E-08  0.244E-04    1.98      37.9  T
   4   -191.2047562 -0.851594E-08  0.522E-05    1.98     177.0  T
   5   -191.2047562 -0.206398E-09  0.245E-05    1.98     377.4  T
     SCC iter.                  ...        0 min,  0.114 sec
     gradient                   ...        0 min,  0.267 sec
 * total energy  :  -188.2408520 Eh     change       -0.1621173E-05 Eh
   gradient norm :     0.0001373 Eh/α   predicted    -0.5613241E-06 ( -65.38%)
   displ. norm   :     0.0367133 α      lambda       -0.1858056E-05
   maximum displ.:     0.0278060 α      in ANC's #1, #30, #2, ...

........................................................................
.............................. CYCLE  262 ..............................
........................................................................

 iter      E             dE          RMSdq      gap      omega  full diag
   1   -191.2047721 -0.191205E+03  0.338E-03    1.98       0.0  T
   2   -191.2047721 -0.767736E-08  0.200E-03    1.98       4.6  T
   3   -191.2047721  0.220304E-07  0.420E-04    1.98      22.0  T
   4   -191.2047721 -0.247098E-07  0.969E-05    1.98      95.4  T
   5   -191.2047721 -0.726061E-09  0.438E-05    1.98     210.9  T
     SCC iter.                  ...        0 min,  0.181 sec
     gradient                   ...        0 min,  0.320 sec
 * total energy  :  -188.2408546 Eh     change       -0.2594912E-05 Eh
   gradient norm :     0.0001320 Eh/α   predicted    -0.9303718E-06 ( -64.15%)
   displ. norm   :     0.0568362 α      lambda       -0.2547628E-05
   maximum displ.:     0.0419470 α      in ANC's #1, #30, #2, ...

........................................................................
.............................. CYCLE  263 ..............................
........................................................................

 iter      E             dE          RMSdq      gap      omega  full diag
   1   -191.2047721 -0.191205E+03  0.526E-03    1.98       0.0  T
   2   -191.2047721 -0.171289E-07  0.312E-03    1.98       3.0  T
   3   -191.2047721  0.384478E-07  0.562E-04    1.98      16.5  T
   4   -191.2047721 -0.433440E-07  0.146E-04    1.98      63.3  T
   5   -191.2047721 -0.167435E-08  0.653E-05    1.98     141.5  T
     SCC iter.                  ...        0 min,  0.171 sec
     gradient                   ...        0 min,  0.268 sec
 * total energy  :  -188.2408580 Eh     change       -0.3401834E-05 Eh
   gradient norm :     0.0001888 Eh/α   predicted    -0.1279983E-05 ( -62.37%)
   displ. norm   :     0.0683623 α      lambda       -0.2682011E-05
   maximum displ.:     0.0502211 α      in ANC's #1, #30, #2, ...

........................................................................
.............................. CYCLE  264 ..............................
........................................................................

 iter      E             dE          RMSdq      gap      omega  full diag
   1   -191.2047712 -0.191205E+03  0.627E-03    1.98       0.0  T
   2   -191.2047712 -0.227328E-07  0.372E-03    1.98       2.5  T
   3   -191.2047712  0.414644E-07  0.591E-04    1.98      15.6  T
   4   -191.2047713 -0.476063E-07  0.163E-04    1.98      56.6  T
   5   -191.2047713 -0.194922E-08  0.752E-05    1.98     122.9  T
     SCC iter.                  ...        0 min,  0.125 sec
     gradient                   ...        0 min,  0.271 sec
 * total energy  :  -188.2408614 Eh     change       -0.3440557E-05 Eh
   gradient norm :     0.0002379 Eh/α   predicted    -0.1345016E-05 ( -60.91%)
   displ. norm   :     0.0636624 α      lambda       -0.2189144E-05
   maximum displ.:     0.0467222 α      in ANC's #1, #2, #30, ...

........................................................................
.............................. CYCLE  265 ..............................
........................................................................

 iter      E             dE          RMSdq      gap      omega  full diag
   1   -191.2047839 -0.191205E+03  0.569E-03    1.98       0.0  T
   2   -191.2047839 -0.157594E-07  0.337E-03    1.98       2.7  T
   3   -191.2047839  0.198637E-07  0.435E-04    1.98      21.2  T
   4   -191.2047839 -0.237546E-07  0.138E-04    1.98      67.2  T
   5   -191.2047839 -0.125547E-08  0.620E-05    1.98     149.2  T
     SCC iter.                  ...        0 min,  0.130 sec
     gradient                   ...        0 min,  0.264 sec
 * total energy  :  -188.2408643 Eh     change       -0.2884605E-05 Eh
   gradient norm :     0.0002224 Eh/α   predicted    -0.1099026E-05 ( -61.90%)
   displ. norm   :     0.0552566 α      lambda       -0.1826329E-05
   maximum displ.:     0.0409167 α      in ANC's #1, #2, #30, ...

........................................................................
.............................. CYCLE  266 ..............................
........................................................................

 iter      E             dE          RMSdq      gap      omega  full diag
   1   -191.2048053 -0.191205E+03  0.496E-03    1.98       0.0  T
   2   -191.2048053 -0.107191E-07  0.293E-03    1.98       3.2  T
   3   -191.2048053  0.103593E-07  0.326E-04    1.98      28.4  T
   4   -191.2048053 -0.133464E-07  0.105E-04    1.98      87.7  T
   5   -191.2048053 -0.524750E-09  0.528E-05    1.98     175.2  T
     SCC iter.                  ...        0 min,  0.158 sec
     gradient                   ...        0 min,  0.273 sec
 * total energy  :  -188.2408668 Eh     change       -0.2488717E-05 Eh
   gradient norm :     0.0002312 Eh/α   predicted    -0.9162119E-06 ( -63.19%)
   displ. norm   :     0.0517915 α      lambda       -0.1785596E-05
   maximum displ.:     0.0384378 α      in ANC's #1, #2, #30, ...

........................................................................
.............................. CYCLE  267 ..............................
........................................................................

 iter      E             dE          RMSdq      gap      omega  full diag
   1   -191.2048589 -0.191205E+03  0.461E-03    1.98       0.0  T
   2   -191.2048589 -0.724290E-08  0.272E-03    1.98       3.4  T
   3   -191.2048589  0.303584E-08  0.215E-04    1.98      43.0  T
   4   -191.2048589 -0.507478E-08  0.872E-05    1.98     106.0  T
   5   -191.2048589 -0.330402E-09  0.433E-05    1.98     213.5  T
     SCC iter.                  ...        0 min,  0.128 sec
     gradient                   ...        0 min,  0.279 sec
 * total energy  :  -188.2408692 Eh     change       -0.2453709E-05 Eh
   gradient norm :     0.0001795 Eh/α   predicted    -0.8946795E-06 ( -63.54%)
   displ. norm   :     0.0542278 α      lambda       -0.1880253E-05
   maximum displ.:     0.0403384 α      in ANC's #1, #2, #30, ...

........................................................................
.............................. CYCLE  268 ..............................
........................................................................

 iter      E             dE          RMSdq      gap      omega  full diag
   1   -191.2049117 -0.191205E+03  0.503E-03    1.99       0.0  T
   2   -191.2049117 -0.880692E-08  0.296E-03    1.99       3.1  T
   3   -191.2049117  0.101817E-07  0.317E-04    1.99      29.2  T
   4   -191.2049117 -0.129285E-07  0.105E-04    1.99      87.9  T
   5   -191.2049117 -0.672685E-09  0.517E-05    1.99     178.8  T
     SCC iter.                  ...        0 min,  0.132 sec
     gradient                   ...        0 min,  0.258 sec
 * total energy  :  -188.2408718 Eh     change       -0.2556685E-05 Eh
   gradient norm :     0.0001761 Eh/α   predicted    -0.9418079E-06 ( -63.16%)
   displ. norm   :     0.0572001 α      lambda       -0.1885478E-05
   maximum displ.:     0.0425697 α      in ANC's #1, #2, #30, ...

........................................................................
.............................. CYCLE  269 ..............................
........................................................................

 iter      E             dE          RMSdq      gap      omega  full diag
   1   -191.2049193 -0.191205E+03  0.527E-03    1.99       0.0  T
   2   -191.2049194 -0.105086E-07  0.310E-03    1.99       3.0  T
   3   -191.2049193  0.172770E-07  0.388E-04    1.99      23.9  T
   4   -191.2049194 -0.205025E-07  0.117E-04    1.99      79.1  T
   5   -191.2049194 -0.115213E-08  0.524E-05    1.99     176.5  T
     SCC iter.                  ...        0 min,  0.118 sec
     gradient                   ...        0 min,  0.363 sec
 * total energy  :  -188.2408744 Eh     change       -0.2557920E-05 Eh
   gradient norm :     0.0001754 Eh/α   predicted    -0.9468604E-06 ( -62.98%)
   displ. norm   :     0.0540628 α      lambda       -0.1673998E-05
   maximum displ.:     0.0405517 α      in ANC's #1, #2, #6, ...

........................................................................
.............................. CYCLE  270 ..............................
........................................................................

 iter      E             dE          RMSdq      gap      omega  full diag
   1   -191.2049203 -0.191205E+03  0.502E-03    1.99       0.0  T
   2   -191.2049203 -0.120202E-07  0.296E-03    1.99       3.1  T
   3   -191.2049203  0.232268E-07  0.439E-04    1.99      21.1  T
   4   -191.2049203 -0.264202E-07  0.126E-04    1.99      73.1  T
   5   -191.2049203 -0.168714E-08  0.492E-05    1.99     188.1  T
     SCC iter.                  ...        0 min,  0.151 sec
     gradient                   ...        0 min,  0.308 sec
 * total energy  :  -188.2408767 Eh     change       -0.2318379E-05 Eh
   gradient norm :     0.0001759 Eh/α   predicted    -0.8411824E-06 ( -63.72%)
   displ. norm   :     0.0473272 α      lambda       -0.1454203E-05
   maximum displ.:     0.0356809 α      in ANC's #1, #2, #6, ...

........................................................................
.............................. CYCLE  271 ..............................
........................................................................

 iter      E             dE          RMSdq      gap      omega  full diag
   1   -191.2049193 -0.191205E+03  0.429E-03    1.99       0.0  T
   2   -191.2049193 -0.122805E-07  0.254E-03    1.99       3.6  T
   3   -191.2049193  0.239088E-07  0.443E-04    1.99      20.9  T
   4   -191.2049193 -0.266528E-07  0.130E-04    1.99      71.3  T
   5   -191.2049193 -0.194532E-08  0.484E-05    1.99     191.1  T
     SCC iter.                  ...        0 min,  0.170 sec
     gradient                   ...        0 min,  0.279 sec
 * total energy  :  -188.2408787 Eh     change       -0.2065289E-05 Eh
   gradient norm :     0.0001825 Eh/α   predicted    -0.7308658E-06 ( -64.61%)
   displ. norm   :     0.0447184 α      lambda       -0.1442143E-05
   maximum displ.:     0.0334964 α      in ANC's #1, #2, #6, ...

........................................................................
.............................. CYCLE  272 ..............................
........................................................................

 iter      E             dE          RMSdq      gap      omega  full diag
   1   -191.2048921 -0.191205E+03  0.399E-03    1.99       0.0  T
   2   -191.2048921 -0.137502E-07  0.237E-03    1.99       3.9  T
   3   -191.2048920  0.215595E-07  0.432E-04    1.99      21.4  T
   4   -191.2048921 -0.237513E-07  0.138E-04    1.99      67.1  T
   5   -191.2048921 -0.233314E-08  0.489E-05    1.99     189.0  T
     SCC iter.                  ...        0 min,  0.142 sec
     gradient                   ...        0 min,  0.271 sec
 * total energy  :  -188.2408808 Eh     change       -0.2083957E-05 Eh
   gradient norm :     0.0001669 Eh/α   predicted    -0.7254424E-06 ( -65.19%)
   displ. norm   :     0.0481797 α      lambda       -0.1635211E-05
   maximum displ.:     0.0354679 α      in ANC's #1, #2, #6, ...

........................................................................
.............................. CYCLE  273 ..............................
........................................................................

 iter      E             dE          RMSdq      gap      omega  full diag
   1   -191.2048578 -0.191205E+03  0.422E-03    1.98       0.0  T
   2   -191.2048579 -0.186135E-07  0.252E-03    1.98       3.7  T
   3   -191.2048578  0.285170E-07  0.500E-04    1.98      18.5  T
   4   -191.2048579 -0.317241E-07  0.158E-04    1.98      58.4  T
   5   -191.2048579 -0.293232E-08  0.608E-05    1.98     152.2  T
     SCC iter.                  ...        0 min,  0.157 sec
     gradient                   ...        0 min,  0.342 sec
 * total energy  :  -188.2408832 Eh     change       -0.2350738E-05 Eh
   gradient norm :     0.0001564 Eh/α   predicted    -0.8224485E-06 ( -65.01%)
   displ. norm   :     0.0567379 α      lambda       -0.1932413E-05
   maximum displ.:     0.0409965 α      in ANC's #1, #2, #6, ...

........................................................................
.............................. CYCLE  274 ..............................
........................................................................

 iter      E             dE          RMSdq      gap      omega  full diag
   1   -191.2048023 -0.191205E+03  0.489E-03    1.98       0.0  T
   2   -191.2048023 -0.254840E-07  0.291E-03    1.98       3.2  T
   3   -191.2048023  0.378395E-07  0.582E-04    1.98      15.9  T
   4   -191.2048023 -0.426991E-07  0.182E-04    1.98      50.8  T
   5   -191.2048023 -0.367547E-08  0.747E-05    1.98     123.7  T
     SCC iter.                  ...        0 min,  0.130 sec
     gradient                   ...        0 min,  0.288 sec
 * total energy  :  -188.2408859 Eh     change       -0.2739520E-05 Eh
   gradient norm :     0.0001465 Eh/α   predicted    -0.9707252E-06 ( -64.57%)
   displ. norm   :     0.0655300 α      lambda       -0.2135274E-05
   maximum displ.:     0.0467841 α      in ANC's #1, #2, #6, ...

........................................................................
.............................. CYCLE  275 ..............................
........................................................................

 iter      E             dE          RMSdq      gap      omega  full diag
   1   -191.2047354 -0.191205E+03  0.552E-03    1.98       0.0  T
   2   -191.2047354 -0.301642E-07  0.328E-03    1.98       2.8  T
   3   -191.2047354  0.491075E-07  0.658E-04    1.98      14.0  T
   4   -191.2047354 -0.565987E-07  0.193E-04    1.98      47.9  T
   5   -191.2047354 -0.362186E-08  0.874E-05    1.98     105.8  T
     SCC iter.                  ...        0 min,  0.195 sec
     gradient                   ...        0 min,  0.257 sec
 * total energy  :  -188.2408889 Eh     change       -0.2980928E-05 Eh
   gradient norm :     0.0001579 Eh/α   predicted    -0.1071884E-05 ( -64.04%)
   displ. norm   :     0.0673761 α      lambda       -0.2056697E-05
   maximum displ.:     0.0479082 α      in ANC's #1, #2, #6, ...

........................................................................
.............................. CYCLE  276 ..............................
........................................................................

 iter      E             dE          RMSdq      gap      omega  full diag
   1   -191.2046789 -0.191205E+03  0.556E-03    1.98       0.0  T
   2   -191.2046789 -0.253571E-07  0.329E-03    1.98       2.8  T
   3   -191.2046789  0.518369E-07  0.663E-04    1.98      13.9  T
   4   -191.2046789 -0.608163E-07  0.171E-04    1.98      54.2  T
   5   -191.2046789 -0.215343E-08  0.864E-05    1.98     107.0  T
     SCC iter.                  ...        0 min,  0.153 sec
     gradient                   ...        0 min,  0.260 sec
 * total energy  :  -188.2408918 Eh     change       -0.2854068E-05 Eh
   gradient norm :     0.0001966 Eh/α   predicted    -0.1031779E-05 ( -63.85%)
   displ. norm   :     0.0620106 α      lambda       -0.1811118E-05
   maximum displ.:     0.0442185 α      in ANC's #1, #2, #6, ...

........................................................................
.............................. CYCLE  277 ..............................
........................................................................

 iter      E             dE          RMSdq      gap      omega  full diag
   1   -191.2046402 -0.191205E+03  0.499E-03    1.98       0.0  T
   2   -191.2046402 -0.160066E-07  0.294E-03    1.98       3.1  T
   3   -191.2046402  0.401483E-07  0.575E-04    1.98      16.1  T
   4   -191.2046403 -0.477492E-07  0.135E-04    1.98      68.7  T
   5   -191.2046403 -0.779806E-09  0.751E-05    1.98     123.1  T
     SCC iter.                  ...        0 min,  0.109 sec
     gradient                   ...        0 min,  0.317 sec
 * total energy  :  -188.2408943 Eh     change       -0.2544346E-05 Eh
   gradient norm :     0.0002297 Eh/α   predicted    -0.9079565E-06 ( -64.31%)
   displ. norm   :     0.0552297 α      lambda       -0.1625591E-05
   maximum displ.:     0.0396183 α      in ANC's #1, #2, #6, ...

........................................................................
.............................. CYCLE  278 ..............................
........................................................................

 iter      E             dE          RMSdq      gap      omega  full diag
   1   -191.2046310 -0.191205E+03  0.439E-03    1.98       0.0  T
   2   -191.2046310 -0.102831E-07  0.258E-03    1.98       3.6  T
   3   -191.2046310  0.349042E-07  0.521E-04    1.98      17.7  T
   4   -191.2046310 -0.411252E-07  0.110E-04    1.98      84.3  T
   5   -191.2046310 -0.317357E-09  0.637E-05    1.98     145.1  T
     SCC iter.                  ...        0 min,  0.133 sec
     gradient                   ...        0 min,  0.253 sec
 * total energy  :  -188.2408966 Eh     change       -0.2310826E-05 Eh
   gradient norm :     0.0002442 Eh/α   predicted    -0.8147647E-06 ( -64.74%)
   displ. norm   :     0.0519675 α      lambda       -0.1586951E-05
   maximum displ.:     0.0376963 α      in ANC's #1, #2, #6, ...

........................................................................
.............................. CYCLE  279 ..............................
........................................................................

 iter      E             dE          RMSdq      gap      omega  full diag
   1   -191.2046387 -0.191205E+03  0.413E-03    1.98       0.0  T
   2   -191.2046387 -0.107539E-07  0.244E-03    1.98       3.8  T
   3   -191.2046387  0.303263E-07  0.485E-04    1.98      19.0  T
   4   -191.2046387 -0.352105E-07  0.117E-04    1.98      78.8  T
   5   -191.2046387 -0.768352E-09  0.603E-05    1.98     153.2  T
     SCC iter.                  ...        0 min,  0.147 sec
     gradient                   ...        0 min,  0.275 sec
 * total energy  :  -188.2408989 Eh     change       -0.2267122E-05 Eh
   gradient norm :     0.0002358 Eh/α   predicted    -0.7952198E-06 ( -64.92%)
   displ. norm   :     0.0521363 α      lambda       -0.1639664E-05
   maximum displ.:     0.0383567 α      in ANC's #1, #2, #6, ...

........................................................................
.............................. CYCLE  280 ..............................
........................................................................

 iter      E             dE          RMSdq      gap      omega  full diag
   1   -191.2046606 -0.191205E+03  0.422E-03    1.98       0.0  T
   2   -191.2046606 -0.172901E-07  0.251E-03    1.98       3.7  T
   3   -191.2046605  0.326765E-07  0.511E-04    1.98      18.1  T
   4   -191.2046606 -0.367212E-07  0.158E-04    1.98      58.6  T
   5   -191.2046606 -0.227914E-08  0.645E-05    1.98     143.4  T
     SCC iter.                  ...        0 min,  0.152 sec
     gradient                   ...        0 min,  0.284 sec
 * total energy  :  -188.2409012 Eh     change       -0.2327434E-05 Eh
   gradient norm :     0.0002082 Eh/α   predicted    -0.8218075E-06 ( -64.69%)
   displ. norm   :     0.0530562 α      lambda       -0.1654084E-05
   maximum displ.:     0.0397058 α      in ANC's #1, #2, #6, ...

........................................................................
.............................. CYCLE  281 ..............................
........................................................................

 iter      E             dE          RMSdq      gap      omega  full diag
   1   -191.2046967 -0.191205E+03  0.439E-03    1.98       0.0  T
   2   -191.2046967 -0.268470E-07  0.263E-03    1.98       3.5  T
   3   -191.2046967  0.335881E-07  0.533E-04    1.98      17.4  T
   4   -191.2046967 -0.363276E-07  0.204E-04    1.98      45.4  T
   5   -191.2046967 -0.447034E-08  0.706E-05    1.98     130.9  T
   6   -191.2046967 -0.266027E-10  0.392E-05    1.98     235.8  T
     SCC iter.                  ...        0 min,  0.170 sec
     gradient                   ...        0 min,  0.276 sec
 * total energy  :  -188.2409035 Eh     change       -0.2319530E-05 Eh
   gradient norm :     0.0001625 Eh/α   predicted    -0.8292274E-06 ( -64.25%)
   displ. norm   :     0.0500672 α      lambda       -0.1493314E-05
   maximum displ.:     0.0382977 α      in ANC's #1, #2, #6, ...

........................................................................
.............................. CYCLE  282 ..............................
........................................................................

 iter      E             dE          RMSdq      gap      omega  full diag
   1   -191.2047353 -0.191205E+03  0.420E-03    1.98       0.0  T
   2   -191.2047354 -0.311126E-07  0.253E-03    1.98       3.7  T
   3   -191.2047353  0.314401E-07  0.518E-04    1.98      17.8  T
   4   -191.2047354 -0.326231E-07  0.225E-04    1.98      41.2  T
   5   -191.2047354 -0.588980E-08  0.702E-05    1.98     131.8  T
   6   -191.2047354 -0.410125E-10  0.388E-05    1.98     238.1  T
     SCC iter.                  ...        0 min,  0.160 sec
     gradient                   ...        0 min,  0.237 sec
 * total energy  :  -188.2409056 Eh     change       -0.2081556E-05 Eh
   gradient norm :     0.0001122 Eh/α   predicted    -0.7483347E-06 ( -64.05%)
   displ. norm   :     0.0414246 α      lambda       -0.1176992E-05
   maximum displ.:     0.0324239 α      in ANC's #1, #2, #6, ...

........................................................................
.............................. CYCLE  283 ..............................
........................................................................

 iter      E             dE          RMSdq      gap      omega  full diag
   1   -191.2047775 -0.191205E+03  0.352E-03    1.98       0.0  T
   2   -191.2047776 -0.247931E-07  0.213E-03    1.98       4.3  T
   3   -191.2047775  0.213399E-07  0.434E-04    1.98      21.3  T
   4   -191.2047776 -0.218091E-07  0.198E-04    1.98      46.6  T
   5   -191.2047776 -0.463191E-08  0.604E-05    1.98     153.1  T
     SCC iter.                  ...        0 min,  0.126 sec
     gradient                   ...        0 min,  0.223 sec
 * total energy  :  -188.2409072 Eh     change       -0.1645651E-05 Eh
   gradient norm :     0.0000805 Eh/α   predicted    -0.5902510E-06 ( -64.13%)
   displ. norm   :     0.0328067 α      lambda       -0.9110131E-06
   maximum displ.:     0.0262865 α      in ANC's #1, #2, #3, ...

........................................................................
.............................. CYCLE  284 ..............................
........................................................................

 iter      E             dE          RMSdq      gap      omega  full diag
   1   -191.2048107 -0.191205E+03  0.279E-03    1.98       0.0  T
   2   -191.2048108 -0.151459E-07  0.169E-03    1.98       5.5  T
   3   -191.2048107  0.124874E-07  0.335E-04    1.98      27.6  T
   4   -191.2048108 -0.132430E-07  0.144E-04    1.98      64.0  T
   5   -191.2048108 -0.235448E-08  0.480E-05    1.98     192.7  T
     SCC iter.                  ...        0 min,  0.121 sec
     gradient                   ...        0 min,  0.312 sec
 * total energy  :  -188.2409085 Eh     change       -0.1295057E-05 Eh
   gradient norm :     0.0000879 Eh/α   predicted    -0.4573276E-06 ( -64.69%)
   displ. norm   :     0.0257929 α      lambda       -0.7359558E-06
   maximum displ.:     0.0210083 α      in ANC's #1, #2, #8, ...

........................................................................
.............................. CYCLE  285 ..............................
........................................................................

 iter      E             dE          RMSdq      gap      omega  full diag
   1   -191.2048311 -0.191205E+03  0.221E-03    1.98       0.0  T
   2   -191.2048311 -0.794850E-08  0.133E-03    1.98       7.0  T
   3   -191.2048311  0.708809E-08  0.253E-04    1.98      36.6  T
   4   -191.2048311 -0.793594E-08  0.943E-05    1.98      98.1  T
   5   -191.2048311 -0.896705E-09  0.350E-05    1.98     264.1  T
     SCC iter.                  ...        0 min,  0.162 sec
     gradient                   ...        0 min,  0.309 sec
 * total energy  :  -188.2409096 Eh     change       -0.1061645E-05 Eh
   gradient norm :     0.0001102 Eh/α   predicted    -0.3698387E-06 ( -65.16%)
   displ. norm   :     0.0223875 α      lambda       -0.6742634E-06
   maximum displ.:     0.0181780 α      in ANC's #1, #2, #8, ...

........................................................................
.............................. CYCLE  286 ..............................
........................................................................

 iter      E             dE          RMSdq      gap      omega  full diag
   1   -191.2048425 -0.191205E+03  0.196E-03    1.98       0.0  T
   2   -191.2048425 -0.408406E-08  0.116E-03    1.98       8.0  T
   3   -191.2048425  0.619906E-08  0.231E-04    1.98      40.0  T
   4   -191.2048425 -0.715411E-08  0.615E-05    1.98     150.4  T
   5   -191.2048425 -0.290044E-09  0.272E-05    1.98     339.8  T
     SCC iter.                  ...        0 min,  0.110 sec
     gradient                   ...        0 min,  0.232 sec
 * total energy  :  -188.2409106 Eh     change       -0.9758035E-06 Eh
   gradient norm :     0.0001268 Eh/α   predicted    -0.3381918E-06 ( -65.34%)
   displ. norm   :     0.0223526 α      lambda       -0.6954880E-06
   maximum displ.:     0.0177769 α      in ANC's #1, #8, #11, ...

........................................................................
.............................. CYCLE  287 ..............................
........................................................................

 iter      E             dE          RMSdq      gap      omega  full diag
   1   -191.2048421 -0.191205E+03  0.199E-03    1.98       0.0  T
   2   -191.2048421 -0.231478E-08  0.117E-03    1.98       7.9  T
   3   -191.2048421  0.706999E-08  0.244E-04    1.98      37.8  T
   4   -191.2048421 -0.816343E-08  0.437E-05    1.98     211.5  T
   5   -191.2048421 -0.926832E-10  0.239E-05    1.98     386.3  T
     SCC iter.                  ...        0 min,  0.108 sec
     gradient                   ...        0 min,  0.219 sec
 * total energy  :  -188.2409116 Eh     change       -0.1001492E-05 Eh
   gradient norm :     0.0001369 Eh/α   predicted    -0.3524978E-06 ( -64.80%)
   displ. norm   :     0.0256401 α      lambda       -0.7922218E-06
   maximum displ.:     0.0199485 α      in ANC's #1, #8, #11, ...

........................................................................
.............................. CYCLE  288 ..............................
........................................................................

 iter      E             dE          RMSdq      gap      omega  full diag
   1   -191.2048339 -0.191205E+03  0.234E-03    1.98       0.0  T
   2   -191.2048339 -0.270194E-08  0.137E-03    1.99       6.7  T
   3   -191.2048339  0.122051E-07  0.322E-04    1.99      28.7  T
   4   -191.2048339 -0.140104E-07  0.487E-05    1.99     190.0  T
   5   -191.2048339 -0.112749E-09  0.271E-05    1.99     341.1  T
     SCC iter.                  ...        0 min,  0.113 sec
     gradient                   ...        0 min,  0.270 sec
 * total energy  :  -188.2409127 Eh     change       -0.1141082E-05 Eh
   gradient norm :     0.0001358 Eh/α   predicted    -0.3970652E-06 ( -65.20%)
   displ. norm   :     0.0280847 α      lambda       -0.8497410E-06
   maximum displ.:     0.0215439 α      in ANC's #1, #8, #11, ...

........................................................................
.............................. CYCLE  289 ..............................
........................................................................

 iter      E             dE          RMSdq      gap      omega  full diag
   1   -191.2048212 -0.191205E+03  0.262E-03    1.99       0.0  T
   2   -191.2048212 -0.369238E-08  0.154E-03    1.99       6.0  T
   3   -191.2048212  0.142902E-07  0.356E-04    1.99      25.9  T
   4   -191.2048212 -0.164173E-07  0.618E-05    1.99     149.6  T
   5   -191.2048212 -0.193836E-09  0.320E-05    1.99     289.2  T
     SCC iter.                  ...        0 min,  0.108 sec
     gradient                   ...        0 min,  0.252 sec
 * total energy  :  -188.2409139 Eh     change       -0.1198010E-05 Eh
   gradient norm :     0.0001276 Eh/α   predicted    -0.4293582E-06 ( -64.16%)
   displ. norm   :     0.0301067 α      lambda       -0.8723334E-06
   maximum displ.:     0.0230577 α      in ANC's #1, #8, #11, ...

........................................................................
.............................. CYCLE  290 ..............................
........................................................................

 iter      E             dE          RMSdq      gap      omega  full diag
   1   -191.2048004 -0.191205E+03  0.286E-03    1.99       0.0  T
   2   -191.2048004 -0.594031E-08  0.168E-03    1.99       5.5  T
   3   -191.2048004  0.177203E-07  0.402E-04    1.99      23.0  T
   4   -191.2048004 -0.204708E-07  0.789E-05    1.99     117.2  T
   5   -191.2048004 -0.357034E-09  0.382E-05    1.99     242.0  T
     SCC iter.                  ...        0 min,  0.110 sec
     gradient                   ...        0 min,  0.244 sec
 * total energy  :  -188.2409151 Eh     change       -0.1214630E-05 Eh
   gradient norm :     0.0001084 Eh/α   predicted    -0.4400579E-06 ( -63.77%)
   displ. norm   :     0.0294554 α      lambda       -0.8055864E-06
   maximum displ.:     0.0227904 α      in ANC's #1, #8, #5, ...

........................................................................
.............................. CYCLE  291 ..............................
........................................................................

 iter      E             dE          RMSdq      gap      omega  full diag
   1   -191.2047838 -0.191205E+03  0.285E-03    1.99       0.0  T
   2   -191.2047838 -0.666762E-08  0.168E-03    1.99       5.5  T
   3   -191.2047838  0.154641E-07  0.385E-04    1.99      24.0  T
   4   -191.2047838 -0.178856E-07  0.874E-05    1.99     105.8  T
   5   -191.2047838 -0.490530E-09  0.390E-05    1.99     237.0  T
     SCC iter.                  ...        0 min,  0.097 sec
     gradient                   ...        0 min,  0.224 sec
 * total energy  :  -188.2409163 Eh     change       -0.1128100E-05 Eh
   gradient norm :     0.0000872 Eh/α   predicted    -0.4048324E-06 ( -64.11%)
   displ. norm   :     0.0261247 α      lambda       -0.6853300E-06
   maximum displ.:     0.0206431 α      in ANC's #1, #5, #8, ...

........................................................................
.............................. CYCLE  292 ..............................
........................................................................

 iter      E             dE          RMSdq      gap      omega  full diag
   1   -191.2047678 -0.191205E+03  0.257E-03    1.99       0.0  T
   2   -191.2047678 -0.609072E-08  0.152E-03    1.98       6.1  T
   3   -191.2047678  0.108226E-07  0.329E-04    1.98      28.1  T
   4   -191.2047678 -0.126061E-07  0.830E-05    1.98     111.4  T
   5   -191.2047678 -0.465718E-09  0.357E-05    1.98     259.0  T
     SCC iter.                  ...        0 min,  0.106 sec
     gradient                   ...        0 min,  0.236 sec
 * total energy  :  -188.2409172 Eh     change       -0.9777282E-06 Eh
   gradient norm :     0.0000700 Eh/α   predicted    -0.3439459E-06 ( -64.82%)
   displ. norm   :     0.0219191 α      lambda       -0.5763898E-06
   maximum displ.:     0.0177640 α      in ANC's #1, #5, #8, ...

........................................................................
.............................. CYCLE  293 ..............................
........................................................................

 iter      E             dE          RMSdq      gap      omega  full diag
   1   -191.2047577 -0.191205E+03  0.220E-03    1.98       0.0  T
   2   -191.2047577 -0.429617E-08  0.130E-03    1.98       7.1  T
   3   -191.2047577  0.645022E-08  0.258E-04    1.98      35.8  T
   4   -191.2047577 -0.759428E-08  0.689E-05    1.98     134.2  T
   5   -191.2047577 -0.323837E-09  0.296E-05    1.98     312.0  T
     SCC iter.                  ...        0 min,  0.120 sec
     gradient                   ...        0 min,  0.271 sec
 * total energy  :  -188.2409181 Eh     change       -0.8360050E-06 Eh
   gradient norm :     0.0000616 Eh/α   predicted    -0.2897189E-06 ( -65.34%)
   displ. norm   :     0.0188187 α      lambda       -0.5129340E-06
   maximum displ.:     0.0155267 α      in ANC's #1, #5, #4, ...

........................................................................
.............................. CYCLE  294 ..............................
........................................................................

 iter      E             dE          RMSdq      gap      omega  full diag
   1   -191.2047525 -0.191205E+03  0.191E-03    1.98       0.0  T
   2   -191.2047525 -0.281304E-08  0.113E-03    1.98       8.2  T
   3   -191.2047525  0.342101E-08  0.194E-04    1.98      47.5  T
   4   -191.2047525 -0.407596E-08  0.564E-05    1.98     163.9  T
     SCC iter.                  ...        0 min,  0.106 sec
     gradient                   ...        0 min,  0.281 sec
 * total energy  :  -188.2409188 Eh     change       -0.7514488E-06 Eh
   gradient norm :     0.0000629 Eh/α   predicted    -0.2583419E-06 ( -65.62%)
   displ. norm   :     0.0182376 α      lambda       -0.5137829E-06
   maximum displ.:     0.0149882 α      in ANC's #1, #5, #3, ...

........................................................................
.............................. CYCLE  295 ..............................
........................................................................

 iter      E             dE          RMSdq      gap      omega  full diag
   1   -191.2047457 -0.191205E+03  0.183E-03    1.98       0.0  T
   2   -191.2047457 -0.193097E-08  0.108E-03    1.98       8.6  T
   3   -191.2047457  0.266715E-08  0.168E-04    1.98      55.2  T
   4   -191.2047457 -0.315458E-08  0.489E-05    1.98     189.0  T
     SCC iter.                  ...        0 min,  0.117 sec
     gradient                   ...        0 min,  0.279 sec
 * total energy  :  -188.2409196 Eh     change       -0.7575623E-06 Eh
   gradient norm :     0.0000691 Eh/α   predicted    -0.2581930E-06 ( -65.92%)
   displ. norm   :     0.0201247 α      lambda       -0.5755920E-06
   maximum displ.:     0.0161006 α      in ANC's #1, #5, #2, ...

........................................................................
.............................. CYCLE  296 ..............................
........................................................................

 iter      E             dE          RMSdq      gap      omega  full diag
   1   -191.2047424 -0.191205E+03  0.198E-03    1.98       0.0  T
   2   -191.2047424 -0.169089E-08  0.117E-03    1.98       7.9  T
   3   -191.2047424  0.309620E-08  0.177E-04    1.98      52.2  T
   4   -191.2047424 -0.363070E-08  0.462E-05    1.98     199.9  T
     SCC iter.                  ...        0 min,  0.115 sec
     gradient                   ...        0 min,  0.277 sec
 * total energy  :  -188.2409204 Eh     change       -0.8390547E-06 Eh
   gradient norm :     0.0000783 Eh/α   predicted    -0.2897795E-06 ( -65.46%)
   displ. norm   :     0.0249097 α      lambda       -0.6976422E-06
   maximum displ.:     0.0193426 α      in ANC's #1, #5, #2, ...

........................................................................
.............................. CYCLE  297 ..............................
........................................................................

 iter      E             dE          RMSdq      gap      omega  full diag
   1   -191.2047395 -0.191205E+03  0.236E-03    1.98       0.0  T
   2   -191.2047395 -0.202235E-08  0.139E-03    1.98       6.7  T
   3   -191.2047395  0.414906E-08  0.199E-04    1.98      46.5  T
   4   -191.2047395 -0.492258E-08  0.467E-05    1.98     198.0  T
     SCC iter.                  ...        0 min,  0.115 sec
     gradient                   ...        0 min,  0.244 sec
 * total energy  :  -188.2409214 Eh     change       -0.1012828E-05 Eh
   gradient norm :     0.0000885 Eh/α   predicted    -0.3529367E-06 ( -65.15%)
   displ. norm   :     0.0313701 α      lambda       -0.8455982E-06
   maximum displ.:     0.0238326 α      in ANC's #1, #5, #2, ...

........................................................................
.............................. CYCLE  298 ..............................
........................................................................

 iter      E             dE          RMSdq      gap      omega  full diag
   1   -191.2047359 -0.191205E+03  0.285E-03    1.98       0.0  T
   2   -191.2047359 -0.279746E-08  0.167E-03    1.98       5.5  T
   3   -191.2047359  0.572675E-08  0.232E-04    1.98      39.9  T
   4   -191.2047359 -0.690719E-08  0.505E-05    1.98     183.2  T
   5   -191.2047359 -0.118177E-09  0.278E-05    1.98     332.9  T
     SCC iter.                  ...        0 min,  0.127 sec
     gradient                   ...        0 min,  0.243 sec
 * total energy  :  -188.2409227 Eh     change       -0.1223584E-05 Eh
   gradient norm :     0.0000958 Eh/α   predicted    -0.4235032E-06 ( -65.39%)
   displ. norm   :     0.0358342 α      lambda       -0.9331251E-06
   maximum displ.:     0.0267225 α      in ANC's #1, #5, #2, ...
 * RMSD in coord.:     0.0790547 α      energy gain  -0.7547674E-04 Eh

generating ANC from exact Hessian ...
Using Lindh-Hessian (1995)
 Shifting diagonal of input Hessian by    1.0078023666095058E-002
 Lowest  eigenvalues of input Hessian
    0.010000    0.000000    0.000000    0.000000    0.000000    0.000000
    0.000000    0.010140    0.010189    0.010231    0.010301    0.010324
    0.010473    0.010568    0.010652    0.010737    0.010884    0.010920
 Highest eigenvalues
    2.165171    2.226107    2.334493    2.341834    2.349624    3.166731


........................................................................
.............................. CYCLE  299 ..............................
........................................................................

 iter      E             dE          RMSdq      gap      omega  full diag
   1   -191.2047409 -0.191205E+03  0.316E-03    1.98       0.0  T
   2   -191.2047409 -0.388013E-08  0.186E-03    1.98       5.0  T
   3   -191.2047409  0.885868E-08  0.284E-04    1.98      32.6  T
   4   -191.2047409 -0.106137E-07  0.537E-05    1.98     172.0  T
   5   -191.2047409 -0.114625E-09  0.291E-05    1.98     318.2  T
     SCC iter.                  ...        0 min,  0.117 sec
     gradient                   ...        0 min,  0.232 sec
 * total energy  :  -188.2409240 Eh     change       -0.1334427E-05 Eh
   gradient norm :     0.0001009 Eh/α   predicted     0.0000000E+00 (-100.00%)
   displ. norm   :     0.0001514 α      lambda        0.0000000E+00
   maximum displ.:     0.0000702 α      in ANC's #1, #343, #345, ...

........................................................................
.............................. CYCLE  300 ..............................
........................................................................

 iter      E             dE          RMSdq      gap      omega  full diag
   1   -191.2047478 -0.191205E+03  0.106E-04    1.98       0.0  T
   2   -191.2047478 -0.198526E-09  0.643E-05    1.98     143.9  T
   3   -191.2047478 -0.184741E-10  0.355E-05    1.98     260.6  T
     SCC iter.                  ...        0 min,  0.071 sec
     gradient                   ...        0 min,  0.248 sec
 * total energy  :  -188.2409240 Eh     change       -0.1172026E-07 Eh
   gradient norm :     0.0000772 Eh/α   predicted    -0.4343413E-08 ( -62.94%)
   displ. norm   :     0.0001514 α      lambda        0.0000000E+00
   maximum displ.:     0.0000702 α      in ANC's #1, #343, #345, ...

   *** GEOMETRY OPTIMIZATION CONVERGED AFTER 300 ITERATIONS ***

------------------------------------------------------------------------
 total energy gain   :        -0.2580252 Eh     -161.9133 kcal/mol
 total RMSD          :         2.7803788 a0        1.4713 Å
 total power (kW/mol):        -2.2581503 (step)   -4.0106 (real)
------------------------------------------------------------------------

 ANCopt (total)                0 d,  0 h,  2 min, 48.915 sec
 optimizer setup                ...        0 min,  0.001 sec (  0.001%)
 model hessian                  ...        0 min,  1.061 sec (  0.628%)
 ANC generation                 ...        0 min,  0.212 sec (  0.125%)
 coordinate transformation      ...        0 min,  0.051 sec (  0.030%)
 single point calculation       ...        2 min, 47.199 sec ( 98.984%)
 optimization log               ...        0 min,  0.224 sec (  0.132%)
 hessian update                 ...        0 min,  0.045 sec (  0.026%)
 rational function              ...        0 min,  0.090 sec (  0.053%)

================
 final structure:
================
117
 xtb: 6.7.1 (edcfbbe)
O            0.96106587526736        3.02895010473441       -1.38061213950463
P            0.21843045147676        2.21683871370526       -0.41116959860287
O           -0.75325165026610        2.90849827813872        0.58943753295624
O           -0.67374386114150        1.15090996797789       -1.25662096014831
C           -1.27814123762329        0.13243806574567       -0.54597925641084
C           -2.68019391203253        0.15579113669908       -0.34753016867346
C           -3.25161953515789       -0.87061925418702        0.36729944027813
C           -2.48200098334810       -1.90421077383738        0.93307263396221
C           -3.07601670132118       -2.92891253608920        1.70143136371764
C           -2.31213520178962       -3.90462443243328        2.27711117616102
C           -0.91761904438288       -3.88834737214506        2.12026997239547
C           -0.31286958302224       -2.91712821955877        1.37075586551961
C           -1.07599357838365       -1.91261912416910        0.73750806675147
C           -0.49207476580274       -0.88745393231332       -0.05606012313782
C            0.95703622587700       -0.87271655027430       -0.34954369820483
C            1.70659913546986        0.22035521695669        0.03188354765662
O            1.06073997679690        1.30428159392433        0.61020043039420
C            3.11034184211453        0.25430996572801       -0.14462803400160
C            3.71677623037864       -0.81534424106328       -0.75963016378076
C            2.98174857343787       -1.91615146157765       -1.23808580264486
C            3.60812147559265       -2.98437753875122       -1.91581965993936
C            2.87615486538021       -4.03143115941768       -2.40073964947142
C            1.48245593598624       -4.04789795441487       -2.23851090935778
C            0.84733838045863       -3.03485364890424       -1.57423157509141
C            1.57725238489967       -1.95228474865906       -1.03765896928053
C           -3.52053284088429        1.23066612555163       -0.90073968828478
C           -4.54407479445725        1.77893002156998       -0.12910226260244
C           -5.37926836852973        2.74798671540849       -0.65195731010038
C           -5.20588124362770        3.18867954714080       -1.95385745565479
C           -4.18760208361045        2.65515712114129       -2.72535557560484
C           -3.35057176280006        1.68342518710293       -2.20673613801135
C            3.92676229624185        1.37371252323851        0.35237590334462
C            4.90866235182945        1.93512952497288       -0.45985784223909
C            5.73209103836407        2.93398069695689        0.02502443958055
C            5.58952371238137        3.37991001918856        1.32902684814265
C            4.61277635008739        2.82898330064453        2.14075693330002
C            3.78397663877360        1.83407623120271        1.65731240979015
H           -1.25807886367371        3.77303877809970        0.30813392942964
H           -4.32384924666539       -0.89263826017760        0.50200262915134
H           -4.14901059938586       -2.92007388665923        1.83126470862984
H           -2.77278660770371       -4.68549997756282        2.86429211894217
H           -0.32066771979374       -4.64983930909574        2.60049398382359
H            0.76162351483529       -2.90684895801335        1.26516721250884
H            4.79073505531479       -0.81557384090658       -0.88246961134702
H            4.67999373281790       -2.95111462499889       -2.05031318981029
H            3.36138173659282       -4.84469959437066       -2.92028524358442
H            0.91013360869054       -4.86802764623428       -2.64688311828312
H           -0.22690050113705       -3.05124736138128       -1.46613645611838
H           -4.68120993453233        1.44508349220922        0.88967963307357
H           -6.17409503523073        3.15519772521153       -0.04336340755519
H           -5.86172040788708        3.94256024991141       -2.36458573030622
H           -4.05378296013587        2.98703957271579       -3.74529627166265
H           -2.57179045523324        1.25865150405421       -2.82179605952254
H            5.01192548981694        1.59602302366915       -1.48118086788428
H            6.48771927374878        3.36661913620710       -0.61562791522504
H            6.23564434225769        4.15879296645324        1.70914742128758
H            4.49442394240464        3.17755621027147        3.15639646668815
H            3.02683958037149        1.40386094681931        2.29503442145778
C           -1.62328007779522        5.06747311452125       -2.17663318738466
C           -2.52716066866207        5.41344878894985       -1.03584468181060
N           -2.24190417036942        4.92840098179871        0.10761897108689
C           -2.81594534283479        5.22905872158296        1.33648529670425
C           -3.11795082361182        4.16949839065980        2.19385596158890
C           -3.60850191851677        4.41982784610091        3.46073967748410
C           -3.77522274458004        5.72316707182058        3.90266137022860
C           -3.45359817730205        6.77715681220756        3.06265215274275
C           -2.98500886357200        6.54107493992936        1.78431216113266
C           -3.69341442388597        6.26159981683430       -1.35083553502507
C           -3.64622716538524        7.17337510933247       -2.40656526498179
C           -4.75313807732167        7.93692385486996       -2.72888269593411
C           -5.93068805566449        7.80092780774451       -2.01228533033712
C           -5.99439191475816        6.89073047951089       -0.97006801613924
C           -4.88888860882870        6.12974746674753       -0.64204989425273
H           -0.96364793465155        4.24315272415843       -1.92196453809023
H           -2.20017074553038        4.81605791871018       -3.06347167978971
H           -0.99515610758690        5.92996299929436       -2.40182736333495
H           -2.97282787573065        3.15759598320605        1.84835786138196
H           -3.85085114435838        3.59256381860846        4.11254163076535
H           -4.14765232532383        5.91542736593928        4.89820718361708
H           -3.57082439530573        7.79617630312069        3.40153432310540
H           -2.73942147303540        7.36957321991928        1.13656673289920
H           -2.73437613810778        7.30504047971462       -2.96847442044294
H           -4.69868790371590        8.63912161891348       -3.54844450549476
H           -6.79371234208521        8.39848706490162       -2.26659638545716
H           -6.91012141353004        6.77092822931757       -0.40981075475669
H           -4.95705966032574        5.41014041105021        0.15863453421631
C            0.26493902209881        4.66811208198151        3.15806116565451
O            0.36621016010590        5.56239717281410        2.06321168031588
C            1.31098582751861        5.26591573382978        1.13615411882355
O            2.03825771901817        4.29948422185328        1.24959819367474
C            1.33426206238550        6.25630596286742        0.06506504954620
C            2.20873049948724        6.18294253192637       -0.96362254147700
C            3.26623279763383        5.14948651309023       -1.12111532273402
N            2.12557251270338        7.10395369992299       -1.98779873283089
C            1.06960865548901        7.96073084624634       -2.16585955188082
C            1.02921333160726        8.63809422082691       -3.49873149880674
C            0.16840800217448        8.11742831320777       -1.16394047657899
C           -1.01190896127761        8.96898124676311       -1.19580882443337
O           -1.80171705148013        9.05892731909846       -0.27235049550618
O           -1.17649618046950        9.67707302300503       -2.33909040048700
C           -2.27137784005899       10.58082826293248       -2.36899752073429
C            0.37091809300512        7.41344139397088        0.16176239891370
H           -0.59667435800154        4.99588940965332        3.73520230960135
H            0.12453979125293        3.64648166995075        2.80012090223545
H            1.17393158992020        4.70812691196828        3.76452251715274
H            3.82066012186443        5.02523827887610       -0.19518895373437
H            2.78805092256976        4.19143235556408       -1.32093744119966
H            3.94815945201054        5.39586039325235       -1.93199872145648
H            2.77012807399328        6.98785381956517       -2.75716178066388
H            1.05746672725431        9.71846923037765       -3.37546771969574
H            1.87145533450145        8.32972506698521       -4.11445528429313
H            0.10559989779045        8.39988371167986       -4.02209203812683
H           -3.16784447339497       10.10919912635573       -1.96070334009103
H           -2.04164658525299       11.47017848733576       -1.77697645879982
H           -2.41388277563051       10.85012511384119       -3.41308473258817
H           -0.59081484080305        7.06149574348546        0.53305225173071
H            0.73542881825702        8.13612235502894        0.90576323883221

 Bond Distances (Angstroems)
 ---------------------------
O1-P2=1.4666         P2-O1=1.4666         P2-O3=1.5568         P2-O4=1.6270         P2-O17=1.6079        O3-P2=1.5568         
O3-H38=1.0399        O4-P2=1.6270         O4-C5=1.3812         C5-O4=1.3812         C5-C6=1.4162         C5-C14=1.3777        
C6-C5=1.4162         C6-C7=1.3751         C6-C26=1.4723        C7-C6=1.3751         C7-C8=1.4074         C7-H39=1.0809        
C8-C7=1.4074         C8-C9=1.4118         C8-C13=1.4196        C9-C8=1.4118         C9-C10=1.3664        C9-H40=1.0809        
C10-C9=1.3664        C10-C11=1.4034       C10-H41=1.0802       C11-C10=1.4034       C11-C12=1.3678       C11-H42=1.0802       
C12-C11=1.3678       C12-C13=1.4115       C12-H43=1.0797       C13-C8=1.4196        C13-C12=1.4115       C13-C14=1.4219       
C14-C5=1.3777        C14-C13=1.4219       C14-C15=1.4786       C15-C14=1.4786       C15-C16=1.3792       C15-C25=1.4225       
C16-C15=1.3792       C16-O17=1.3880       C16-C18=1.4152       O17-P2=1.6079        O17-C16=1.3880       C18-C16=1.4152       
C18-C19=1.3748       C18-C32=1.4719       C19-C18=1.3748       C19-C20=1.4075       C19-H44=1.0810       C20-C19=1.4075       
C20-C21=1.4117       C20-C25=1.4192       C21-C20=1.4117       C21-C22=1.3665       C21-H45=1.0808       C22-C21=1.3665       
C22-C23=1.4032       C22-H46=1.0802       C23-C22=1.4032       C23-C24=1.3678       C23-H47=1.0802       C24-C23=1.3678       
C24-C25=1.4116       C24-H48=1.0798       C25-C15=1.4225       C25-C20=1.4192       C25-C24=1.4116       C26-C6=1.4723        
C26-C27=1.3942       C26-C31=1.3927       C27-C26=1.3942       C27-C28=1.3820       C27-H49=1.0808       C28-C27=1.3820       
C28-C29=1.3854       C28-H50=1.0807       C29-C28=1.3854       C29-C30=1.3845       C29-H51=1.0804       C30-C29=1.3845       
C30-C31=1.3834       C30-H52=1.0809       C31-C26=1.3927       C31-C30=1.3834       C31-H53=1.0795       C32-C18=1.4719       
C32-C33=1.3925       C32-C37=1.3911       C33-C32=1.3925       C33-C34=1.3823       C33-H54=1.0811       C34-C33=1.3823       
C34-C35=1.3855       C34-H55=1.0810       C35-C34=1.3855       C35-C36=1.3844       C35-H56=1.0810       C36-C35=1.3844       
C36-C37=1.3822       C36-H57=1.0803       C37-C32=1.3911       C37-C36=1.3822       C37-H58=1.0794       H38-O3=1.0399        
H39-C7=1.0809        H40-C9=1.0809        H41-C10=1.0802       H42-C11=1.0802       H43-C12=1.0797       H44-C19=1.0810       
H45-C21=1.0808       H46-C22=1.0802       H47-C23=1.0802       H48-C24=1.0798       H49-C27=1.0808       H50-C28=1.0807       
H51-C29=1.0804       H52-C30=1.0809       H53-C31=1.0795       H54-C33=1.0811       H55-C34=1.0810       H56-C35=1.0810       
H57-C36=1.0803       H58-C37=1.0794       C59-C60=1.4960       C59-H74=1.0860       C59-H75=1.0874       C59-H76=1.0905       
C60-C59=1.4960       C60-N61=1.2744       C60-C68=1.4761       N61-C60=1.2744       N61-C62=1.3893       C62-N61=1.3893       
C62-C63=1.3961       C62-C67=1.3966       C63-C62=1.3961       C63-C64=1.3814       C63-H77=1.0791       C64-C63=1.3814       
C64-C65=1.3863       C64-H78=1.0807       C65-C64=1.3863       C65-C66=1.3856       C65-H79=1.0802       C66-C65=1.3856       
C66-C67=1.3818       C66-H80=1.0803       C67-C62=1.3966       C67-C66=1.3818       C67-H81=1.0800       C68-C60=1.4761       
C68-C69=1.3958       C68-C73=1.3960       C69-C68=1.3958       C69-C70=1.3828       C69-H82=1.0791       C70-C69=1.3828       
C70-C71=1.3851       C70-H83=1.0806       C71-C70=1.3851       C71-C72=1.3852       C71-H84=1.0801       C72-C71=1.3852       
C72-C73=1.3816       C72-H85=1.0802       C73-C68=1.3960       C73-C72=1.3816       C73-H86=1.0787       H74-C59=1.0860       
H75-C59=1.0874       H76-C59=1.0905       H77-C63=1.0791       H78-C64=1.0807       H79-C65=1.0802       H80-C66=1.0803       
H81-C67=1.0800       H82-C69=1.0791       H83-C70=1.0806       H84-C71=1.0801       H85-C72=1.0802       H86-C73=1.0787       
C87-O88=1.4173       C87-H103=1.0876      C87-H104=1.0916      C87-H105=1.0935      O88-C87=1.4173       O88-C89=1.3564       
C89-O88=1.3564       C89-O90=1.2148       C89-C91=1.4590       O90-C89=1.2148       C91-C89=1.4590       C91-C92=1.3521       
C91-C102=1.5088      C92-C91=1.3521       C92-C93=1.4870       C92-N94=1.3799       C93-C92=1.4870       C93-H106=1.0864      
C93-H107=1.0892      C93-H108=1.0878      N94-C92=1.3799       N94-C95=1.3714       N94-H109=1.0104      C95-N94=1.3714       
C95-C96=1.4957       C95-C97=1.3567       C96-C95=1.4957       C96-H110=1.0878      C96-H111=1.0879      C96-H112=1.0880      
C97-C95=1.3567       C97-C98=1.4558       C97-C102=1.5146      C98-C97=1.4558       C98-O99=1.2185       C98-O100=1.3548      
O99-C98=1.2185       O100-C98=1.3548      O100-C101=1.4200     C101-O100=1.4200     C101-H113=1.0921     C101-H114=1.0928     
C101-H115=1.0876     C102-C91=1.5088      C102-C97=1.5146      C102-H116=1.0893     C102-H117=1.0994     H103-C87=1.0876      
H104-C87=1.0916      H105-C87=1.0935      H106-C93=1.0864      H107-C93=1.0892      H108-C93=1.0878      H109-N94=1.0104      
H110-C96=1.0878      H111-C96=1.0879      H112-C96=1.0880      H113-C101=1.0921     H114-C101=1.0928     H115-C101=1.0876     
H116-C102=1.0893     H117-C102=1.0994     
 C  H  Rav=1.0837 sigma=0.0050  Rmin=1.0787  Rmax=1.0994    47
 C  C  Rav=1.4081 sigma=0.0399  Rmin=1.3521  Rmax=1.5146    59
 N  H  Rav=1.0104 sigma=0.0000  Rmin=1.0104  Rmax=1.0104     1
 N  C  Rav=1.3538 sigma=0.0462  Rmin=1.2744  Rmax=1.3893     4
 O  H  Rav=1.0399 sigma=0.0000  Rmin=1.0399  Rmax=1.0399     1
 O  C  Rav=1.3439 sigma=0.0768  Rmin=1.2148  Rmax=1.4200     8
 P  O  Rav=1.5646 sigma=0.0621  Rmin=1.4666  Rmax=1.6270     4

 selected bond angles (degree)
 --------------------
O3-P2-O1=119.66                O4-P2-O1=107.28                O4-P2-O3=106.43                O17-P2-O1=117.96               
O17-P2-O3= 99.84               O17-P2-O4=104.21               H38-O3-P2=119.90               C5-O4-P2=117.11                
C6-C5-O4=119.55                C14-C5-O4=118.63               C14-C5-C6=121.82               C7-C6-C5=118.16                
C26-C6-C5=121.63               C26-C6-C7=120.20               C8-C7-C6=122.00                H39-C7-C6=119.49               
H39-C7-C8=118.52               C9-C8-C7=121.45                C13-C8-C7=119.38               C13-C8-C9=119.17               
C10-C9-C8=120.82               H40-C9-C8=118.50               H40-C9-C10=120.68              C11-C10-C9=120.01              
H41-C10-C9=120.45              H41-C10-C11=119.53             

 selected dihedral angles (degree)
 ---------------------------------
H38-O3-P2-O1= 31.83           H38-O3-P2-O4=270.21           H38-O3-P2-O17=162.10          C5-O4-P2-O1=169.13            
C5-O4-P2-O3=298.32            C5-O4-P2-O17= 43.30           C6-C5-O4-P2=107.63            C14-C5-O4-P2=287.20           
C7-C6-C5-O4=180.17            C7-C6-C5-C14=  0.62           C26-C6-C5-O4=  1.06           C26-C6-C5-C14=181.51          
C8-C7-C6-C5=  2.03            C8-C7-C6-C26=181.16           H39-C7-C6-C5=182.14           H39-C7-C6-C26=  1.26          
C9-C8-C7-C6=177.92            C9-C8-C7-H39=357.81           C13-C8-C7-C6=358.45           C13-C8-C7-H39=178.34          
C10-C9-C8-C7=181.91           C10-C9-C8-C13=  1.38          H40-C9-C8-C7=  1.42           H40-C9-C8-C13=180.89          
C11-C10-C9-C8=  0.69          C11-C10-C9-H40=181.20         H41-C10-C9-C8=179.96          H41-C10-C9-H40=  0.47         

 CMA Distance (Angstroems)
 ---------------------------
R(CMA):  6.6966
           -------------------------------------------------
          |                Final Singlepoint                |
           -------------------------------------------------

          ...................................................
          :                      SETUP                      :
          :.................................................:
          :  # basis functions                 327          :
          :  # atomic orbitals                 326          :
          :  # shells                          186          :
          :  # electrons                       340          :
          :  max. iterations                   250          :
          :  Hamiltonian                  GFN2-xTB          :
          :  restarted?                      false          :
          :  GBSA solvation                   true          :
          :  PC potential                    false          :
          :  electronic temp.          300.0000000     K    :
          :  accuracy                    0.2000000          :
          :  -> integral cutoff          0.3198970E+02      :
          :  -> integral neglect         0.2000000E-08      :
          :  -> SCF convergence          0.2000000E-06 Eh   :
          :  -> wf. convergence          0.2000000E-04 e    :
          :  Broyden damping             0.4000000          :
          :  net charge                          0          :
          :  unpaired electrons                  0          :
          ...................................................

 iter      E             dE          RMSdq      gap      omega  full diag
   1   -191.2047478 -0.191205E+03  0.206E-05    1.98       0.0  T
   2   -191.2047478 -0.349587E-11  0.164E-05    1.98     565.1  T
   3   -191.2047478 -0.348734E-10  0.639E-06    1.98    1446.5  T

   *** convergence criteria satisfied after 3 iterations ***

         #    Occupation            Energy/Eh            Energy/eV
      -------------------------------------------------------------
         1        2.0000           -0.7311316             -19.8951
       ...           ...                  ...                  ...
       164        2.0000           -0.3894325             -10.5970
       165        2.0000           -0.3891559             -10.5895
       166        2.0000           -0.3851376             -10.4801
       167        2.0000           -0.3802834             -10.3480
       168        2.0000           -0.3722201             -10.1286
       169        2.0000           -0.3706160             -10.0850
       170        2.0000           -0.3517770              -9.5723 (HOMO)
       171                         -0.2788606              -7.5882 (LUMO)
       172                         -0.2726336              -7.4187
       173                         -0.2673652              -7.2754
       174                         -0.2603419              -7.0843
       175                         -0.2433275              -6.6213
       ...                                ...                  ...
       326                          1.2850436              34.9678
      -------------------------------------------------------------
                  HL-Gap            0.0729164 Eh            1.9842 eV
             Fermi-level           -0.3153188 Eh           -8.5803 eV

 SCC (total)                   0 d,  0 h,  0 min,  0.392 sec
 SCC setup                      ...        0 min,  0.009 sec (  2.415%)
 Dispersion                     ...        0 min,  0.004 sec (  0.918%)
 classical contributions        ...        0 min,  0.001 sec (  0.346%)
 integral evaluation            ...        0 min,  0.049 sec ( 12.427%)
 iterations                     ...        0 min,  0.071 sec ( 18.079%)
 molecular gradient             ...        0 min,  0.255 sec ( 65.197%)
 printout                       ...        0 min,  0.002 sec (  0.611%)

         :::::::::::::::::::::::::::::::::::::::::::::::::::::
         ::                     SUMMARY                     ::
         :::::::::::::::::::::::::::::::::::::::::::::::::::::
         :: total energy            -188.240924007034 Eh    ::
         :: total w/o Gsasa/hb      -188.164226548723 Eh    ::
         :: gradient norm              0.000093883331 Eh/a0 ::
         :: HOMO-LUMO gap              1.984156936209 eV    ::
         ::.................................................::
         :: SCC energy              -191.195195108388 Eh    ::
         :: -> isotropic ES            0.240362258499 Eh    ::
         :: -> anisotropic ES         -0.014513253367 Eh    ::
         :: -> anisotropic XC          0.083186324794 Eh    ::
         :: -> dispersion             -0.187409378246 Eh    ::
         :: -> Gsolv                  -0.087183480287 Eh    ::
         ::    -> Gelec               -0.010486021976 Eh    ::
         ::    -> Gsasa               -0.078905601450 Eh    ::
         ::    -> Ghb                  0.000000000000 Eh    ::
         ::    -> Gshift               0.002208143139 Eh    ::
         :: repulsion energy           2.954271101354 Eh    ::
         :: add. restraining           0.000000000000 Eh    ::
         :: total charge              -0.000000000000 e     ::
         :::::::::::::::::::::::::::::::::::::::::::::::::::::

           -------------------------------------------------
          |                Property Printout                |
           -------------------------------------------------

    * Orbital Energies and Occupations

         #    Occupation            Energy/Eh            Energy/eV
      -------------------------------------------------------------
         1        2.0000           -0.7311316             -19.8951
       ...           ...                  ...                  ...
       158        2.0000           -0.4064055             -11.0589
       159        2.0000           -0.4050530             -11.0221
       160        2.0000           -0.4026855             -10.9576
       161        2.0000           -0.4014852             -10.9250
       162        2.0000           -0.3984745             -10.8430
       163        2.0000           -0.3927938             -10.6885
       164        2.0000           -0.3894325             -10.5970
       165        2.0000           -0.3891559             -10.5895
       166        2.0000           -0.3851376             -10.4801
       167        2.0000           -0.3802834             -10.3480
       168        2.0000           -0.3722201             -10.1286
       169        2.0000           -0.3706160             -10.0850
       170        2.0000           -0.3517770              -9.5723 (HOMO)
       171                         -0.2788606              -7.5882 (LUMO)
       172                         -0.2726336              -7.4187
       173                         -0.2673652              -7.2754
       174                         -0.2603419              -7.0843
       175                         -0.2433275              -6.6213
       176                         -0.2383082              -6.4847
       177                         -0.2326438              -6.3306
       178                         -0.2258835              -6.1466
       179                         -0.2249847              -6.1221
       180                         -0.2190845              -5.9616
       181                         -0.2183169              -5.9407
       ...                                ...                  ...
       326                          1.2850436              34.9678
      -------------------------------------------------------------
                  HL-Gap            0.0729164 Eh            1.9842 eV
             Fermi-level           -0.3153188 Eh           -8.5803 eV

     #   Z          covCN         q      C6AA      α(0)
     1   8 O        0.808    -0.537    24.656     6.656
     2  15 P        3.924     0.728   131.759    20.620
     3   8 O        1.594    -0.462    22.117     6.347
     4   8 O        1.661    -0.322    19.404     5.947
     5   6 C        3.158     0.142    24.634     8.115
     6   6 C        2.968    -0.008    28.218     8.713
     7   6 C        2.927    -0.049    29.216     8.864
     8   6 C        2.983     0.007    27.858     8.658
     9   6 C        2.920    -0.035    28.862     8.810
    10   6 C        2.915    -0.030    28.744     8.792
    11   6 C        2.916    -0.029    28.733     8.790
    12   6 C        2.917    -0.033    28.828     8.804
    13   6 C        2.987     0.010    27.778     8.645
    14   6 C        2.973    -0.011    28.278     8.723
    15   6 C        2.973    -0.011    28.295     8.725
    16   6 C        3.217     0.141    24.296     8.018
    17   8 O        1.660    -0.288    18.802     5.854
    18   6 C        2.969    -0.004    28.111     8.697
    19   6 C        2.927    -0.051    29.255     8.870
    20   6 C        2.983     0.007    27.847     8.656
    21   6 C        2.920    -0.035    28.870     8.811
    22   6 C        2.915    -0.030    28.754     8.793
    23   6 C        2.916    -0.030    28.757     8.794
    24   6 C        2.917    -0.034    28.845     8.807
    25   6 C        2.987     0.010    27.797     8.649
    26   6 C        2.977     0.018    27.595     8.617
    27   6 C        2.925    -0.035    28.860     8.810
    28   6 C        2.919    -0.030    28.744     8.792
    29   6 C        2.919    -0.032    28.789     8.799
    30   6 C        2.919    -0.031    28.775     8.797
    31   6 C        2.923    -0.030    28.761     8.795
    32   6 C        2.979     0.025    27.450     8.594
    33   6 C        2.925    -0.034    28.859     8.810
    34   6 C        2.919    -0.032    28.794     8.799
    35   6 C        2.920    -0.031    28.772     8.796
    36   6 C        2.919    -0.020    28.503     8.755
    37   6 C        2.924    -0.016    28.405     8.740
    38   1 H        0.902     0.361     0.555     1.165
    39   1 H        0.926     0.046     2.368     2.406
    40   1 H        0.926     0.038     2.477     2.461
    41   1 H        0.926     0.037     2.484     2.465
    42   1 H        0.926     0.036     2.503     2.474
    43   1 H        0.926     0.033     2.538     2.491
    44   1 H        0.926     0.046     2.365     2.405
    45   1 H        0.926     0.038     2.477     2.461
    46   1 H        0.926     0.037     2.486     2.465
    47   1 H        0.926     0.036     2.507     2.476
    48   1 H        0.926     0.033     2.545     2.495
    49   1 H        0.926     0.035     2.521     2.483
    50   1 H        0.926     0.033     2.544     2.494
    51   1 H        0.926     0.031     2.576     2.510
    52   1 H        0.926     0.030     2.584     2.514
    53   1 H        0.926     0.039     2.463     2.454
    54   1 H        0.926     0.030     2.583     2.513
    55   1 H        0.926     0.032     2.560     2.502
    56   1 H        0.926     0.029     2.596     2.519
    57   1 H        0.926     0.031     2.573     2.508
    58   1 H        0.926     0.035     2.518     2.481
    59   6 C        3.763    -0.130    23.045     6.843
    60   6 C        2.891     0.117    25.419     8.266
    61   7 N        1.939    -0.223    26.709     7.663
    62   6 C        2.918     0.082    26.176     8.390
    63   6 C        2.925    -0.048    29.202     8.862
    64   6 C        2.919    -0.031    28.775     8.797
    65   6 C        2.918    -0.038    28.933     8.821
    66   6 C        2.919    -0.028    28.706     8.786
    67   6 C        2.920    -0.045    29.113     8.848
    68   6 C        2.971     0.004    27.921     8.667
    69   6 C        2.924    -0.025    28.630     8.775
    70   6 C        2.918    -0.028    28.706     8.786
    71   6 C        2.919    -0.024    28.615     8.772
    72   6 C        2.918    -0.026    28.659     8.779
    73   6 C        2.924    -0.022    28.552     8.763
    74   1 H        0.925     0.073     2.057     2.243
    75   1 H        0.925     0.065     2.140     2.288
    76   1 H        0.924     0.072     2.066     2.248
    77   1 H        0.926     0.040     2.450     2.448
    78   1 H        0.926     0.033     2.542     2.493
    79   1 H        0.926     0.032     2.553     2.498
    80   1 H        0.926     0.035     2.518     2.482
    81   1 H        0.926     0.053     2.279     2.361
    82   1 H        0.926     0.039     2.468     2.457
    83   1 H        0.926     0.041     2.437     2.441
    84   1 H        0.926     0.041     2.432     2.439
    85   1 H        0.926     0.039     2.457     2.451
    86   1 H        0.926     0.038     2.477     2.461
    87   6 C        3.652     0.035    20.287     6.468
    88   8 O        1.705    -0.278    18.621     5.826
    89   6 C        2.727     0.344    21.148     7.529
    90   8 O        0.856    -0.448    22.666     6.383
    91   6 C        2.956    -0.062    29.541     8.915
    92   6 C        2.891     0.087    26.055     8.369
    93   6 C        3.759    -0.135    23.154     6.860
    94   7 N        2.712    -0.117    23.558     7.209
    95   6 C        2.887     0.079    26.236     8.398
    96   6 C        3.758    -0.125    22.957     6.831
    97   6 C        2.955    -0.070    29.745     8.945
    98   6 C        2.724     0.341    21.204     7.538
    99   8 O        0.857    -0.470    23.137     6.449
   100   8 O        1.704    -0.282    18.680     5.835
   101   6 C        3.650     0.036    20.281     6.469
   102   6 C        3.817    -0.054    21.537     6.605
   103   1 H        0.925     0.063     2.166     2.302
   104   1 H        0.924     0.065     2.141     2.288
   105   1 H        0.924     0.052     2.293     2.368
   106   1 H        0.925     0.078     1.999     2.211
   107   1 H        0.925     0.105     1.738     2.062
   108   1 H        0.925     0.052     2.291     2.367
   109   1 H        0.860     0.195     1.130     1.665
   110   1 H        0.925     0.080     1.976     2.198
   111   1 H        0.925     0.061     2.188     2.313
   112   1 H        0.925     0.076     2.024     2.225
   113   1 H        0.924     0.062     2.170     2.304
   114   1 H        0.924     0.053     2.278     2.360
   115   1 H        0.925     0.067     2.114     2.274
   116   1 H        0.925     0.069     2.099     2.266
   117   1 H        0.923     0.040     2.443     2.444

 Mol. C6AA /au·bohr⁶  :     183888.323925
 Mol. C8AA /au·bohr⁸  :    4623811.821068
 Mol. α(0) /au        :        682.404516


Wiberg/Mayer (AO) data.
largest (>0.10) Wiberg bond orders for each atom

 ---------------------------------------------------------------------------
     #   Z sym  total        # sym  WBO       # sym  WBO       # sym  WBO
 ---------------------------------------------------------------------------
     1   8 O    2.029 --     2 P    1.788
     2  15 P    5.451 --     1 O    1.788     3 O    1.313    17 O    1.129
                             4 O    1.083
     3   8 O    2.200 --     2 P    1.313    38 H    0.646
     4   8 O    2.303 --     2 P    1.083     5 C    0.974
     5   6 C    3.915 --    14 C    1.461     6 C    1.245     4 O    0.974
     6   6 C    3.986 --     7 C    1.495     5 C    1.245    26 C    1.045
     7   6 C    3.984 --     6 C    1.495     8 C    1.285    39 H    0.964
                            14 C    0.102
     8   6 C    3.988 --     7 C    1.285     9 C    1.276    13 C    1.250
     9   6 C    3.986 --    10 C    1.557     8 C    1.276    40 H    0.968
                            12 C    0.117
    10   6 C    3.988 --     9 C    1.557    11 C    1.322    41 H    0.970
    11   6 C    3.984 --    12 C    1.552    10 C    1.322    42 H    0.971
    12   6 C    3.990 --    11 C    1.552    13 C    1.286    43 H    0.966
                             9 C    0.117
    13   6 C    3.985 --    12 C    1.286     8 C    1.250    14 C    1.236
    14   6 C    3.985 --     5 C    1.461    13 C    1.236    15 C    1.030
                             7 C    0.102
    15   6 C    3.984 --    16 C    1.462    25 C    1.234    14 C    1.030
                            19 C    0.102
    16   6 C    3.908 --    15 C    1.462    18 C    1.247    17 O    0.959
    17   8 O    2.330 --     2 P    1.129    16 C    0.959
    18   6 C    3.985 --    19 C    1.497    16 C    1.247    32 C    1.040
    19   6 C    3.984 --    18 C    1.497    20 C    1.283    44 H    0.965
                            15 C    0.102
    20   6 C    3.988 --    19 C    1.283    21 C    1.277    25 C    1.251
    21   6 C    3.984 --    22 C    1.556    20 C    1.277    45 H    0.968
                            24 C    0.117
    22   6 C    3.988 --    21 C    1.556    23 C    1.322    46 H    0.970
    23   6 C    3.986 --    24 C    1.551    22 C    1.322    47 H    0.971
    24   6 C    3.990 --    23 C    1.551    25 C    1.286    48 H    0.966
                            21 C    0.117
    25   6 C    3.985 --    24 C    1.286    20 C    1.251    15 C    1.234
    26   6 C    3.988 --    31 C    1.391    27 C    1.386     6 C    1.045
                            29 C    0.105
    27   6 C    3.989 --    28 C    1.453    26 C    1.386    49 H    0.968
                            30 C    0.108
    28   6 C    3.992 --    27 C    1.453    29 C    1.431    50 H    0.970
                            31 C    0.109
    29   6 C    3.987 --    30 C    1.437    28 C    1.431    51 H    0.971
                            26 C    0.105
    30   6 C    3.992 --    31 C    1.448    29 C    1.437    52 H    0.970
                            27 C    0.108
    31   6 C    3.987 --    30 C    1.448    26 C    1.391    53 H    0.969
                            28 C    0.109
    32   6 C    3.988 --    37 C    1.393    33 C    1.389    18 C    1.040
                            35 C    0.105
    33   6 C    3.987 --    34 C    1.451    32 C    1.389    54 H    0.969
                            36 C    0.109
    34   6 C    3.992 --    33 C    1.451    35 C    1.432    55 H    0.971
                            37 C    0.109
    35   6 C    3.988 --    36 C    1.438    34 C    1.432    56 H    0.972
                            32 C    0.105
    36   6 C    3.992 --    37 C    1.447    35 C    1.438    57 H    0.971
                            33 C    0.109
    37   6 C    3.987 --    36 C    1.447    32 C    1.393    58 H    0.970
                            34 C    0.109
    38   1 H    0.869 --     3 O    0.646    61 N    0.183
    39   1 H    0.997 --     7 C    0.964
    40   1 H    0.998 --     9 C    0.968
    41   1 H    0.998 --    10 C    0.970
    42   1 H    0.998 --    11 C    0.971
    43   1 H    0.998 --    12 C    0.966
    44   1 H    0.997 --    19 C    0.965
    45   1 H    0.998 --    21 C    0.968
    46   1 H    0.998 --    22 C    0.970
    47   1 H    0.998 --    23 C    0.971
    48   1 H    0.998 --    24 C    0.966
    49   1 H    0.999 --    27 C    0.968
    50   1 H    0.998 --    28 C    0.970
    51   1 H    0.999 --    29 C    0.971
    52   1 H    0.998 --    30 C    0.970
    53   1 H    0.998 --    31 C    0.969
    54   1 H    0.999 --    33 C    0.969
    55   1 H    0.998 --    34 C    0.971
    56   1 H    0.999 --    35 C    0.972
    57   1 H    0.998 --    36 C    0.971
    58   1 H    0.999 --    37 C    0.970
    59   6 C    3.990 --    60 C    1.026    75 H    0.970    74 H    0.966
                            76 H    0.947
    60   6 C    3.958 --    61 N    1.725    68 C    1.045    59 C    1.026
    61   7 N    3.320 --    60 C    1.725    62 C    1.091    38 H    0.183
    62   6 C    3.972 --    63 C    1.356    67 C    1.354    61 N    1.091
    63   6 C    3.983 --    64 C    1.459    62 C    1.356    77 H    0.966
                            66 C    0.105
    64   6 C    3.991 --    63 C    1.459    65 C    1.427    78 H    0.970
                            67 C    0.105
    65   6 C    3.986 --    66 C    1.432    64 C    1.427    79 H    0.971
    66   6 C    3.991 --    67 C    1.454    65 C    1.432    80 H    0.970
                            63 C    0.105
    67   6 C    3.988 --    66 C    1.454    62 C    1.354    81 H    0.960
                            64 C    0.105
    68   6 C    3.988 --    69 C    1.380    73 C    1.378    60 C    1.045
                            71 C    0.103
    69   6 C    3.986 --    70 C    1.454    68 C    1.380    82 H    0.967
                            72 C    0.106
    70   6 C    3.991 --    69 C    1.454    71 C    1.432    83 H    0.969
                            73 C    0.106
    71   6 C    3.988 --    70 C    1.432    72 C    1.431    84 H    0.971
                            68 C    0.103
    72   6 C    3.991 --    73 C    1.455    71 C    1.431    85 H    0.970
                            69 C    0.106
    73   6 C    3.991 --    72 C    1.455    68 C    1.378    86 H    0.964
                            70 C    0.106
    74   1 H    0.994 --    59 C    0.966
    75   1 H    0.994 --    59 C    0.970
    76   1 H    0.992 --    59 C    0.947
    77   1 H    0.998 --    63 C    0.966
    78   1 H    0.998 --    64 C    0.970
    79   1 H    0.999 --    65 C    0.971
    80   1 H    0.998 --    66 C    0.970
    81   1 H    0.997 --    67 C    0.960
    82   1 H    0.998 --    69 C    0.967
    83   1 H    0.998 --    70 C    0.969
    84   1 H    0.998 --    71 C    0.971
    85   1 H    0.998 --    72 C    0.970
    86   1 H    0.999 --    73 C    0.964
    87   6 C    3.932 --   103 H    0.981   105 H    0.977   104 H    0.973
                            88 O    0.966
    88   8 O    2.273 --    89 C    1.085    87 C    0.966    90 O    0.152
    89   6 C    3.920 --    90 O    1.668    88 O    1.085    91 C    1.071
    90   8 O    2.006 --    89 C    1.668    88 O    0.152
    91   6 C    3.972 --    92 C    1.625    89 C    1.071   102 C    1.001
    92   6 C    3.967 --    91 C    1.625    94 N    1.139    93 C    1.039
    93   6 C    3.985 --    92 C    1.039   108 H    0.979   106 H    0.960
                           107 H    0.937
    94   7 N    3.521 --    95 C    1.170    92 C    1.139   109 H    0.924
    95   6 C    3.967 --    97 C    1.602    94 N    1.170    96 C    1.029
    96   6 C    3.990 --    95 C    1.029   111 H    0.979   112 H    0.962
                           110 H    0.962
    97   6 C    3.970 --    95 C    1.602    98 C    1.088   102 C    0.997
    98   6 C    3.923 --    99 O    1.652    97 C    1.088   100 O    1.082
    99   8 O    1.979 --    98 C    1.652   100 O    0.148
   100   8 O    2.268 --    98 C    1.082   101 C    0.963    99 O    0.148
   101   6 C    3.929 --   115 H    0.981   114 H    0.977   113 H    0.974
                           100 O    0.963
   102   6 C    3.993 --    91 C    1.001    97 C    0.997   116 H    0.956
                           117 H    0.955
   103   1 H    0.996 --    87 C    0.981
   104   1 H    0.995 --    87 C    0.973
   105   1 H    0.997 --    87 C    0.977
   106   1 H    0.994 --    93 C    0.960
   107   1 H    0.989 --    93 C    0.937
   108   1 H    0.997 --    93 C    0.979
   109   1 H    0.961 --    94 N    0.924
   110   1 H    0.993 --    96 C    0.962
   111   1 H    0.996 --    96 C    0.979
   112   1 H    0.994 --    96 C    0.962
   113   1 H    0.996 --   101 C    0.974
   114   1 H    0.996 --   101 C    0.977
   115   1 H    0.995 --   101 C    0.981
   116   1 H    0.995 --   102 C    0.956
   117   1 H    0.998 --   102 C    0.955
 ---------------------------------------------------------------------------

Topologies differ in total number of bonds
Writing topology from bond orders to xtbtopo.mol

molecular dipole:
                 x           y           z       tot (Debye)
 q only:       -0.540       0.599      -1.854
   full:       -0.770       0.891      -1.896       5.673
molecular quadrupole (traceless):
                xx          xy          yy          xz          yz          zz
 q only:       -2.456      -3.174      14.710      -5.947     -52.709     -12.254
  q+dip:       -2.118      -4.443      15.523     -11.890     -55.534     -13.405
   full:       -4.549      -3.106      17.140      -5.642     -52.670     -12.591

           -------------------------------------------------
          |                Geometry Summary                 |
           -------------------------------------------------

      molecular mass/u    :      920.9834508
   center of mass at/Å    :       -0.5238514       3.1147314      -0.2328727
  moments of inertia/u·Å² :        0.9667612E+04   0.1744886E+05   0.2195355E+05
rotational constants/cm⁻¹ :        0.1743723E-02   0.9661164E-03   0.7678771E-03

 * 112 selected distances

     #   Z          #   Z                                           value/Å
     1   8 O        2  15 P                                       1.4665782
     2  15 P        3   8 O                                       1.5568475
     2  15 P        4   8 O                                       1.6269504 (max)
     4   8 O        5   6 C                                       1.3811565
     5   6 C        6   6 C                                       1.4162201
     6   6 C        7   6 C                                       1.3751463
     7   6 C        8   6 C                                       1.4073819
     8   6 C        9   6 C                                       1.4118229
     9   6 C       10   6 C                                       1.3663588
    10   6 C       11   6 C                                       1.4034029
    11   6 C       12   6 C                                       1.3677574
     8   6 C       13   6 C                                       1.4195680
    12   6 C       13   6 C                                       1.4115240
     5   6 C       14   6 C                                       1.3777160
    13   6 C       14   6 C                                       1.4218564
    15   6 C       16   6 C                                       1.3791800
     2  15 P       17   8 O                                       1.6079313
    16   6 C       17   8 O                                       1.3879774
    16   6 C       18   6 C                                       1.4152043
    18   6 C       19   6 C                                       1.3748275
    19   6 C       20   6 C                                       1.4074666
    20   6 C       21   6 C                                       1.4116563
    21   6 C       22   6 C                                       1.3664714
    22   6 C       23   6 C                                       1.4032058
    23   6 C       24   6 C                                       1.3678086
    15   6 C       25   6 C                                       1.4225465
    20   6 C       25   6 C                                       1.4191851
    24   6 C       25   6 C                                       1.4116092
    26   6 C       27   6 C                                       1.3941507
    27   6 C       28   6 C                                       1.3820264
    28   6 C       29   6 C                                       1.3853583
    29   6 C       30   6 C                                       1.3844668
    26   6 C       31   6 C                                       1.3926610
    30   6 C       31   6 C                                       1.3834194
    32   6 C       33   6 C                                       1.3924944
    33   6 C       34   6 C                                       1.3823349
    34   6 C       35   6 C                                       1.3854967
    35   6 C       36   6 C                                       1.3843633
    32   6 C       37   6 C                                       1.3911082
    36   6 C       37   6 C                                       1.3821968
     7   6 C       39   1 H                                       1.0808823
     9   6 C       40   1 H                                       1.0808566
    10   6 C       41   1 H                                       1.0801611
    11   6 C       42   1 H                                       1.0802019
    12   6 C       43   1 H                                       1.0797177
    19   6 C       44   1 H                                       1.0809613
    21   6 C       45   1 H                                       1.0807892
    22   6 C       46   1 H                                       1.0801752
    23   6 C       47   1 H                                       1.0802470
    24   6 C       48   1 H                                       1.0797883
    27   6 C       49   1 H                                       1.0808221
    28   6 C       50   1 H                                       1.0807206
    29   6 C       51   1 H                                       1.0803514
    30   6 C       52   1 H                                       1.0808944
    31   6 C       53   1 H                                       1.0794591
    33   6 C       54   1 H                                       1.0810909
    34   6 C       55   1 H                                       1.0810114
    35   6 C       56   1 H                                       1.0810284
    36   6 C       57   1 H                                       1.0802936
    37   6 C       58   1 H                                       1.0793662
    60   6 C       61   7 N                                       1.2744223
    62   6 C       63   6 C                                       1.3960517
    63   6 C       64   6 C                                       1.3814123
    64   6 C       65   6 C                                       1.3862843
    65   6 C       66   6 C                                       1.3856235
    62   6 C       67   6 C                                       1.3966096
    66   6 C       67   6 C                                       1.3818336
    68   6 C       69   6 C                                       1.3957530
    69   6 C       70   6 C                                       1.3828042
    70   6 C       71   6 C                                       1.3851466
    71   6 C       72   6 C                                       1.3851840
    68   6 C       73   6 C                                       1.3960376
    72   6 C       73   6 C                                       1.3816038
    59   6 C       74   1 H                                       1.0860364
    59   6 C       75   1 H                                       1.0874259
    59   6 C       76   1 H                                       1.0904775
    63   6 C       77   1 H                                       1.0790627
    64   6 C       78   1 H                                       1.0807150
    65   6 C       79   1 H                                       1.0801757
    66   6 C       80   1 H                                       1.0802704
    67   6 C       81   1 H                                       1.0799523
    69   6 C       82   1 H                                       1.0791433
    70   6 C       83   1 H                                       1.0806148
    71   6 C       84   1 H                                       1.0800751
    72   6 C       85   1 H                                       1.0801859
    73   6 C       86   1 H                                       1.0786924
    87   6 C       88   8 O                                       1.4172852
    88   8 O       89   6 C                                       1.3564433
    89   6 C       90   8 O                                       1.2148185
    91   6 C       92   6 C                                       1.3521375
    92   6 C       93   6 C                                       1.4869925
    92   6 C       94   7 N                                       1.3798964
    94   7 N       95   6 C                                       1.3714346
    95   6 C       97   6 C                                       1.3566720
    98   6 C       99   8 O                                       1.2184673
    98   6 C      100   8 O                                       1.3548343
   100   8 O      101   6 C                                       1.4200120
    87   6 C      103   1 H                                       1.0876156
    87   6 C      104   1 H                                       1.0915870
    87   6 C      105   1 H                                       1.0934643
    93   6 C      106   1 H                                       1.0863550
    93   6 C      107   1 H                                       1.0892450
    93   6 C      108   1 H                                       1.0877758
    94   7 N      109   1 H                                       1.0103716 (min)
    96   6 C      110   1 H                                       1.0877512
    96   6 C      111   1 H                                       1.0879242
    96   6 C      112   1 H                                       1.0879855
   101   6 C      113   1 H                                       1.0921496
   101   6 C      114   1 H                                       1.0927989
   101   6 C      115   1 H                                       1.0876336
   102   6 C      116   1 H                                       1.0893357
Note: The following floating-point exceptions are signalling: IEEE_DIVIDE_BY_ZERO IEEE_UNDERFLOW_FLAG IEEE_DENORMAL
normal termination of xtb
   102   6 C      117   1 H                                       1.0993968

 * 6 distinct bonds (by element types)

   Z      Z             #   av. dist./Å        max./Å        min./Å
   1 H    6 C          47     1.0836737     1.0993968     1.0786924
   6 C    6 C          49     1.3928192     1.4869925     1.3521375
   1 H    7 N           1     1.0103716     1.0103716     1.0103716
   6 C    7 N           3     1.3419177     1.3798964     1.2744223
   6 C    8 O           8     1.3438743     1.4200120     1.2148185
   8 O   15 P           4     1.5645768     1.6269504     1.4665782


optimized geometry written to: xtbopt.xyz


           -------------------------------------------------
          | TOTAL ENERGY             -188.240924007034 Eh   |
          | GRADIENT NORM               0.000093883331 Eh/α |
          | HOMO-LUMO GAP               1.984156936209 eV   |
           -------------------------------------------------

------------------------------------------------------------------------
 * finished run on 2026/09/10 at 23:32:38.419     
------------------------------------------------------------------------
 total:
 * wall-time:     0 d,  0 h,  2 min, 50.072 sec
 *  cpu-time:     0 d,  0 h,  0 min, 36.766 sec
 * ratio c/w:     0.216 speedup
 SCF:
 * wall-time:     0 d,  0 h,  0 min,  0.651 sec
 *  cpu-time:     0 d,  0 h,  0 min,  0.125 sec
 * ratio c/w:     0.192 speedup
 ANC optimizer:
 * wall-time:     0 d,  0 h,  2 min, 49.318 sec
 *  cpu-time:     0 d,  0 h,  0 min, 36.625 sec
 * ratio c/w:     0.216 speedup

