19
ts
C 1.2554203308 -2.0127747439 -0.6266909584
C 1.9430476825 -1.7967718866 0.5709906162
C 1.6364450736 -0.7324979458 1.3910617151
C 0.6174670516 0.1196896415 0.9848299912
N 0.1026766160 1.2351244433 1.5771132240
C -0.9002161686 1.7348024609 0.7857130807
C -1.0552286294 0.9625307176 -0.3258823904
C -0.0891573206 -0.0868586870 -0.2249488216
C 0.2442977288 -1.1724505894 -1.0343207349
C -2.0305969498 1.1546972331 -1.4357556667
H 1.5290541588 -2.8592974739 -1.2397412111
H 2.7302317584 -2.4794238246 0.8559921855
H 2.1679142889 -0.5646596370 2.3168338404
H 0.4047362138 1.6271242122 2.4520619309
H -1.4375178960 2.6174085520 1.0776998914
H -2.6910922043 0.2906292338 -1.5170527739
H -0.2829636057 -1.3465673997 -1.9605928669
H -1.5089418118 1.2674601122 -2.3866329353
H -2.6355766170 2.0418358314 -1.2606780263
