117
Rigid ternary start; face is not product CIP; no energy
O 0.655599000000 3.393923000000 -0.334710000000
P 0.042431000000 2.215357000000 0.354700000000
O -0.789047000000 2.659123000000 1.658940000000
O -1.043943000000 1.414063000000 -0.523323000000
C -1.531553000000 0.216760000000 -0.047752000000
C -2.887076000000 0.195434000000 0.327852000000
C -3.418236000000 -1.015274000000 0.774413000000
C -2.628425000000 -2.163681000000 0.884225000000
C -3.205089000000 -3.343324000000 1.385506000000
C -2.445223000000 -4.494519000000 1.570317000000
C -1.093225000000 -4.473656000000 1.270328000000
C -0.511502000000 -3.308217000000 0.763468000000
C -1.256284000000 -2.126218000000 0.516065000000
C -0.681196000000 -0.916354000000 -0.021068000000
C 0.680439000000 -0.816246000000 -0.508852000000
C 1.547756000000 0.179982000000 0.008653000000
O 1.055539000000 1.094672000000 0.914656000000
C 2.918075000000 0.253988000000 -0.291599000000
C 3.440818000000 -0.668921000000 -1.198577000000
C 2.628567000000 -1.622748000000 -1.818385000000
C 3.194018000000 -2.491328000000 -2.767486000000
C 2.413717000000 -3.423565000000 -3.445260000000
C 1.053479000000 -3.488248000000 -3.190710000000
C 0.482245000000 -2.634425000000 -2.243129000000
C 1.246035000000 -1.697897000000 -1.500331000000
C -3.734684000000 1.398761000000 0.280744000000
C -4.250301000000 1.956830000000 1.462332000000
C -5.041294000000 3.107577000000 1.427014000000
C -5.329871000000 3.717140000000 0.208407000000
C -4.829062000000 3.177224000000 -0.973977000000
C -4.038373000000 2.026218000000 -0.937643000000
C 3.806867000000 1.247387000000 0.324036000000
C 3.899765000000 2.548967000000 -0.189683000000
C 4.750522000000 3.488887000000 0.396478000000
C 5.523388000000 3.137777000000 1.501141000000
C 5.445012000000 1.848055000000 2.022028000000
C 4.592331000000 0.909054000000 1.437019000000
H -1.314877000000 3.456368000000 1.465191000000
H -4.468895000000 -1.053301000000 1.061049000000
H -4.259921000000 -3.371101000000 1.653082000000
H -2.905305000000 -5.396096000000 1.965324000000
H -0.481835000000 -5.357420000000 1.433444000000
H 0.560016000000 -3.335897000000 0.573427000000
H 4.501991000000 -0.619011000000 -1.441868000000
H 4.256475000000 -2.438484000000 -2.998836000000
H 2.865807000000 -4.083099000000 -4.180951000000
H 0.428396000000 -4.195962000000 -3.729062000000
H -0.594700000000 -2.705335000000 -2.100110000000
H -4.025451000000 1.499372000000 2.424428000000
H -5.431692000000 3.526204000000 2.351165000000
H -5.946885000000 4.611651000000 0.179199000000
H -5.053532000000 3.650013000000 -1.926813000000
H -3.654868000000 1.618109000000 -1.871189000000
H 3.298579000000 2.843767000000 -1.048107000000
H 4.802395000000 4.496069000000 -0.008689000000
H 6.182557000000 3.870871000000 1.958251000000
H 6.043336000000 1.572984000000 2.886422000000
H 4.536194000000 -0.092260000000 1.858805000000
C -0.585037813611 5.424321868472 -0.517612295789
C -1.890824874452 5.744009938308 0.173985520071
N -2.286145726049 4.928971570544 1.107314225371
C -3.455272850309 5.177441947810 1.839216011711
C -4.570723597038 4.357516350063 1.651750680428
C -5.739877126612 4.570123189196 2.385104813589
C -5.793676033329 5.598256547385 3.325115916757
C -4.676991469920 6.405373848954 3.538286767126
C -3.509394043906 6.188429775833 2.803497961516
C -2.588143751391 6.970333805012 -0.282833543556
C -1.954066205982 8.208729472182 -0.146205781722
C -2.597852917891 9.364145563738 -0.589794911988
C -3.864667856686 9.278495874920 -1.170188432664
C -4.491306140745 8.038946348046 -1.310691687159
C -3.852436041630 6.879961568683 -0.869966801116
H -0.581789495239 4.372067313783 -0.817746443826
H -0.438601383162 6.039120834362 -1.409770375249
H 0.241048726703 5.598002461162 0.178082082407
H -4.522033202703 3.547877823331 0.929238009209
H -6.602878552832 3.929289363323 2.227247458338
H -6.701597313271 5.763560537856 3.899188334469
H -4.710868356760 7.198759011439 4.279757493289
H -2.635877070896 6.808030492436 2.982725348971
H -0.971436215259 8.280455746909 0.311988972988
H -2.115130949251 10.332168486475 -0.481181537208
H -4.366298921276 10.180475601736 -1.512803625273
H -5.478335856679 7.976226947957 -1.761913256276
H -4.340192235255 5.915865221394 -0.984202999479
C -6.617588522060 6.370978758561 -0.984239278240
O -5.804007076170 5.381877588153 -1.615785527713
C -5.205683212663 5.805894376055 -2.758201624733
O -5.310621487458 6.922697484476 -3.240825478608
C -4.385734587689 4.707655620335 -3.327607070150
C -4.170581275750 4.584018340692 -4.657367532174
C -4.802868719936 5.457345132551 -5.711398394796
N -3.335817650664 3.579130673095 -5.124770019286
C -2.631944208857 2.698816421027 -4.316649697594
C -1.776791519777 1.688677334205 -5.036808144160
C -2.778885629721 2.768887258848 -2.974571795311
C -2.066497970051 1.917368552172 -1.995035834401
O -2.592786486175 1.478596396852 -0.983245208885
O -0.759078803210 1.785049241676 -2.330518985598
C 0.005358224505 1.025000812478 -1.394482117945
C -3.736462663900 3.756933732237 -2.342986728768
H -7.053582985931 5.927065771777 -0.085028283993
H -6.011621335627 7.232381639215 -0.686329917063
H -7.431606782050 6.679296199221 -1.647819667134
H -5.789595398047 5.824842901699 -5.415466926253
H -4.153677990720 6.309158717594 -5.936868860937
H -4.956572840817 4.893735700091 -6.638884905253
H -3.169934648960 3.534613681410 -6.126741025860
H -1.614900382418 0.778577554958 -4.452119172639
H -2.261130822031 1.370254801186 -5.967118061723
H -0.806641360545 2.126781496338 -5.291486519393
H -0.392147267716 0.008757507445 -1.308909200204
H 1.032093348601 0.964366602524 -1.765780571433
H 0.018453959647 1.520569869964 -0.418692745851
H -3.188853967021 4.346507817697 -1.596190200681
H -4.520350095137 3.193488961214 -1.821125587998
