117
Rigid ternary start; face is not product CIP; no energy
O 0.655599000000 3.393923000000 -0.334710000000
P 0.042431000000 2.215357000000 0.354700000000
O -0.789047000000 2.659123000000 1.658940000000
O -1.043943000000 1.414063000000 -0.523323000000
C -1.531553000000 0.216760000000 -0.047752000000
C -2.887076000000 0.195434000000 0.327852000000
C -3.418236000000 -1.015274000000 0.774413000000
C -2.628425000000 -2.163681000000 0.884225000000
C -3.205089000000 -3.343324000000 1.385506000000
C -2.445223000000 -4.494519000000 1.570317000000
C -1.093225000000 -4.473656000000 1.270328000000
C -0.511502000000 -3.308217000000 0.763468000000
C -1.256284000000 -2.126218000000 0.516065000000
C -0.681196000000 -0.916354000000 -0.021068000000
C 0.680439000000 -0.816246000000 -0.508852000000
C 1.547756000000 0.179982000000 0.008653000000
O 1.055539000000 1.094672000000 0.914656000000
C 2.918075000000 0.253988000000 -0.291599000000
C 3.440818000000 -0.668921000000 -1.198577000000
C 2.628567000000 -1.622748000000 -1.818385000000
C 3.194018000000 -2.491328000000 -2.767486000000
C 2.413717000000 -3.423565000000 -3.445260000000
C 1.053479000000 -3.488248000000 -3.190710000000
C 0.482245000000 -2.634425000000 -2.243129000000
C 1.246035000000 -1.697897000000 -1.500331000000
C -3.734684000000 1.398761000000 0.280744000000
C -4.250301000000 1.956830000000 1.462332000000
C -5.041294000000 3.107577000000 1.427014000000
C -5.329871000000 3.717140000000 0.208407000000
C -4.829062000000 3.177224000000 -0.973977000000
C -4.038373000000 2.026218000000 -0.937643000000
C 3.806867000000 1.247387000000 0.324036000000
C 3.899765000000 2.548967000000 -0.189683000000
C 4.750522000000 3.488887000000 0.396478000000
C 5.523388000000 3.137777000000 1.501141000000
C 5.445012000000 1.848055000000 2.022028000000
C 4.592331000000 0.909054000000 1.437019000000
H -1.314877000000 3.456368000000 1.465191000000
H -4.468895000000 -1.053301000000 1.061049000000
H -4.259921000000 -3.371101000000 1.653082000000
H -2.905305000000 -5.396096000000 1.965324000000
H -0.481835000000 -5.357420000000 1.433444000000
H 0.560016000000 -3.335897000000 0.573427000000
H 4.501991000000 -0.619011000000 -1.441868000000
H 4.256475000000 -2.438484000000 -2.998836000000
H 2.865807000000 -4.083099000000 -4.180951000000
H 0.428396000000 -4.195962000000 -3.729062000000
H -0.594700000000 -2.705335000000 -2.100110000000
H -4.025451000000 1.499372000000 2.424428000000
H -5.431692000000 3.526204000000 2.351165000000
H -5.946885000000 4.611651000000 0.179199000000
H -5.053532000000 3.650013000000 -1.926813000000
H -3.654868000000 1.618109000000 -1.871189000000
H 3.298579000000 2.843767000000 -1.048107000000
H 4.802395000000 4.496069000000 -0.008689000000
H 6.182557000000 3.870871000000 1.958251000000
H 6.043336000000 1.572984000000 2.886422000000
H 4.536194000000 -0.092260000000 1.858805000000
C -2.953011107252 4.818067444429 3.414372327099
C -2.971194885371 5.489815593599 2.060115474261
N -2.286145726049 4.928971570544 1.107314225371
C -2.291103579803 5.451352961496 -0.193212240327
C -1.135054194969 6.052833201419 -0.696623548763
C -1.107198919362 6.560668112244 -1.997107195470
C -2.235309398238 6.454404952968 -2.809294542759
C -3.385301768593 5.832388933082 -2.325065069033
C -3.408351238335 5.324842880042 -1.024246559427
C -3.782847871130 6.726404778793 1.955836440676
C -5.159251512681 6.662992166289 2.192135326540
C -5.925483624258 7.826068482182 2.112380538951
C -5.316375983250 9.043632718871 1.803288629653
C -3.940498414108 9.103436804180 1.574631420588
C -3.168786930950 7.944197407345 1.653780363132
H -1.919967549947 4.584855784461 3.689625004867
H -3.381487726750 5.458909402853 4.189676658466
H -3.525240271262 3.887346996941 3.360633879975
H -0.252429698494 6.121766999190 -0.067233377018
H -0.204132941994 7.030891510562 -2.376211659756
H -2.214819883518 6.846223870565 -3.822834732496
H -4.261661888721 5.735632247433 -2.959901725900
H -4.299672493955 4.826620106879 -0.654950074003
H -5.638272926982 5.716003091109 2.425371186838
H -6.997593377502 7.784818883707 2.287779771439
H -5.915609689091 9.948802593881 1.738691525113
H -3.469828444899 10.053063860624 1.332886676125
H -2.097503042879 7.993820768674 1.479636361054
C -0.910456593523 5.555037992253 6.512752097271
O -0.400525155811 6.329400386794 5.426741337483
C 0.567863362567 5.704438738785 4.709424924185
O 0.993921852676 4.580121989450 4.922903304812
C 1.022320932931 6.590749480685 3.609157566237
C 2.284940035745 6.549462645462 3.125496104712
C 3.391723420913 5.697881467088 3.694098067222
N 2.631112812817 7.351402291397 2.047464643249
C 1.750368779477 8.174449122171 1.361656127047
C 2.339635630244 8.954063882473 0.214807972917
C 0.464975432212 8.258062157372 1.772079813530
C -0.586713441413 9.067749622526 1.116009919346
O -1.441325454493 9.682701711436 1.736246254797
O -0.518395527484 8.946928907009 -0.233114700482
C -1.543712180474 9.654007335812 -0.930945953935
C -0.015481223956 7.508827776890 2.996783267795
H -1.673233849214 6.149209559444 7.023497955284
H -1.377083279511 4.636737690824 6.142690975795
H -0.114120891278 5.325480064957 7.227718468285
H 3.282365393368 5.530506487891 4.769405474361
H 3.428187414204 4.731924473396 3.180805381519
H 4.363118972746 6.188349725217 3.562403929687
H 3.578807262178 7.271929156261 1.688293260396
H 1.789819578013 9.875733738283 0.003671695691
H 3.366714018066 9.258974475957 0.446310731450
H 2.363792036600 8.337604133952 -0.689283565388
H -1.485110761212 10.725893069692 -0.717145479691
H -1.387293910715 9.506388109750 -2.003077453806
H -2.529465919849 9.258429033848 -0.666876909872
H -0.892454222519 6.909778149171 2.718869891315
H -0.331263328600 8.242564629285 3.749246196394
