
    -----------------------------------------------------------------------
          Psi4: An Open-Source Ab Initio Electronic Structure Package
                               Psi4 1.11 release

                         Git: Rev {} zzzzzzz 


    D. G. A. Smith, L. A. Burns, A. C. Simmonett, R. M. Parrish,
    M. C. Schieber, R. Galvelis, P. Kraus, H. Kruse, R. Di Remigio,
    A. Alenaizan, A. M. James, S. Lehtola, J. P. Misiewicz, M. Scheurer,
    R. A. Shaw, J. B. Schriber, Y. Xie, Z. L. Glick, D. A. Sirianni,
    J. S. O'Brien, J. M. Waldrop, A. Kumar, E. G. Hohenstein,
    B. P. Pritchard, B. R. Brooks, H. F. Schaefer III, A. Yu. Sokolov,
    K. Patkowski, A. E. DePrince III, U. Bozkaya, R. A. King,
    F. A. Evangelista, J. M. Turney, T. D. Crawford, C. D. Sherrill,
    J. Chem. Phys. 152(18) 184108 (2020). https://doi.org/10.1063/5.0006002

                            Additional Code Authors
    E. T. Seidl, C. L. Janssen, E. F. Valeev, M. L. Leininger,
    J. F. Gonthier, R. M. Richard, H. R. McAlexander, M. Saitow, X. Wang,
    P. Verma, M. H. Lechner, A. Jiang, S. Behnle, A. G. Heide,
    M. F. Herbst, D. L. Poole, T. Győri, E. C. Mitchell, J. P. Pederson,
    and A. M. Wallace

             Previous Authors, Complete List of Code Contributors,
                       and Citations for Specific Modules
    https://github.com/psi4/psi4/blob/master/codemeta.json
    https://github.com/psi4/psi4/graphs/contributors
    https://psicode.org/psi4manual/master/introduction.html#citing-psifour

    -----------------------------------------------------------------------


    Psi4 started on: Sunday, 06 September 2026 06:26AM

    Process ID: 37776
    Host:       LAPTOP-257FNSVV
    PSIDATADIR: C:\Users\HUIWEI\miniconda3\envs\phase7\Library\share\psi4
    Memory:     1.9 GiB
    Threads:    8
    Addons:     ~adcc~, ~ambit~, ~bse~, ~cct3~, ~cfour~, ~chemps2~, ~cppe~, ~ddx~, ~dftd3~, ~dftd4~, dkh,
                ecpint, ~einsums~, ~forte~, ~gauxc~, ~gcp~, ~gdma~, ~geometric~, ~gpu_dfcc~,
                ~integratorxx~, ~ipi~, ~libefp~, ~mdi~, ~mp2d~, ~mrcc~, ~ooo~,
                ~openfermionpsi4~, pcmsolver, ~psi4fockci~, ~psixas~, ~pyeinsums~, ~resp~,
                ~simint~, ~snsmp2~, ~v2rdm_casscf~

Scratch directory: C:\Users\HUIWEI\.zcode\workspace\default\results_phase13\_scratch_a1_ferryl_m1/
   => Libint2 <=

    Primary   basis highest AM E, G, H:  7, 6, -
    Auxiliary basis highest AM E, G, H:  7, 7, -
    Onebody   basis highest AM E, G, H:  -, -, -
    Solid Harmonics ordering:            Gaussian

*** tstart() called on LAPTOP-257FNSVV
*** at Sun Sep  6 06:26:36 2026

   => Loading Basis Set <=

    Name: DEF2-SVP
    Role: ORBITAL
    Keyword: BASIS
    atoms 1        entry FE         line   698 file C:\Users\HUIWEI\miniconda3\envs\phase7\Library\share\psi4\basis\def2-svp.gbs 
    atoms 2        entry O          line   130 file C:\Users\HUIWEI\miniconda3\envs\phase7\Library\share\psi4\basis\def2-svp.gbs 
    atoms 3-6      entry N          line   110 file C:\Users\HUIWEI\miniconda3\envs\phase7\Library\share\psi4\basis\def2-svp.gbs 
    atoms 7-10, 12 entry H          line    15 file C:\Users\HUIWEI\miniconda3\envs\phase7\Library\share\psi4\basis\def2-svp.gbs 
    atoms 11       entry S          line   328 file C:\Users\HUIWEI\miniconda3\envs\phase7\Library\share\psi4\basis\def2-svp.gbs 


         ---------------------------------------------------------
                                   SCF
               by Justin Turney, Rob Parrish, Andy Simmonett
                          and Daniel G. A. Smith
                              UKS Reference
                        8 Threads,   1907 MiB Core
         ---------------------------------------------------------

  ==> Geometry <==

    Molecular point group: c1
    Full point group: C1

    Geometry (in Angstrom), charge = 1, multiplicity = 1:

       Center              X                  Y                   Z               Mass       
    ------------   -----------------  -----------------  -----------------  -----------------
         FE          -0.002566098419    -0.001710732280     0.305789479195    55.934936330000
         O           -0.002566098419    -0.001710732280     1.930789479195    15.994914619570
         N            1.997433901581    -0.001710732280     0.305789479195    14.003074004430
         N           -2.002566098419    -0.001710732280     0.305789479195    14.003074004430
         N           -0.002566098419     1.998289267720     0.305789479195    14.003074004430
         N           -0.002566098419    -2.001710732280     0.305789479195    14.003074004430
         H            2.817433901581     0.648289267720     0.655789479195     1.007825032230
         H           -2.822566098419    -0.651710732280     0.655789479195     1.007825032230
         H            0.647433901581     2.818289267720     0.655789479195     1.007825032230
         H           -0.652566098419    -2.821710732280     0.655789479195     1.007825032230
         S           -0.002566098419    -0.001710732280    -2.014210520805    31.972071174400
         H            0.417433901581     0.278289267720    -3.334210520805     1.007825032230

  Running in c1 symmetry.

  Rotational constants: A =      0.06533  B =      0.05043  C =      0.04826 [cm^-1]
  Rotational constants: A =   1958.61595  B =   1511.71719  C =   1446.88584 [MHz]
  Nuclear repulsion =  618.526502314043341

  Charge       = 1
  Multiplicity = 1
  Electrons    = 82
  Nalpha       = 41
  Nbeta        = 41

  ==> Algorithm <==

  SCF Algorithm Type is DF.
  DIIS enabled.
  MOM disabled.
  Fractional occupation disabled.
  Guess Type is SAD.
  Energy threshold   = 1.00e-08
  Density threshold  = 1.00e-04
  Integral threshold = 1.00e-12

  ==> Primary Basis <==

  Basis Set: DEF2-SVP
    Blend: DEF2-SVP
    Number of shells: 64
    Number of basis functions: 144
    Number of Cartesian functions: 155
    Spherical Harmonics?: true
    Max angular momentum: 3

  ==> DFT Potential <==

   => LibXC <=

    Version 7.1.2
    S. Lehtola, C. Steigemann, M. J. T. Oliveira, and M. A. L. Marques,  SoftwareX 7, 1–5 (2018) (10.1016/j.softx.2017.11.002)

   => Composite Functional: BP86 <= 

    BP86 GGA Exchange-Correlation Functional

    A. D. Becke, Phys. Rev. A, 38, 3098-3100, 1988
    J. P. Perdew, Phys. Rev. B, 33, 8822, 1986


    Deriv               =              1
    GGA                 =           TRUE
    Meta                =          FALSE

    Exchange Hybrid     =          FALSE
    MP2 Hybrid          =          FALSE

   => Exchange Functionals <=

    1.0000     XC_GGA_X_B88

   => Correlation Functionals <=

    1.0000     XC_GGA_C_P86

   => LibXC Density Thresholds  <==

    XC_GGA_C_P86:  1.00E-15 
    XC_GGA_X_B88:  1.00E-15 

   => Molecular Quadrature <=

    Radial Scheme          =       TREUTLER
    Pruning Scheme         =           NONE
    Nuclear Scheme         =       TREUTLER

    Blocking Scheme        =         OCTREE
    BS radius alpha        =              1
    Pruning alpha          =              1
    Radial Points          =             75
    Spherical Points       =            302
    Total Points           =         258308
    Total Blocks           =           2003
    Max Points             =            256
    Max Functions          =            138
    Weights Tolerance      =       1.00E-15

   => Loading Basis Set <=

    Name: (DEF2-SVP AUX)
    Role: JKFIT
    Keyword: DF_BASIS_SCF
    atoms 1        entry FE         line  1978 file C:\Users\HUIWEI\miniconda3\envs\phase7\Library\share\psi4\basis\def2-universal-jkfit.gbs 
    atoms 2        entry O          line   318 file C:\Users\HUIWEI\miniconda3\envs\phase7\Library\share\psi4\basis\def2-universal-jkfit.gbs 
    atoms 3-6      entry N          line   258 file C:\Users\HUIWEI\miniconda3\envs\phase7\Library\share\psi4\basis\def2-universal-jkfit.gbs 
    atoms 7-10, 12 entry H          line    18 file C:\Users\HUIWEI\miniconda3\envs\phase7\Library\share\psi4\basis\def2-universal-jkfit.gbs 
    atoms 11       entry S          line   903 file C:\Users\HUIWEI\miniconda3\envs\phase7\Library\share\psi4\basis\def2-universal-jkfit.gbs 

  ==> Integral Setup <==

  DFHelper Memory: AOs need 0.140 GiB; user supplied 0.725 GiB. 
  SCF_SUBTYPE=INCORE selected. In-core MEM_DF algorithm will be used.
  Using in-core AOs.

  ==> MemDFJK: Density-Fitted J/K Matrices <==

    J tasked:                   Yes
    K tasked:                    No
    wK tasked:                   No
    OpenMP threads:               8
    Memory [MiB]:               742
    Algorithm:                 Core
    Schwarz Cutoff:           1E-12
    Mask sparsity (%):       5.1505
    Fitting Condition:        1E-10

   => Auxiliary Basis Set <=

  Basis Set: (DEF2-SVP AUX)
    Blend: DEF2-UNIVERSAL-JKFIT
    Number of shells: 251
    Number of basis functions: 867
    Number of Cartesian functions: 1097
    Spherical Harmonics?: true
    Max angular momentum: 6

  Cached 100.0% of DFT collocation blocks in 0.672 [GiB].

  Minimum eigenvalue in the overlap matrix is 6.4694339569E-03.
  Reciprocal condition number of the overlap matrix is 1.4582406413E-03.
    Using symmetric orthogonalization.

  ==> Pre-Iterations <==

  SCF Guess: Superposition of Atomic Densities via on-the-fly atomic UHF (no occupation information).

   -------------------------
    Irrep   Nso     Nmo    
   -------------------------
     A        144     144 
   -------------------------
    Total     144     144
   -------------------------

  ==> Iterations <==

                           Total Energy        Delta E     RMS |[F,P]|

   @DF-UKS iter SAD: -1956.74605456940799   -1.95675e+03   0.00000e+00 
   @DF-UKS iter   1: -1947.24119776361022    9.50486e+00   3.02286e-02 DIIS/SHIFT
   @DF-UKS iter   2: -1807.77590305272042    1.39465e+02   7.30994e-02 DIIS/SHIFT/DAMP=40%
   @DF-UKS iter   3: -1880.75789943675545   -7.29820e+01   2.63481e-02 DIIS/SHIFT/DAMP=40%
   @DF-UKS iter   4: -1884.15142892647623   -3.39353e+00   2.71133e-02 DIIS/SHIFT/DAMP=40%
   @DF-UKS iter   5: -1961.97450912463660   -7.78231e+01   2.27845e-02 DIIS/SHIFT/DAMP=40%
   @DF-UKS iter   6: -1954.12682866249952    7.84768e+00   2.48744e-02 DIIS/SHIFT/DAMP=40%
   @DF-UKS iter   7: -1950.64364719298669    3.48318e+00   2.52343e-02 DIIS/SHIFT/DAMP=40%
   @DF-UKS iter   8: -1947.44330974303557    3.20034e+00   1.98201e-02 DIIS/SHIFT/DAMP=40%
   @DF-UKS iter   9: -1956.60279959437821   -9.15949e+00   2.64517e-02 DIIS/SHIFT/DAMP=40%
   @DF-UKS iter  10: -1952.92685876393671    3.67594e+00   2.69886e-02 DIIS/SHIFT/DAMP=40%
   @DF-UKS iter  11: -1950.10711499352419    2.81974e+00   2.71282e-02 DIIS/SHIFT/DAMP=40%
   @DF-UKS iter  12: -1948.23508620273765    1.87203e+00   2.48385e-02 DIIS/SHIFT/DAMP=40%
   @DF-UKS iter  13: -1948.63072595760218   -3.95640e-01   2.59297e-02 DIIS/SHIFT/DAMP=40%
   @DF-UKS iter  14: -1948.36904186835682    2.61684e-01   2.40846e-02 DIIS/SHIFT/DAMP=40%
   @DF-UKS iter  15: -1912.31337953243496    3.60557e+01   3.14363e-02 DIIS/SHIFT/DAMP=40%
   @DF-UKS iter  16: -1945.79658937460840   -3.34832e+01   2.21513e-02 DIIS/SHIFT/DAMP=40%
   @DF-UKS iter  17: -1943.64069360536087    2.15590e+00   2.81475e-02 DIIS/SHIFT/DAMP=40%
   @DF-UKS iter  18: -1948.37902439862933   -4.73833e+00   2.54766e-02 DIIS/SHIFT/DAMP=40%
   @DF-UKS iter  19: -1949.18032989976587   -8.01306e-01   2.63333e-02 DIIS/SHIFT/DAMP=40%
   @DF-UKS iter  20: -1943.95624910845459    5.22408e+00   3.07287e-02 DIIS/SHIFT/DAMP=40%
   @DF-UKS iter  21: -1944.84019586777572   -8.83947e-01   3.10296e-02 DIIS/SHIFT/DAMP=40%
   @DF-UKS iter  22: -1945.53513456901828   -6.94939e-01   3.09938e-02 DIIS/SHIFT/DAMP=40%
   @DF-UKS iter  23: -1945.99662139931706   -4.61487e-01   3.08462e-02 DIIS/SHIFT/DAMP=40%
   @DF-UKS iter  24: -1946.27105891314955   -2.74438e-01   3.07014e-02 DIIS/SHIFT/DAMP=40%
   @DF-UKS iter  25: -1946.43184717660847   -1.60788e-01   3.05862e-02 DIIS/SHIFT/DAMP=40%
   @DF-UKS iter  26: -1946.53100716802987   -9.91600e-02   3.04991e-02 DIIS/SHIFT/DAMP=40%
   @DF-UKS iter  27: -1946.59726016017430   -6.62530e-02   3.04331e-02 DIIS/SHIFT/DAMP=40%
   @DF-UKS iter  28: -1946.64496439386744   -4.77042e-02   3.03821e-02 DIIS/SHIFT/DAMP=40%
   @DF-UKS iter  29: -1946.68118797049669   -3.62236e-02   3.03422e-02 DIIS/SHIFT/DAMP=40%
   @DF-UKS iter  30: -1946.70958932353005   -2.84014e-02   3.03106e-02 DIIS/SHIFT/DAMP=40%
   @DF-UKS iter  31: -1946.73225920371874   -2.26699e-02   3.02853e-02 DIIS/SHIFT/DAMP=40%
   @DF-UKS iter  32: -1946.75053427211674   -1.82751e-02   3.02650e-02 DIIS/SHIFT/DAMP=40%
   @DF-UKS iter  33: -1946.76535181289546   -1.48175e-02   3.02488e-02 DIIS/SHIFT/DAMP=40%
   @DF-UKS iter  34: -1946.77741010828277   -1.20583e-02   3.02357e-02 DIIS/SHIFT/DAMP=40%
   @DF-UKS iter  35: -1946.78724956220117   -9.83945e-03   3.02251e-02 DIIS/SHIFT/DAMP=40%
   @DF-UKS iter  36: -1946.79529579521204   -8.04623e-03   3.02167e-02 DIIS/SHIFT/DAMP=40%
   @DF-UKS iter  37: -1946.80188910196648   -6.59331e-03   3.02099e-02 DIIS/SHIFT/DAMP=40%
   @DF-UKS iter  38: -1946.80730301411677   -5.41391e-03   3.02044e-02 DIIS/SHIFT/DAMP=40%
   @DF-UKS iter  39: -1946.81175840401784   -4.45539e-03   3.01999e-02 DIIS/SHIFT/DAMP=40%
   @DF-UKS iter  40: -1946.81543446538626   -3.67606e-03   3.01963e-02 DIIS/SHIFT/DAMP=40%
   @DF-UKS iter  41: -1946.81847622678220   -3.04176e-03   3.01934e-02 DIIS/SHIFT/DAMP=40%
   @DF-UKS iter  42: -1946.82100154652130   -2.52532e-03   3.01910e-02 DIIS/SHIFT/DAMP=40%
   @DF-UKS iter  43: -1946.82310606997203   -2.10452e-03   3.01891e-02 DIIS/SHIFT/DAMP=40%
   @DF-UKS iter  44: -1946.82486730628511   -1.76124e-03   3.01875e-02 DIIS/SHIFT/DAMP=40%
   @DF-UKS iter  45: -1946.82634826542153   -1.48096e-03   3.01861e-02 DIIS/SHIFT/DAMP=40%
   @DF-UKS iter  46: -1946.82759959293412   -1.25133e-03   3.01850e-02 DIIS/SHIFT/DAMP=40%
   @DF-UKS iter  47: -1946.82866240575936   -1.06281e-03   3.01841e-02 DIIS/SHIFT/DAMP=40%
   @DF-UKS iter  48: -1946.82957004463015   -9.07639e-04   3.01833e-02 DIIS/SHIFT/DAMP=40%
   @DF-UKS iter  49: -1946.83034944558881   -7.79401e-04   3.01826e-02 DIIS/SHIFT/DAMP=40%
   @DF-UKS iter  50: -1946.83102238976767   -6.72944e-04   3.01821e-02 DIIS/SHIFT/DAMP=40%
   @DF-UKS iter  51: -1946.83160653735399   -5.84148e-04   3.01816e-02 DIIS/SHIFT/DAMP=40%
   @DF-UKS iter  52: -1946.83211616560880   -5.09628e-04   3.01811e-02 DIIS/SHIFT/DAMP=40%
   @DF-UKS iter  53: -1946.83256294974672   -4.46784e-04   3.01808e-02 DIIS/SHIFT/DAMP=40%
   @DF-UKS iter  54: -1946.83295636171874   -3.93412e-04   3.01804e-02 DIIS/SHIFT/DAMP=40%
   @DF-UKS iter  55: -1946.83330425571967   -3.47894e-04   3.01801e-02 DIIS/SHIFT/DAMP=40%
   @DF-UKS iter  56: -1946.83361307043606   -3.08815e-04   3.01799e-02 DIIS/SHIFT/DAMP=40%
   @DF-UKS iter  57: -1946.83388803795106   -2.74968e-04   3.01797e-02 DIIS/SHIFT/DAMP=40%
   @DF-UKS iter  58: -1946.83413363631257   -2.45598e-04   3.01795e-02 DIIS/SHIFT/DAMP=40%
   @DF-UKS iter  59: -1946.83435353368145   -2.19897e-04   3.01793e-02 DIIS/SHIFT/DAMP=40%
   @DF-UKS iter  60: -1946.83455085232595   -1.97319e-04   3.01791e-02 DIIS/SHIFT/DAMP=40%
   @DF-UKS iter  61: -1946.83472828484855   -1.77433e-04   3.01790e-02 DIIS/SHIFT/DAMP=40%
   @DF-UKS iter  62: -1946.83488811402503   -1.59829e-04   3.01788e-02 DIIS/SHIFT/DAMP=40%
   @DF-UKS iter  63: -1946.83503222195441   -1.44108e-04   3.01787e-02 DIIS/SHIFT/DAMP=40%
   @DF-UKS iter  64: -1946.83516233558703   -1.30114e-04   3.01786e-02 DIIS/SHIFT/DAMP=40%
   @DF-UKS iter  65: -1946.83527992470385   -1.17589e-04   3.01785e-02 DIIS/SHIFT/DAMP=40%
   @DF-UKS iter  66: -1946.83538628141991   -1.06357e-04   3.01784e-02 DIIS/SHIFT/DAMP=40%
   @DF-UKS iter  67: -1946.83548254250513   -9.62611e-05   3.01783e-02 DIIS/SHIFT/DAMP=40%
   @DF-UKS iter  68: -1946.83556971351663   -8.71710e-05   3.01782e-02 DIIS/SHIFT/DAMP=40%
   @DF-UKS iter  69: -1946.83564868823487   -7.89747e-05   3.01782e-02 DIIS/SHIFT/DAMP=40%
   @DF-UKS iter  70: -1946.83572026314846   -7.15749e-05   3.01781e-02 DIIS/SHIFT/DAMP=40%
   @DF-UKS iter  71: -1946.83578515069848   -6.48876e-05   3.01781e-02 DIIS/SHIFT/DAMP=40%
   @DF-UKS iter  72: -1946.83584398968878   -5.88390e-05   3.01780e-02 DIIS/SHIFT/DAMP=40%
   @DF-UKS iter  73: -1946.83589735416399   -5.33645e-05   3.01780e-02 DIIS/SHIFT/DAMP=40%
   @DF-UKS iter  74: -1946.83594576093742   -4.84068e-05   3.01779e-02 DIIS/SHIFT/DAMP=40%
   @DF-UKS iter  75: -1946.83598967600892   -4.39151e-05   3.01779e-02 DIIS/SHIFT/DAMP=40%
   @DF-UKS iter  76: -1946.83602949806436   -3.98221e-05   3.01778e-02 DIIS/SHIFT/DAMP=40%
   @DF-UKS iter  77: -1946.83606565069044   -3.61526e-05   3.01778e-02 DIIS/SHIFT/DAMP=40%
   @DF-UKS iter  78: -1946.83609845775527   -3.28071e-05   3.01778e-02 DIIS/SHIFT/DAMP=40%
   @DF-UKS iter  79: -1946.83612822937403   -2.97716e-05   3.01778e-02 DIIS/SHIFT/DAMP=40%
   @DF-UKS iter  80: -1946.83615524741958   -2.70180e-05   3.01777e-02 DIIS/SHIFT/DAMP=40%
   @DF-UKS iter  81: -1946.83617976736764   -2.45199e-05   3.01777e-02 DIIS/SHIFT/DAMP=40%
   @DF-UKS iter  82: -1946.83620202078146   -2.22534e-05   3.01777e-02 DIIS/SHIFT/DAMP=40%
   @DF-UKS iter  83: -1946.83622221760902   -2.01968e-05   3.01777e-02 DIIS/SHIFT/DAMP=40%
   @DF-UKS iter  84: -1946.83624054823918   -1.83306e-05   3.01777e-02 DIIS/SHIFT/DAMP=40%
   @DF-UKS iter  85: -1946.83625718535541   -1.66371e-05   3.01777e-02 DIIS/SHIFT/DAMP=40%
   @DF-UKS iter  86: -1946.83627228561522   -1.51003e-05   3.01776e-02 DIIS/SHIFT/DAMP=40%
   @DF-UKS iter  87: -1946.83628599113581   -1.37055e-05   3.01776e-02 DIIS/SHIFT/DAMP=40%
   @DF-UKS iter  88: -1946.83629843087033   -1.24397e-05   3.01776e-02 DIIS/SHIFT/DAMP=40%
   @DF-UKS iter  89: -1946.83630972181618   -1.12909e-05   3.01776e-02 DIIS/SHIFT/DAMP=40%
   @DF-UKS iter  90: -1946.83631997015186   -1.02483e-05   3.01776e-02 DIIS/SHIFT/DAMP=40%
   @DF-UKS iter  91: -1946.83632927221902   -9.30207e-06   3.01776e-02 DIIS/SHIFT/DAMP=40%
   @DF-UKS iter  92: -1946.83633771545237   -8.44323e-06   3.01776e-02 DIIS/SHIFT/DAMP=40%
   @DF-UKS iter  93: -1946.83634537919238   -7.66374e-06   3.01776e-02 DIIS/SHIFT/DAMP=40%
   @DF-UKS iter  94: -1946.83635233545237   -6.95626e-06   3.01776e-02 DIIS/SHIFT/DAMP=40%
   @DF-UKS iter  95: -1946.83635864957728   -6.31412e-06   3.01776e-02 DIIS/SHIFT/DAMP=40%
   @DF-UKS iter  96: -1946.83636438087751   -5.73130e-06   3.01776e-02 DIIS/SHIFT/DAMP=40%
   @DF-UKS iter  97: -1946.83636958317834   -5.20230e-06   3.01776e-02 DIIS/SHIFT/DAMP=40%
   @DF-UKS iter  98: -1946.83637430533145   -4.72215e-06   3.01776e-02 DIIS/SHIFT/DAMP=40%
   @DF-UKS iter  99: -1946.83637859167038   -4.28634e-06   3.01776e-02 DIIS/SHIFT/DAMP=40%
   @DF-UKS iter 100: -1946.83638248243801   -3.89077e-06   3.01775e-02 DIIS/SHIFT/DAMP=40%
   @DF-UKS iter 101: -1946.83638601415601   -3.53172e-06   3.01775e-02 DIIS/SHIFT/DAMP=40%
   @DF-UKS iter 102: -1946.83638921996999   -3.20581e-06   3.01775e-02 DIIS/SHIFT/DAMP=40%
   @DF-UKS iter 103: -1946.83639212996877   -2.91000e-06   3.01775e-02 DIIS/SHIFT/DAMP=40%
   @DF-UKS iter 104: -1946.83639477145698   -2.64149e-06   3.01775e-02 DIIS/SHIFT/DAMP=40%
   @DF-UKS iter 105: -1946.83639716921948   -2.39776e-06   3.01775e-02 DIIS/SHIFT/DAMP=40%
   @DF-UKS iter 106: -1946.83639934575194   -2.17653e-06   3.01775e-02 DIIS/SHIFT/DAMP=40%
   @DF-UKS iter 107: -1946.83640132147070   -1.97572e-06   3.01775e-02 DIIS/SHIFT/DAMP=40%
   @DF-UKS iter 108: -1946.83640311491058   -1.79344e-06   3.01775e-02 DIIS/SHIFT/DAMP=40%
   @DF-UKS iter 109: -1946.83640474289359   -1.62798e-06   3.01775e-02 DIIS/SHIFT/DAMP=40%
   @DF-UKS iter 110: -1946.83640622068651   -1.47779e-06   3.01775e-02 DIIS/SHIFT/DAMP=40%
   @DF-UKS iter 111: -1946.83640756215004   -1.34146e-06   3.01775e-02 DIIS/SHIFT/DAMP=40%
   @DF-UKS iter 112: -1946.83640877986159   -1.21771e-06   3.01775e-02 DIIS/SHIFT/DAMP=40%
   @DF-UKS iter 113: -1946.83640988524394   -1.10538e-06   3.01775e-02 DIIS/SHIFT/DAMP=40%
   @DF-UKS iter 114: -1946.83641088865602   -1.00341e-06   3.01775e-02 DIIS/SHIFT/DAMP=40%
   @DF-UKS iter 115: -1946.83641179951019   -9.10854e-07   3.01775e-02 DIIS/SHIFT/DAMP=40%
   @DF-UKS iter 116: -1946.83641262634296   -8.26833e-07   3.01775e-02 DIIS/SHIFT/DAMP=40%
   @DF-UKS iter 117: -1946.83641337690779   -7.50565e-07   3.01775e-02 DIIS/SHIFT/DAMP=40%
   @DF-UKS iter 118: -1946.83641405823732   -6.81330e-07   3.01775e-02 DIIS/SHIFT/DAMP=40%
   @DF-UKS iter 119: -1946.83641467672396   -6.18487e-07   3.01775e-02 DIIS/SHIFT/DAMP=40%
   @DF-UKS iter 120: -1946.83641523816209   -5.61438e-07   3.01775e-02 DIIS/SHIFT/DAMP=40%
   @DF-UKS iter 121: -1946.83641574781427   -5.09652e-07   3.01775e-02 DIIS/SHIFT/DAMP=40%
   @DF-UKS iter 122: -1946.83641621045763   -4.62643e-07   3.01775e-02 DIIS/SHIFT/DAMP=40%
   @DF-UKS iter 123: -1946.83641663042954   -4.19972e-07   3.01775e-02 DIIS/SHIFT/DAMP=40%
   @DF-UKS iter 124: -1946.83641701166630   -3.81237e-07   3.01775e-02 DIIS/SHIFT/DAMP=40%
   @DF-UKS iter 125: -1946.83641735773995   -3.46074e-07   3.01775e-02 DIIS/SHIFT/DAMP=40%
   @DF-UKS iter 126: -1946.83641767189306   -3.14153e-07   3.01775e-02 DIIS/SHIFT/DAMP=40%
   @DF-UKS iter 127: -1946.83641795706990   -2.85177e-07   3.01775e-02 DIIS/SHIFT/DAMP=40%
   @DF-UKS iter 128: -1946.83641821594961   -2.58880e-07   3.01775e-02 DIIS/SHIFT/DAMP=40%
   @DF-UKS iter 129: -1946.83641845094940   -2.35000e-07   3.01775e-02 DIIS/SHIFT/DAMP=40%
   @DF-UKS iter 130: -1946.83641866427524   -2.13326e-07   3.01775e-02 DIIS/SHIFT/DAMP=40%
   @DF-UKS iter 131: -1946.83641885792645   -1.93651e-07   3.01775e-02 DIIS/SHIFT/DAMP=40%
   @DF-UKS iter 132: -1946.83641903371631   -1.75790e-07   3.01775e-02 DIIS/SHIFT/DAMP=40%
   @DF-UKS iter 133: -1946.83641919329375   -1.59577e-07   3.01775e-02 DIIS/SHIFT/DAMP=40%
   @DF-UKS iter 134: -1946.83641933815375   -1.44860e-07   3.01775e-02 DIIS/SHIFT/DAMP=40%
   @DF-UKS iter 135: -1946.83641946965440   -1.31501e-07   3.01775e-02 DIIS/SHIFT/DAMP=40%
   @DF-UKS iter 136: -1946.83641958902535   -1.19371e-07   3.01775e-02 DIIS/SHIFT/DAMP=40%
   @DF-UKS iter 137: -1946.83641969738665   -1.08361e-07   3.01775e-02 DIIS/SHIFT/DAMP=40%
   @DF-UKS iter 138: -1946.83641979575509   -9.83684e-08   3.01775e-02 DIIS/SHIFT/DAMP=40%
   @DF-UKS iter 139: -1946.83641988505019   -8.92951e-08   3.01775e-02 DIIS/SHIFT/DAMP=40%
   @DF-UKS iter 140: -1946.83641996611254   -8.10624e-08   3.01775e-02 DIIS/SHIFT/DAMP=40%
   @DF-UKS iter 141: -1946.83642003969567   -7.35831e-08   3.01775e-02 DIIS/SHIFT/DAMP=40%
   @DF-UKS iter 142: -1946.83642010649532   -6.67997e-08   3.01775e-02 DIIS/SHIFT/DAMP=40%
   @DF-UKS iter 143: -1946.83642016713134   -6.06360e-08   3.01775e-02 DIIS/SHIFT/DAMP=40%
   @DF-UKS iter 144: -1946.83642022217555   -5.50442e-08   3.01775e-02 DIIS/SHIFT/DAMP=40%
   @DF-UKS iter 145: -1946.83642027214546   -4.99699e-08   3.01775e-02 DIIS/SHIFT/DAMP=40%
   @DF-UKS iter 146: -1946.83642031750583   -4.53604e-08   3.01775e-02 DIIS/SHIFT/DAMP=40%
   @DF-UKS iter 147: -1946.83642035868161   -4.11758e-08   3.01775e-02 DIIS/SHIFT/DAMP=40%
   @DF-UKS iter 148: -1946.83642039606229   -3.73807e-08   3.01775e-02 DIIS/SHIFT/DAMP=40%
   @DF-UKS iter 149: -1946.83642042999327   -3.39310e-08   3.01775e-02 DIIS/SHIFT/DAMP=40%
   @DF-UKS iter 150: -1946.83642046079672   -3.08034e-08   3.01775e-02 DIIS/SHIFT/DAMP=40%
   @DF-UKS iter 151: -1946.83642048875845   -2.79617e-08   3.01775e-02 DIIS/SHIFT/DAMP=40%
   @DF-UKS iter 152: -1946.83642051413995   -2.53815e-08   3.01775e-02 DIIS/SHIFT/DAMP=40%
   @DF-UKS iter 153: -1946.83642053718359   -2.30436e-08   3.01775e-02 DIIS/SHIFT/DAMP=40%
   @DF-UKS iter 154: -1946.83642055809946   -2.09159e-08   3.01775e-02 DIIS/SHIFT/DAMP=40%
   @DF-UKS iter 155: -1946.83642057708721   -1.89877e-08   3.01775e-02 DIIS/SHIFT/DAMP=40%
   @DF-UKS iter 156: -1946.83642059432418   -1.72370e-08   3.01775e-02 DIIS/SHIFT/DAMP=40%
   @DF-UKS iter 157: -1946.83642060997113   -1.56469e-08   3.01775e-02 DIIS/SHIFT/DAMP=40%
   @DF-UKS iter 158: -1946.83642062417584   -1.42047e-08   3.01775e-02 DIIS/SHIFT/DAMP=40%
   @DF-UKS iter 159: -1946.83642063707020   -1.28944e-08   3.01775e-02 DIIS/SHIFT/DAMP=40%
   @DF-UKS iter 160: -1946.83642064877472   -1.17045e-08   3.01775e-02 DIIS/SHIFT/DAMP=40%
   @DF-UKS iter 161: -1946.83642065939875   -1.06240e-08   3.01775e-02 DIIS/SHIFT/DAMP=40%
   @DF-UKS iter 162: -1946.83642066904622   -9.64747e-09   3.01775e-02 DIIS/SHIFT/DAMP=40%
   @DF-UKS iter 163: -1946.83642067780215   -8.75593e-09   3.01775e-02 DIIS/SHIFT/DAMP=40%
   @DF-UKS iter 164: -1946.83642068575000   -7.94785e-09   3.01775e-02 DIIS/SHIFT/DAMP=40%
   @DF-UKS iter 165: -1946.83642069296411   -7.21411e-09   3.01775e-02 DIIS/SHIFT/DAMP=40%
   @DF-UKS iter 166: -1946.83642069951452   -6.55041e-09   3.01775e-02 DIIS/SHIFT/DAMP=40%
   @DF-UKS iter 167: -1946.83642070546080   -5.94628e-09   3.01775e-02 DIIS/SHIFT/DAMP=40%
   @DF-UKS iter 168: -1946.83642071085933   -5.39853e-09   3.01775e-02 DIIS/SHIFT/DAMP=40%
   @DF-UKS iter 169: -1946.83642071575809   -4.89877e-09   3.01775e-02 DIIS/SHIFT/DAMP=40%
   @DF-UKS iter 170: -1946.83642072020621   -4.44811e-09   3.01775e-02 DIIS/SHIFT/DAMP=40%
   @DF-UKS iter 171: -1946.83642072424391   -4.03770e-09   3.01775e-02 DIIS/SHIFT/DAMP=40%
   @DF-UKS iter 172: -1946.83642072790872   -3.66481e-09   3.01775e-02 DIIS/SHIFT/DAMP=40%
   @DF-UKS iter 173: -1946.83642073123610   -3.32739e-09   3.01775e-02 DIIS/SHIFT/DAMP=40%
   @DF-UKS iter 174: -1946.83642073425517   -3.01907e-09   3.01775e-02 DIIS/SHIFT/DAMP=40%
   @DF-UKS iter 175: -1946.83642073699912   -2.74395e-09   3.01775e-02 DIIS/SHIFT/DAMP=40%
   @DF-UKS iter 176: -1946.83642073948704   -2.48792e-09   3.01775e-02 DIIS/SHIFT/DAMP=40%
   @DF-UKS iter 177: -1946.83642074174759   -2.26055e-09   3.01775e-02 DIIS/SHIFT/DAMP=40%
   @DF-UKS iter 178: -1946.83642074379804   -2.05046e-09   3.01775e-02 DIIS/SHIFT/DAMP=40%
   @DF-UKS iter 179: -1946.83642074565978   -1.86174e-09   3.01775e-02 DIIS/SHIFT/DAMP=40%
   @DF-UKS iter 180: -1946.83642074734985   -1.69007e-09   3.01775e-02 DIIS/SHIFT/DAMP=40%
   @DF-UKS iter 181: -1946.83642074888394   -1.53409e-09   3.01775e-02 DIIS/SHIFT/DAMP=40%
   @DF-UKS iter 182: -1946.83642075027751   -1.39357e-09   3.01775e-02 DIIS/SHIFT/DAMP=40%
   @DF-UKS iter 183: -1946.83642075154194   -1.26443e-09   3.01775e-02 DIIS/SHIFT/DAMP=40%
   @DF-UKS iter 184: -1946.83642075268949   -1.14755e-09   3.01775e-02 DIIS/SHIFT/DAMP=40%
   @DF-UKS iter 185: -1946.83642075373109   -1.04160e-09   3.01775e-02 DIIS/SHIFT/DAMP=40%
   @DF-UKS iter 186: -1946.83642075467696   -9.45874e-10   3.01775e-02 DIIS/SHIFT/DAMP=40%
   @DF-UKS iter 187: -1946.83642075553644   -8.59472e-10   3.01775e-02 DIIS/SHIFT/DAMP=40%
   @DF-UKS iter 188: -1946.83642075631587   -7.79437e-10   3.01775e-02 DIIS/SHIFT/DAMP=40%
   @DF-UKS iter 189: -1946.83642075702210   -7.06223e-10   3.01775e-02 DIIS/SHIFT/DAMP=40%
   @DF-UKS iter 190: -1946.83642075766443   -6.42331e-10   3.01775e-02 DIIS/SHIFT/DAMP=40%
   @DF-UKS iter 191: -1946.83642075824719   -5.82759e-10   3.01775e-02 DIIS/SHIFT/DAMP=40%
   @DF-UKS iter 192: -1946.83642075877538   -5.28189e-10   3.01775e-02 DIIS/SHIFT/DAMP=40%
   @DF-UKS iter 193: -1946.83642075925763   -4.82260e-10   3.01775e-02 DIIS/SHIFT/DAMP=40%
   @DF-UKS iter 194: -1946.83642075969465   -4.37012e-10   3.01775e-02 DIIS/SHIFT/DAMP=40%
   @DF-UKS iter 195: -1946.83642076008960   -3.94948e-10   3.01775e-02 DIIS/SHIFT/DAMP=40%
   @DF-UKS iter 196: -1946.83642076045066   -3.61069e-10   3.01775e-02 DIIS/SHIFT/DAMP=40%
   @DF-UKS iter 197: -1946.83642076077490   -3.24235e-10   3.01775e-02 DIIS/SHIFT/DAMP=40%
   @DF-UKS iter 198: -1946.83642076107094   -2.96041e-10   3.01775e-02 DIIS/SHIFT/DAMP=40%
   @DF-UKS iter 199: -1946.83642076133992   -2.68983e-10   3.01775e-02 DIIS/SHIFT/DAMP=40%
   @DF-UKS iter 200: -1946.83642076158435   -2.44427e-10   3.01775e-02 DIIS/SHIFT/DAMP=40%
   @DF-UKS iter 201: -1946.83642076180649   -2.22144e-10   3.01775e-02 DIIS/SHIFT/DAMP=40%
   @DF-UKS iter 202: -1946.83642076200795   -2.01453e-10   3.01775e-02 DIIS/SHIFT/DAMP=40%
   @DF-UKS iter 203: -1946.83642076218985   -1.81899e-10   3.01775e-02 DIIS/SHIFT/DAMP=40%
   @DF-UKS iter 204: -1946.83642076235560   -1.65755e-10   3.01775e-02 DIIS/SHIFT/DAMP=40%
   @DF-UKS iter 205: -1946.83642076250521   -1.49612e-10   3.01775e-02 DIIS/SHIFT/DAMP=40%
   @DF-UKS iter 206: -1946.83642076264209   -1.36879e-10   3.01775e-02 DIIS/SHIFT/DAMP=40%
   @DF-UKS iter 207: -1946.83642076276601   -1.23919e-10   3.01775e-02 DIIS/SHIFT/DAMP=40%
   @DF-UKS iter 208: -1946.83642076287879   -1.12777e-10   3.01775e-02 DIIS/SHIFT/DAMP=40%
   @DF-UKS iter 209: -1946.83642076298065   -1.01863e-10   3.01775e-02 DIIS/SHIFT/DAMP=40%
   @DF-UKS iter 210: -1946.83642076307319   -9.25411e-11   3.01775e-02 DIIS/SHIFT/DAMP=40%
   @DF-UKS iter 211: -1946.83642076315755   -8.43556e-11   3.01775e-02 DIIS/SHIFT/DAMP=40%
   @DF-UKS iter 212: -1946.83642076323440   -7.68523e-11   3.01775e-02 DIIS/SHIFT/DAMP=40%
   @DF-UKS iter 213: -1946.83642076330284   -6.84395e-11   3.01775e-02 DIIS/SHIFT/DAMP=40%
   @DF-UKS iter 214: -1946.83642076336764   -6.48015e-11   3.01775e-02 DIIS/SHIFT/DAMP=40%
   @DF-UKS iter 215: -1946.83642076342426   -5.66160e-11   3.01775e-02 DIIS/SHIFT/DAMP=40%
   @DF-UKS iter 216: -1946.83642076347542   -5.11591e-11   3.01775e-02 DIIS/SHIFT/DAMP=40%
   @DF-UKS iter 217: -1946.83642076352317   -4.77485e-11   3.01775e-02 DIIS/SHIFT/DAMP=40%
   @DF-UKS iter 218: -1946.83642076356523   -4.20641e-11   3.01775e-02 DIIS/SHIFT/DAMP=40%
   @DF-UKS iter 219: -1946.83642076360411   -3.88809e-11   3.01775e-02 DIIS/SHIFT/DAMP=40%
   @DF-UKS iter 220: -1946.83642076363958   -3.54703e-11   3.01775e-02 DIIS/SHIFT/DAMP=40%
   @DF-UKS iter 221: -1946.83642076367187   -3.22871e-11   3.01775e-02 DIIS/SHIFT/DAMP=40%
   @DF-UKS iter 222: -1946.83642076370006   -2.81943e-11   3.01775e-02 DIIS/SHIFT/DAMP=40%
   @DF-UKS iter 223: -1946.83642076372507   -2.50111e-11   3.01775e-02 DIIS/SHIFT/DAMP=40%
   @DF-UKS iter 224: -1946.83642076375008   -2.50111e-11   3.01775e-02 DIIS/SHIFT/DAMP=40%
   @DF-UKS iter 225: -1946.83642076377282   -2.27374e-11   3.01775e-02 DIIS/SHIFT/DAMP=40%
   @DF-UKS iter 226: -1946.83642076379192   -1.90994e-11   3.01775e-02 DIIS/SHIFT/DAMP=40%
   @DF-UKS iter 227: -1946.83642076380943   -1.75078e-11   3.01775e-02 DIIS/SHIFT/DAMP=40%
   @DF-UKS iter 228: -1946.83642076382557   -1.61435e-11   3.01775e-02 DIIS/SHIFT/DAMP=40%
   @DF-UKS iter 229: -1946.83642076384058   -1.50067e-11   3.01775e-02 DIIS/SHIFT/DAMP=40%
   @DF-UKS iter 230: -1946.83642076385354   -1.29603e-11   3.01775e-02 DIIS/SHIFT/DAMP=40%
   @DF-UKS iter 231: -1946.83642076386514   -1.15961e-11   3.01775e-02 DIIS/SHIFT/DAMP=40%
   @DF-UKS iter 232: -1946.83642076387650   -1.13687e-11   3.01775e-02 DIIS/SHIFT/DAMP=40%
   @DF-UKS iter 233: -1946.83642076388674   -1.02318e-11   3.01775e-02 DIIS/SHIFT/DAMP=40%
   @DF-UKS iter 234: -1946.83642076389606   -9.32232e-12   3.01775e-02 DIIS/SHIFT/DAMP=40%
   @DF-UKS iter 235: -1946.83642076390424   -8.18545e-12   3.01775e-02 DIIS/SHIFT/DAMP=40%
   @DF-UKS iter 236: -1946.83642076391197   -7.73070e-12   3.01775e-02 DIIS/SHIFT/DAMP=40%
   @DF-UKS iter 237: -1946.83642076391880   -6.82121e-12   3.01775e-02 DIIS/SHIFT/DAMP=40%
   @DF-UKS iter 238: -1946.83642076392493   -6.13909e-12   3.01775e-02 DIIS/SHIFT/DAMP=40%
   @DF-UKS iter 239: -1946.83642076393062   -5.68434e-12   3.01775e-02 DIIS/SHIFT/DAMP=40%
   @DF-UKS iter 240: -1946.83642076393562   -5.00222e-12   3.01775e-02 DIIS/SHIFT/DAMP=40%
   @DF-UKS iter 241: -1946.83642076394062   -5.00222e-12   3.01775e-02 DIIS/SHIFT/DAMP=40%
   @DF-UKS iter 242: -1946.83642076394472   -4.09273e-12   3.01775e-02 DIIS/SHIFT/DAMP=40%
   @DF-UKS iter 243: -1946.83642076394881   -4.09273e-12   3.01775e-02 DIIS/SHIFT/DAMP=40%
   @DF-UKS iter 244: -1946.83642076395176   -2.95586e-12   3.01775e-02 DIIS/SHIFT/DAMP=40%
   @DF-UKS iter 245: -1946.83642076395495   -3.18323e-12   3.01775e-02 DIIS/SHIFT/DAMP=40%
   @DF-UKS iter 246: -1946.83642076395699   -2.04636e-12   3.01775e-02 DIIS/SHIFT/DAMP=40%
   @DF-UKS iter 247: -1946.83642076396086   -3.86535e-12   3.01775e-02 DIIS/SHIFT/DAMP=40%
   @DF-UKS iter 248: -1946.83642076396313   -2.27374e-12   3.01775e-02 DIIS/SHIFT/DAMP=40%
   @DF-UKS iter 249: -1946.83642076396472   -1.59162e-12   3.01775e-02 DIIS/SHIFT/DAMP=40%
   @DF-UKS iter 250: -1946.83642076396632   -1.59162e-12   3.01775e-02 DIIS/SHIFT/DAMP=40%
   @DF-UKS iter 251: -1946.83642076396836   -2.04636e-12   3.01775e-02 DIIS/SHIFT/DAMP=40%
   @DF-UKS iter 252: -1946.83642076396995   -1.59162e-12   3.01775e-02 DIIS/SHIFT/DAMP=40%
   @DF-UKS iter 253: -1946.83642076397132   -1.36424e-12   3.01775e-02 DIIS/SHIFT/DAMP=40%
   @DF-UKS iter 254: -1946.83642076397336   -2.04636e-12   3.01775e-02 DIIS/SHIFT/DAMP=40%
   @DF-UKS iter 255: -1946.83642076397427   -9.09495e-13   3.01775e-02 DIIS/SHIFT/DAMP=40%
   @DF-UKS iter 256: -1946.83642076397587   -1.59162e-12   3.01775e-02 DIIS/SHIFT/DAMP=40%
   @DF-UKS iter 257: -1946.83642076397609   -2.27374e-13   3.01775e-02 DIIS/SHIFT/DAMP=40%
   @DF-UKS iter 258: -1946.83642076397746   -1.36424e-12   3.01775e-02 DIIS/SHIFT/DAMP=40%
   @DF-UKS iter 259: -1946.83642076397814   -6.82121e-13   3.01775e-02 DIIS/SHIFT/DAMP=40%
   @DF-UKS iter 260: -1946.83642076397973   -1.59162e-12   3.01775e-02 DIIS/SHIFT/DAMP=40%
   @DF-UKS iter 261: -1946.83642076397950    2.27374e-13   3.01775e-02 DIIS/SHIFT/DAMP=40%
   @DF-UKS iter 262: -1946.83642076397973   -2.27374e-13   3.01775e-02 DIIS/SHIFT/DAMP=40%
   @DF-UKS iter 263: -1946.83642076398019   -4.54747e-13   3.01775e-02 DIIS/SHIFT/DAMP=40%
   @DF-UKS iter 264: -1946.83642076398064   -4.54747e-13   3.01775e-02 DIIS/SHIFT/DAMP=40%
   @DF-UKS iter 265: -1946.83642076398064    0.00000e+00   3.01775e-02 DIIS/SHIFT/DAMP=40%
   @DF-UKS iter 266: -1946.83642076398178   -1.13687e-12   3.01775e-02 DIIS/SHIFT/DAMP=40%
   @DF-UKS iter 267: -1946.83642076398314   -1.36424e-12   3.01775e-02 DIIS/SHIFT/DAMP=40%
   @DF-UKS iter 268: -1946.83642076398223    9.09495e-13   3.01775e-02 DIIS/SHIFT/DAMP=40%
   @DF-UKS iter 269: -1946.83642076398269   -4.54747e-13   3.01775e-02 DIIS/SHIFT/DAMP=40%
   @DF-UKS iter 270: -1946.83642076398451   -1.81899e-12   3.01775e-02 DIIS/SHIFT/DAMP=40%
   @DF-UKS iter 271: -1946.83642076398405    4.54747e-13   3.01775e-02 DIIS/SHIFT/DAMP=40%
   @DF-UKS iter 272: -1946.83642076398519   -1.13687e-12   3.01775e-02 DIIS/SHIFT/DAMP=40%
   @DF-UKS iter 273: -1946.83642076398428    9.09495e-13   3.01775e-02 DIIS/SHIFT/DAMP=40%
   @DF-UKS iter 274: -1946.83642076398473   -4.54747e-13   3.01775e-02 DIIS/SHIFT/DAMP=40%
   @DF-UKS iter 275: -1946.83642076398496   -2.27374e-13   3.01775e-02 DIIS/SHIFT/DAMP=40%
   @DF-UKS iter 276: -1946.83642076398473    2.27374e-13   3.01775e-02 DIIS/SHIFT/DAMP=40%
   @DF-UKS iter 277: -1946.83642076398564   -9.09495e-13   3.01775e-02 DIIS/SHIFT/DAMP=40%
   @DF-UKS iter 278: -1946.83642076398473    9.09495e-13   3.01775e-02 DIIS/SHIFT/DAMP=40%
   @DF-UKS iter 279: -1946.83642076398519   -4.54747e-13   3.01775e-02 DIIS/SHIFT/DAMP=40%
   @DF-UKS iter 280: -1946.83642076398519    0.00000e+00   3.01775e-02 DIIS/SHIFT/DAMP=40%
   @DF-UKS iter 281: -1946.83642076398542   -2.27374e-13   3.01775e-02 DIIS/SHIFT/DAMP=40%
   @DF-UKS iter 282: -1946.83642076398519    2.27374e-13   3.01775e-02 DIIS/SHIFT/DAMP=40%
   @DF-UKS iter 283: -1946.83642076398564   -4.54747e-13   3.01775e-02 DIIS/SHIFT/DAMP=40%
   @DF-UKS iter 284: -1946.83642076398678   -1.13687e-12   3.01775e-02 DIIS/SHIFT/DAMP=40%
   @DF-UKS iter 285: -1946.83642076398610    6.82121e-13   3.01775e-02 DIIS/SHIFT/DAMP=40%
   @DF-UKS iter 286: -1946.83642076398519    9.09495e-13   3.01775e-02 DIIS/SHIFT/DAMP=40%
   @DF-UKS iter 287: -1946.83642076398542   -2.27374e-13   3.01775e-02 DIIS/SHIFT/DAMP=40%
   @DF-UKS iter 288: -1946.83642076398610   -6.82121e-13   3.01775e-02 DIIS/SHIFT/DAMP=40%
   @DF-UKS iter 289: -1946.83642076398610    0.00000e+00   3.01775e-02 DIIS/SHIFT/DAMP=40%
   @DF-UKS iter 290: -1946.83642076398473    1.36424e-12   3.01775e-02 DIIS/SHIFT/DAMP=40%
   @DF-UKS iter 291: -1946.83642076398610   -1.36424e-12   3.01775e-02 DIIS/SHIFT/DAMP=40%
   @DF-UKS iter 292: -1946.83642076398633   -2.27374e-13   3.01775e-02 DIIS/SHIFT/DAMP=40%
   @DF-UKS iter 293: -1946.83642076398633    0.00000e+00   3.01775e-02 DIIS/SHIFT/DAMP=40%
   @DF-UKS iter 294: -1946.83642076398564    6.82121e-13   3.01775e-02 DIIS/SHIFT/DAMP=40%
   @DF-UKS iter 295: -1946.83642076398542    2.27374e-13   3.01775e-02 DIIS/SHIFT/DAMP=40%
   @DF-UKS iter 296: -1946.83642076398633   -9.09495e-13   3.01775e-02 DIIS/SHIFT/DAMP=40%
   @DF-UKS iter 297: -1946.83642076398587    4.54747e-13   3.01775e-02 DIIS/SHIFT/DAMP=40%
   @DF-UKS iter 298: -1946.83642076398723   -1.36424e-12   3.01775e-02 DIIS/SHIFT/DAMP=40%
   @DF-UKS iter 299: -1946.83642076398610    1.13687e-12   3.01775e-02 DIIS/SHIFT/DAMP=40%
   @DF-UKS iter 300: -1946.83642076398633   -2.27374e-13   3.01775e-02 DIIS/SHIFT/DAMP=40%

PsiException: Could not converge SCF iterations in 300 iterations.

  Energy and/or wave function did not converge, but proceeding anyway.


  ==> Post-Iterations <==

   Electrons on quadrature grid:
      Nalpha   =   40.9999826642 ; deviation = -1.734e-05
      Nbeta    =   40.9999826642 ; deviation = -1.734e-05
      Ntotal   =   81.9999653284 ; deviation = -3.467e-05 

   @Spin Contamination Metric:   4.263256415E-14
   @S^2 Expected:                0.000000000E+00
   @S^2 Observed:                4.263256415E-14
   @S   Expected:                0.000000000E+00
   @S   Observed:                0.000000000E+00

    Orbital Energies [Eh]
    ---------------------

    Alpha Occupied:                                                       

       1A   -255.588012     2A    -88.427760     3A    -30.331513  
       4A    -26.286379     5A    -26.283791     6A    -26.280194  
       7A    -19.281604     8A    -14.252047     9A    -14.241009  
      10A    -14.206595    11A    -13.843222    12A     -8.008108  
      13A     -6.036212    14A     -6.034899    15A     -6.034266  
      16A     -3.898722    17A     -2.707931    18A     -2.703227  
      19A     -2.699405    20A     -1.184123    21A     -0.970994  
      22A     -0.901983    23A     -0.891521    24A     -0.866243  
      25A     -0.795145    26A     -0.782599    27A     -0.778773  
      28A     -0.765186    29A     -0.761199    30A     -0.692164  
      31A     -0.662453    32A     -0.625475    33A     -0.602069  
      34A     -0.582287    35A     -0.559053    36A     -0.547145  
      37A     -0.529932    38A     -0.527222    39A     -0.495569  
      40A     -0.430106    41A     -0.415722  

    Alpha Virtual:                                                        

      42A     -0.310139    43A     -0.298188    44A     -0.276920  
      45A     -0.262691    46A     -0.255886    47A     -0.193819  
      48A     -0.086701    49A     -0.080318    50A     -0.039025  
      51A     -0.009317    52A     -0.000692    53A      0.008406  
      54A      0.081524    55A      0.116908    56A      0.151323  
      57A      0.191689    58A      0.204646    59A      0.240305  
      60A      0.319885    61A      0.355925    62A      0.361991  
      63A      0.378332    64A      0.388155    65A      0.413784  
      66A      0.429517    67A      0.436086    68A      0.442230  
      69A      0.463374    70A      0.494232    71A      0.584029  
      72A      0.592961    73A      0.626626    74A      0.637361  
      75A      0.639174    76A      0.649976    77A      0.658459  
      78A      0.670136    79A      0.701804    80A      0.713050  
      81A      0.727264    82A      0.754383    83A      0.793679  
      84A      0.798681    85A      0.815846    86A      0.831075  
      87A      0.840726    88A      0.861670    89A      0.893553  
      90A      0.947709    91A      0.964767    92A      0.980384  
      93A      0.995934    94A      1.016374    95A      1.103930  
      96A      1.183870    97A      1.258239    98A      1.266433  
      99A      1.278618   100A      1.289507   101A      1.303147  
     102A      1.374899   103A      1.452936   104A      1.480891  
     105A      1.504160   106A      1.506345   107A      1.600135  
     108A      1.769028   109A      1.803951   110A      1.808355  
     111A      1.842648   112A      1.957040   113A      1.978615  
     114A      1.998400   115A      2.016354   116A      2.056467  
     117A      2.068873   118A      2.090224   119A      2.226711  
     120A      2.234263   121A      2.241605   122A      2.261393  
     123A      2.276447   124A      2.302968   125A      2.305708  
     126A      2.313563   127A      2.341687   128A      2.434779  
     129A      2.475433   130A      2.543336   131A      2.554150  
     132A      2.593034   133A      2.711549   134A      2.913083  
     135A      2.924831   136A      2.961982   137A      3.134370  
     138A      3.565197   139A      3.576255   140A      3.607633  
     141A      3.608247   142A      3.683759   143A      3.690404  
     144A      3.870913  

    Beta Occupied:                                                        

       1A   -255.588012     2A    -88.427760     3A    -30.331513  
       4A    -26.286379     5A    -26.283791     6A    -26.280194  
       7A    -19.281604     8A    -14.252047     9A    -14.241009  
      10A    -14.206595    11A    -13.843222    12A     -8.008108  
      13A     -6.036212    14A     -6.034899    15A     -6.034266  
      16A     -3.898722    17A     -2.707931    18A     -2.703227  
      19A     -2.699405    20A     -1.184123    21A     -0.970994  
      22A     -0.901983    23A     -0.891521    24A     -0.866243  
      25A     -0.795145    26A     -0.782599    27A     -0.778773  
      28A     -0.765186    29A     -0.761199    30A     -0.692164  
      31A     -0.662453    32A     -0.625475    33A     -0.602069  
      34A     -0.582287    35A     -0.559053    36A     -0.547145  
      37A     -0.529932    38A     -0.527222    39A     -0.495569  
      40A     -0.430106    41A     -0.415722  

    Beta Virtual:                                                         

      42A     -0.310139    43A     -0.298188    44A     -0.276920  
      45A     -0.262691    46A     -0.255886    47A     -0.193819  
      48A     -0.086701    49A     -0.080318    50A     -0.039025  
      51A     -0.009317    52A     -0.000692    53A      0.008406  
      54A      0.081524    55A      0.116908    56A      0.151323  
      57A      0.191689    58A      0.204646    59A      0.240305  
      60A      0.319885    61A      0.355925    62A      0.361991  
      63A      0.378332    64A      0.388155    65A      0.413784  
      66A      0.429517    67A      0.436086    68A      0.442230  
      69A      0.463374    70A      0.494232    71A      0.584029  
      72A      0.592961    73A      0.626626    74A      0.637361  
      75A      0.639174    76A      0.649976    77A      0.658459  
      78A      0.670136    79A      0.701804    80A      0.713050  
      81A      0.727264    82A      0.754383    83A      0.793679  
      84A      0.798681    85A      0.815846    86A      0.831075  
      87A      0.840726    88A      0.861670    89A      0.893553  
      90A      0.947709    91A      0.964767    92A      0.980384  
      93A      0.995934    94A      1.016374    95A      1.103930  
      96A      1.183870    97A      1.258239    98A      1.266433  
      99A      1.278618   100A      1.289507   101A      1.303147  
     102A      1.374899   103A      1.452936   104A      1.480891  
     105A      1.504160   106A      1.506345   107A      1.600135  
     108A      1.769028   109A      1.803951   110A      1.808355  
     111A      1.842648   112A      1.957040   113A      1.978615  
     114A      1.998400   115A      2.016354   116A      2.056467  
     117A      2.068873   118A      2.090224   119A      2.226711  
     120A      2.234263   121A      2.241605   122A      2.261393  
     123A      2.276447   124A      2.302968   125A      2.305708  
     126A      2.313563   127A      2.341687   128A      2.434779  
     129A      2.475433   130A      2.543336   131A      2.554150  
     132A      2.593034   133A      2.711549   134A      2.913083  
     135A      2.924831   136A      2.961982   137A      3.134370  
     138A      3.565197   139A      3.576255   140A      3.607633  
     141A      3.608247   142A      3.683759   143A      3.690404  
     144A      3.870913  

    Final Occupation by Irrep:
              A 
    DOCC [    41 ]
    SOCC [     0 ]
    NA   [    41 ]
    NB   [    41 ]

  @DF-UKS Final Energy: -1946.83642076398633

   => Energetics <=

    Nuclear Repulsion Energy =            618.5265023140433414
    One-Electron Energy =               -4010.7151013274192337
    Two-Electron Energy =                1567.5208584239148877
    DFT Exchange-Correlation Energy =    -122.1686801745252922
    Empirical Dispersion Energy =           0.0000000000000000
    VV10 Nonlocal Energy =                  0.0000000000000000
    Total Energy =                      -1946.8364207639863253

  UHF NO Occupations:
  HONO-2 :   39  A 2.0000000
  HONO-1 :   40  A 2.0000000
  HONO-0 :   41  A 2.0000000
  LUNO+0 :   42  A 0.0000000
  LUNO+1 :   43  A 0.0000000
  LUNO+2 :   44  A 0.0000000
  LUNO+3 :   45  A 0.0000000


Computation Completed


Properties will be evaluated at   0.000000,   0.000000,   0.000000 [a0]

Properties computed using the SCF density matrix


 Multipole Moments:

 ------------------------------------------------------------------------------------
     Multipole            Electronic (a.u.)      Nuclear  (a.u.)        Total (a.u.)
 ------------------------------------------------------------------------------------

 L = 1.  Multiply by 2.5417464519 to convert [e a0] to [Debye]
 Dipole X            :         14.2156827            0.3911994           14.6068822
 Dipole Y            :         -3.6802054            0.2607996           -3.4194058
 Dipole Z            :          1.9895400           -1.8509361            0.1386039
 Magnitude           :                                                   15.0024182

 ------------------------------------------------------------------------------------

*** tstop() called on LAPTOP-257FNSVV at Sun Sep  6 06:28:58 2026
Module time:
	user time   =        nan seconds =        nan minutes
	system time =        nan seconds =        nan minutes
	total time  =        142 seconds =       2.37 minutes
Total time:
	user time   =        nan seconds =        nan minutes
	system time =        nan seconds =        nan minutes
	total time  =        142 seconds =       2.37 minutes

Scratch directory: C:\Users\HUIWEI\.zcode\workspace\default\results_phase13\_scratch_a1_ferryl_m1/
   => Libint2 <=

    Primary   basis highest AM E, G, H:  7, 6, -
    Auxiliary basis highest AM E, G, H:  7, 7, -
    Onebody   basis highest AM E, G, H:  -, -, -
    Solid Harmonics ordering:            Gaussian

*** tstart() called on LAPTOP-257FNSVV
*** at Sun Sep  6 06:28:58 2026

   => Loading Basis Set <=

    Name: DEF2-SVP
    Role: ORBITAL
    Keyword: BASIS
    atoms 1        entry FE         line   698 file C:\Users\HUIWEI\miniconda3\envs\phase7\Library\share\psi4\basis\def2-svp.gbs 
    atoms 2        entry O          line   130 file C:\Users\HUIWEI\miniconda3\envs\phase7\Library\share\psi4\basis\def2-svp.gbs 
    atoms 3-6      entry N          line   110 file C:\Users\HUIWEI\miniconda3\envs\phase7\Library\share\psi4\basis\def2-svp.gbs 
    atoms 7-10, 12 entry H          line    15 file C:\Users\HUIWEI\miniconda3\envs\phase7\Library\share\psi4\basis\def2-svp.gbs 
    atoms 11       entry S          line   328 file C:\Users\HUIWEI\miniconda3\envs\phase7\Library\share\psi4\basis\def2-svp.gbs 


         ---------------------------------------------------------
                                   SCF
               by Justin Turney, Rob Parrish, Andy Simmonett
                          and Daniel G. A. Smith
                              UKS Reference
                        8 Threads,   1907 MiB Core
         ---------------------------------------------------------

  ==> Geometry <==

    Molecular point group: c1
    Full point group: C1

    Geometry (in Angstrom), charge = 1, multiplicity = 1:

       Center              X                  Y                   Z               Mass       
    ------------   -----------------  -----------------  -----------------  -----------------
         FE          -0.002566098419    -0.001710732280     0.305789479195    55.934936330000
         O           -0.002566098419    -0.001710732280     1.930789479195    15.994914619570
         N            1.997433901581    -0.001710732280     0.305789479195    14.003074004430
         N           -2.002566098419    -0.001710732280     0.305789479195    14.003074004430
         N           -0.002566098419     1.998289267720     0.305789479195    14.003074004430
         N           -0.002566098419    -2.001710732280     0.305789479195    14.003074004430
         H            2.817433901581     0.648289267720     0.655789479195     1.007825032230
         H           -2.822566098419    -0.651710732280     0.655789479195     1.007825032230
         H            0.647433901581     2.818289267720     0.655789479195     1.007825032230
         H           -0.652566098419    -2.821710732280     0.655789479195     1.007825032230
         S           -0.002566098419    -0.001710732280    -2.014210520805    31.972071174400
         H            0.417433901581     0.278289267720    -3.334210520805     1.007825032230

  Running in c1 symmetry.

  Rotational constants: A =      0.06533  B =      0.05043  C =      0.04826 [cm^-1]
  Rotational constants: A =   1958.61595  B =   1511.71719  C =   1446.88584 [MHz]
  Nuclear repulsion =  618.526502314043341

  Charge       = 1
  Multiplicity = 1
  Electrons    = 82
  Nalpha       = 41
  Nbeta        = 41

  ==> Algorithm <==

  SCF Algorithm Type is DF.
  DIIS enabled.
  MOM disabled.
  Fractional occupation disabled.
  Guess Type is SAD.
  Energy threshold   = 1.00e-08
  Density threshold  = 1.00e-04
  Integral threshold = 1.00e-12

  ==> Primary Basis <==

  Basis Set: DEF2-SVP
    Blend: DEF2-SVP
    Number of shells: 64
    Number of basis functions: 144
    Number of Cartesian functions: 155
    Spherical Harmonics?: true
    Max angular momentum: 3

  ==> DFT Potential <==

   => LibXC <=

    Version 7.1.2
    S. Lehtola, C. Steigemann, M. J. T. Oliveira, and M. A. L. Marques,  SoftwareX 7, 1–5 (2018) (10.1016/j.softx.2017.11.002)

   => Composite Functional: BP86 <= 

    BP86 GGA Exchange-Correlation Functional

    A. D. Becke, Phys. Rev. A, 38, 3098-3100, 1988
    J. P. Perdew, Phys. Rev. B, 33, 8822, 1986


    Deriv               =              1
    GGA                 =           TRUE
    Meta                =          FALSE

    Exchange Hybrid     =          FALSE
    MP2 Hybrid          =          FALSE

   => Exchange Functionals <=

    1.0000     XC_GGA_X_B88

   => Correlation Functionals <=

    1.0000     XC_GGA_C_P86

   => LibXC Density Thresholds  <==

    XC_GGA_C_P86:  1.00E-15 
    XC_GGA_X_B88:  1.00E-15 

   => Molecular Quadrature <=

    Radial Scheme          =       TREUTLER
    Pruning Scheme         =           NONE
    Nuclear Scheme         =       TREUTLER

    Blocking Scheme        =         OCTREE
    BS radius alpha        =              1
    Pruning alpha          =              1
    Radial Points          =             75
    Spherical Points       =            302
    Total Points           =         258308
    Total Blocks           =           2003
    Max Points             =            256
    Max Functions          =            138
    Weights Tolerance      =       1.00E-15

   => Loading Basis Set <=

    Name: (DEF2-SVP AUX)
    Role: JKFIT
    Keyword: DF_BASIS_SCF
    atoms 1        entry FE         line  1978 file C:\Users\HUIWEI\miniconda3\envs\phase7\Library\share\psi4\basis\def2-universal-jkfit.gbs 
    atoms 2        entry O          line   318 file C:\Users\HUIWEI\miniconda3\envs\phase7\Library\share\psi4\basis\def2-universal-jkfit.gbs 
    atoms 3-6      entry N          line   258 file C:\Users\HUIWEI\miniconda3\envs\phase7\Library\share\psi4\basis\def2-universal-jkfit.gbs 
    atoms 7-10, 12 entry H          line    18 file C:\Users\HUIWEI\miniconda3\envs\phase7\Library\share\psi4\basis\def2-universal-jkfit.gbs 
    atoms 11       entry S          line   903 file C:\Users\HUIWEI\miniconda3\envs\phase7\Library\share\psi4\basis\def2-universal-jkfit.gbs 

  ==> Integral Setup <==

  DFHelper Memory: AOs need 0.140 GiB; user supplied 0.725 GiB. 
  SCF_SUBTYPE=INCORE selected. In-core MEM_DF algorithm will be used.
  Using in-core AOs.

  ==> MemDFJK: Density-Fitted J/K Matrices <==

    J tasked:                   Yes
    K tasked:                    No
    wK tasked:                   No
    OpenMP threads:               8
    Memory [MiB]:               742
    Algorithm:                 Core
    Schwarz Cutoff:           1E-12
    Mask sparsity (%):       5.1505
    Fitting Condition:        1E-10

   => Auxiliary Basis Set <=

  Basis Set: (DEF2-SVP AUX)
    Blend: DEF2-UNIVERSAL-JKFIT
    Number of shells: 251
    Number of basis functions: 867
    Number of Cartesian functions: 1097
    Spherical Harmonics?: true
    Max angular momentum: 6

  Cached 100.0% of DFT collocation blocks in 0.672 [GiB].

  Minimum eigenvalue in the overlap matrix is 6.4694339569E-03.
  Reciprocal condition number of the overlap matrix is 1.4582406413E-03.
    Using symmetric orthogonalization.

  ==> Pre-Iterations <==

  SCF Guess: Superposition of Atomic Densities via on-the-fly atomic UHF (no occupation information).

   -------------------------------------------------------
    Irrep   Nso     Nmo     Nalpha   Nbeta   Ndocc  Nsocc
   -------------------------------------------------------
     A        144     144      57      57      57       0
   -------------------------------------------------------
    Total     144     144      57      57      57       0
   -------------------------------------------------------

  ==> Iterations <==

                           Total Energy        Delta E     RMS |[F,P]|

   @DF-UKS iter SAD: -1956.74605463908438   -1.95675e+03   0.00000e+00 
  Mixing beta HOMO/LUMO orbitals (41,42)
   @DF-UKS iter   1: -1947.24119899624020    9.50486e+00   3.02286e-02 DIIS/SHIFT
   @DF-UKS iter   2: -1808.62399892235385    1.38617e+02   7.18551e-02 DIIS/SHIFT/DAMP=40%
   @DF-UKS iter   3: -1608.42650896702844    2.00197e+02   6.30430e-02 DIIS/SHIFT/DAMP=40%
   @DF-UKS iter   4: -1912.88518660326622   -3.04459e+02   3.87969e-02 DIIS/SHIFT/DAMP=40%
   @DF-UKS iter   5: -1859.88992391302008    5.29953e+01   3.11249e-02 DIIS/SHIFT/DAMP=40%
   @DF-UKS iter   6: -1919.00340714670392   -5.91135e+01   2.89912e-02 DIIS/SHIFT/DAMP=40%
   @DF-UKS iter   7: -1953.52422811347310   -3.45208e+01   1.91183e-02 DIIS/SHIFT/DAMP=40%
   @DF-UKS iter   8: -1929.86893704119825    2.36553e+01   3.44706e-02 DIIS/SHIFT/DAMP=40%
   @DF-UKS iter   9: -1931.28001413918082   -1.41108e+00   3.81483e-02 DIIS/SHIFT/DAMP=40%
   @DF-UKS iter  10: -1932.02127467017681   -7.41261e-01   3.89650e-02 DIIS/SHIFT/DAMP=40%
   @DF-UKS iter  11: -1932.38539871444095   -3.64124e-01   3.87529e-02 DIIS/SHIFT/DAMP=40%
   @DF-UKS iter  12: -1932.62068464949721   -2.35286e-01   3.90877e-02 DIIS/SHIFT/DAMP=40%
   @DF-UKS iter  13: -1934.51670723518100   -1.89602e+00   3.87302e-02 DIIS/SHIFT/DAMP=40%
   @DF-UKS iter  14: -1929.73362474996588    4.78308e+00   4.07736e-02 DIIS/SHIFT/DAMP=40%
   @DF-UKS iter  15: -1929.45982175382983    2.73803e-01   4.16801e-02 DIIS/SHIFT/DAMP=40%
   @DF-UKS iter  16: -1929.88549920330433   -4.25677e-01   4.19740e-02 DIIS/SHIFT/DAMP=40%
   @DF-UKS iter  17: -1930.15001171693325   -2.64513e-01   4.20974e-02 DIIS/SHIFT/DAMP=40%
   @DF-UKS iter  18: -1930.27652563042329   -1.26514e-01   4.21520e-02 DIIS/SHIFT/DAMP=40%
   @DF-UKS iter  19: -1930.32989635220633   -5.33707e-02   4.21768e-02 DIIS/SHIFT/DAMP=40%
   @DF-UKS iter  20: -1930.34982005892698   -1.99237e-02   4.21885e-02 DIIS/SHIFT/DAMP=40%
   @DF-UKS iter  21: -1930.35581570579029   -5.99565e-03   4.21943e-02 DIIS/SHIFT/DAMP=40%
   @DF-UKS iter  22: -1930.35658471251077   -7.69007e-04   4.21974e-02 DIIS/SHIFT/DAMP=40%
   @DF-UKS iter  23: -1930.35572772982187    8.56983e-04   4.21992e-02 DIIS/SHIFT/DAMP=40%
   @DF-UKS iter  24: -1930.35460508345659    1.12265e-03   4.22003e-02 DIIS/SHIFT/DAMP=40%
   @DF-UKS iter  25: -1930.35365223044437    9.52853e-04   4.22010e-02 DIIS/SHIFT/DAMP=40%
   @DF-UKS iter  26: -1930.35295259454529    6.99636e-04   4.22015e-02 DIIS/SHIFT/DAMP=40%
   @DF-UKS iter  27: -1930.35247413707179    4.78457e-04   4.22018e-02 DIIS/SHIFT/DAMP=40%
   @DF-UKS iter  28: -1930.35215999429283    3.14143e-04   4.22020e-02 DIIS/SHIFT/DAMP=40%
   @DF-UKS iter  29: -1930.35195895230459    2.01042e-04   4.22022e-02 DIIS/SHIFT/DAMP=40%
   @DF-UKS iter  30: -1930.35183241191953    1.26540e-04   4.22023e-02 DIIS/SHIFT/DAMP=40%
   @DF-UKS iter  31: -1930.35175366795124    7.87440e-05   4.22023e-02 DIIS/SHIFT/DAMP=40%
   @DF-UKS iter  32: -1930.35170506020904    4.86077e-05   4.22024e-02 DIIS/SHIFT/DAMP=40%
   @DF-UKS iter  33: -1930.35167523305086    2.98272e-05   4.22024e-02 DIIS/SHIFT/DAMP=40%
   @DF-UKS iter  34: -1930.35165701504525    1.82180e-05   4.22024e-02 DIIS/SHIFT/DAMP=40%
   @DF-UKS iter  35: -1930.35164593117247    1.10839e-05   4.22024e-02 DIIS/SHIFT/DAMP=40%
   @DF-UKS iter  36: -1930.35163921183039    6.71934e-06   4.22024e-02 DIIS/SHIFT/DAMP=40%
   @DF-UKS iter  37: -1930.35163515286217    4.05897e-06   4.22024e-02 DIIS/SHIFT/DAMP=40%
   @DF-UKS iter  38: -1930.35163271022543    2.44264e-06   4.22025e-02 DIIS/SHIFT/DAMP=40%
   @DF-UKS iter  39: -1930.35163124648261    1.46374e-06   4.22025e-02 DIIS/SHIFT/DAMP=40%
   @DF-UKS iter  40: -1930.35163037361872    8.72864e-07   4.22025e-02 DIIS/SHIFT/DAMP=40%
   @DF-UKS iter  41: -1930.35162985610532    5.17513e-07   4.22025e-02 DIIS/SHIFT/DAMP=40%
   @DF-UKS iter  42: -1930.35162955140026    3.04705e-07   4.22025e-02 DIIS/SHIFT/DAMP=40%
   @DF-UKS iter  43: -1930.35162937350560    1.77895e-07   4.22025e-02 DIIS/SHIFT/DAMP=40%
   @DF-UKS iter  44: -1930.35162927073452    1.02771e-07   4.22025e-02 DIIS/SHIFT/DAMP=40%
   @DF-UKS iter  45: -1930.35162921214760    5.85869e-08   4.22025e-02 DIIS/SHIFT/DAMP=40%
   @DF-UKS iter  46: -1930.35162917931939    3.28282e-08   4.22025e-02 DIIS/SHIFT/DAMP=40%
   @DF-UKS iter  47: -1930.35162916134664    1.79728e-08   4.22025e-02 DIIS/SHIFT/DAMP=40%
   @DF-UKS iter  48: -1930.35162915182286    9.52377e-09   4.22025e-02 DIIS/SHIFT/DAMP=40%
   @DF-UKS iter  49: -1930.35162914702050    4.80236e-09   4.22025e-02 DIIS/SHIFT/DAMP=40%
   @DF-UKS iter  50: -1930.35162914478997    2.23054e-09   4.22025e-02 DIIS/SHIFT/DAMP=40%
   @DF-UKS iter  51: -1930.35162914391390    8.76071e-10   4.22025e-02 DIIS/SHIFT/DAMP=40%
   @DF-UKS iter  52: -1930.35162914371335    2.00544e-10   4.22025e-02 DIIS/SHIFT/DAMP=40%
   @DF-UKS iter  53: -1930.35162914381908   -1.05729e-10   4.22025e-02 DIIS/SHIFT/DAMP=40%
   @DF-UKS iter  54: -1930.35162914404259   -2.23508e-10   4.22025e-02 DIIS/SHIFT/DAMP=40%
   @DF-UKS iter  55: -1930.35162914428611   -2.43517e-10   4.22025e-02 DIIS/SHIFT/DAMP=40%
   @DF-UKS iter  56: -1930.35162914450871   -2.22599e-10   4.22025e-02 DIIS/SHIFT/DAMP=40%
   @DF-UKS iter  57: -1930.35162914469311   -1.84400e-10   4.22025e-02 DIIS/SHIFT/DAMP=40%
   @DF-UKS iter  58: -1930.35162914484135   -1.48248e-10   4.22025e-02 DIIS/SHIFT/DAMP=40%
   @DF-UKS iter  59: -1930.35162914495277   -1.11413e-10   4.22025e-02 DIIS/SHIFT/DAMP=40%
   @DF-UKS iter  60: -1930.35162914503849   -8.57199e-11   4.22025e-02 DIIS/SHIFT/DAMP=40%
   @DF-UKS iter  61: -1930.35162914509965   -6.11635e-11   4.22025e-02 DIIS/SHIFT/DAMP=40%
   @DF-UKS iter  62: -1930.35162914514467   -4.50200e-11   4.22025e-02 DIIS/SHIFT/DAMP=40%
   @DF-UKS iter  63: -1930.35162914517628   -3.16049e-11   4.22025e-02 DIIS/SHIFT/DAMP=40%
   @DF-UKS iter  64: -1930.35162914519947   -2.31921e-11   4.22025e-02 DIIS/SHIFT/DAMP=40%
   @DF-UKS iter  65: -1930.35162914521516   -1.56888e-11   4.22025e-02 DIIS/SHIFT/DAMP=40%
   @DF-UKS iter  66: -1930.35162914522652   -1.13687e-11   4.22025e-02 DIIS/SHIFT/DAMP=40%
   @DF-UKS iter  67: -1930.35162914523448   -7.95808e-12   4.22025e-02 DIIS/SHIFT/DAMP=40%
   @DF-UKS iter  68: -1930.35162914523971   -5.22959e-12   4.22025e-02 DIIS/SHIFT/DAMP=40%
   @DF-UKS iter  69: -1930.35162914524312   -3.41061e-12   4.22025e-02 DIIS/SHIFT/DAMP=40%
   @DF-UKS iter  70: -1930.35162914524608   -2.95586e-12   4.22025e-02 DIIS/SHIFT/DAMP=40%
   @DF-UKS iter  71: -1930.35162914524790   -1.81899e-12   4.22025e-02 DIIS/SHIFT/DAMP=40%
   @DF-UKS iter  72: -1930.35162914524972   -1.81899e-12   4.22025e-02 DIIS/SHIFT/DAMP=40%
   @DF-UKS iter  73: -1930.35162914525040   -6.82121e-13   4.22025e-02 DIIS/SHIFT/DAMP=40%
   @DF-UKS iter  74: -1930.35162914524994    4.54747e-13   4.22025e-02 DIIS/SHIFT/DAMP=40%
   @DF-UKS iter  75: -1930.35162914525108   -1.13687e-12   4.22025e-02 DIIS/SHIFT/DAMP=40%
   @DF-UKS iter  76: -1930.35162914525154   -4.54747e-13   4.22025e-02 DIIS/SHIFT/DAMP=40%
   @DF-UKS iter  77: -1930.35162914525154    0.00000e+00   4.22025e-02 DIIS/SHIFT/DAMP=40%
   @DF-UKS iter  78: -1930.35162914525154    0.00000e+00   4.22025e-02 DIIS/SHIFT/DAMP=40%
   @DF-UKS iter  79: -1930.35162914525154    0.00000e+00   4.22025e-02 DIIS/SHIFT/DAMP=40%
   @DF-UKS iter  80: -1930.35162914525154    0.00000e+00   4.22025e-02 DIIS/SHIFT/DAMP=40%
   @DF-UKS iter  81: -1930.35162914525085    6.82121e-13   4.22025e-02 DIIS/SHIFT/DAMP=40%
   @DF-UKS iter  82: -1930.35162914525199   -1.13687e-12   4.22025e-02 DIIS/SHIFT/DAMP=40%
   @DF-UKS iter  83: -1930.35162914525085    1.13687e-12   4.22025e-02 DIIS/SHIFT/DAMP=40%
   @DF-UKS iter  84: -1930.35162914525131   -4.54747e-13   4.22025e-02 DIIS/SHIFT/DAMP=40%
   @DF-UKS iter  85: -1930.35162914525131    0.00000e+00   4.22025e-02 DIIS/SHIFT/DAMP=40%
   @DF-UKS iter  86: -1930.35162914525245   -1.13687e-12   4.22025e-02 DIIS/SHIFT/DAMP=40%
   @DF-UKS iter  87: -1930.35162914525154    9.09495e-13   4.22025e-02 DIIS/SHIFT/DAMP=40%
   @DF-UKS iter  88: -1930.35162914525085    6.82121e-13   4.22025e-02 DIIS/SHIFT/DAMP=40%
   @DF-UKS iter  89: -1930.35162914525176   -9.09495e-13   4.22025e-02 DIIS/SHIFT/DAMP=40%
   @DF-UKS iter  90: -1930.35162914525199   -2.27374e-13   4.22025e-02 DIIS/SHIFT/DAMP=40%
   @DF-UKS iter  91: -1930.35162914525222   -2.27374e-13   4.22025e-02 DIIS/SHIFT/DAMP=40%
   @DF-UKS iter  92: -1930.35162914525176    4.54747e-13   4.22025e-02 DIIS/SHIFT/DAMP=40%
   @DF-UKS iter  93: -1930.35162914525176    0.00000e+00   4.22025e-02 DIIS/SHIFT/DAMP=40%
   @DF-UKS iter  94: -1930.35162914525108    6.82121e-13   4.22025e-02 DIIS/SHIFT/DAMP=40%
   @DF-UKS iter  95: -1930.35162914525199   -9.09495e-13   4.22025e-02 DIIS/SHIFT/DAMP=40%
   @DF-UKS iter  96: -1930.35162914525154    4.54747e-13   4.22025e-02 DIIS/SHIFT/DAMP=40%
   @DF-UKS iter  97: -1930.35162914525176   -2.27374e-13   4.22025e-02 DIIS/SHIFT/DAMP=40%
   @DF-UKS iter  98: -1930.35162914525176    0.00000e+00   4.22025e-02 DIIS/SHIFT/DAMP=40%
   @DF-UKS iter  99: -1930.35162914525063    1.13687e-12   4.22025e-02 DIIS/SHIFT/DAMP=40%
   @DF-UKS iter 100: -1930.35162914525154   -9.09495e-13   4.22025e-02 DIIS/SHIFT/DAMP=40%
   @DF-UKS iter 101: -1930.35162914525176   -2.27374e-13   4.22025e-02 DIIS/SHIFT/DAMP=40%
   @DF-UKS iter 102: -1930.35162914525154    2.27374e-13   4.22025e-02 DIIS/SHIFT/DAMP=40%
   @DF-UKS iter 103: -1930.35162914525131    2.27374e-13   4.22025e-02 DIIS/SHIFT/DAMP=40%
   @DF-UKS iter 104: -1930.35162914525108    2.27374e-13   4.22025e-02 DIIS/SHIFT/DAMP=40%
   @DF-UKS iter 105: -1930.35162914525131   -2.27374e-13   4.22025e-02 DIIS/SHIFT/DAMP=40%
   @DF-UKS iter 106: -1930.35162914525131    0.00000e+00   4.22025e-02 DIIS/SHIFT/DAMP=40%
   @DF-UKS iter 107: -1930.35162914525199   -6.82121e-13   4.22025e-02 DIIS/SHIFT/DAMP=40%
   @DF-UKS iter 108: -1930.35162914525108    9.09495e-13   4.22025e-02 DIIS/SHIFT/DAMP=40%
   @DF-UKS iter 109: -1930.35162914525154   -4.54747e-13   4.22025e-02 DIIS/SHIFT/DAMP=40%
   @DF-UKS iter 110: -1930.35162914525085    6.82121e-13   4.22025e-02 DIIS/SHIFT/DAMP=40%
   @DF-UKS iter 111: -1930.35162914525199   -1.13687e-12   4.22025e-02 DIIS/SHIFT/DAMP=40%
   @DF-UKS iter 112: -1930.35162914525108    9.09495e-13   4.22025e-02 DIIS/SHIFT/DAMP=40%
   @DF-UKS iter 113: -1930.35162914525176   -6.82121e-13   4.22025e-02 DIIS/SHIFT/DAMP=40%
   @DF-UKS iter 114: -1930.35162914525108    6.82121e-13   4.22025e-02 DIIS/SHIFT/DAMP=40%
   @DF-UKS iter 115: -1930.35162914525199   -9.09495e-13   4.22025e-02 DIIS/SHIFT/DAMP=40%
   @DF-UKS iter 116: -1930.35162914525154    4.54747e-13   4.22025e-02 DIIS/SHIFT/DAMP=40%
   @DF-UKS iter 117: -1930.35162914525154    0.00000e+00   4.22025e-02 DIIS/SHIFT/DAMP=40%
   @DF-UKS iter 118: -1930.35162914525290   -1.36424e-12   4.22025e-02 DIIS/SHIFT/DAMP=40%
   @DF-UKS iter 119: -1930.35162914525085    2.04636e-12   4.22025e-02 DIIS/SHIFT/DAMP=40%
   @DF-UKS iter 120: -1930.35162914525131   -4.54747e-13   4.22025e-02 DIIS/SHIFT/DAMP=40%
   @DF-UKS iter 121: -1930.35162914525199   -6.82121e-13   4.22025e-02 DIIS/SHIFT/DAMP=40%
   @DF-UKS iter 122: -1930.35162914525176    2.27374e-13   4.22025e-02 DIIS/SHIFT/DAMP=40%
   @DF-UKS iter 123: -1930.35162914525154    2.27374e-13   4.22025e-02 DIIS/SHIFT/DAMP=40%
   @DF-UKS iter 124: -1930.35162914525199   -4.54747e-13   4.22025e-02 DIIS/SHIFT/DAMP=40%
   @DF-UKS iter 125: -1930.35162914525199    0.00000e+00   4.22025e-02 DIIS/SHIFT/DAMP=40%
   @DF-UKS iter 126: -1930.35162914525176    2.27374e-13   4.22025e-02 DIIS/SHIFT/DAMP=40%
   @DF-UKS iter 127: -1930.35162914525222   -4.54747e-13   4.22025e-02 DIIS/SHIFT/DAMP=40%
   @DF-UKS iter 128: -1930.35162914525199    2.27374e-13   4.22025e-02 DIIS/SHIFT/DAMP=40%
   @DF-UKS iter 129: -1930.35162914525176    2.27374e-13   4.22025e-02 DIIS/SHIFT/DAMP=40%
   @DF-UKS iter 130: -1930.35162914525063    1.13687e-12   4.22025e-02 DIIS/SHIFT/DAMP=40%
   @DF-UKS iter 131: -1930.35162914525222   -1.59162e-12   4.22025e-02 DIIS/SHIFT/DAMP=40%
   @DF-UKS iter 132: -1930.35162914525176    4.54747e-13   4.22025e-02 DIIS/SHIFT/DAMP=40%
   @DF-UKS iter 133: -1930.35162914525176    0.00000e+00   4.22025e-02 DIIS/SHIFT/DAMP=40%
   @DF-UKS iter 134: -1930.35162914525108    6.82121e-13   4.22025e-02 DIIS/SHIFT/DAMP=40%
   @DF-UKS iter 135: -1930.35162914525199   -9.09495e-13   4.22025e-02 DIIS/SHIFT/DAMP=40%
   @DF-UKS iter 136: -1930.35162914525154    4.54747e-13   4.22025e-02 DIIS/SHIFT/DAMP=40%
   @DF-UKS iter 137: -1930.35162914525108    4.54747e-13   4.22025e-02 DIIS/SHIFT/DAMP=40%
   @DF-UKS iter 138: -1930.35162914525222   -1.13687e-12   4.22025e-02 DIIS/SHIFT/DAMP=40%
   @DF-UKS iter 139: -1930.35162914525176    4.54747e-13   4.22025e-02 DIIS/SHIFT/DAMP=40%
   @DF-UKS iter 140: -1930.35162914525199   -2.27374e-13   4.22025e-02 DIIS/SHIFT/DAMP=40%
   @DF-UKS iter 141: -1930.35162914525199    0.00000e+00   4.22025e-02 DIIS/SHIFT/DAMP=40%
   @DF-UKS iter 142: -1930.35162914525199    0.00000e+00   4.22025e-02 DIIS/SHIFT/DAMP=40%
   @DF-UKS iter 143: -1930.35162914525154    4.54747e-13   4.22025e-02 DIIS/SHIFT/DAMP=40%
   @DF-UKS iter 144: -1930.35162914525199   -4.54747e-13   4.22025e-02 DIIS/SHIFT/DAMP=40%
   @DF-UKS iter 145: -1930.35162914525199    0.00000e+00   4.22025e-02 DIIS/SHIFT/DAMP=40%
   @DF-UKS iter 146: -1930.35162914525199    0.00000e+00   4.22025e-02 DIIS/SHIFT/DAMP=40%
   @DF-UKS iter 147: -1930.35162914525176    2.27374e-13   4.22025e-02 DIIS/SHIFT/DAMP=40%
   @DF-UKS iter 148: -1930.35162914525131    4.54747e-13   4.22025e-02 DIIS/SHIFT/DAMP=40%
   @DF-UKS iter 149: -1930.35162914525131    0.00000e+00   4.22025e-02 DIIS/SHIFT/DAMP=40%
   @DF-UKS iter 150: -1930.35162914525131    0.00000e+00   4.22025e-02 DIIS/SHIFT/DAMP=40%
   @DF-UKS iter 151: -1930.35162914525108    2.27374e-13   4.22025e-02 DIIS/SHIFT/DAMP=40%
   @DF-UKS iter 152: -1930.35162914525154   -4.54747e-13   4.22025e-02 DIIS/SHIFT/DAMP=40%
   @DF-UKS iter 153: -1930.35162914525199   -4.54747e-13   4.22025e-02 DIIS/SHIFT/DAMP=40%
   @DF-UKS iter 154: -1930.35162914525154    4.54747e-13   4.22025e-02 DIIS/SHIFT/DAMP=40%
   @DF-UKS iter 155: -1930.35162914525154    0.00000e+00   4.22025e-02 DIIS/SHIFT/DAMP=40%
   @DF-UKS iter 156: -1930.35162914525154    0.00000e+00   4.22025e-02 DIIS/SHIFT/DAMP=40%
   @DF-UKS iter 157: -1930.35162914525222   -6.82121e-13   4.22025e-02 DIIS/SHIFT/DAMP=40%
   @DF-UKS iter 158: -1930.35162914525176    4.54747e-13   4.22025e-02 DIIS/SHIFT/DAMP=40%
   @DF-UKS iter 159: -1930.35162914525154    2.27374e-13   4.22025e-02 DIIS/SHIFT/DAMP=40%
   @DF-UKS iter 160: -1930.35162914525108    4.54747e-13   4.22025e-02 DIIS/SHIFT/DAMP=40%
   @DF-UKS iter 161: -1930.35162914525199   -9.09495e-13   4.22025e-02 DIIS/SHIFT/DAMP=40%
   @DF-UKS iter 162: -1930.35162914525176    2.27374e-13   4.22025e-02 DIIS/SHIFT/DAMP=40%
   @DF-UKS iter 163: -1930.35162914525108    6.82121e-13   4.22025e-02 DIIS/SHIFT/DAMP=40%
   @DF-UKS iter 164: -1930.35162914525176   -6.82121e-13   4.22025e-02 DIIS/SHIFT/DAMP=40%
   @DF-UKS iter 165: -1930.35162914525245   -6.82121e-13   4.22025e-02 DIIS/SHIFT/DAMP=40%
   @DF-UKS iter 166: -1930.35162914525222    2.27374e-13   4.22025e-02 DIIS/SHIFT/DAMP=40%
   @DF-UKS iter 167: -1930.35162914525176    4.54747e-13   4.22025e-02 DIIS/SHIFT/DAMP=40%
   @DF-UKS iter 168: -1930.35162914525154    2.27374e-13   4.22025e-02 DIIS/SHIFT/DAMP=40%
   @DF-UKS iter 169: -1930.35162914525176   -2.27374e-13   4.22025e-02 DIIS/SHIFT/DAMP=40%
   @DF-UKS iter 170: -1930.35162914525154    2.27374e-13   4.22025e-02 DIIS/SHIFT/DAMP=40%
   @DF-UKS iter 171: -1930.35162914525267   -1.13687e-12   4.22025e-02 DIIS/SHIFT/DAMP=40%
   @DF-UKS iter 172: -1930.35162914525222    4.54747e-13   4.22025e-02 DIIS/SHIFT/DAMP=40%
   @DF-UKS iter 173: -1930.35162914525108    1.13687e-12   4.22025e-02 DIIS/SHIFT/DAMP=40%
   @DF-UKS iter 174: -1930.35162914525176   -6.82121e-13   4.22025e-02 DIIS/SHIFT/DAMP=40%
   @DF-UKS iter 175: -1930.35162914525176    0.00000e+00   4.22025e-02 DIIS/SHIFT/DAMP=40%
   @DF-UKS iter 176: -1930.35162914525176    0.00000e+00   4.22025e-02 DIIS/SHIFT/DAMP=40%
   @DF-UKS iter 177: -1930.35162914525108    6.82121e-13   4.22025e-02 DIIS/SHIFT/DAMP=40%
   @DF-UKS iter 178: -1930.35162914525245   -1.36424e-12   4.22025e-02 DIIS/SHIFT/DAMP=40%
   @DF-UKS iter 179: -1930.35162914525176    6.82121e-13   4.22025e-02 DIIS/SHIFT/DAMP=40%
   @DF-UKS iter 180: -1930.35162914525131    4.54747e-13   4.22025e-02 DIIS/SHIFT/DAMP=40%
   @DF-UKS iter 181: -1930.35162914525154   -2.27374e-13   4.22025e-02 DIIS/SHIFT/DAMP=40%
   @DF-UKS iter 182: -1930.35162914525154    0.00000e+00   4.22025e-02 DIIS/SHIFT/DAMP=40%
   @DF-UKS iter 183: -1930.35162914525176   -2.27374e-13   4.22025e-02 DIIS/SHIFT/DAMP=40%
   @DF-UKS iter 184: -1930.35162914525245   -6.82121e-13   4.22025e-02 DIIS/SHIFT/DAMP=40%
   @DF-UKS iter 185: -1930.35162914525108    1.36424e-12   4.22025e-02 DIIS/SHIFT/DAMP=40%
   @DF-UKS iter 186: -1930.35162914525199   -9.09495e-13   4.22025e-02 DIIS/SHIFT/DAMP=40%
   @DF-UKS iter 187: -1930.35162914525199    0.00000e+00   4.22025e-02 DIIS/SHIFT/DAMP=40%
   @DF-UKS iter 188: -1930.35162914525245   -4.54747e-13   4.22025e-02 DIIS/SHIFT/DAMP=40%
   @DF-UKS iter 189: -1930.35162914525040    2.04636e-12   4.22025e-02 DIIS/SHIFT/DAMP=40%
   @DF-UKS iter 190: -1930.35162914525017    2.27374e-13   4.22025e-02 DIIS/SHIFT/DAMP=40%
   @DF-UKS iter 191: -1930.35162914525267   -2.50111e-12   4.22025e-02 DIIS/SHIFT/DAMP=40%
   @DF-UKS iter 192: -1930.35162914525154    1.13687e-12   4.22025e-02 DIIS/SHIFT/DAMP=40%
   @DF-UKS iter 193: -1930.35162914525154    0.00000e+00   4.22025e-02 DIIS/SHIFT/DAMP=40%
   @DF-UKS iter 194: -1930.35162914525222   -6.82121e-13   4.22025e-02 DIIS/SHIFT/DAMP=40%
   @DF-UKS iter 195: -1930.35162914525154    6.82121e-13   4.22025e-02 DIIS/SHIFT/DAMP=40%
   @DF-UKS iter 196: -1930.35162914525199   -4.54747e-13   4.22025e-02 DIIS/SHIFT/DAMP=40%
   @DF-UKS iter 197: -1930.35162914525154    4.54747e-13   4.22025e-02 DIIS/SHIFT/DAMP=40%
   @DF-UKS iter 198: -1930.35162914525199   -4.54747e-13   4.22025e-02 DIIS/SHIFT/DAMP=40%
   @DF-UKS iter 199: -1930.35162914525199    0.00000e+00   4.22025e-02 DIIS/SHIFT/DAMP=40%
   @DF-UKS iter 200: -1930.35162914525176    2.27374e-13   4.22025e-02 DIIS/SHIFT/DAMP=40%
   @DF-UKS iter 201: -1930.35162914525199   -2.27374e-13   4.22025e-02 DIIS/SHIFT/DAMP=40%
   @DF-UKS iter 202: -1930.35162914525290   -9.09495e-13   4.22025e-02 DIIS/SHIFT/DAMP=40%
   @DF-UKS iter 203: -1930.35162914525199    9.09495e-13   4.22025e-02 DIIS/SHIFT/DAMP=40%
   @DF-UKS iter 204: -1930.35162914525199    0.00000e+00   4.22025e-02 DIIS/SHIFT/DAMP=40%
   @DF-UKS iter 205: -1930.35162914525108    9.09495e-13   4.22025e-02 DIIS/SHIFT/DAMP=40%
   @DF-UKS iter 206: -1930.35162914525154   -4.54747e-13   4.22025e-02 DIIS/SHIFT/DAMP=40%
   @DF-UKS iter 207: -1930.35162914525222   -6.82121e-13   4.22025e-02 DIIS/SHIFT/DAMP=40%
   @DF-UKS iter 208: -1930.35162914525199    2.27374e-13   4.22025e-02 DIIS/SHIFT/DAMP=40%
   @DF-UKS iter 209: -1930.35162914525154    4.54747e-13   4.22025e-02 DIIS/SHIFT/DAMP=40%
   @DF-UKS iter 210: -1930.35162914525176   -2.27374e-13   4.22025e-02 DIIS/SHIFT/DAMP=40%
   @DF-UKS iter 211: -1930.35162914525176    0.00000e+00   4.22025e-02 DIIS/SHIFT/DAMP=40%
   @DF-UKS iter 212: -1930.35162914525154    2.27374e-13   4.22025e-02 DIIS/SHIFT/DAMP=40%
   @DF-UKS iter 213: -1930.35162914525154    0.00000e+00   4.22025e-02 DIIS/SHIFT/DAMP=40%
   @DF-UKS iter 214: -1930.35162914525154    0.00000e+00   4.22025e-02 DIIS/SHIFT/DAMP=40%
   @DF-UKS iter 215: -1930.35162914525154    0.00000e+00   4.22025e-02 DIIS/SHIFT/DAMP=40%
   @DF-UKS iter 216: -1930.35162914525108    4.54747e-13   4.22025e-02 DIIS/SHIFT/DAMP=40%
   @DF-UKS iter 217: -1930.35162914525199   -9.09495e-13   4.22025e-02 DIIS/SHIFT/DAMP=40%
   @DF-UKS iter 218: -1930.35162914525176    2.27374e-13   4.22025e-02 DIIS/SHIFT/DAMP=40%
   @DF-UKS iter 219: -1930.35162914525199   -2.27374e-13   4.22025e-02 DIIS/SHIFT/DAMP=40%
   @DF-UKS iter 220: -1930.35162914525154    4.54747e-13   4.22025e-02 DIIS/SHIFT/DAMP=40%
   @DF-UKS iter 221: -1930.35162914525199   -4.54747e-13   4.22025e-02 DIIS/SHIFT/DAMP=40%
   @DF-UKS iter 222: -1930.35162914525154    4.54747e-13   4.22025e-02 DIIS/SHIFT/DAMP=40%
   @DF-UKS iter 223: -1930.35162914525245   -9.09495e-13   4.22025e-02 DIIS/SHIFT/DAMP=40%
   @DF-UKS iter 224: -1930.35162914525154    9.09495e-13   4.22025e-02 DIIS/SHIFT/DAMP=40%
   @DF-UKS iter 225: -1930.35162914525131    2.27374e-13   4.22025e-02 DIIS/SHIFT/DAMP=40%
   @DF-UKS iter 226: -1930.35162914525176   -4.54747e-13   4.22025e-02 DIIS/SHIFT/DAMP=40%
   @DF-UKS iter 227: -1930.35162914525199   -2.27374e-13   4.22025e-02 DIIS/SHIFT/DAMP=40%
   @DF-UKS iter 228: -1930.35162914525154    4.54747e-13   4.22025e-02 DIIS/SHIFT/DAMP=40%
   @DF-UKS iter 229: -1930.35162914525154    0.00000e+00   4.22025e-02 DIIS/SHIFT/DAMP=40%
   @DF-UKS iter 230: -1930.35162914525176   -2.27374e-13   4.22025e-02 DIIS/SHIFT/DAMP=40%
   @DF-UKS iter 231: -1930.35162914525176    0.00000e+00   4.22025e-02 DIIS/SHIFT/DAMP=40%
   @DF-UKS iter 232: -1930.35162914525176    0.00000e+00   4.22025e-02 DIIS/SHIFT/DAMP=40%
   @DF-UKS iter 233: -1930.35162914525085    9.09495e-13   4.22025e-02 DIIS/SHIFT/DAMP=40%
   @DF-UKS iter 234: -1930.35162914525199   -1.13687e-12   4.22025e-02 DIIS/SHIFT/DAMP=40%
   @DF-UKS iter 235: -1930.35162914525154    4.54747e-13   4.22025e-02 DIIS/SHIFT/DAMP=40%
   @DF-UKS iter 236: -1930.35162914525199   -4.54747e-13   4.22025e-02 DIIS/SHIFT/DAMP=40%
   @DF-UKS iter 237: -1930.35162914525154    4.54747e-13   4.22025e-02 DIIS/SHIFT/DAMP=40%
   @DF-UKS iter 238: -1930.35162914525085    6.82121e-13   4.22025e-02 DIIS/SHIFT/DAMP=40%
   @DF-UKS iter 239: -1930.35162914525108   -2.27374e-13   4.22025e-02 DIIS/SHIFT/DAMP=40%
   @DF-UKS iter 240: -1930.35162914525199   -9.09495e-13   4.22025e-02 DIIS/SHIFT/DAMP=40%
   @DF-UKS iter 241: -1930.35162914525154    4.54747e-13   4.22025e-02 DIIS/SHIFT/DAMP=40%
   @DF-UKS iter 242: -1930.35162914525222   -6.82121e-13   4.22025e-02 DIIS/SHIFT/DAMP=40%
   @DF-UKS iter 243: -1930.35162914525245   -2.27374e-13   4.22025e-02 DIIS/SHIFT/DAMP=40%
   @DF-UKS iter 244: -1930.35162914525176    6.82121e-13   4.22025e-02 DIIS/SHIFT/DAMP=40%
   @DF-UKS iter 245: -1930.35162914525176    0.00000e+00   4.22025e-02 DIIS/SHIFT/DAMP=40%
   @DF-UKS iter 246: -1930.35162914525199   -2.27374e-13   4.22025e-02 DIIS/SHIFT/DAMP=40%
   @DF-UKS iter 247: -1930.35162914525176    2.27374e-13   4.22025e-02 DIIS/SHIFT/DAMP=40%
   @DF-UKS iter 248: -1930.35162914525154    2.27374e-13   4.22025e-02 DIIS/SHIFT/DAMP=40%
   @DF-UKS iter 249: -1930.35162914525154    0.00000e+00   4.22025e-02 DIIS/SHIFT/DAMP=40%
   @DF-UKS iter 250: -1930.35162914525222   -6.82121e-13   4.22025e-02 DIIS/SHIFT/DAMP=40%
   @DF-UKS iter 251: -1930.35162914525108    1.13687e-12   4.22025e-02 DIIS/SHIFT/DAMP=40%
   @DF-UKS iter 252: -1930.35162914525199   -9.09495e-13   4.22025e-02 DIIS/SHIFT/DAMP=40%
   @DF-UKS iter 253: -1930.35162914525154    4.54747e-13   4.22025e-02 DIIS/SHIFT/DAMP=40%
   @DF-UKS iter 254: -1930.35162914525154    0.00000e+00   4.22025e-02 DIIS/SHIFT/DAMP=40%
   @DF-UKS iter 255: -1930.35162914525131    2.27374e-13   4.22025e-02 DIIS/SHIFT/DAMP=40%
   @DF-UKS iter 256: -1930.35162914525176   -4.54747e-13   4.22025e-02 DIIS/SHIFT/DAMP=40%
   @DF-UKS iter 257: -1930.35162914525108    6.82121e-13   4.22025e-02 DIIS/SHIFT/DAMP=40%
   @DF-UKS iter 258: -1930.35162914525199   -9.09495e-13   4.22025e-02 DIIS/SHIFT/DAMP=40%
   @DF-UKS iter 259: -1930.35162914525199    0.00000e+00   4.22025e-02 DIIS/SHIFT/DAMP=40%
   @DF-UKS iter 260: -1930.35162914525154    4.54747e-13   4.22025e-02 DIIS/SHIFT/DAMP=40%
   @DF-UKS iter 261: -1930.35162914525199   -4.54747e-13   4.22025e-02 DIIS/SHIFT/DAMP=40%
   @DF-UKS iter 262: -1930.35162914525131    6.82121e-13   4.22025e-02 DIIS/SHIFT/DAMP=40%
   @DF-UKS iter 263: -1930.35162914525085    4.54747e-13   4.22025e-02 DIIS/SHIFT/DAMP=40%
   @DF-UKS iter 264: -1930.35162914525131   -4.54747e-13   4.22025e-02 DIIS/SHIFT/DAMP=40%
   @DF-UKS iter 265: -1930.35162914525108    2.27374e-13   4.22025e-02 DIIS/SHIFT/DAMP=40%
   @DF-UKS iter 266: -1930.35162914525154   -4.54747e-13   4.22025e-02 DIIS/SHIFT/DAMP=40%
   @DF-UKS iter 267: -1930.35162914525154    0.00000e+00   4.22025e-02 DIIS/SHIFT/DAMP=40%
   @DF-UKS iter 268: -1930.35162914525245   -9.09495e-13   4.22025e-02 DIIS/SHIFT/DAMP=40%
   @DF-UKS iter 269: -1930.35162914525176    6.82121e-13   4.22025e-02 DIIS/SHIFT/DAMP=40%
   @DF-UKS iter 270: -1930.35162914525176    0.00000e+00   4.22025e-02 DIIS/SHIFT/DAMP=40%
   @DF-UKS iter 271: -1930.35162914525131    4.54747e-13   4.22025e-02 DIIS/SHIFT/DAMP=40%
   @DF-UKS iter 272: -1930.35162914525131    0.00000e+00   4.22025e-02 DIIS/SHIFT/DAMP=40%
   @DF-UKS iter 273: -1930.35162914525154   -2.27374e-13   4.22025e-02 DIIS/SHIFT/DAMP=40%
   @DF-UKS iter 274: -1930.35162914525199   -4.54747e-13   4.22025e-02 DIIS/SHIFT/DAMP=40%
   @DF-UKS iter 275: -1930.35162914525199    0.00000e+00   4.22025e-02 DIIS/SHIFT/DAMP=40%
   @DF-UKS iter 276: -1930.35162914525245   -4.54747e-13   4.22025e-02 DIIS/SHIFT/DAMP=40%
   @DF-UKS iter 277: -1930.35162914525085    1.59162e-12   4.22025e-02 DIIS/SHIFT/DAMP=40%
   @DF-UKS iter 278: -1930.35162914525131   -4.54747e-13   4.22025e-02 DIIS/SHIFT/DAMP=40%
   @DF-UKS iter 279: -1930.35162914525131    0.00000e+00   4.22025e-02 DIIS/SHIFT/DAMP=40%
   @DF-UKS iter 280: -1930.35162914525154   -2.27374e-13   4.22025e-02 DIIS/SHIFT/DAMP=40%
   @DF-UKS iter 281: -1930.35162914525131    2.27374e-13   4.22025e-02 DIIS/SHIFT/DAMP=40%
   @DF-UKS iter 282: -1930.35162914525176   -4.54747e-13   4.22025e-02 DIIS/SHIFT/DAMP=40%
   @DF-UKS iter 283: -1930.35162914525108    6.82121e-13   4.22025e-02 DIIS/SHIFT/DAMP=40%
   @DF-UKS iter 284: -1930.35162914525108    0.00000e+00   4.22025e-02 DIIS/SHIFT/DAMP=40%
   @DF-UKS iter 285: -1930.35162914525131   -2.27374e-13   4.22025e-02 DIIS/SHIFT/DAMP=40%
   @DF-UKS iter 286: -1930.35162914525154   -2.27374e-13   4.22025e-02 DIIS/SHIFT/DAMP=40%
   @DF-UKS iter 287: -1930.35162914525085    6.82121e-13   4.22025e-02 DIIS/SHIFT/DAMP=40%
   @DF-UKS iter 288: -1930.35162914525176   -9.09495e-13   4.22025e-02 DIIS/SHIFT/DAMP=40%
   @DF-UKS iter 289: -1930.35162914525245   -6.82121e-13   4.22025e-02 DIIS/SHIFT/DAMP=40%
   @DF-UKS iter 290: -1930.35162914525199    4.54747e-13   4.22025e-02 DIIS/SHIFT/DAMP=40%
   @DF-UKS iter 291: -1930.35162914525154    4.54747e-13   4.22025e-02 DIIS/SHIFT/DAMP=40%
   @DF-UKS iter 292: -1930.35162914525176   -2.27374e-13   4.22025e-02 DIIS/SHIFT/DAMP=40%
   @DF-UKS iter 293: -1930.35162914525199   -2.27374e-13   4.22025e-02 DIIS/SHIFT/DAMP=40%
   @DF-UKS iter 294: -1930.35162914525176    2.27374e-13   4.22025e-02 DIIS/SHIFT/DAMP=40%
   @DF-UKS iter 295: -1930.35162914525108    6.82121e-13   4.22025e-02 DIIS/SHIFT/DAMP=40%
   @DF-UKS iter 296: -1930.35162914525063    4.54747e-13   4.22025e-02 DIIS/SHIFT/DAMP=40%
   @DF-UKS iter 297: -1930.35162914525176   -1.13687e-12   4.22025e-02 DIIS/SHIFT/DAMP=40%
   @DF-UKS iter 298: -1930.35162914525245   -6.82121e-13   4.22025e-02 DIIS/SHIFT/DAMP=40%
   @DF-UKS iter 299: -1930.35162914525108    1.36424e-12   4.22025e-02 DIIS/SHIFT/DAMP=40%
   @DF-UKS iter 300: -1930.35162914525176   -6.82121e-13   4.22025e-02 DIIS/SHIFT/DAMP=40%

PsiException: Could not converge SCF iterations in 300 iterations.

  Energy and/or wave function did not converge, but proceeding anyway.


  ==> Post-Iterations <==

   Electrons on quadrature grid:
      Nalpha   =   40.9999524993 ; deviation = -4.750e-05
      Nbeta    =   40.9999523230 ; deviation = -4.768e-05
      Ntotal   =   81.9999048223 ; deviation = -9.518e-05 

   @Spin Contamination Metric:   1.900413171E-04
   @S^2 Expected:                0.000000000E+00
   @S^2 Observed:                1.900413171E-04
   @S   Expected:                0.000000000E+00
   @S   Observed:                0.000000000E+00

    Orbital Energies [Eh]
    ---------------------

    Alpha Occupied:                                                       

       1A   -256.531614     2A    -87.653929     3A    -31.087551  
       4A    -27.074693     5A    -27.060985     6A    -27.048654  
       7A    -19.561241     8A    -15.035149     9A    -14.551305  
      10A    -13.887301    11A    -13.604978    12A     -7.380618  
      13A     -5.397465    14A     -5.396561    15A     -5.371341  
      16A     -4.436812    17A     -3.250171    18A     -3.220847  
      19A     -3.193361    20A     -1.513142    21A     -1.422641  
      22A     -1.263378    23A     -1.261358    24A     -1.247796  
      25A     -1.244029    26A     -1.230349    27A     -1.182664  
      28A     -0.997616    29A     -0.968760    30A     -0.957191  
      31A     -0.910600    32A     -0.876048    33A     -0.859106  
      34A     -0.845698    35A     -0.724112    36A     -0.699758  
      37A     -0.682801    38A     -0.611470    39A     -0.586543  
      40A     -0.436317    41A     -0.411078  

    Alpha Virtual:                                                        

      42A     -0.265220    43A     -0.238032    44A     -0.200045  
      45A     -0.170232    46A     -0.146261    47A     -0.125324  
      48A     -0.115308    49A     -0.065168    50A     -0.049781  
      51A     -0.025724    52A     -0.003066    53A      0.047446  
      54A      0.059049    55A      0.095857    56A      0.138189  
      57A      0.147267    58A      0.162334    59A      0.194818  
      60A      0.228729    61A      0.256232    62A      0.307870  
      63A      0.327373    64A      0.378778    65A      0.399248  
      66A      0.422690    67A      0.444138    68A      0.461262  
      69A      0.472978    70A      0.509984    71A      0.537585  
      72A      0.586153    73A      0.590011    74A      0.611946  
      75A      0.620912    76A      0.625904    77A      0.657759  
      78A      0.683037    79A      0.701504    80A      0.733419  
      81A      0.737687    82A      0.753341    83A      0.769632  
      84A      0.803138    85A      0.824344    86A      0.839702  
      87A      0.857151    88A      0.906281    89A      0.924761  
      90A      0.948620    91A      0.955901    92A      0.990666  
      93A      0.991103    94A      1.043859    95A      1.059329  
      96A      1.127638    97A      1.175196    98A      1.184873  
      99A      1.209657   100A      1.235776   101A      1.307730  
     102A      1.438051   103A      1.445593   104A      1.457800  
     105A      1.508367   106A      1.543916   107A      1.596205  
     108A      1.622471   109A      1.641406   110A      1.696459  
     111A      1.700604   112A      1.744442   113A      1.766816  
     114A      1.902334   115A      1.942208   116A      1.945600  
     117A      1.980214   118A      2.014228   119A      2.018483  
     120A      2.053795   121A      2.063386   122A      2.116454  
     123A      2.180739   124A      2.189042   125A      2.228502  
     126A      2.260557   127A      2.315446   128A      2.407412  
     129A      2.431806   130A      2.476892   131A      2.554134  
     132A      2.612324   133A      2.618375   134A      2.632281  
     135A      2.718396   136A      3.125789   137A      3.171409  
     138A      3.180860   139A      3.194549   140A      3.208917  
     141A      3.215431   142A      3.307819   143A      3.315458  
     144A      3.476353  

    Beta Occupied:                                                        

       1A   -256.531607     2A    -87.653995     3A    -31.087556  
       4A    -27.074701     5A    -27.060966     6A    -27.048673  
       7A    -19.561249     8A    -15.034953     9A    -14.551173  
      10A    -13.887310    11A    -13.604924    12A     -7.380703  
      13A     -5.397574    14A     -5.396674    15A     -5.371404  
      16A     -4.436807    17A     -3.250173    18A     -3.220790  
      19A     -3.193393    20A     -1.513191    21A     -1.421982  
      22A     -1.263359    23A     -1.261380    24A     -1.247748  
      25A     -1.243972    26A     -1.230349    27A     -1.182431  
      28A     -0.997334    29A     -0.968125    30A     -0.956857  
      31A     -0.910230    32A     -0.876080    33A     -0.859072  
      34A     -0.845663    35A     -0.724127    36A     -0.699735  
      37A     -0.682723    38A     -0.611460    39A     -0.586593  
      40A     -0.436089    41A     -0.409645  

    Beta Virtual:                                                         

      42A     -0.265027    43A     -0.237611    44A     -0.199946  
      45A     -0.170450    46A     -0.146504    47A     -0.125390  
      48A     -0.115619    49A     -0.064951    50A     -0.049619  
      51A     -0.025635    52A     -0.003088    53A      0.047217  
      54A      0.059214    55A      0.096136    56A      0.138626  
      57A      0.146996    58A      0.162812    59A      0.195183  
      60A      0.228564    61A      0.255797    62A      0.307990  
      63A      0.327447    64A      0.379060    65A      0.399053  
      66A      0.422982    67A      0.444358    68A      0.461599  
      69A      0.473164    70A      0.510053    71A      0.537601  
      72A      0.586316    73A      0.589864    74A      0.611631  
      75A      0.620851    76A      0.625165    77A      0.657719  
      78A      0.682969    79A      0.701271    80A      0.733287  
      81A      0.737677    82A      0.753171    83A      0.769432  
      84A      0.803013    85A      0.824231    86A      0.839623  
      87A      0.857148    88A      0.906273    89A      0.924810  
      90A      0.948581    91A      0.956008    92A      0.990664  
      93A      0.991159    94A      1.043966    95A      1.059434  
      96A      1.127632    97A      1.175379    98A      1.184999  
      99A      1.209738   100A      1.235863   101A      1.308112  
     102A      1.438991   103A      1.446402   104A      1.458274  
     105A      1.508597   106A      1.544371   107A      1.596591  
     108A      1.622775   109A      1.641539   110A      1.695495  
     111A      1.699607   112A      1.744376   113A      1.766825  
     114A      1.902672   115A      1.942780   116A      1.946114  
     117A      1.980528   118A      2.014434   119A      2.018706  
     120A      2.053748   121A      2.063367   122A      2.116422  
     123A      2.180711   124A      2.189048   125A      2.228509  
     126A      2.260494   127A      2.314462   128A      2.407451  
     129A      2.431882   130A      2.476931   131A      2.554559  
     132A      2.612703   133A      2.618781   134A      2.632635  
     135A      2.718534   136A      3.125787   137A      3.171427  
     138A      3.180910   139A      3.194732   140A      3.209029  
     141A      3.215426   142A      3.307874   143A      3.315471  
     144A      3.476333  

    Final Occupation by Irrep:
              A 
    DOCC [    41 ]
    SOCC [     0 ]
    NA   [    41 ]
    NB   [    41 ]

  @DF-UKS Final Energy: -1930.35162914525176

   => Energetics <=

    Nuclear Repulsion Energy =            618.5265023140433414
    One-Electron Energy =               -4028.7669781189542846
    Two-Electron Energy =                1604.3629530349871857
    DFT Exchange-Correlation Energy =    -124.4741063753279917
    Empirical Dispersion Energy =           0.0000000000000000
    VV10 Nonlocal Energy =                  0.0000000000000000
    Total Energy =                      -1930.3516291452517635

  UHF NO Occupations:
  HONO-2 :   39  A 1.9999993
  HONO-1 :   40  A 1.9999967
  HONO-0 :   41  A 1.9999097
  LUNO+0 :   42  A 0.0000903
  LUNO+1 :   43  A 0.0000033
  LUNO+2 :   44  A 0.0000007
  LUNO+3 :   45  A 0.0000003


Computation Completed


Properties will be evaluated at   0.000000,   0.000000,   0.000000 [a0]

Properties computed using the SCF density matrix


 Multipole Moments:

 ------------------------------------------------------------------------------------
     Multipole            Electronic (a.u.)      Nuclear  (a.u.)        Total (a.u.)
 ------------------------------------------------------------------------------------

 L = 1.  Multiply by 2.5417464519 to convert [e a0] to [Debye]
 Dipole X            :         29.3772537            0.3911994           29.7684531
 Dipole Y            :        -20.6663369            0.2607996          -20.4055373
 Dipole Z            :        -27.2163149           -1.8509361          -29.0672510
 Magnitude           :                                                   46.3406068

 ------------------------------------------------------------------------------------

*** tstop() called on LAPTOP-257FNSVV at Sun Sep  6 06:31:21 2026
Module time:
	user time   =        nan seconds =        nan minutes
	system time =        nan seconds =        nan minutes
	total time  =        143 seconds =       2.38 minutes
Total time:
	user time   =        nan seconds =        nan minutes
	system time =        nan seconds =        nan minutes
	total time  =        285 seconds =       4.75 minutes
