
    -----------------------------------------------------------------------
          Psi4: An Open-Source Ab Initio Electronic Structure Package
                               Psi4 1.11 release

                         Git: Rev {} zzzzzzz 


    D. G. A. Smith, L. A. Burns, A. C. Simmonett, R. M. Parrish,
    M. C. Schieber, R. Galvelis, P. Kraus, H. Kruse, R. Di Remigio,
    A. Alenaizan, A. M. James, S. Lehtola, J. P. Misiewicz, M. Scheurer,
    R. A. Shaw, J. B. Schriber, Y. Xie, Z. L. Glick, D. A. Sirianni,
    J. S. O'Brien, J. M. Waldrop, A. Kumar, E. G. Hohenstein,
    B. P. Pritchard, B. R. Brooks, H. F. Schaefer III, A. Yu. Sokolov,
    K. Patkowski, A. E. DePrince III, U. Bozkaya, R. A. King,
    F. A. Evangelista, J. M. Turney, T. D. Crawford, C. D. Sherrill,
    J. Chem. Phys. 152(18) 184108 (2020). https://doi.org/10.1063/5.0006002

                            Additional Code Authors
    E. T. Seidl, C. L. Janssen, E. F. Valeev, M. L. Leininger,
    J. F. Gonthier, R. M. Richard, H. R. McAlexander, M. Saitow, X. Wang,
    P. Verma, M. H. Lechner, A. Jiang, S. Behnle, A. G. Heide,
    M. F. Herbst, D. L. Poole, T. Győri, E. C. Mitchell, J. P. Pederson,
    and A. M. Wallace

             Previous Authors, Complete List of Code Contributors,
                       and Citations for Specific Modules
    https://github.com/psi4/psi4/blob/master/codemeta.json
    https://github.com/psi4/psi4/graphs/contributors
    https://psicode.org/psi4manual/master/introduction.html#citing-psifour

    -----------------------------------------------------------------------


    Psi4 started on: Sunday, 06 September 2026 06:36AM

    Process ID: 29140
    Host:       LAPTOP-257FNSVV
    PSIDATADIR: C:\Users\HUIWEI\miniconda3\envs\phase7\Library\share\psi4
    Memory:     1.9 GiB
    Threads:    8
    Addons:     ~adcc~, ~ambit~, ~bse~, ~cct3~, ~cfour~, ~chemps2~, ~cppe~, ~ddx~, ~dftd3~, ~dftd4~, dkh,
                ecpint, ~einsums~, ~forte~, ~gauxc~, ~gcp~, ~gdma~, ~geometric~, ~gpu_dfcc~,
                ~integratorxx~, ~ipi~, ~libefp~, ~mdi~, ~mp2d~, ~mrcc~, ~ooo~,
                ~openfermionpsi4~, pcmsolver, ~psi4fockci~, ~psixas~, ~pyeinsums~, ~resp~,
                ~simint~, ~snsmp2~, ~v2rdm_casscf~

Scratch directory: C:\Users\HUIWEI\.zcode\workspace\default\results_phase13\_scratch_a3_scan_R1.25/
   => Libint2 <=

    Primary   basis highest AM E, G, H:  7, 6, -
    Auxiliary basis highest AM E, G, H:  7, 7, -
    Onebody   basis highest AM E, G, H:  -, -, -
    Solid Harmonics ordering:            Gaussian

*** tstart() called on LAPTOP-257FNSVV
*** at Sun Sep  6 06:36:13 2026

   => Loading Basis Set <=

    Name: DEF2-SVP
    Role: ORBITAL
    Keyword: BASIS
    atoms 1               entry FE         line   698 file C:\Users\HUIWEI\miniconda3\envs\phase7\Library\share\psi4\basis\def2-svp.gbs 
    atoms 2               entry O          line   130 file C:\Users\HUIWEI\miniconda3\envs\phase7\Library\share\psi4\basis\def2-svp.gbs 
    atoms 3-6             entry N          line   110 file C:\Users\HUIWEI\miniconda3\envs\phase7\Library\share\psi4\basis\def2-svp.gbs 
    atoms 7-10, 12, 14-17 entry H          line    15 file C:\Users\HUIWEI\miniconda3\envs\phase7\Library\share\psi4\basis\def2-svp.gbs 
    atoms 11              entry S          line   328 file C:\Users\HUIWEI\miniconda3\envs\phase7\Library\share\psi4\basis\def2-svp.gbs 
    atoms 13              entry C          line    90 file C:\Users\HUIWEI\miniconda3\envs\phase7\Library\share\psi4\basis\def2-svp.gbs 


         ---------------------------------------------------------
                                   SCF
               by Justin Turney, Rob Parrish, Andy Simmonett
                          and Daniel G. A. Smith
                              UKS Reference
                        8 Threads,   1907 MiB Core
         ---------------------------------------------------------

  ==> Geometry <==

    Molecular point group: c1
    Full point group: C1

    Geometry (in Angstrom), charge = 1, multiplicity = 3:

       Center              X                  Y                   Z               Mass       
    ------------   -----------------  -----------------  -----------------  -----------------
         FE          -0.002338797953    -0.001559198635    -0.072477213742    55.934936330000
         O           -0.002338797953    -0.001559198635     1.552522786258    15.994914619570
         N            1.997661202047    -0.001559198635    -0.072477213742    14.003074004430
         N           -2.002338797953    -0.001559198635    -0.072477213742    14.003074004430
         N           -0.002338797953     1.998440801365    -0.072477213742    14.003074004430
         N           -0.002338797953    -2.001559198635    -0.072477213742    14.003074004430
         H            2.817661202047     0.648440801365     0.277522786258     1.007825032230
         H           -2.822338797953    -0.651559198635     0.277522786258     1.007825032230
         H            0.647661202047     2.818440801365     0.277522786258     1.007825032230
         H           -0.652338797953    -2.821559198635     0.277522786258     1.007825032230
         S           -0.002338797953    -0.001559198635    -2.392477213742    31.972071174400
         H            0.417661202047     0.278440801365    -3.712477213742     1.007825032230
         C           -0.002338797953    -0.001559198635     3.892522786258    12.000000000000
         H           -0.002338797953    -0.001559198635     2.802522786258     1.007825032230
         H            0.939261202047    -0.001559198635     4.253922786258     1.007825032230
         H           -0.473138797953     0.813840801365     4.253922786258     1.007825032230
         H           -0.473138797953    -0.816959198635     4.253922786258     1.007825032230

  Running in c1 symmetry.

  Rotational constants: A =      0.06465  B =      0.02793  C =      0.02725 [cm^-1]
  Rotational constants: A =   1938.27577  B =    837.17335  C =    816.86892 [MHz]
  Nuclear repulsion =  738.592398061889526

  Charge       = 1
  Multiplicity = 3
  Electrons    = 92
  Nalpha       = 47
  Nbeta        = 45

  ==> Algorithm <==

  SCF Algorithm Type is DF.
  DIIS enabled.
  MOM disabled.
  Fractional occupation disabled.
  Guess Type is SAD.
  Energy threshold   = 1.00e-08
  Density threshold  = 1.00e-04
  Integral threshold = 1.00e-12

  ==> Primary Basis <==

  Basis Set: DEF2-SVP
    Blend: DEF2-SVP
    Number of shells: 82
    Number of basis functions: 178
    Number of Cartesian functions: 190
    Spherical Harmonics?: true
    Max angular momentum: 3

  ==> DFT Potential <==

   => LibXC <=

    Version 7.1.2
    S. Lehtola, C. Steigemann, M. J. T. Oliveira, and M. A. L. Marques,  SoftwareX 7, 1–5 (2018) (10.1016/j.softx.2017.11.002)

   => Composite Functional: BP86 <= 

    BP86 GGA Exchange-Correlation Functional

    A. D. Becke, Phys. Rev. A, 38, 3098-3100, 1988
    J. P. Perdew, Phys. Rev. B, 33, 8822, 1986


    Deriv               =              1
    GGA                 =           TRUE
    Meta                =          FALSE

    Exchange Hybrid     =          FALSE
    MP2 Hybrid          =          FALSE

   => Exchange Functionals <=

    1.0000     XC_GGA_X_B88

   => Correlation Functionals <=

    1.0000     XC_GGA_C_P86

   => LibXC Density Thresholds  <==

    XC_GGA_C_P86:  1.00E-15 
    XC_GGA_X_B88:  1.00E-15 

   => Molecular Quadrature <=

    Radial Scheme          =       TREUTLER
    Pruning Scheme         =           NONE
    Nuclear Scheme         =       TREUTLER

    Blocking Scheme        =         OCTREE
    BS radius alpha        =              1
    Pruning alpha          =              1
    Radial Points          =             75
    Spherical Points       =            302
    Total Points           =         363558
    Total Blocks           =           2737
    Max Points             =            256
    Max Functions          =            166
    Weights Tolerance      =       1.00E-15

   => Loading Basis Set <=

    Name: (DEF2-SVP AUX)
    Role: JKFIT
    Keyword: DF_BASIS_SCF
    atoms 1               entry FE         line  1978 file C:\Users\HUIWEI\miniconda3\envs\phase7\Library\share\psi4\basis\def2-universal-jkfit.gbs 
    atoms 2               entry O          line   318 file C:\Users\HUIWEI\miniconda3\envs\phase7\Library\share\psi4\basis\def2-universal-jkfit.gbs 
    atoms 3-6             entry N          line   258 file C:\Users\HUIWEI\miniconda3\envs\phase7\Library\share\psi4\basis\def2-universal-jkfit.gbs 
    atoms 7-10, 12, 14-17 entry H          line    18 file C:\Users\HUIWEI\miniconda3\envs\phase7\Library\share\psi4\basis\def2-universal-jkfit.gbs 
    atoms 11              entry S          line   903 file C:\Users\HUIWEI\miniconda3\envs\phase7\Library\share\psi4\basis\def2-universal-jkfit.gbs 
    atoms 13              entry C          line   198 file C:\Users\HUIWEI\miniconda3\envs\phase7\Library\share\psi4\basis\def2-universal-jkfit.gbs 

  ==> Integral Setup <==

  DFHelper Memory: AOs need 0.232 GiB; user supplied 0.370 GiB. 
  SCF_SUBTYPE=INCORE selected. In-core MEM_DF algorithm will be used.
  Using in-core AOs.

  ==> MemDFJK: Density-Fitted J/K Matrices <==

    J tasked:                   Yes
    K tasked:                    No
    wK tasked:                   No
    OpenMP threads:               8
    Memory [MiB]:               378
    Algorithm:                 Core
    Schwarz Cutoff:           1E-12
    Mask sparsity (%):      10.8825
    Fitting Condition:        1E-10

   => Auxiliary Basis Set <=

  Basis Set: (DEF2-SVP AUX)
    Blend: DEF2-UNIVERSAL-JKFIT
    Number of shells: 300
    Number of basis functions: 1014
    Number of Cartesian functions: 1266
    Spherical Harmonics?: true
    Max angular momentum: 6

  Cached 100.0% of DFT collocation blocks in 1.027 [GiB].

  Minimum eigenvalue in the overlap matrix is 4.1615611196E-03.
  Reciprocal condition number of the overlap matrix is 7.5063347843E-04.
    Using symmetric orthogonalization.

  ==> Pre-Iterations <==

  SCF Guess: Superposition of Atomic Densities via on-the-fly atomic UHF (no occupation information).

   -------------------------
    Irrep   Nso     Nmo    
   -------------------------
     A        178     178 
   -------------------------
    Total     178     178
   -------------------------

  ==> Iterations <==

                           Total Energy        Delta E     RMS |[F,P]|

   @DF-UKS iter SAD: -1997.04933004571308   -1.99705e+03   0.00000e+00 
   @DF-UKS iter   1: -1987.37023417610385    9.67910e+00   2.48740e-02 DIIS/SHIFT
   @DF-UKS iter   2: -1840.08838595486486    1.47282e+02   6.23396e-02 DIIS/SHIFT/DAMP=40%
   @DF-UKS iter   3: -1921.21490969291199   -8.11265e+01   2.27840e-02 DIIS/SHIFT/DAMP=40%
   @DF-UKS iter   4: -1919.65670825139637    1.55820e+00   2.49316e-02 DIIS/SHIFT/DAMP=40%
   @DF-UKS iter   5: -2000.36959400839987   -8.07129e+01   1.80502e-02 DIIS/SHIFT/DAMP=40%
   @DF-UKS iter   6: -1977.69685203963695    2.26727e+01   1.42094e-02 DIIS/SHIFT/DAMP=40%
   @DF-UKS iter   7: -1992.81135727634728   -1.51145e+01   9.99335e-03 DIIS/DAMP=40%
   @DF-UKS iter   8: -1996.92569648164863   -4.11434e+00   1.25721e-02 DIIS/SHIFT/DAMP=40%
   @DF-UKS iter   9: -2001.02368279279267   -4.09799e+00   1.14061e-02 DIIS/SHIFT/DAMP=40%
   @DF-UKS iter  10: -2000.85429421978688    1.69389e-01   1.47326e-02 DIIS/SHIFT/DAMP=40%
   @DF-UKS iter  11: -1998.52097252349404    2.33332e+00   1.57726e-02 DIIS/SHIFT/DAMP=40%
   @DF-UKS iter  12: -1996.15600211756896    2.36497e+00   1.50965e-02 DIIS/SHIFT/DAMP=40%
   @DF-UKS iter  13: -1995.56529663110678    5.90705e-01   1.50246e-02 DIIS/SHIFT/DAMP=40%
   @DF-UKS iter  14: -1994.01749869862601    1.54780e+00   1.31278e-02 DIIS/SHIFT/DAMP=40%
   @DF-UKS iter  15: -1993.91226821361192    1.05230e-01   1.09527e-02 DIIS/SHIFT/DAMP=40%
   @DF-UKS iter  16: -1995.82357008624786   -1.91130e+00   1.17184e-02 DIIS/SHIFT/DAMP=40%
   @DF-UKS iter  17: -1996.80178650364996   -9.78216e-01   1.28327e-02 DIIS/SHIFT/DAMP=40%
   @DF-UKS iter  18: -1995.30496025561001    1.49683e+00   1.06292e-02 DIIS/SHIFT/DAMP=40%
   @DF-UKS iter  19: -1996.31797429580297   -1.01301e+00   1.06841e-02 DIIS/SHIFT/DAMP=40%
   @DF-UKS iter  20: -1997.08240116729121   -7.64427e-01   1.09927e-02 DIIS/SHIFT/DAMP=40%
   @DF-UKS iter  21: -1984.49727051199602    1.25851e+01   1.73938e-02 DIIS/SHIFT/DAMP=40%
   @DF-UKS iter  22: -1990.28383415659573   -5.78656e+00   1.53612e-02 DIIS/SHIFT/DAMP=40%
   @DF-UKS iter  23: -1993.93460794609587   -3.65077e+00   1.38694e-02 DIIS/SHIFT/DAMP=40%
   @DF-UKS iter  24: -1994.52133636461963   -5.86728e-01   1.42356e-02 DIIS/SHIFT/DAMP=40%
   @DF-UKS iter  25: -1994.81982305089332   -2.98487e-01   1.44756e-02 DIIS/SHIFT/DAMP=40%
   @DF-UKS iter  26: -1994.86437317665991   -4.45501e-02   1.46886e-02 DIIS/SHIFT/DAMP=40%
   @DF-UKS iter  27: -1994.91239179644685   -4.80186e-02   1.47736e-02 DIIS/SHIFT/DAMP=40%
   @DF-UKS iter  28: -1994.93989270822294   -2.75009e-02   1.48025e-02 DIIS/SHIFT/DAMP=40%
   @DF-UKS iter  29: -1994.95813988726263   -1.82472e-02   1.48037e-02 DIIS/SHIFT/DAMP=40%
   @DF-UKS iter  30: -1994.96477386265383   -6.63398e-03   1.47997e-02 DIIS/SHIFT/DAMP=40%
   @DF-UKS iter  31: -1994.96266310223518    2.11076e-03   1.47994e-02 DIIS/SHIFT/DAMP=40%
   @DF-UKS iter  32: -1994.95398377526317    8.67933e-03   1.48061e-02 DIIS/SHIFT/DAMP=40%
   @DF-UKS iter  33: -1994.94077686361038    1.32069e-02   1.48200e-02 DIIS/SHIFT/DAMP=40%
   @DF-UKS iter  34: -1994.92462710563836    1.61498e-02   1.48400e-02 DIIS/SHIFT/DAMP=40%
   @DF-UKS iter  35: -1994.90681181141917    1.78153e-02   1.48644e-02 DIIS/SHIFT/DAMP=40%
   @DF-UKS iter  36: -1994.88836340011403    1.84484e-02   1.48916e-02 DIIS/SHIFT/DAMP=40%
   @DF-UKS iter  37: -1994.87009549057848    1.82679e-02   1.49200e-02 DIIS/SHIFT/DAMP=40%
   @DF-UKS iter  38: -1994.85261637455619    1.74791e-02   1.49484e-02 DIIS/SHIFT/DAMP=40%
   @DF-UKS iter  39: -1994.83633670097583    1.62797e-02   1.49756e-02 DIIS/SHIFT/DAMP=40%
   @DF-UKS iter  40: -1994.82149479616555    1.48419e-02   1.50011e-02 DIIS/SHIFT/DAMP=40%
   @DF-UKS iter  41: -1994.80818839802350    1.33064e-02   1.50244e-02 DIIS/SHIFT/DAMP=40%
   @DF-UKS iter  42: -1994.79641155693230    1.17768e-02   1.50455e-02 DIIS/SHIFT/DAMP=40%
   @DF-UKS iter  43: -1994.78608737315767    1.03242e-02   1.50642e-02 DIIS/SHIFT/DAMP=40%
   @DF-UKS iter  44: -1994.77709861370749    8.98876e-03   1.50807e-02 DIIS/SHIFT/DAMP=40%
   @DF-UKS iter  45: -1994.76930868133945    7.78993e-03   1.50952e-02 DIIS/SHIFT/DAMP=40%
   @DF-UKS iter  46: -1994.76257656623375    6.73212e-03   1.51079e-02 DIIS/SHIFT/DAMP=40%
   @DF-UKS iter  47: -1994.75676725842482    5.80931e-03   1.51190e-02 DIIS/SHIFT/DAMP=40%
   @DF-UKS iter  48: -1994.75175570338888    5.01156e-03   1.51286e-02 DIIS/SHIFT/DAMP=40%
   @DF-UKS iter  49: -1994.74743007118423    4.32563e-03   1.51370e-02 DIIS/SHIFT/DAMP=40%
   @DF-UKS iter  50: -1994.74369188038349    3.73819e-03   1.51443e-02 DIIS/SHIFT/DAMP=40%
   @DF-UKS iter  51: -1994.74045607286234    3.23581e-03   1.51507e-02 DIIS/SHIFT/DAMP=40%
   @DF-UKS iter  52: -1994.73764860591018    2.80747e-03   1.51564e-02 DIIS/SHIFT/DAMP=40%
   @DF-UKS iter  53: -1994.73520732307043    2.44128e-03   1.51613e-02 DIIS/SHIFT/DAMP=40%
   @DF-UKS iter  54: -1994.73307880281391    2.12852e-03   1.51656e-02 DIIS/SHIFT/DAMP=40%
   @DF-UKS iter  55: -1994.73121819660446    1.86061e-03   1.51694e-02 DIIS/SHIFT/DAMP=40%
   @DF-UKS iter  56: -1994.72958686191828    1.63133e-03   1.51728e-02 DIIS/SHIFT/DAMP=40%
   @DF-UKS iter  57: -1994.72815251512611    1.43435e-03   1.51758e-02 DIIS/SHIFT/DAMP=40%
   @DF-UKS iter  58: -1994.72688793258135    1.26458e-03   1.51785e-02 DIIS/SHIFT/DAMP=40%
   @DF-UKS iter  59: -1994.72576975393804    1.11818e-03   1.51809e-02 DIIS/SHIFT/DAMP=40%
   @DF-UKS iter  60: -1994.72477820828726    9.91546e-04   1.51830e-02 DIIS/SHIFT/DAMP=40%
   @DF-UKS iter  61: -1994.72389676299190    8.81445e-04   1.51849e-02 DIIS/SHIFT/DAMP=40%
   @DF-UKS iter  62: -1994.72311101377704    7.85749e-04   1.51866e-02 DIIS/SHIFT/DAMP=40%
   @DF-UKS iter  63: -1994.72240879184710    7.02222e-04   1.51881e-02 DIIS/SHIFT/DAMP=40%
   @DF-UKS iter  64: -1994.72177977523165    6.29017e-04   1.51895e-02 DIIS/SHIFT/DAMP=40%
   @DF-UKS iter  65: -1994.72121498304432    5.64792e-04   1.51907e-02 DIIS/SHIFT/DAMP=40%
   @DF-UKS iter  66: -1994.72070696907372    5.08014e-04   1.51918e-02 DIIS/SHIFT/DAMP=40%
   @DF-UKS iter  67: -1994.72024879569744    4.58173e-04   1.51928e-02 DIIS/SHIFT/DAMP=40%
   @DF-UKS iter  68: -1994.71983469908491    4.14097e-04   1.51937e-02 DIIS/SHIFT/DAMP=40%
   @DF-UKS iter  69: -1994.71945997490911    3.74724e-04   1.51945e-02 DIIS/SHIFT/DAMP=40%
   @DF-UKS iter  70: -1994.71912019152546    3.39783e-04   1.51953e-02 DIIS/SHIFT/DAMP=40%
   @DF-UKS iter  71: -1994.71881162005002    3.08571e-04   1.51960e-02 DIIS/SHIFT/DAMP=40%
   @DF-UKS iter  72: -1994.71853075252216    2.80868e-04   1.51966e-02 DIIS/SHIFT/DAMP=40%
   @DF-UKS iter  73: -1994.71827498089488    2.55772e-04   1.51972e-02 DIIS/SHIFT/DAMP=40%
   @DF-UKS iter  74: -1994.71804154198389    2.33439e-04   1.51977e-02 DIIS/SHIFT/DAMP=40%
   @DF-UKS iter  75: -1994.71782823719855    2.13305e-04   1.51981e-02 DIIS/SHIFT/DAMP=40%
   @DF-UKS iter  76: -1994.71763330688714    1.94930e-04   1.51986e-02 DIIS/SHIFT/DAMP=40%
   @DF-UKS iter  77: -1994.71745468719951    1.78620e-04   1.51989e-02 DIIS/SHIFT/DAMP=40%
   @DF-UKS iter  78: -1994.71729098968376    1.63698e-04   1.51993e-02 DIIS/SHIFT/DAMP=40%
   @DF-UKS iter  79: -1994.71714079136359    1.50198e-04   1.51996e-02 DIIS/SHIFT/DAMP=40%
   @DF-UKS iter  80: -1994.71700285885618    1.37933e-04   1.51999e-02 DIIS/SHIFT/DAMP=40%
   @DF-UKS iter  81: -1994.71687607555600    1.26783e-04   1.52002e-02 DIIS/SHIFT/DAMP=40%
   @DF-UKS iter  82: -1994.71675944985168    1.16626e-04   1.52005e-02 DIIS/SHIFT/DAMP=40%
   @DF-UKS iter  83: -1994.71665208749505    1.07362e-04   1.52007e-02 DIIS/SHIFT/DAMP=40%
   @DF-UKS iter  84: -1994.71655318304715    9.89044e-05   1.52009e-02 DIIS/SHIFT/DAMP=40%
   @DF-UKS iter  85: -1994.71646201238696    9.11707e-05   1.52011e-02 DIIS/SHIFT/DAMP=40%
   @DF-UKS iter  86: -1994.71637792069941    8.40917e-05   1.52013e-02 DIIS/SHIFT/DAMP=40%
   @DF-UKS iter  87: -1994.71630031560903    7.76051e-05   1.52014e-02 DIIS/SHIFT/DAMP=40%
   @DF-UKS iter  88: -1994.71622866014832    7.16555e-05   1.52016e-02 DIIS/SHIFT/DAMP=40%
   @DF-UKS iter  89: -1994.71616246935719    6.61908e-05   1.52017e-02 DIIS/SHIFT/DAMP=40%
   @DF-UKS iter  90: -1994.71610129440592    6.11750e-05   1.52019e-02 DIIS/SHIFT/DAMP=40%
   @DF-UKS iter  91: -1994.71604473589196    5.65585e-05   1.52020e-02 DIIS/SHIFT/DAMP=40%
   @DF-UKS iter  92: -1994.71599242489219    5.23110e-05   1.52021e-02 DIIS/SHIFT/DAMP=40%
   @DF-UKS iter  93: -1994.71594402584856    4.83990e-05   1.52022e-02 DIIS/SHIFT/DAMP=40%
   @DF-UKS iter  94: -1994.71589923182160    4.47940e-05   1.52023e-02 DIIS/SHIFT/DAMP=40%
   @DF-UKS iter  95: -1994.71585776210100    4.14697e-05   1.52024e-02 DIIS/SHIFT/DAMP=40%
   @DF-UKS iter  96: -1994.71581935955078    3.84026e-05   1.52024e-02 DIIS/SHIFT/DAMP=40%
   @DF-UKS iter  97: -1994.71578378842287    3.55711e-05   1.52025e-02 DIIS/SHIFT/DAMP=40%
   @DF-UKS iter  98: -1994.71575083237190    3.29561e-05   1.52026e-02 DIIS/SHIFT/DAMP=40%
   @DF-UKS iter  99: -1994.71572029268100    3.05397e-05   1.52026e-02 DIIS/SHIFT/DAMP=40%
   @DF-UKS iter 100: -1994.71569198668521    2.83060e-05   1.52027e-02 DIIS/SHIFT/DAMP=40%
   @DF-UKS iter 101: -1994.71566574633425    2.62404e-05   1.52028e-02 DIIS/SHIFT/DAMP=40%
   @DF-UKS iter 102: -1994.71564141691124    2.43294e-05   1.52028e-02 DIIS/SHIFT/DAMP=40%
   @DF-UKS iter 103: -1994.71561885588744    2.25610e-05   1.52029e-02 DIIS/SHIFT/DAMP=40%
   @DF-UKS iter 104: -1994.71559793186702    2.09240e-05   1.52029e-02 DIIS/SHIFT/DAMP=40%
   @DF-UKS iter 105: -1994.71557852365618    1.94082e-05   1.52029e-02 DIIS/SHIFT/DAMP=40%
   @DF-UKS iter 106: -1994.71556051939865    1.80043e-05   1.52030e-02 DIIS/SHIFT/DAMP=40%
   @DF-UKS iter 107: -1994.71554381581541    1.67036e-05   1.52030e-02 DIIS/SHIFT/DAMP=40%
   @DF-UKS iter 108: -1994.71552831748750    1.54983e-05   1.52030e-02 DIIS/SHIFT/DAMP=40%
   @DF-UKS iter 109: -1994.71551393623304    1.43813e-05   1.52031e-02 DIIS/SHIFT/DAMP=40%
   @DF-UKS iter 110: -1994.71550059051128    1.33457e-05   1.52031e-02 DIIS/SHIFT/DAMP=40%
   @DF-UKS iter 111: -1994.71548820490739    1.23856e-05   1.52031e-02 DIIS/SHIFT/DAMP=40%
   @DF-UKS iter 112: -1994.71547670963014    1.14953e-05   1.52031e-02 DIIS/SHIFT/DAMP=40%
   @DF-UKS iter 113: -1994.71546604009291    1.06695e-05   1.52032e-02 DIIS/SHIFT/DAMP=40%
   @DF-UKS iter 114: -1994.71545613648004    9.90361e-06   1.52032e-02 DIIS/SHIFT/DAMP=40%
   @DF-UKS iter 115: -1994.71544694341424    9.19307e-06   1.52032e-02 DIIS/SHIFT/DAMP=40%
   @DF-UKS iter 116: -1994.71543840958225    8.53383e-06   1.52032e-02 DIIS/SHIFT/DAMP=40%
   @DF-UKS iter 117: -1994.71543048743797    7.92214e-06   1.52032e-02 DIIS/SHIFT/DAMP=40%
   @DF-UKS iter 118: -1994.71542313291980    7.35452e-06   1.52032e-02 DIIS/SHIFT/DAMP=40%
   @DF-UKS iter 119: -1994.71541630518004    6.82774e-06   1.52033e-02 DIIS/SHIFT/DAMP=40%
   @DF-UKS iter 120: -1994.71540996634826    6.33883e-06   1.52033e-02 DIIS/SHIFT/DAMP=40%
   @DF-UKS iter 121: -1994.71540408130636    5.88504e-06   1.52033e-02 DIIS/SHIFT/DAMP=40%
   @DF-UKS iter 122: -1994.71539861748397    5.46382e-06   1.52033e-02 DIIS/SHIFT/DAMP=40%
   @DF-UKS iter 123: -1994.71539354466449    5.07282e-06   1.52033e-02 DIIS/SHIFT/DAMP=40%
   @DF-UKS iter 124: -1994.71538883482685    4.70984e-06   1.52033e-02 DIIS/SHIFT/DAMP=40%
   @DF-UKS iter 125: -1994.71538446195973    4.37287e-06   1.52033e-02 DIIS/SHIFT/DAMP=40%
   @DF-UKS iter 126: -1994.71538040193832    4.06002e-06   1.52033e-02 DIIS/SHIFT/DAMP=40%
   @DF-UKS iter 127: -1994.71537663236359    3.76957e-06   1.52033e-02 DIIS/SHIFT/DAMP=40%
   @DF-UKS iter 128: -1994.71537313245699    3.49991e-06   1.52033e-02 DIIS/SHIFT/DAMP=40%
   @DF-UKS iter 129: -1994.71536988292678    3.24953e-06   1.52033e-02 DIIS/SHIFT/DAMP=40%
   @DF-UKS iter 130: -1994.71536686586478    3.01706e-06   1.52034e-02 DIIS/SHIFT/DAMP=40%
   @DF-UKS iter 131: -1994.71536406465452    2.80121e-06   1.52034e-02 DIIS/SHIFT/DAMP=40%
   @DF-UKS iter 132: -1994.71536146386165    2.60079e-06   1.52034e-02 DIIS/SHIFT/DAMP=40%
   @DF-UKS iter 133: -1994.71535904916595    2.41470e-06   1.52034e-02 DIIS/SHIFT/DAMP=40%
   @DF-UKS iter 134: -1994.71535680726402    2.24190e-06   1.52034e-02 DIIS/SHIFT/DAMP=40%
   @DF-UKS iter 135: -1994.71535472580513    2.08146e-06   1.52034e-02 DIIS/SHIFT/DAMP=40%
   @DF-UKS iter 136: -1994.71535279332898    1.93248e-06   1.52034e-02 DIIS/SHIFT/DAMP=40%
   @DF-UKS iter 137: -1994.71535099918560    1.79414e-06   1.52034e-02 DIIS/SHIFT/DAMP=40%
   @DF-UKS iter 138: -1994.71534933349176    1.66569e-06   1.52034e-02 DIIS/SHIFT/DAMP=40%
   @DF-UKS iter 139: -1994.71534778706905    1.54642e-06   1.52034e-02 DIIS/SHIFT/DAMP=40%
   @DF-UKS iter 140: -1994.71534635139164    1.43568e-06   1.52034e-02 DIIS/SHIFT/DAMP=40%
   @DF-UKS iter 141: -1994.71534501854376    1.33285e-06   1.52034e-02 DIIS/SHIFT/DAMP=40%
   @DF-UKS iter 142: -1994.71534378118190    1.23736e-06   1.52034e-02 DIIS/SHIFT/DAMP=40%
   @DF-UKS iter 143: -1994.71534263247190    1.14871e-06   1.52034e-02 DIIS/SHIFT/DAMP=40%
   @DF-UKS iter 144: -1994.71534156608277    1.06639e-06   1.52034e-02 DIIS/SHIFT/DAMP=40%
   @DF-UKS iter 145: -1994.71534057612962    9.89953e-07   1.52034e-02 DIIS/SHIFT/DAMP=40%
   @DF-UKS iter 146: -1994.71533965681556    9.19314e-07   1.52034e-02 DIIS/SHIFT/DAMP=40%
   @DF-UKS iter 147: -1994.71533880375250    8.53063e-07   1.52034e-02 DIIS/SHIFT/DAMP=40%
   @DF-UKS iter 148: -1994.71533801198348    7.91769e-07   1.52034e-02 DIIS/SHIFT/DAMP=40%
   @DF-UKS iter 149: -1994.71533727688711    7.35096e-07   1.52034e-02 DIIS/SHIFT/DAMP=40%
   @DF-UKS iter 150: -1994.71533659452439    6.82363e-07   1.52034e-02 DIIS/SHIFT/DAMP=40%
   @DF-UKS iter 151: -1994.71533596111158    6.33413e-07   1.52034e-02 DIIS/SHIFT/DAMP=40%
   @DF-UKS iter 152: -1994.71533537315941    5.87952e-07   1.52034e-02 DIIS/SHIFT/DAMP=40%
   @DF-UKS iter 153: -1994.71533482740710    5.45752e-07   1.52034e-02 DIIS/SHIFT/DAMP=40%
   @DF-UKS iter 154: -1994.71533432083811    5.06569e-07   1.52034e-02 DIIS/SHIFT/DAMP=40%
   @DF-UKS iter 155: -1994.71533385064527    4.70193e-07   1.52034e-02 DIIS/SHIFT/DAMP=40%
   @DF-UKS iter 156: -1994.71533341422082    4.36424e-07   1.52034e-02 DIIS/SHIFT/DAMP=40%
   @DF-UKS iter 157: -1994.71533300914871    4.05072e-07   1.52034e-02 DIIS/SHIFT/DAMP=40%
   @DF-UKS iter 158: -1994.71533263318247    3.75966e-07   1.52034e-02 DIIS/SHIFT/DAMP=40%
   @DF-UKS iter 159: -1994.71533228423164    3.48951e-07   1.52034e-02 DIIS/SHIFT/DAMP=40%
   @DF-UKS iter 160: -1994.71533196036239    3.23869e-07   1.52034e-02 DIIS/SHIFT/DAMP=40%
   @DF-UKS iter 161: -1994.71533165977689    3.00585e-07   1.52034e-02 DIIS/SHIFT/DAMP=40%
   @DF-UKS iter 162: -1994.71533138080463    2.78972e-07   1.52034e-02 DIIS/SHIFT/DAMP=40%
   @DF-UKS iter 163: -1994.71533112189491    2.58910e-07   1.52034e-02 DIIS/SHIFT/DAMP=40%
   @DF-UKS iter 164: -1994.71533088160777    2.40287e-07   1.52034e-02 DIIS/SHIFT/DAMP=40%
   @DF-UKS iter 165: -1994.71533065860967    2.22998e-07   1.52034e-02 DIIS/SHIFT/DAMP=40%
   @DF-UKS iter 166: -1994.71533045165620    2.06953e-07   1.52034e-02 DIIS/SHIFT/DAMP=40%
   @DF-UKS iter 167: -1994.71533025959729    1.92059e-07   1.52034e-02 DIIS/SHIFT/DAMP=40%
   @DF-UKS iter 168: -1994.71533008136271    1.78235e-07   1.52034e-02 DIIS/SHIFT/DAMP=40%
   @DF-UKS iter 169: -1994.71532991595905    1.65404e-07   1.52034e-02 DIIS/SHIFT/DAMP=40%
   @DF-UKS iter 170: -1994.71532976246681    1.53492e-07   1.52034e-02 DIIS/SHIFT/DAMP=40%
   @DF-UKS iter 171: -1994.71532962002971    1.42437e-07   1.52034e-02 DIIS/SHIFT/DAMP=40%
   @DF-UKS iter 172: -1994.71532948785125    1.32178e-07   1.52034e-02 DIIS/SHIFT/DAMP=40%
   @DF-UKS iter 173: -1994.71532936519475    1.22657e-07   1.52034e-02 DIIS/SHIFT/DAMP=40%
   @DF-UKS iter 174: -1994.71532925137649    1.13818e-07   1.52034e-02 DIIS/SHIFT/DAMP=40%
   @DF-UKS iter 175: -1994.71532914576233    1.05614e-07   1.52034e-02 DIIS/SHIFT/DAMP=40%
   @DF-UKS iter 176: -1994.71532904775609    9.80062e-08   1.52034e-02 DIIS/SHIFT/DAMP=40%
   @DF-UKS iter 177: -1994.71532895681980    9.09363e-08   1.52034e-02 DIIS/SHIFT/DAMP=40%
   @DF-UKS iter 178: -1994.71532887243939    8.43804e-08   1.52034e-02 DIIS/SHIFT/DAMP=40%
   @DF-UKS iter 179: -1994.71532879414281    7.82966e-08   1.52034e-02 DIIS/SHIFT/DAMP=40%
   @DF-UKS iter 180: -1994.71532872149282    7.26500e-08   1.52034e-02 DIIS/SHIFT/DAMP=40%
   @DF-UKS iter 181: -1994.71532865408471    6.74081e-08   1.52034e-02 DIIS/SHIFT/DAMP=40%
   @DF-UKS iter 182: -1994.71532859153876    6.25460e-08   1.52034e-02 DIIS/SHIFT/DAMP=40%
   @DF-UKS iter 183: -1994.71532853350845    5.80303e-08   1.52034e-02 DIIS/SHIFT/DAMP=40%
   @DF-UKS iter 184: -1994.71532847966137    5.38471e-08   1.52034e-02 DIIS/SHIFT/DAMP=40%
   @DF-UKS iter 185: -1994.71532842970419    4.99572e-08   1.52034e-02 DIIS/SHIFT/DAMP=40%
   @DF-UKS iter 186: -1994.71532838335224    4.63519e-08   1.52034e-02 DIIS/SHIFT/DAMP=40%
   @DF-UKS iter 187: -1994.71532834034588    4.30064e-08   1.52034e-02 DIIS/SHIFT/DAMP=40%
   @DF-UKS iter 188: -1994.71532830044544    3.99004e-08   1.52034e-02 DIIS/SHIFT/DAMP=40%
   @DF-UKS iter 189: -1994.71532826342604    3.70194e-08   1.52034e-02 DIIS/SHIFT/DAMP=40%
   @DF-UKS iter 190: -1994.71532822908171    3.43443e-08   1.52034e-02 DIIS/SHIFT/DAMP=40%
   @DF-UKS iter 191: -1994.71532819721597    3.18657e-08   1.52034e-02 DIIS/SHIFT/DAMP=40%
   @DF-UKS iter 192: -1994.71532816765330    2.95627e-08   1.52034e-02 DIIS/SHIFT/DAMP=40%
   @DF-UKS iter 193: -1994.71532814022908    2.74242e-08   1.52034e-02 DIIS/SHIFT/DAMP=40%
   @DF-UKS iter 194: -1994.71532811478369    2.54454e-08   1.52034e-02 DIIS/SHIFT/DAMP=40%
   @DF-UKS iter 195: -1994.71532809117843    2.36053e-08   1.52034e-02 DIIS/SHIFT/DAMP=40%
   @DF-UKS iter 196: -1994.71532806927917    2.18993e-08   1.52034e-02 DIIS/SHIFT/DAMP=40%
   @DF-UKS iter 197: -1994.71532804896356    2.03156e-08   1.52034e-02 DIIS/SHIFT/DAMP=40%
   @DF-UKS iter 198: -1994.71532803011678    1.88468e-08   1.52034e-02 DIIS/SHIFT/DAMP=40%
   @DF-UKS iter 199: -1994.71532801263197    1.74848e-08   1.52034e-02 DIIS/SHIFT/DAMP=40%
   @DF-UKS iter 200: -1994.71532799641022    1.62217e-08   1.52034e-02 DIIS/SHIFT/DAMP=40%
   @DF-UKS iter 201: -1994.71532798136309    1.50471e-08   1.52034e-02 DIIS/SHIFT/DAMP=40%
   @DF-UKS iter 202: -1994.71532796740439    1.39587e-08   1.52034e-02 DIIS/SHIFT/DAMP=40%
   @DF-UKS iter 203: -1994.71532795445523    1.29492e-08   1.52034e-02 DIIS/SHIFT/DAMP=40%
   @DF-UKS iter 204: -1994.71532794244399    1.20112e-08   1.52034e-02 DIIS/SHIFT/DAMP=40%
   @DF-UKS iter 205: -1994.71532793129995    1.11440e-08   1.52034e-02 DIIS/SHIFT/DAMP=40%
   @DF-UKS iter 206: -1994.71532792096218    1.03378e-08   1.52034e-02 DIIS/SHIFT/DAMP=40%
   @DF-UKS iter 207: -1994.71532791137383    9.58835e-09   1.52034e-02 DIIS/SHIFT/DAMP=40%
   @DF-UKS iter 208: -1994.71532790247852    8.89531e-09   1.52034e-02 DIIS/SHIFT/DAMP=40%
   @DF-UKS iter 209: -1994.71532789422918    8.24934e-09   1.52034e-02 DIIS/SHIFT/DAMP=40%
   @DF-UKS iter 210: -1994.71532788657487    7.65431e-09   1.52034e-02 DIIS/SHIFT/DAMP=40%
   @DF-UKS iter 211: -1994.71532787947672    7.09815e-09   1.52034e-02 DIIS/SHIFT/DAMP=40%
   @DF-UKS iter 212: -1994.71532787289038    6.58633e-09   1.52034e-02 DIIS/SHIFT/DAMP=40%
   @DF-UKS iter 213: -1994.71532786678017    6.11021e-09   1.52034e-02 DIIS/SHIFT/DAMP=40%
   @DF-UKS iter 214: -1994.71532786111493    5.66524e-09   1.52034e-02 DIIS/SHIFT/DAMP=40%
   @DF-UKS iter 215: -1994.71532785585941    5.25552e-09   1.52034e-02 DIIS/SHIFT/DAMP=40%
   @DF-UKS iter 216: -1994.71532785098270    4.87671e-09   1.52034e-02 DIIS/SHIFT/DAMP=40%
   @DF-UKS iter 217: -1994.71532784646092    4.52178e-09   1.52034e-02 DIIS/SHIFT/DAMP=40%
   @DF-UKS iter 218: -1994.71532784226520    4.19573e-09   1.52034e-02 DIIS/SHIFT/DAMP=40%
   @DF-UKS iter 219: -1994.71532783837597    3.88923e-09   1.52034e-02 DIIS/SHIFT/DAMP=40%
   @DF-UKS iter 220: -1994.71532783476823    3.60774e-09   1.52034e-02 DIIS/SHIFT/DAMP=40%
   @DF-UKS iter 221: -1994.71532783142015    3.34808e-09   1.52034e-02 DIIS/SHIFT/DAMP=40%
   @DF-UKS iter 222: -1994.71532782831582    3.10433e-09   1.52034e-02 DIIS/SHIFT/DAMP=40%
   @DF-UKS iter 223: -1994.71532782543682    2.87901e-09   1.52034e-02 DIIS/SHIFT/DAMP=40%
   @DF-UKS iter 224: -1994.71532782276518    2.67164e-09   1.52034e-02 DIIS/SHIFT/DAMP=40%
   @DF-UKS iter 225: -1994.71532782028839    2.47678e-09   1.52034e-02 DIIS/SHIFT/DAMP=40%
   @DF-UKS iter 226: -1994.71532781798896    2.29943e-09   1.52034e-02 DIIS/SHIFT/DAMP=40%
   @DF-UKS iter 227: -1994.71532781585847    2.13049e-09   1.52034e-02 DIIS/SHIFT/DAMP=40%
   @DF-UKS iter 228: -1994.71532781388123    1.97724e-09   1.52034e-02 DIIS/SHIFT/DAMP=40%
   @DF-UKS iter 229: -1994.71532781204837    1.83286e-09   1.52034e-02 DIIS/SHIFT/DAMP=40%
   @DF-UKS iter 230: -1994.71532781034671    1.70166e-09   1.52034e-02 DIIS/SHIFT/DAMP=40%
   @DF-UKS iter 231: -1994.71532780876919    1.57752e-09   1.52034e-02 DIIS/SHIFT/DAMP=40%
   @DF-UKS iter 232: -1994.71532780730809    1.46110e-09   1.52034e-02 DIIS/SHIFT/DAMP=40%
   @DF-UKS iter 233: -1994.71532780595089    1.35719e-09   1.52034e-02 DIIS/SHIFT/DAMP=40%
   @DF-UKS iter 234: -1994.71532780469238    1.25851e-09   1.52034e-02 DIIS/SHIFT/DAMP=40%
   @DF-UKS iter 235: -1994.71532780352413    1.16825e-09   1.52034e-02 DIIS/SHIFT/DAMP=40%
   @DF-UKS iter 236: -1994.71532780244343    1.08071e-09   1.52034e-02 DIIS/SHIFT/DAMP=40%
   @DF-UKS iter 237: -1994.71532780143798    1.00545e-09   1.52034e-02 DIIS/SHIFT/DAMP=40%
   @DF-UKS iter 238: -1994.71532780050802    9.29958e-10   1.52034e-02 DIIS/SHIFT/DAMP=40%
   @DF-UKS iter 239: -1994.71532779964514    8.62883e-10   1.52034e-02 DIIS/SHIFT/DAMP=40%
   @DF-UKS iter 240: -1994.71532779884478    8.00355e-10   1.52034e-02 DIIS/SHIFT/DAMP=40%
   @DF-UKS iter 241: -1994.71532779810104    7.43739e-10   1.52034e-02 DIIS/SHIFT/DAMP=40%
   @DF-UKS iter 242: -1994.71532779741301    6.88033e-10   1.52034e-02 DIIS/SHIFT/DAMP=40%
   @DF-UKS iter 243: -1994.71532779677386    6.39147e-10   1.52034e-02 DIIS/SHIFT/DAMP=40%
   @DF-UKS iter 244: -1994.71532779618178    5.92081e-10   1.52034e-02 DIIS/SHIFT/DAMP=40%
   @DF-UKS iter 245: -1994.71532779563267    5.49107e-10   1.52034e-02 DIIS/SHIFT/DAMP=40%
   @DF-UKS iter 246: -1994.71532779512313    5.09544e-10   1.52034e-02 DIIS/SHIFT/DAMP=40%
   @DF-UKS iter 247: -1994.71532779464883    4.74301e-10   1.52034e-02 DIIS/SHIFT/DAMP=40%
   @DF-UKS iter 248: -1994.71532779421113    4.37694e-10   1.52034e-02 DIIS/SHIFT/DAMP=40%
   @DF-UKS iter 249: -1994.71532779380505    4.06089e-10   1.52034e-02 DIIS/SHIFT/DAMP=40%
   @DF-UKS iter 250: -1994.71532779342670    3.78350e-10   1.52034e-02 DIIS/SHIFT/DAMP=40%
   @DF-UKS iter 251: -1994.71532779307768    3.49019e-10   1.52034e-02 DIIS/SHIFT/DAMP=40%
   @DF-UKS iter 252: -1994.71532779275526    3.22416e-10   1.52034e-02 DIIS/SHIFT/DAMP=40%
   @DF-UKS iter 253: -1994.71532779245422    3.01043e-10   1.52034e-02 DIIS/SHIFT/DAMP=40%
   @DF-UKS iter 254: -1994.71532779217546    2.78760e-10   1.52034e-02 DIIS/SHIFT/DAMP=40%
   @DF-UKS iter 255: -1994.71532779191648    2.58979e-10   1.52034e-02 DIIS/SHIFT/DAMP=40%
   @DF-UKS iter 256: -1994.71532779167615    2.40334e-10   1.52034e-02 DIIS/SHIFT/DAMP=40%
   @DF-UKS iter 257: -1994.71532779145355    2.22599e-10   1.52034e-02 DIIS/SHIFT/DAMP=40%
   @DF-UKS iter 258: -1994.71532779124664    2.06910e-10   1.52034e-02 DIIS/SHIFT/DAMP=40%
   @DF-UKS iter 259: -1994.71532779105564    1.90994e-10   1.52034e-02 DIIS/SHIFT/DAMP=40%
   @DF-UKS iter 260: -1994.71532779087784    1.77806e-10   1.52034e-02 DIIS/SHIFT/DAMP=40%
   @DF-UKS iter 261: -1994.71532779071458    1.63254e-10   1.52034e-02 DIIS/SHIFT/DAMP=40%
   @DF-UKS iter 262: -1994.71532779056224    1.52340e-10   1.52034e-02 DIIS/SHIFT/DAMP=40%
   @DF-UKS iter 263: -1994.71532779041945    1.42791e-10   1.52034e-02 DIIS/SHIFT/DAMP=40%
   @DF-UKS iter 264: -1994.71532779028917    1.30285e-10   1.52034e-02 DIIS/SHIFT/DAMP=40%
   @DF-UKS iter 265: -1994.71532779016820    1.20963e-10   1.52034e-02 DIIS/SHIFT/DAMP=40%
   @DF-UKS iter 266: -1994.71532779005429    1.13914e-10   1.52034e-02 DIIS/SHIFT/DAMP=40%
   @DF-UKS iter 267: -1994.71532778995038    1.03910e-10   1.52034e-02 DIIS/SHIFT/DAMP=40%
   @DF-UKS iter 268: -1994.71532778985352    9.68612e-11   1.52034e-02 DIIS/SHIFT/DAMP=40%
   @DF-UKS iter 269: -1994.71532778976302    9.04947e-11   1.52034e-02 DIIS/SHIFT/DAMP=40%
   @DF-UKS iter 270: -1994.71532778967958    8.34461e-11   1.52034e-02 DIIS/SHIFT/DAMP=40%
   @DF-UKS iter 271: -1994.71532778960318    7.63976e-11   1.52034e-02 DIIS/SHIFT/DAMP=40%
   @DF-UKS iter 272: -1994.71532778953133    7.18501e-11   1.52034e-02 DIIS/SHIFT/DAMP=40%
   @DF-UKS iter 273: -1994.71532778946539    6.59384e-11   1.52034e-02 DIIS/SHIFT/DAMP=40%
   @DF-UKS iter 274: -1994.71532778940264    6.27551e-11   1.52034e-02 DIIS/SHIFT/DAMP=40%
   @DF-UKS iter 275: -1994.71532778934534    5.72982e-11   1.52034e-02 DIIS/SHIFT/DAMP=40%
   @DF-UKS iter 276: -1994.71532778929213    5.32054e-11   1.52034e-02 DIIS/SHIFT/DAMP=40%
   @DF-UKS iter 277: -1994.71532778924370    4.84306e-11   1.52034e-02 DIIS/SHIFT/DAMP=40%
   @DF-UKS iter 278: -1994.71532778919800    4.57021e-11   1.52034e-02 DIIS/SHIFT/DAMP=40%
   @DF-UKS iter 279: -1994.71532778915480    4.32010e-11   1.52034e-02 DIIS/SHIFT/DAMP=40%
   @DF-UKS iter 280: -1994.71532778911524    3.95630e-11   1.52034e-02 DIIS/SHIFT/DAMP=40%
   @DF-UKS iter 281: -1994.71532778907840    3.68345e-11   1.52034e-02 DIIS/SHIFT/DAMP=40%
   @DF-UKS iter 282: -1994.71532778904430    3.41061e-11   1.52034e-02 DIIS/SHIFT/DAMP=40%
   @DF-UKS iter 283: -1994.71532778901269    3.16049e-11   1.52034e-02 DIIS/SHIFT/DAMP=40%
   @DF-UKS iter 284: -1994.71532778898541    2.72848e-11   1.52034e-02 DIIS/SHIFT/DAMP=40%
   @DF-UKS iter 285: -1994.71532778895812    2.72848e-11   1.52034e-02 DIIS/SHIFT/DAMP=40%
   @DF-UKS iter 286: -1994.71532778893311    2.50111e-11   1.52034e-02 DIIS/SHIFT/DAMP=40%
   @DF-UKS iter 287: -1994.71532778891083    2.22826e-11   1.52034e-02 DIIS/SHIFT/DAMP=40%
   @DF-UKS iter 288: -1994.71532778888968    2.11458e-11   1.52034e-02 DIIS/SHIFT/DAMP=40%
   @DF-UKS iter 289: -1994.71532778886990    1.97815e-11   1.52034e-02 DIIS/SHIFT/DAMP=40%
   @DF-UKS iter 290: -1994.71532778884921    2.06910e-11   1.52034e-02 DIIS/SHIFT/DAMP=40%
   @DF-UKS iter 291: -1994.71532778883284    1.63709e-11   1.52034e-02 DIIS/SHIFT/DAMP=40%
   @DF-UKS iter 292: -1994.71532778881715    1.56888e-11   1.52034e-02 DIIS/SHIFT/DAMP=40%
   @DF-UKS iter 293: -1994.71532778880282    1.43245e-11   1.52034e-02 DIIS/SHIFT/DAMP=40%
   @DF-UKS iter 294: -1994.71532778878964    1.31877e-11   1.52034e-02 DIIS/SHIFT/DAMP=40%
   @DF-UKS iter 295: -1994.71532778877668    1.29603e-11   1.52034e-02 DIIS/SHIFT/DAMP=40%
   @DF-UKS iter 296: -1994.71532778876599    1.06866e-11   1.52034e-02 DIIS/SHIFT/DAMP=40%
   @DF-UKS iter 297: -1994.71532778875371    1.22782e-11   1.52034e-02 DIIS/SHIFT/DAMP=40%
   @DF-UKS iter 298: -1994.71532778874325    1.04592e-11   1.52034e-02 DIIS/SHIFT/DAMP=40%
   @DF-UKS iter 299: -1994.71532778873416    9.09495e-12   1.52034e-02 DIIS/SHIFT/DAMP=40%
   @DF-UKS iter 300: -1994.71532778872552    8.64020e-12   1.52034e-02 DIIS/SHIFT/DAMP=40%

PsiException: Could not converge SCF iterations in 300 iterations.

  Energy and/or wave function did not converge, but proceeding anyway.


  ==> Post-Iterations <==

   Electrons on quadrature grid:
      Nalpha   =   46.9998872706 ; deviation = -1.127e-04
      Nbeta    =   44.9999111378 ; deviation = -8.886e-05
      Ntotal   =   91.9997984085 ; deviation = -2.016e-04 

   @Spin Contamination Metric:   1.247685435E-01
   @S^2 Expected:                2.000000000E+00
   @S^2 Observed:                2.124768543E+00
   @S   Expected:                1.000000000E+00
   @S   Observed:                1.000000000E+00

    Orbital Energies [Eh]
    ---------------------

    Alpha Occupied:                                                       

       1A   -255.185214     2A    -88.242849     3A    -29.931424  
       4A    -25.889301     5A    -25.881938     6A    -25.880423  
       7A    -18.872095     8A    -14.351971     9A    -14.307663  
      10A    -14.267270    11A    -14.260016    12A     -9.996851  
      13A     -7.846000    14A     -5.871971    15A     -5.866881  
      16A     -5.866047    17A     -3.580620    18A     -2.409110  
      19A     -2.387148    20A     -2.384688    21A     -1.000630  
      22A     -0.941445    23A     -0.916279    24A     -0.893232  
      25A     -0.887565    26A     -0.805334    27A     -0.771264  
      28A     -0.622640    29A     -0.612884    30A     -0.595997  
      31A     -0.572084    32A     -0.554968    33A     -0.550203  
      34A     -0.545115    35A     -0.542021    36A     -0.521442  
      37A     -0.483908    38A     -0.483061    39A     -0.470038  
      40A     -0.459408    41A     -0.454947    42A     -0.430052  
      43A     -0.427584    44A     -0.424150    45A     -0.419061  
      46A     -0.405763    47A     -0.400998  

    Alpha Virtual:                                                        

      48A     -0.286933    49A     -0.285788    50A     -0.268372  
      51A     -0.263781    52A     -0.242540    53A     -0.188848  
      54A     -0.079059    55A     -0.037121    56A     -0.021421  
      57A     -0.007924    58A      0.016321    59A      0.036541  
      60A      0.082816    61A      0.132792    62A      0.134101  
      63A      0.176996    64A      0.214817    65A      0.239214  
      66A      0.250621    67A      0.292257    68A      0.347368  
      69A      0.353984    70A      0.357387    71A      0.379477  
      72A      0.382168    73A      0.402197    74A      0.424676  
      75A      0.436105    76A      0.441344    77A      0.475456  
      78A      0.504112    79A      0.516531    80A      0.522620  
      81A      0.527787    82A      0.546057    83A      0.572926  
      84A      0.591967    85A      0.594576    86A      0.628935  
      87A      0.634307    88A      0.645537    89A      0.655592  
      90A      0.662636    91A      0.665548    92A      0.672493  
      93A      0.683250    94A      0.700665    95A      0.705441  
      96A      0.717695    97A      0.736483    98A      0.772419  
      99A      0.796572   100A      0.809300   101A      0.852701  
     102A      0.898978   103A      0.902785   104A      0.912835  
     105A      0.934930   106A      0.947565   107A      0.967068  
     108A      0.969265   109A      1.005168   110A      1.046104  
     111A      1.056613   112A      1.094003   113A      1.107522  
     114A      1.239160   115A      1.249513   116A      1.275301  
     117A      1.294960   118A      1.342090   119A      1.386203  
     120A      1.401924   121A      1.405699   122A      1.473898  
     123A      1.497453   124A      1.510517   125A      1.515806  
     126A      1.520886   127A      1.535900   128A      1.545572  
     129A      1.604359   130A      1.737257   131A      1.757571  
     132A      1.758689   133A      1.772647   134A      1.789671  
     135A      1.798354   136A      1.815174   137A      1.918195  
     138A      1.927434   139A      1.966392   140A      1.976183  
     141A      1.997829   142A      2.016087   143A      2.041554  
     144A      2.047040   145A      2.085008   146A      2.091148  
     147A      2.114264   148A      2.166693   149A      2.212023  
     150A      2.238873   151A      2.256548   152A      2.269040  
     153A      2.278687   154A      2.351355   155A      2.461012  
     156A      2.475151   157A      2.477183   158A      2.504134  
     159A      2.513784   160A      2.599640   161A      2.625580  
     162A      2.791468   163A      2.800191   164A      2.871626  
     165A      2.879793   166A      2.906241   167A      2.934492  
     168A      2.948389   169A      3.000927   170A      3.001337  
     171A      3.486836   172A      3.822184   173A      3.829752  
     174A      3.862320   175A      3.862436   176A      3.930514  
     177A      3.932538   178A      4.264654  

    Beta Occupied:                                                        

       1A   -255.185252     2A    -88.242431     3A    -29.933755  
       4A    -25.890306     5A    -25.884557     6A    -25.882097  
       7A    -18.866873     8A    -14.349514     9A    -14.292412  
      10A    -14.258639    11A    -14.253199    12A     -9.996715  
      13A     -7.845606    14A     -5.871668    15A     -5.866113  
      16A     -5.865477    17A     -3.586230    18A     -2.412693  
      19A     -2.395363    20A     -2.389540    21A     -0.990390  
      22A     -0.934638    23A     -0.887183    24A     -0.877462  
      25A     -0.855740    26A     -0.803210    27A     -0.769884  
      28A     -0.619941    29A     -0.611668    30A     -0.592419  
      31A     -0.563838    32A     -0.552517    33A     -0.542546  
      34A     -0.539609    35A     -0.534759    36A     -0.518606  
      37A     -0.482497    38A     -0.481843    39A     -0.460238  
      40A     -0.445704    41A     -0.432107    42A     -0.421418  
      43A     -0.412036    44A     -0.399256    45A     -0.392585  

    Beta Virtual:                                                         

      46A     -0.285411    47A     -0.281762    48A     -0.272307  
      49A     -0.266417    50A     -0.248938    51A     -0.242240  
      52A     -0.231249    53A     -0.184109    54A     -0.077595  
      55A     -0.035834    56A     -0.015203    57A     -0.004834  
      58A      0.021620    59A      0.038644    60A      0.083935  
      61A      0.133640    62A      0.134899    63A      0.179356  
      64A      0.221016    65A      0.244075    66A      0.253324  
      67A      0.294238    68A      0.349274    69A      0.355445  
      70A      0.359856    71A      0.381066    72A      0.386112  
      73A      0.409813    74A      0.426068    75A      0.439833  
      76A      0.448489    77A      0.485174    78A      0.517799  
      79A      0.528297    80A      0.533225    81A      0.537557  
      82A      0.549188    83A      0.578742    84A      0.602626  
      85A      0.604956    86A      0.638000    87A      0.647433  
      88A      0.650016    89A      0.663866    90A      0.666358  
      91A      0.675174    92A      0.680748    93A      0.693676  
      94A      0.716880    95A      0.720915    96A      0.730629  
      97A      0.750215    98A      0.785897    99A      0.799191  
     100A      0.817329   101A      0.855749   102A      0.904201  
     103A      0.908124   104A      0.918977   105A      0.941014  
     106A      0.951167   107A      0.969646   108A      0.979326  
     109A      1.011477   110A      1.048199   111A      1.059949  
     112A      1.098611   113A      1.112713   114A      1.242224  
     115A      1.254703   116A      1.284247   117A      1.300483  
     118A      1.349412   119A      1.392203   120A      1.402492  
     121A      1.406622   122A      1.478855   123A      1.500865  
     124A      1.516845   125A      1.518965   126A      1.522495  
     127A      1.539465   128A      1.548983   129A      1.612110  
     130A      1.742165   131A      1.759029   132A      1.760440  
     133A      1.777758   134A      1.794412   135A      1.807245  
     136A      1.823690   137A      1.939431   138A      1.957985  
     139A      1.984487   140A      2.014630   141A      2.017656  
     142A      2.038831   143A      2.067899   144A      2.084979  
     145A      2.091189   146A      2.105563   147A      2.134747  
     148A      2.179203   149A      2.230412   150A      2.254582  
     151A      2.274759   152A      2.288352   153A      2.294488  
     154A      2.376402   155A      2.476236   156A      2.488066  
     157A      2.491882   158A      2.508744   159A      2.517535  
     160A      2.603199   161A      2.636218   162A      2.799390  
     163A      2.807276   164A      2.873426   165A      2.882614  
     166A      2.921603   167A      2.938670   168A      2.965364  
     169A      3.002531   170A      3.002849   171A      3.488159  
     172A      3.817427   173A      3.825023   174A      3.856450  
     175A      3.858433   176A      3.924104   177A      3.928915  
     178A      4.264143  

    Final Occupation by Irrep:
              A 
    DOCC [    45 ]
    SOCC [     2 ]
    NA   [    47 ]
    NB   [    45 ]

  @DF-UKS Final Energy: -1994.71532778872552

   => Energetics <=

    Nuclear Repulsion Energy =            738.5923980618895257
    One-Electron Energy =               -4229.0420507814797020
    Two-Electron Energy =                1622.3526568819829663
    DFT Exchange-Correlation Energy =    -126.6183319511184067
    Empirical Dispersion Energy =           0.0000000000000000
    VV10 Nonlocal Energy =                  0.0000000000000000
    Total Energy =                      -1994.7153277887255172

  UHF NO Occupations:
  HONO-2 :   45  A 1.9565981
  HONO-1 :   46  A 1.0000000
  HONO-0 :   47  A 1.0000000
  LUNO+0 :   48  A 0.0434019
  LUNO+1 :   49  A 0.0136206
  LUNO+2 :   50  A 0.0035288
  LUNO+3 :   51  A 0.0010505


Computation Completed


Properties will be evaluated at   0.000000,   0.000000,   0.000000 [a0]

Properties computed using the SCF density matrix


 Multipole Moments:

 ------------------------------------------------------------------------------------
     Multipole            Electronic (a.u.)      Nuclear  (a.u.)        Total (a.u.)
 ------------------------------------------------------------------------------------

 L = 1.  Multiply by 2.5417464519 to convert [e a0] to [Debye]
 Dipole X            :          5.5337663            0.3826540            5.9164203
 Dipole Y            :          2.9078233            0.2551027            3.1629260
 Dipole Z            :        -13.0187943           12.3660260           -0.6527683
 Magnitude           :                                                    6.7404923

 ------------------------------------------------------------------------------------

*** tstop() called on LAPTOP-257FNSVV at Sun Sep  6 06:39:51 2026
Module time:
	user time   =        nan seconds =        nan minutes
	system time =        nan seconds =        nan minutes
	total time  =        218 seconds =       3.63 minutes
Total time:
	user time   =        nan seconds =        nan minutes
	system time =        nan seconds =        nan minutes
	total time  =        218 seconds =       3.63 minutes
