      -----------------------------------------------------------      
     |                   =====================                   |     
     |                           x T B                           |     
     |                   =====================                   |     
     |                         S. Grimme                         |     
     |          Mulliken Center for Theoretical Chemistry        |     
     |                    University of Bonn                     |     
      -----------------------------------------------------------      

   * xtb version 6.7.1 (edcfbbe) compiled by 'VssAdministrator@runnervm171ch' on 2026-06-10

   xtb is free software: you can redistribute it and/or modify it under
   the terms of the GNU Lesser General Public License as published by
   the Free Software Foundation, either version 3 of the License, or
   (at your option) any later version.
   
   xtb is distributed in the hope that it will be useful,
   but WITHOUT ANY WARRANTY; without even the implied warranty of
   MERCHANTABILITY or FITNESS FOR A PARTICULAR PURPOSE.  See the
   GNU Lesser General Public License for more details.
   
   Cite this work as:
   * C. Bannwarth, E. Caldeweyher, S. Ehlert, A. Hansen, P. Pracht,
     J. Seibert, S. Spicher, S. Grimme, WIREs Comput. Mol. Sci., 2020, 11,
     e01493. DOI: 10.1002/wcms.1493
   
   for GFN2-xTB:
   * C. Bannwarth, S. Ehlert and S. Grimme., J. Chem. Theory Comput., 2019,
     15, 1652-1671. DOI: 10.1021/acs.jctc.8b01176
   for GFN1-xTB:
   * S. Grimme, C. Bannwarth, P. Shushkov, J. Chem. Theory Comput., 2017,
     13, 1989-2009. DOI: 10.1021/acs.jctc.7b00118
   for GFN0-xTB:
   * P. Pracht, E. Caldeweyher, S. Ehlert, S. Grimme, ChemRxiv, 2019, preprint.
     DOI: 10.26434/chemrxiv.8326202.v1
   for GFN-FF:
   * S. Spicher and S. Grimme, Angew. Chem. Int. Ed., 2020, 59, 15665-15673.
     DOI: 10.1002/anie.202004239
   
   for ALPB and GBSA implicit solvation:
   * S. Ehlert, M. Stahn, S. Spicher, S. Grimme, J. Chem. Theory Comput.,
     2021, 17, 4250-4261. DOI: 10.1021/acs.jctc.1c00471
   
   for ddCOSMO and CPCM-X implicit solvation:
   * M. Stahn, S. Ehlert, S. Grimme, J. Phys. Chem. A,
     2023, XX, XXXX-XXXX. DOI: 10.1021/acs.jpca.3c04382
   
   for DFT-D4:
   * E. Caldeweyher, C. Bannwarth and S. Grimme, J. Chem. Phys., 2017,
     147, 034112. DOI: 10.1063/1.4993215
   * E. Caldeweyher, S. Ehlert, A. Hansen, H. Neugebauer, S. Spicher,
     C. Bannwarth and S. Grimme, J. Chem. Phys., 2019, 150, 154122.
     DOI: 10.1063/1.5090222
   * E. Caldeweyher, J.-M. Mewes, S. Ehlert and S. Grimme, Phys. Chem. Chem. Phys.
     2020, 22, 8499-8512. DOI: 10.1039/D0CP00502A
   
   for sTDA-xTB:
   * S. Grimme and C. Bannwarth, J. Chem. Phys., 2016, 145, 054103.
     DOI: 10.1063/1.4959605
   
   in the mass-spec context:
   * V. Asgeirsson, C. Bauer and S. Grimme, Chem. Sci., 2017, 8, 4879.
     DOI: 10.1039/c7sc00601b
   * J. Koopman and S. Grimme, ACS Omega 2019, 4, 12, 15120-15133.
     DOI: 10.1021/acsomega.9b02011
   
   for metadynamics refer to:
   * S. Grimme, J. Chem. Theory Comput., 2019, 155, 2847-2862
     DOI: 10.1021/acs.jctc.9b00143
   
   for SPH calculations refer to:
   * S. Spicher and S. Grimme, J. Chem. Theory Comput., 2021, 17, 1701-1714
     DOI: 10.1021/acs.jctc.0c01306
   
   for ONIOM refer to:
   * C. Plett, A. Katbashev, S. Ehlert, S. Grimme, M. Bursch,
     Phys. Chem. Chem. Phys., 2023, 25, 17860-17868. DOI: 10.1039/D3CP02178E
   
   for DIPRO refer to:
   * J. Kohn, N. Gildemeister, S. Grimme, D. Fazzi, A. Hansen,
     J. Chem. Phys., 2023, just accepted.
   
   for PTB refer to:
   * S. Grimme, M. Mueller, A. Hansen, J. Chem. Phys., 2023, 158, 124111.
     DOI: 10.1063/5.0137838
   
   with help from (in alphabetical order)
   P. Atkinson, C. Bannwarth, F. Bohle, G. Brandenburg, E. Caldeweyher
   M. Checinski, S. Dohm, S. Ehlert, S. Ehrlich, I. Gerasimov, C. Hölzer
   A. Katbashev, J. Kohn, J. Koopman, C. Lavigne, S. Lehtola, F. März, M. Müller,
   F. Musil, H. Neugebauer, J. Pisarek, C. Plett, P. Pracht, F. Pultar,
   J. Seibert, P. Shushkov, S. Spicher, M. Stahn, M. Steiner, T. Strunk,
   J. Stückrath, T. Rose, and J. Unsleber
   
 * started run on 2026/09/10 at 23:07:08.286     
   ID    Z sym.   atoms
    1    8 O      1, 3, 4, 17, 88, 90, 99, 100
    2   15 P      2
    3    6 C      5-16, 18-37, 59, 60, 62-73, 87, 89, 91-93, 95-98, 101, 102
    4    1 H      38-58, 74-86, 103-117
    5    7 N      61, 94

           -------------------------------------------------
          |                Calculation Setup                |
           -------------------------------------------------

          program call               : C:\Users\HUIWEI\miniconda3\envs\phase2ff\Library\bin\xtb.exe input.xyz --gfn 2 --chrg 0 --uhf 0 --alpb toluene --acc 0.2 --opt vtight
          coordinate file            : input.xyz
          omp threads                :                     1


           -------------------------------------------------
          |                 G F N 2 - x T B                 |
           -------------------------------------------------

        Reference                      10.1021/acs.jctc.8b01176
      * Hamiltonian:
        H0-scaling (s, p, d)           1.850000    2.230000    2.230000
        zeta-weighting                 0.500000
      * Dispersion:
        s8                             2.700000
        a1                             0.520000
        a2                             5.000000
        s9                             5.000000
      * Repulsion:
        kExp                           1.500000    1.000000
        rExp                           1.000000
      * Coulomb:
        alpha                          2.000000
        third order                    shell-resolved
        anisotropic                    true
        a3                             3.000000
        a5                             4.000000
        cn-shift                       1.200000
        cn-exp                         4.000000
        max-rad                        5.000000

      * Solvation model:               ALPB
        Solvent                        toluene
        Parameter file                 internal GFN2-xTB/ALPB
        Dielectric constant                7.0000E+00
        Reference state                gsolv [1 M gas/solution]
        Free energy shift                  2.2081E-03 Eh       1.3856E+00 kcal/mol
        Temperature                        2.9815E+02 K
        Density                            8.6700E-01 kg/L
        Solvent mass                       7.8110E+01 g/mol
        Interaction kernel             P16
        Born radius scaling (c1)           1.7172E+00
        Born radii integrator          GBOBC
        Born offset                        0.0000E+00 a0       0.0000E+00 AA
        H-bond correction              false
        Ion screening                  false
        Surface tension                    1.0000E-05 Eh       1.5569E+01 dyn/cm
        Grid points                               230 per atom

          ...................................................
          :                      SETUP                      :
          :.................................................:
          :  # basis functions                 327          :
          :  # atomic orbitals                 326          :
          :  # shells                          186          :
          :  # electrons                       340          :
          :  max. iterations                   250          :
          :  Hamiltonian                  GFN2-xTB          :
          :  restarted?                      false          :
          :  GBSA solvation                   true          :
          :  PC potential                    false          :
          :  electronic temp.          300.0000000     K    :
          :  accuracy                    0.2000000          :
          :  -> integral cutoff          0.3198970E+02      :
          :  -> integral neglect         0.2000000E-08      :
          :  -> SCF convergence          0.2000000E-06 Eh   :
          :  -> wf. convergence          0.2000000E-04 e    :
          :  Broyden damping             0.4000000          :
          :  net charge                          0          :
          :  unpaired electrons                  0          :
          ...................................................

 iter      E             dE          RMSdq      gap      omega  full diag
   1   -189.7959971 -0.189796E+03  0.467E+00    0.22       0.0  T
   2   -190.0797893 -0.283792E+00  0.306E+00    0.72       1.0  T
   3   -189.7682818  0.311507E+00  0.197E+00    0.04       1.0  T
   4   -190.1191203 -0.350838E+00  0.117E+00    1.30       1.0  T
   5   -190.2440383 -0.124918E+00  0.651E-01    0.93       1.0  T
   6   -190.2627375 -0.186992E-01  0.484E-01    0.81       1.0  T
   7   -190.2879735 -0.252360E-01  0.230E-01    0.43       1.0  T
   8   -190.2880126 -0.391288E-04  0.133E-01    0.13       1.0  T
   9   -190.2897842 -0.177155E-02  0.106E-01    0.32       1.0  T
  10   -190.2914797 -0.169559E-02  0.385E-02    0.20       1.0  T
  11   -190.2916391 -0.159316E-03  0.143E-02    0.19       1.0  T
  12   -190.2915623  0.767475E-04  0.223E-02    0.17       1.0  T
  13   -190.2916531 -0.907930E-04  0.471E-03    0.19       2.0  T
  14   -190.2916532 -0.112769E-06  0.380E-03    0.18       2.4  T
  15   -190.2916553 -0.205380E-05  0.966E-04    0.18       9.6  T
  16   -190.2916553 -0.507836E-08  0.549E-04    0.18      16.8  T
  17   -190.2916553 -0.523758E-08  0.412E-04    0.18      22.5  T
  18   -190.2916553 -0.282917E-07  0.106E-04    0.18      87.1  T
  19   -190.2916553 -0.117825E-08  0.380E-05    0.18     243.3  T

   *** convergence criteria satisfied after 19 iterations ***

         #    Occupation            Energy/Eh            Energy/eV
      -------------------------------------------------------------
         1        2.0000           -0.7813906             -21.2627
       ...           ...                  ...                  ...
       164        2.0000           -0.3882873             -10.5658
       165        2.0000           -0.3856134             -10.4931
       166        2.0000           -0.3725352             -10.1372
       167        2.0000           -0.3708271             -10.0907
       168        2.0000           -0.3564704              -9.7001
       169        2.0000           -0.3542157              -9.6387
       170        1.9436           -0.3002151              -8.1693 (HOMO)
       171        0.0564           -0.2934877              -7.9862 (LUMO)
       172        0.0000           -0.2841963              -7.7334
       173                         -0.2714811              -7.3874
       174                         -0.2660307              -7.2391
       175                         -0.2610806              -7.1044
       ...                                ...                  ...
       326                          1.2114826              32.9661
      -------------------------------------------------------------
                  HL-Gap            0.0067273 Eh            0.1831 eV
             Fermi-level           -0.2968514 Eh           -8.0777 eV

 SCC (total)                   0 d,  0 h,  0 min,  0.706 sec
 SCC setup                      ...        0 min,  0.007 sec (  0.941%)
 Dispersion                     ...        0 min,  0.005 sec (  0.710%)
 classical contributions        ...        0 min,  0.001 sec (  0.147%)
 integral evaluation            ...        0 min,  0.057 sec (  8.072%)
 iterations                     ...        0 min,  0.421 sec ( 59.632%)
 molecular gradient             ...        0 min,  0.212 sec ( 30.051%)
 printout                       ...        0 min,  0.003 sec (  0.434%)

         :::::::::::::::::::::::::::::::::::::::::::::::::::::
         ::                     SUMMARY                     ::
         :::::::::::::::::::::::::::::::::::::::::::::::::::::
         :: total energy            -187.347527203466 Eh    ::
         :: total w/o Gsasa/hb      -187.274252410977 Eh    ::
         :: gradient norm              0.670539826750 Eh/a0 ::
         :: HOMO-LUMO gap              0.183060360250 eV    ::
         ::.................................................::
         :: SCC energy              -190.282536655582 Eh    ::
         :: -> isotropic ES            0.283790403636 Eh    ::
         :: -> anisotropic ES          0.004854642679 Eh    ::
         :: -> anisotropic XC          0.085188218904 Eh    ::
         :: -> dispersion             -0.183911636738 Eh    ::
         :: -> Gsolv                  -0.092847696433 Eh    ::
         ::    -> Gelec               -0.019572903944 Eh    ::
         ::    -> Gsasa               -0.075482935628 Eh    ::
         ::    -> Ghb                  0.000000000000 Eh    ::
         ::    -> Gshift               0.002208143139 Eh    ::
         :: repulsion energy           2.935009452116 Eh    ::
         :: add. restraining           0.000000000000 Eh    ::
         :: total charge               0.000000000000 e     ::
         :::::::::::::::::::::::::::::::::::::::::::::::::::::

      ----------------------------------------------------------- 
     |                   =====================                   |
     |                        A N C O P T                        |
     |                   =====================                   |
     |               Approximate Normal Coordinate               |
     |                Rational Function Optimizer                |
      ----------------------------------------------------------- 
      ----------------------------------------------------------- 
     |                   =====================                   |
     |                        A N C O P T                        |
     |                   =====================                   |
     |               Approximate Normal Coordinate               |
     |                Rational Function Optimizer                |
      ----------------------------------------------------------- 

          ...................................................
          :                      SETUP                      :
          :.................................................:
          :   optimization level         verytight          :
          :   max. optcycles                  2340          :
          :   ANC micro-cycles                  20          :
          :   degrees of freedom               345          :
          :.................................................:
          :   RF solver                   davidson          :
          :   write xtbopt.log                true          :
          :   linear?                        false          :
          :   energy convergence         0.1000000E-06 Eh   :
          :   grad. convergence          0.2000000E-03 Eh/α :
          :   maxmium RF displ.          1.0000000          :
          :   Hlow (freq-cutoff)         0.1000000E-01      :
          :   Hmax (freq-cutoff)         5.0000000          :
          :   S6 in model hess.         20.0000000          :
          ...................................................

generating ANC from exact Hessian ...
Using Lindh-Hessian (1995)
 Shifting diagonal of input Hessian by    9.8753119526510304E-003
 Lowest  eigenvalues of input Hessian
    0.000000    0.000000    0.000000    0.000000    0.000000    0.000000
    0.010000    0.010103    0.010135    0.010278    0.010412    0.010499
    0.010556    0.010695    0.010765    0.010844    0.011187    0.011252
 Highest eigenvalues
    2.271855    2.301178    2.304245    2.445626    2.614306    2.844950


........................................................................
.............................. CYCLE    1 ..............................
........................................................................

 iter      E             dE          RMSdq      gap      omega  full diag
   1   -190.2916553 -0.190292E+03  0.217E-05    0.18       0.0  T
   2   -190.2916553  0.641222E-09  0.578E-05    0.18     159.9  T
   3   -190.2916553 -0.691358E-09  0.120E-05    0.18     768.0  T
     SCC iter.                  ...        0 min,  0.062 sec
     gradient                   ...        0 min,  0.212 sec
 * total energy  :  -187.3475272 Eh     change       -0.1180922E-09 Eh
   gradient norm :     0.6705401 Eh/α   predicted     0.0000000E+00 (-100.00%)
   displ. norm   :     0.6288022 α      lambda       -0.3354368E+00
   maximum displ.:     0.1362474 α      in ANC's #195, #208, #93, ...

........................................................................
.............................. CYCLE    2 ..............................
........................................................................

 iter      E             dE          RMSdq      gap      omega  full diag
   1   -190.5052057 -0.190505E+03  0.423E-01    0.47       0.0  T
   2   -190.5070426 -0.183687E-02  0.310E-01    0.17       1.0  T
   3   -190.5118778 -0.483528E-02  0.169E-01    0.44       1.0  T
   4   -190.5122052 -0.327313E-03  0.112E-01    0.19       1.0  T
   5   -190.5138531 -0.164790E-02  0.429E-02    0.29       1.0  T
   6   -190.5140538 -0.200712E-03  0.188E-02    0.25       1.0  T
   7   -190.5140737 -0.199025E-04  0.818E-03    0.24       1.1  T
   8   -190.5140800 -0.629668E-05  0.494E-03    0.25       1.9  T
   9   -190.5140827 -0.274849E-05  0.140E-03    0.25       6.6  T
  10   -190.5140828 -0.644031E-07  0.810E-04    0.25      11.4  T
  11   -190.5140828 -0.437697E-07  0.314E-04    0.25      29.5  T
  12   -190.5140828 -0.386316E-08  0.144E-04    0.25      64.0  T
  13   -190.5140828 -0.935671E-09  0.753E-05    0.25     122.8  T
     SCC iter.                  ...        0 min,  0.316 sec
     gradient                   ...        0 min,  0.235 sec
 * total energy  :  -187.6034121 Eh     change       -0.2558849E+00 Eh
   gradient norm :     0.3484990 Eh/α   predicted    -0.2341625E+00 (  -8.49%)
   displ. norm   :     0.6516458 α      lambda       -0.1945307E+00
   maximum displ.:     0.1560376 α      in ANC's #93, #208, #195, ...

........................................................................
.............................. CYCLE    3 ..............................
........................................................................

 iter      E             dE          RMSdq      gap      omega  full diag
   1   -190.6890022 -0.190689E+03  0.448E-01    0.69       0.0  T
   2   -190.6927775 -0.377525E-02  0.357E-01    0.40       1.0  T
   3   -190.7040059 -0.112284E-01  0.155E-01    0.50       1.0  T
   4   -190.7043366 -0.330706E-03  0.466E-02    0.44       1.0  T
   5   -190.7044312 -0.946045E-04  0.230E-02    0.45       1.0  T
   6   -190.7044586 -0.274545E-04  0.852E-03    0.45       1.1  T
   7   -190.7044650 -0.640327E-05  0.325E-03    0.45       2.8  T
   8   -190.7044657 -0.657534E-06  0.145E-03    0.45       6.4  T
   9   -190.7044659 -0.156026E-06  0.742E-04    0.45      12.5  T
  10   -190.7044659 -0.286198E-07  0.327E-04    0.45      28.3  T
  11   -190.7044659 -0.378338E-08  0.140E-04    0.45      65.8  T
  12   -190.7044659 -0.784922E-09  0.695E-05    0.45     133.0  T
     SCC iter.                  ...        0 min,  0.248 sec
     gradient                   ...        0 min,  0.224 sec
 * total energy  :  -187.7611363 Eh     change       -0.1577242E+00 Eh
   gradient norm :     0.2156373 Eh/α   predicted    -0.1385684E+00 ( -12.15%)
   displ. norm   :     0.7104995 α      lambda       -0.1380009E+00
   maximum displ.:     0.1899403 α      in ANC's #93, #238, #232, ...

........................................................................
.............................. CYCLE    4 ..............................
........................................................................

 iter      E             dE          RMSdq      gap      omega  full diag
   1   -190.8300192 -0.190830E+03  0.420E-01    0.88       0.0  T
   2   -190.8326679 -0.264867E-02  0.335E-01    0.74       1.0  T
   3   -190.8431742 -0.105063E-01  0.147E-01    0.79       1.0  T
   4   -190.8434662 -0.292039E-03  0.488E-02    0.76       1.0  T
   5   -190.8436533 -0.187128E-03  0.210E-02    0.74       1.0  T
   6   -190.8436734 -0.200301E-04  0.842E-03    0.75       1.1  T
   7   -190.8436800 -0.662295E-05  0.273E-03    0.75       3.4  T
   8   -190.8436803 -0.314014E-06  0.101E-03    0.75       9.2  T
   9   -190.8436803 -0.176367E-07  0.564E-04    0.75      16.4  T
  10   -190.8436803 -0.148974E-07  0.246E-04    0.75      37.6  T
  11   -190.8436803 -0.201285E-08  0.115E-04    0.75      80.5  T
  12   -190.8436803 -0.796859E-09  0.554E-05    0.75     166.8  T
     SCC iter.                  ...        0 min,  0.258 sec
     gradient                   ...        0 min,  0.214 sec
 * total energy  :  -187.8738858 Eh     change       -0.1127495E+00 Eh
   gradient norm :     0.1637737 Eh/α   predicted    -0.1038332E+00 (  -7.91%)
   displ. norm   :     0.7444317 α      lambda       -0.1009753E+00
   maximum displ.:     0.2165734 α      in ANC's #93, #238, #232, ...

........................................................................
.............................. CYCLE    5 ..............................
........................................................................

 iter      E             dE          RMSdq      gap      omega  full diag
   1   -190.9232160 -0.190923E+03  0.366E-01    1.20       0.0  T
   2   -190.9243183 -0.110224E-02  0.280E-01    1.19       1.0  T
   3   -190.9321291 -0.781081E-02  0.131E-01    1.20       1.0  T
   4   -190.9327103 -0.581215E-03  0.416E-02    1.16       1.0  T
   5   -190.9328279 -0.117632E-03  0.170E-02    1.16       1.0  T
   6   -190.9328393 -0.113559E-04  0.601E-03    1.17       1.5  T
   7   -190.9328421 -0.280101E-05  0.241E-03    1.16       3.8  T
   8   -190.9328424 -0.336277E-06  0.865E-04    1.17      10.7  T
   9   -190.9328424 -0.136875E-07  0.479E-04    1.17      19.3  T
  10   -190.9328425 -0.940017E-08  0.188E-04    1.17      49.1  T
  11   -190.9328425 -0.142495E-08  0.876E-05    1.17     105.6  T
     SCC iter.                  ...        0 min,  0.217 sec
     gradient                   ...        0 min,  0.217 sec
 * total energy  :  -187.9574966 Eh     change       -0.8361085E-01 Eh
   gradient norm :     0.1511188 Eh/α   predicted    -0.7846696E-01 (  -6.15%)
   displ. norm   :     0.7513491 α      lambda       -0.7765275E-01
   maximum displ.:     0.2232820 α      in ANC's #93, #238, #102, ...

........................................................................
.............................. CYCLE    6 ..............................
........................................................................

 iter      E             dE          RMSdq      gap      omega  full diag
   1   -190.9932776 -0.190993E+03  0.317E-01    1.69       0.0  T
   2   -190.9947570 -0.147942E-02  0.235E-01    1.72       1.0  T
   3   -190.9998127 -0.505567E-02  0.111E-01    1.74       1.0  T
   4   -191.0002174 -0.404696E-03  0.362E-02    1.71       1.0  T
   5   -191.0002968 -0.793495E-04  0.141E-02    1.72       1.0  T
   6   -191.0003066 -0.980498E-05  0.535E-03    1.72       1.7  T
   7   -191.0003080 -0.145701E-05  0.235E-03    1.72       3.9  T
   8   -191.0003085 -0.477250E-06  0.745E-04    1.72      12.4  T
   9   -191.0003085 -0.136110E-07  0.409E-04    1.72      22.6  T
  10   -191.0003085 -0.700439E-08  0.170E-04    1.72      54.4  T
  11   -191.0003085 -0.845489E-09  0.775E-05    1.72     119.2  T
     SCC iter.                  ...        0 min,  0.216 sec
     gradient                   ...        0 min,  0.215 sec
 * total energy  :  -188.0251449 Eh     change       -0.6764826E-01 Eh
   gradient norm :     0.1415509 Eh/α   predicted    -0.6074490E-01 ( -10.20%)
   displ. norm   :     0.7728730 α      lambda       -0.6868073E-01
   maximum displ.:     0.2266251 α      in ANC's #93, #343, #102, ...

........................................................................
.............................. CYCLE    7 ..............................
........................................................................

 iter      E             dE          RMSdq      gap      omega  full diag
   1   -191.0633757 -0.191063E+03  0.261E-01    1.83       0.0  T
   2   -191.0648936 -0.151797E-02  0.177E-01    1.88       1.0  T
   3   -191.0667781 -0.188444E-02  0.940E-02    1.89       1.0  T
   4   -191.0670180 -0.239939E-03  0.271E-02    1.90       1.0  T
   5   -191.0670680 -0.500276E-04  0.117E-02    1.90       1.0  T
   6   -191.0670778 -0.972652E-05  0.429E-03    1.90       2.2  T
   7   -191.0670785 -0.696522E-06  0.193E-03    1.90       4.8  T
   8   -191.0670788 -0.291141E-06  0.605E-04    1.90      15.3  T
   9   -191.0670788 -0.128611E-07  0.338E-04    1.90      27.4  T
  10   -191.0670788 -0.494222E-08  0.145E-04    1.90      63.9  T
  11   -191.0670788 -0.587079E-09  0.794E-05    1.90     116.4  T
     SCC iter.                  ...        0 min,  0.244 sec
     gradient                   ...        0 min,  0.227 sec
 * total energy  :  -188.0825178 Eh     change       -0.5737292E-01 Eh
   gradient norm :     0.1095510 Eh/α   predicted    -0.5485299E-01 (  -4.39%)
   displ. norm   :     0.7268552 α      lambda       -0.4810598E-01
   maximum displ.:     0.2062922 α      in ANC's #93, #343, #42, ...

........................................................................
.............................. CYCLE    8 ..............................
........................................................................

 iter      E             dE          RMSdq      gap      omega  full diag
   1   -191.1144283 -0.191114E+03  0.192E-01    1.91       0.0  T
   2   -191.1149243 -0.495904E-03  0.116E-01    1.91       1.0  T
   3   -191.1151298 -0.205564E-03  0.727E-02    1.91       1.0  T
   4   -191.1153314 -0.201619E-03  0.147E-02    1.90       1.0  T
   5   -191.1153520 -0.205490E-04  0.646E-03    1.90       1.4  T
   6   -191.1153547 -0.276328E-05  0.251E-03    1.90       3.7  T
   7   -191.1153551 -0.308671E-06  0.104E-03    1.90       8.9  T
   8   -191.1153551 -0.659375E-07  0.426E-04    1.90      21.7  T
   9   -191.1153551 -0.124039E-07  0.215E-04    1.90      43.1  T
  10   -191.1153551 -0.192676E-08  0.901E-05    1.90     102.6  T
  11   -191.1153551 -0.368942E-09  0.425E-05    1.90     217.4  T
     SCC iter.                  ...        0 min,  0.238 sec
     gradient                   ...        0 min,  0.212 sec
 * total energy  :  -188.1212734 Eh     change       -0.3875556E-01 Eh
   gradient norm :     0.0828816 Eh/α   predicted    -0.3676067E-01 (  -5.15%)
   displ. norm   :     0.6995261 α      lambda       -0.3225061E-01
   maximum displ.:     0.1789157 α      in ANC's #93, #42, #32, ...

........................................................................
.............................. CYCLE    9 ..............................
........................................................................

 iter      E             dE          RMSdq      gap      omega  full diag
   1   -191.1407470 -0.191141E+03  0.165E-01    1.90       0.0  T
   2   -191.1409206 -0.173680E-03  0.988E-02    1.89       1.0  T
   3   -191.1408220  0.986790E-04  0.586E-02    1.89       1.0  T
   4   -191.1410373 -0.215288E-03  0.101E-02    1.89       1.0  T
   5   -191.1410485 -0.112870E-04  0.387E-03    1.89       2.4  T
   6   -191.1410493 -0.727409E-06  0.179E-03    1.89       5.2  T
   7   -191.1410494 -0.152631E-06  0.736E-04    1.89      12.6  T
   8   -191.1410495 -0.414086E-07  0.305E-04    1.89      30.4  T
   9   -191.1410495 -0.602813E-08  0.153E-04    1.89      60.3  T
  10   -191.1410495 -0.912223E-09  0.519E-05    1.89     178.0  T
     SCC iter.                  ...        0 min,  0.223 sec
     gradient                   ...        0 min,  0.211 sec
 * total energy  :  -188.1478302 Eh     change       -0.2655681E-01 Eh
   gradient norm :     0.0709930 Eh/α   predicted    -0.2401602E-01 (  -9.57%)
   displ. norm   :     0.7069595 α      lambda       -0.2456187E-01
   maximum displ.:     0.1693796 α      in ANC's #32, #42, #93, ...

........................................................................
.............................. CYCLE   10 ..............................
........................................................................

 iter      E             dE          RMSdq      gap      omega  full diag
   1   -191.1535781 -0.191154E+03  0.160E-01    1.90       0.0  T
   2   -191.1536727 -0.945876E-04  0.951E-02    1.90       1.0  T
   3   -191.1535138  0.158954E-03  0.495E-02    1.90       1.0  T
   4   -191.1537310 -0.217180E-03  0.801E-03    1.89       1.2  T
   5   -191.1537377 -0.670640E-05  0.322E-03    1.89       2.9  T
   6   -191.1537381 -0.469312E-06  0.158E-03    1.89       5.9  T
   7   -191.1537382 -0.993062E-07  0.701E-04    1.89      13.2  T
   8   -191.1537383 -0.448826E-07  0.243E-04    1.89      38.1  T
   9   -191.1537383 -0.277760E-08  0.130E-04    1.89      71.1  T
  10   -191.1537383 -0.753857E-09  0.423E-05    1.89     218.5  T
     SCC iter.                  ...        0 min,  0.212 sec
     gradient                   ...        0 min,  0.247 sec
 * total energy  :  -188.1679702 Eh     change       -0.2014004E-01 Eh
   gradient norm :     0.0476041 Eh/α   predicted    -0.1841886E-01 (  -8.55%)
   displ. norm   :     0.7108475 α      lambda       -0.1696078E-01
   maximum displ.:     0.1900806 α      in ANC's #32, #25, #42, ...

........................................................................
.............................. CYCLE   11 ..............................
........................................................................

 iter      E             dE          RMSdq      gap      omega  full diag
   1   -191.1591359 -0.191159E+03  0.155E-01    1.91       0.0  T
   2   -191.1591857 -0.497926E-04  0.907E-02    1.91       1.0  T
   3   -191.1590674  0.118257E-03  0.369E-02    1.91       1.0  T
   4   -191.1592115 -0.144121E-03  0.559E-03    1.90       1.7  T
   5   -191.1592140 -0.246155E-05  0.277E-03    1.91       3.3  T
   6   -191.1592144 -0.426193E-06  0.135E-03    1.91       6.9  T
   7   -191.1592145 -0.815374E-07  0.577E-04    1.91      16.0  T
   8   -191.1592145 -0.280626E-07  0.199E-04    1.91      46.6  T
   9   -191.1592145 -0.131141E-08  0.105E-04    1.91      88.0  T
     SCC iter.                  ...        0 min,  0.213 sec
     gradient                   ...        0 min,  0.220 sec
 * total energy  :  -188.1815344 Eh     change       -0.1356422E-01 Eh
   gradient norm :     0.0307440 Eh/α   predicted    -0.1276558E-01 (  -5.89%)
   displ. norm   :     0.6989111 α      lambda       -0.1092218E-01
   maximum displ.:     0.2116026 α      in ANC's #25, #32, #42, ...

........................................................................
.............................. CYCLE   12 ..............................
........................................................................

 iter      E             dE          RMSdq      gap      omega  full diag
   1   -191.1610051 -0.191161E+03  0.143E-01    1.92       0.0  T
   2   -191.1610324 -0.273750E-04  0.836E-02    1.93       1.0  T
   3   -191.1609558  0.766117E-04  0.275E-02    1.93       1.0  T
   4   -191.1610455 -0.896593E-04  0.437E-03    1.92       2.1  T
   5   -191.1610467 -0.121558E-05  0.228E-03    1.93       4.1  T
   6   -191.1610470 -0.300797E-06  0.109E-03    1.92       8.5  T
   7   -191.1610471 -0.427607E-07  0.492E-04    1.92      18.8  T
   8   -191.1610471 -0.187596E-07  0.182E-04    1.92      50.8  T
   9   -191.1610471 -0.129484E-08  0.926E-05    1.92      99.8  T
     SCC iter.                  ...        0 min,  0.193 sec
     gradient                   ...        0 min,  0.222 sec
 * total energy  :  -188.1905086 Eh     change       -0.8974160E-02 Eh
   gradient norm :     0.0308296 Eh/α   predicted    -0.8128709E-02 (  -9.42%)
   displ. norm   :     0.7063274 α      lambda       -0.8406675E-02
   maximum displ.:     0.2309151 α      in ANC's #25, #32, #18, ...

........................................................................
.............................. CYCLE   13 ..............................
........................................................................

 iter      E             dE          RMSdq      gap      omega  full diag
   1   -191.1643887 -0.191164E+03  0.138E-01    1.94       0.0  T
   2   -191.1644096 -0.208413E-04  0.811E-02    1.95       1.0  T
   3   -191.1643181  0.914198E-04  0.285E-02    1.95       1.0  T
   4   -191.1644225 -0.104380E-03  0.408E-03    1.95       2.3  T
   5   -191.1644236 -0.104315E-05  0.203E-03    1.95       4.5  T
   6   -191.1644238 -0.208637E-06  0.102E-03    1.95       9.1  T
   7   -191.1644238 -0.270655E-07  0.475E-04    1.95      19.5  T
   8   -191.1644238 -0.188350E-07  0.181E-04    1.95      51.1  T
   9   -191.1644238 -0.162126E-08  0.913E-05    1.95     101.3  T
     SCC iter.                  ...        0 min,  0.206 sec
     gradient                   ...        0 min,  0.222 sec
 * total energy  :  -188.1976062 Eh     change       -0.7097552E-02 Eh
   gradient norm :     0.0312554 Eh/α   predicted    -0.6300397E-02 ( -11.23%)
   displ. norm   :     0.7200372 α      lambda       -0.7156166E-02
   maximum displ.:     0.2439428 α      in ANC's #25, #32, #18, ...

........................................................................
.............................. CYCLE   14 ..............................
........................................................................

 iter      E             dE          RMSdq      gap      omega  full diag
   1   -191.1687631 -0.191169E+03  0.139E-01    1.97       0.0  T
   2   -191.1687820 -0.189263E-04  0.817E-02    1.97       1.0  T
   3   -191.1686768  0.105216E-03  0.302E-02    1.98       1.0  T
   4   -191.1687963 -0.119502E-03  0.389E-03    1.97       2.4  T
   5   -191.1687972 -0.906191E-06  0.196E-03    1.98       4.7  T
   6   -191.1687974 -0.160480E-06  0.103E-03    1.98       9.0  T
   7   -191.1687974 -0.267138E-07  0.432E-04    1.98      21.4  T
   8   -191.1687974 -0.154202E-07  0.176E-04    1.98      52.4  T
   9   -191.1687974 -0.148077E-08  0.936E-05    1.98      98.7  T
     SCC iter.                  ...        0 min,  0.183 sec
     gradient                   ...        0 min,  0.217 sec
 * total energy  :  -188.2036758 Eh     change       -0.6069646E-02 Eh
   gradient norm :     0.0270768 Eh/α   predicted    -0.5433221E-02 ( -10.49%)
   displ. norm   :     0.7245116 α      lambda       -0.5918919E-02
   maximum displ.:     0.2425988 α      in ANC's #25, #18, #32, ...

........................................................................
.............................. CYCLE   15 ..............................
........................................................................

 iter      E             dE          RMSdq      gap      omega  full diag
   1   -191.1738914 -0.191174E+03  0.136E-01    1.99       0.0  T
   2   -191.1739076 -0.161609E-04  0.803E-02    2.00       1.0  T
   3   -191.1738122  0.953863E-04  0.288E-02    2.01       1.0  T
   4   -191.1739202 -0.108031E-03  0.370E-03    2.00       2.5  T
   5   -191.1739210 -0.805015E-06  0.190E-03    2.00       4.9  T
   6   -191.1739211 -0.123209E-06  0.103E-03    2.00       9.0  T
   7   -191.1739212 -0.303444E-07  0.360E-04    2.00      25.7  T
   8   -191.1739212 -0.985062E-08  0.155E-04    2.00      59.7  T
   9   -191.1739212 -0.780432E-09  0.884E-05    2.00     104.6  T
     SCC iter.                  ...        0 min,  0.316 sec
     gradient                   ...        0 min,  0.312 sec
 * total energy  :  -188.2086289 Eh     change       -0.4953109E-02 Eh
   gradient norm :     0.0205204 Eh/α   predicted    -0.4512933E-02 (  -8.89%)
   displ. norm   :     0.7235195 α      lambda       -0.4550133E-02
   maximum displ.:     0.2345480 α      in ANC's #25, #18, #10, ...

........................................................................
.............................. CYCLE   16 ..............................
........................................................................

 iter      E             dE          RMSdq      gap      omega  full diag
   1   -191.1753076 -0.191175E+03  0.132E-01    2.02       0.0  T
   2   -191.1753231 -0.154746E-04  0.778E-02    2.03       1.0  T
   3   -191.1752535  0.695639E-04  0.247E-02    2.03       1.0  T
   4   -191.1753321 -0.785738E-04  0.379E-03    2.03       2.4  T
   5   -191.1753331 -0.102658E-05  0.178E-03    2.03       5.2  T
   6   -191.1753332 -0.910204E-07  0.989E-04    2.03       9.4  T
   7   -191.1753333 -0.285257E-07  0.330E-04    2.03      28.0  T
   8   -191.1753333 -0.742568E-08  0.137E-04    2.03      67.3  T
   9   -191.1753333 -0.563972E-09  0.688E-05    2.03     134.4  T
     SCC iter.                  ...        0 min,  0.319 sec
     gradient                   ...        0 min,  0.364 sec
 * total energy  :  -188.2123500 Eh     change       -0.3721045E-02 Eh
   gradient norm :     0.0166275 Eh/α   predicted    -0.3466022E-02 (  -6.85%)
   displ. norm   :     0.7129679 α      lambda       -0.3557576E-02
   maximum displ.:     0.2158625 α      in ANC's #10, #25, #18, ...

........................................................................
.............................. CYCLE   17 ..............................
........................................................................

 iter      E             dE          RMSdq      gap      omega  full diag
   1   -191.1811419 -0.191181E+03  0.123E-01    2.04       0.0  T
   2   -191.1811547 -0.128892E-04  0.731E-02    2.05       1.0  T
   3   -191.1811129  0.418155E-04  0.195E-02    2.05       1.0  T
   4   -191.1811604 -0.474776E-04  0.378E-03    2.05       2.4  T
   5   -191.1811614 -0.103180E-05  0.177E-03    2.05       5.2  T
   6   -191.1811615 -0.882069E-07  0.993E-04    2.05       9.3  T
   7   -191.1811616 -0.328761E-07  0.355E-04    2.05      26.1  T
   8   -191.1811616 -0.823454E-08  0.156E-04    2.05      59.3  T
   9   -191.1811616 -0.102651E-08  0.772E-05    2.05     119.7  T
     SCC iter.                  ...        0 min,  0.326 sec
     gradient                   ...        0 min,  0.293 sec
 * total energy  :  -188.2149247 Eh     change       -0.2574751E-02 Eh
   gradient norm :     0.0190478 Eh/α   predicted    -0.2682995E-02 (   4.20%)
   displ. norm   :     0.6757327 α      lambda       -0.2853305E-02
   maximum displ.:     0.2247699 α      in ANC's #10, #18, #14, ...

........................................................................
.............................. CYCLE   18 ..............................
........................................................................

 iter      E             dE          RMSdq      gap      omega  full diag
   1   -191.1787548 -0.191179E+03  0.120E-01    2.06       0.0  T
   2   -191.1787739 -0.191351E-04  0.717E-02    2.07       1.0  T
   3   -191.1787366  0.373266E-04  0.185E-02    2.07       1.0  T
   4   -191.1787783 -0.417193E-04  0.450E-03    2.07       2.1  T
   5   -191.1787803 -0.195286E-05  0.163E-03    2.07       5.7  T
   6   -191.1787804 -0.820903E-07  0.888E-04    2.07      10.4  T
   7   -191.1787804 -0.152753E-07  0.359E-04    2.07      25.8  T
   8   -191.1787804 -0.786025E-08  0.153E-04    2.07      60.6  T
   9   -191.1787804 -0.106510E-08  0.733E-05    2.07     126.2  T
     SCC iter.                  ...        0 min,  0.351 sec
     gradient                   ...        0 min,  0.339 sec
 * total energy  :  -188.2168329 Eh     change       -0.1908216E-02 Eh
   gradient norm :     0.0177245 Eh/α   predicted    -0.2078085E-02 (   8.90%)
   displ. norm   :     0.5710044 α      lambda       -0.1706292E-02
   maximum displ.:     0.2166068 α      in ANC's #10, #4, #18, ...

........................................................................
.............................. CYCLE   19 ..............................
........................................................................

 iter      E             dE          RMSdq      gap      omega  full diag
   1   -191.1805104 -0.191181E+03  0.927E-02    2.07       0.0  T
   2   -191.1805184 -0.803263E-05  0.552E-02    2.07       1.0  T
   3   -191.1805057  0.126599E-04  0.111E-02    2.08       1.0  T
   4   -191.1805204 -0.146538E-04  0.283E-03    2.08       3.3  T
   5   -191.1805210 -0.610171E-06  0.124E-03    2.08       7.4  T
   6   -191.1805210 -0.492325E-07  0.699E-04    2.08      13.2  T
   7   -191.1805210 -0.100206E-07  0.337E-04    2.08      27.4  T
   8   -191.1805211 -0.943623E-08  0.129E-04    2.08      71.5  T
   9   -191.1805211 -0.753346E-09  0.634E-05    2.08     145.8  T
     SCC iter.                  ...        0 min,  0.326 sec
     gradient                   ...        0 min,  0.336 sec
 * total energy  :  -188.2181709 Eh     change       -0.1338001E-02 Eh
   gradient norm :     0.0166046 Eh/α   predicted    -0.1131325E-02 ( -15.45%)
   displ. norm   :     0.6540658 α      lambda       -0.2131910E-02
   maximum displ.:     0.2630925 α      in ANC's #10, #4, #8, ...

........................................................................
.............................. CYCLE   20 ..............................
........................................................................

 iter      E             dE          RMSdq      gap      omega  full diag
   1   -191.1870651 -0.191187E+03  0.110E-01    2.09       0.0  T
   2   -191.1870905 -0.253775E-04  0.657E-02    2.11       1.0  T
   3   -191.1870550  0.355412E-04  0.182E-02    2.10       1.0  T
   4   -191.1870942 -0.392058E-04  0.523E-03    2.10       1.8  T
   5   -191.1870971 -0.292678E-05  0.162E-03    2.10       5.7  T
   6   -191.1870972 -0.853189E-07  0.864E-04    2.10      10.7  T
   7   -191.1870972 -0.736995E-08  0.444E-04    2.10      20.8  T
   8   -191.1870972 -0.154156E-07  0.179E-04    2.10      51.7  T
   9   -191.1870972 -0.204923E-08  0.773E-05    2.10     119.5  T
     SCC iter.                  ...        0 min,  0.371 sec
     gradient                   ...        0 min,  0.341 sec
 * total energy  :  -188.2195703 Eh     change       -0.1399392E-02 Eh
   gradient norm :     0.0198248 Eh/α   predicted    -0.1521977E-02 (   8.76%)
   displ. norm   :     0.5745883 α      lambda       -0.1877188E-02
   maximum displ.:     0.2446005 α      in ANC's #10, #4, #6, ...
 * RMSD in coord.:     1.0466144 α      energy gain  -0.8720431E+00 Eh

generating ANC from exact Hessian ...
Using Lindh-Hessian (1995)
 Shifting diagonal of input Hessian by    1.0083694678835816E-002
 Lowest  eigenvalues of input Hessian
    0.010000    0.000000    0.000000    0.000000    0.000000    0.000000
    0.000000    0.010113    0.010143    0.010165    0.010238    0.010262
    0.010429    0.010454    0.010494    0.010716    0.010752    0.010809
 Highest eigenvalues
    2.161956    2.162990    2.317688    2.341908    2.370062    3.130150


........................................................................
.............................. CYCLE   21 ..............................
........................................................................

 iter      E             dE          RMSdq      gap      omega  full diag
   1   -191.1934260 -0.191193E+03  0.970E-02    2.09       0.0  T
   2   -191.1934595 -0.334467E-04  0.580E-02    2.08       1.0  T
   3   -191.1934201  0.394436E-04  0.200E-02    2.09       1.0  T
   4   -191.1934645 -0.444461E-04  0.560E-03    2.09       1.7  T
   5   -191.1934677 -0.319147E-05  0.136E-03    2.09       6.8  T
   6   -191.1934678 -0.787821E-07  0.728E-04    2.09      12.7  T
   7   -191.1934678 -0.101087E-08  0.377E-04    2.09      24.5  T
   8   -191.1934678 -0.107931E-07  0.161E-04    2.09      57.5  T
   9   -191.1934678 -0.133701E-08  0.767E-05    2.09     120.5  T
     SCC iter.                  ...        0 min,  0.344 sec
     gradient                   ...        0 min,  0.297 sec
 * total energy  :  -188.2209200 Eh     change       -0.1349642E-02 Eh
   gradient norm :     0.0186257 Eh/α   predicted     0.0000000E+00 (-100.00%)
   displ. norm   :     0.2261562 α      lambda       -0.1429388E-02
   maximum displ.:     0.0915026 α      in ANC's #21, #12, #22, ...

........................................................................
.............................. CYCLE   22 ..............................
........................................................................

 iter      E             dE          RMSdq      gap      omega  full diag
   1   -191.1891370 -0.191189E+03  0.542E-02    2.09       0.0  T
   2   -191.1891460 -0.895281E-05  0.325E-02    2.10       1.0  T
   3   -191.1891291  0.168085E-04  0.128E-02    2.09       1.0  T
   4   -191.1891485 -0.193152E-04  0.279E-03    2.10       3.3  T
   5   -191.1891492 -0.768870E-06  0.725E-04    2.10      12.7  T
   6   -191.1891493 -0.187986E-07  0.368E-04    2.10      25.1  T
   7   -191.1891493 -0.216534E-08  0.163E-04    2.10      56.7  T
   8   -191.1891493 -0.154998E-08  0.597E-05    2.10     155.0  T
     SCC iter.                  ...        0 min,  0.356 sec
     gradient                   ...        0 min,  0.323 sec
 * total energy  :  -188.2219839 Eh     change       -0.1063981E-02 Eh
   gradient norm :     0.0059551 Eh/α   predicted    -0.7513008E-03 ( -29.39%)
   displ. norm   :     0.4308711 α      lambda       -0.1296068E-02
   maximum displ.:     0.1823915 α      in ANC's #21, #12, #10, ...

........................................................................
.............................. CYCLE   23 ..............................
........................................................................

 iter      E             dE          RMSdq      gap      omega  full diag
   1   -191.1842759 -0.191184E+03  0.801E-02    2.10       0.0  T
   2   -191.1842843 -0.841964E-05  0.473E-02    2.10       1.0  T
   3   -191.1842554  0.288739E-04  0.156E-02    2.10       1.0  T
   4   -191.1842880 -0.325820E-04  0.256E-03    2.10       3.6  T
   5   -191.1842886 -0.609984E-06  0.854E-04    2.10      10.8  T
   6   -191.1842886 -0.242438E-07  0.431E-04    2.10      21.5  T
   7   -191.1842886 -0.393760E-08  0.169E-04    2.10      54.7  T
   8   -191.1842886 -0.171423E-08  0.602E-05    2.10     153.5  T
     SCC iter.                  ...        0 min,  0.286 sec
     gradient                   ...        0 min,  0.303 sec
 * total energy  :  -188.2229775 Eh     change       -0.9935381E-03 Eh
   gradient norm :     0.0088847 Eh/α   predicted    -0.7684454E-03 ( -22.66%)
   displ. norm   :     0.5813111 α      lambda       -0.1240051E-02
   maximum displ.:     0.2416828 α      in ANC's #21, #12, #10, ...

........................................................................
.............................. CYCLE   24 ..............................
........................................................................

 iter      E             dE          RMSdq      gap      omega  full diag
   1   -191.1807567 -0.191181E+03  0.992E-02    2.10       0.0  T
   2   -191.1807627 -0.602068E-05  0.582E-02    2.10       1.0  T
   3   -191.1807400  0.227328E-04  0.136E-02    2.10       1.0  T
   4   -191.1807657 -0.257186E-04  0.213E-03    2.10       4.3  T
   5   -191.1807661 -0.363182E-06  0.934E-04    2.10       9.9  T
   6   -191.1807661 -0.327555E-07  0.456E-04    2.10      20.3  T
   7   -191.1807661 -0.512617E-08  0.155E-04    2.10      59.8  T
   8   -191.1807661 -0.143447E-08  0.633E-05    2.10     146.1  T
     SCC iter.                  ...        0 min,  0.231 sec
     gradient                   ...        0 min,  0.356 sec
 * total energy  :  -188.2240327 Eh     change       -0.1055254E-02 Eh
   gradient norm :     0.0133100 Eh/α   predicted    -0.8296233E-03 ( -21.38%)
   displ. norm   :     0.7021209 α      lambda       -0.1464753E-02
   maximum displ.:     0.2746171 α      in ANC's #21, #10, #12, ...

........................................................................
.............................. CYCLE   25 ..............................
........................................................................

 iter      E             dE          RMSdq      gap      omega  full diag
   1   -191.1798415 -0.191180E+03  0.116E-01    2.10       0.0  T
   2   -191.1798465 -0.498520E-05  0.678E-02    2.10       1.0  T
   3   -191.1798315  0.150376E-04  0.113E-02    2.10       1.0  T
   4   -191.1798490 -0.174976E-04  0.195E-03    2.10       4.7  T
   5   -191.1798492 -0.219224E-06  0.105E-03    2.10       8.8  T
   6   -191.1798493 -0.494506E-07  0.494E-04    2.10      18.7  T
   7   -191.1798493 -0.771766E-08  0.142E-04    2.10      64.9  T
   8   -191.1798493 -0.816840E-09  0.716E-05    2.10     129.2  T
     SCC iter.                  ...        0 min,  0.366 sec
     gradient                   ...        0 min,  0.363 sec
 * total energy  :  -188.2253237 Eh     change       -0.1290987E-02 Eh
   gradient norm :     0.0126857 Eh/α   predicted    -0.1093420E-02 ( -15.30%)
   displ. norm   :     0.7252824 α      lambda       -0.1617019E-02
   maximum displ.:     0.2845071 α      in ANC's #10, #21, #12, ...

........................................................................
.............................. CYCLE   26 ..............................
........................................................................

 iter      E             dE          RMSdq      gap      omega  full diag
   1   -191.1841908 -0.191184E+03  0.116E-01    2.09       0.0  T
   2   -191.1841962 -0.531348E-05  0.682E-02    2.08       1.0  T
   3   -191.1841883  0.786312E-05  0.886E-03    2.08       1.0  T
   4   -191.1841982 -0.987998E-05  0.177E-03    2.08       5.2  T
   5   -191.1841983 -0.136601E-06  0.976E-04    2.08       9.5  T
   6   -191.1841983 -0.295188E-07  0.498E-04    2.08      18.6  T
   7   -191.1841984 -0.117671E-07  0.187E-04    2.08      49.5  T
   8   -191.1841984 -0.203522E-08  0.791E-05    2.08     116.8  T
     SCC iter.                  ...        0 min,  0.357 sec
     gradient                   ...        0 min,  0.344 sec
 * total energy  :  -188.2267195 Eh     change       -0.1395771E-02 Eh
   gradient norm :     0.0093044 Eh/α   predicted    -0.1233822E-02 ( -11.60%)
   displ. norm   :     0.7362849 α      lambda       -0.1490850E-02
   maximum displ.:     0.3160279 α      in ANC's #10, #12, #18, ...

........................................................................
.............................. CYCLE   27 ..............................
........................................................................

 iter      E             dE          RMSdq      gap      omega  full diag
   1   -191.1894624 -0.191189E+03  0.115E-01    2.07       0.0  T
   2   -191.1894674 -0.499241E-05  0.673E-02    2.07       1.0  T
   3   -191.1894566  0.108418E-04  0.100E-02    2.07       1.0  T
   4   -191.1894697 -0.131023E-04  0.178E-03    2.07       5.2  T
   5   -191.1894698 -0.159742E-06  0.101E-03    2.07       9.2  T
   6   -191.1894699 -0.449832E-07  0.490E-04    2.07      18.9  T
   7   -191.1894699 -0.984656E-08  0.176E-04    2.07      52.5  T
   8   -191.1894699 -0.173003E-08  0.770E-05    2.07     120.0  T
     SCC iter.                  ...        0 min,  0.335 sec
     gradient                   ...        0 min,  0.348 sec
 * total energy  :  -188.2280082 Eh     change       -0.1288734E-02 Eh
   gradient norm :     0.0093370 Eh/α   predicted    -0.1149555E-02 ( -10.80%)
   displ. norm   :     0.7734902 α      lambda       -0.1347564E-02
   maximum displ.:     0.3532735 α      in ANC's #10, #12, #7, ...

........................................................................
.............................. CYCLE   28 ..............................
........................................................................

 iter      E             dE          RMSdq      gap      omega  full diag
   1   -191.1906592 -0.191191E+03  0.117E-01    2.06       0.0  T
   2   -191.1906639 -0.463056E-05  0.687E-02    2.06       1.0  T
   3   -191.1906506  0.132859E-04  0.108E-02    2.06       1.0  T
   4   -191.1906663 -0.157518E-04  0.181E-03    2.06       5.1  T
   5   -191.1906665 -0.157514E-06  0.103E-03    2.06       8.9  T
   6   -191.1906665 -0.471788E-07  0.509E-04    2.06      18.1  T
   7   -191.1906665 -0.917277E-08  0.145E-04    2.06      63.6  T
   8   -191.1906665 -0.102389E-08  0.744E-05    2.06     124.2  T
     SCC iter.                  ...        0 min,  0.284 sec
     gradient                   ...        0 min,  0.283 sec
 * total energy  :  -188.2292100 Eh     change       -0.1201827E-02 Eh
   gradient norm :     0.0094323 Eh/α   predicted    -0.1076912E-02 ( -10.39%)
   displ. norm   :     0.7518532 α      lambda       -0.1332722E-02
   maximum displ.:     0.3750926 α      in ANC's #10, #7, #18, ...

........................................................................
.............................. CYCLE   29 ..............................
........................................................................

 iter      E             dE          RMSdq      gap      omega  full diag
   1   -191.1974050 -0.191197E+03  0.108E-01    2.06       0.0  T
   2   -191.1974101 -0.509825E-05  0.634E-02    2.05       1.0  T
   3   -191.1973959  0.141677E-04  0.110E-02    2.05       1.0  T
   4   -191.1974125 -0.165364E-04  0.200E-03    2.05       4.6  T
   5   -191.1974127 -0.266133E-06  0.102E-03    2.05       9.1  T
   6   -191.1974128 -0.378357E-07  0.506E-04    2.05      18.3  T
   7   -191.1974128 -0.788029E-08  0.156E-04    2.05      59.4  T
   8   -191.1974128 -0.146153E-08  0.633E-05    2.05     146.0  T
     SCC iter.                  ...        0 min,  0.308 sec
     gradient                   ...        0 min,  0.383 sec
 * total energy  :  -188.2303478 Eh     change       -0.1137762E-02 Eh
   gradient norm :     0.0072032 Eh/α   predicted    -0.1043044E-02 (  -8.32%)
   displ. norm   :     0.8417894 α      lambda       -0.1258217E-02
   maximum displ.:     0.4126061 α      in ANC's #10, #7, #18, ...

........................................................................
.............................. CYCLE   30 ..............................
........................................................................

 iter      E             dE          RMSdq      gap      omega  full diag
   1   -191.1873530 -0.191187E+03  0.127E-01    2.05       0.0  T
   2   -191.1873609 -0.795859E-05  0.745E-02    2.05       1.0  T
   3   -191.1873385  0.224516E-04  0.140E-02    2.05       1.0  T
   4   -191.1873644 -0.259595E-04  0.246E-03    2.05       3.8  T
   5   -191.1873648 -0.395543E-06  0.120E-03    2.05       7.7  T
   6   -191.1873649 -0.517079E-07  0.600E-04    2.05      15.4  T
   7   -191.1873649 -0.982632E-08  0.183E-04    2.05      50.6  T
   8   -191.1873649 -0.228621E-08  0.698E-05    2.05     132.5  T
     SCC iter.                  ...        0 min,  0.348 sec
     gradient                   ...        0 min,  0.376 sec
 * total energy  :  -188.2313437 Eh     change       -0.9958457E-03 Eh
   gradient norm :     0.0103798 Eh/α   predicted    -0.1074902E-02 (   7.94%)
   displ. norm   :     0.6837724 α      lambda       -0.1166943E-02
   maximum displ.:     0.3798178 α      in ANC's #10, #7, #26, ...

........................................................................
.............................. CYCLE   31 ..............................
........................................................................

 iter      E             dE          RMSdq      gap      omega  full diag
   1   -191.1941353 -0.191194E+03  0.953E-02    2.06       0.0  T
   2   -191.1941404 -0.506942E-05  0.561E-02    2.06       1.0  T
   3   -191.1941270  0.134410E-04  0.109E-02    2.06       1.0  T
   4   -191.1941425 -0.155108E-04  0.213E-03    2.06       4.3  T
   5   -191.1941428 -0.293613E-06  0.974E-04    2.06       9.5  T
   6   -191.1941428 -0.278959E-07  0.484E-04    2.06      19.1  T
   7   -191.1941428 -0.829067E-08  0.179E-04    2.06      51.8  T
   8   -191.1941428 -0.223241E-08  0.789E-05    2.06     117.2  T
     SCC iter.                  ...        0 min,  0.313 sec
     gradient                   ...        0 min,  0.290 sec
 * total energy  :  -188.2323014 Eh     change       -0.9577564E-03 Eh
   gradient norm :     0.0085152 Eh/α   predicted    -0.8562825E-03 ( -10.59%)
   displ. norm   :     0.7514170 α      lambda       -0.9901081E-03
   maximum displ.:     0.4195655 α      in ANC's #10, #7, #26, ...

........................................................................
.............................. CYCLE   32 ..............................
........................................................................

 iter      E             dE          RMSdq      gap      omega  full diag
   1   -191.1939884 -0.191194E+03  0.104E-01    2.07       0.0  T
   2   -191.1939930 -0.462709E-05  0.614E-02    2.06       1.0  T
   3   -191.1939792  0.138479E-04  0.112E-02    2.06       1.0  T
   4   -191.1939953 -0.160762E-04  0.198E-03    2.06       4.7  T
   5   -191.1939955 -0.214917E-06  0.102E-03    2.06       9.1  T
   6   -191.1939955 -0.367789E-07  0.534E-04    2.06      17.3  T
   7   -191.1939955 -0.118599E-07  0.178E-04    2.06      51.8  T
   8   -191.1939955 -0.262978E-08  0.859E-05    2.06     107.6  T
     SCC iter.                  ...        0 min,  0.216 sec
     gradient                   ...        0 min,  0.319 sec
 * total energy  :  -188.2331708 Eh     change       -0.8694113E-03 Eh
   gradient norm :     0.0078369 Eh/α   predicted    -0.7745764E-03 ( -10.91%)
   displ. norm   :     0.7279057 α      lambda       -0.9970674E-03
   maximum displ.:     0.4226648 α      in ANC's #10, #3, #2, ...

........................................................................
.............................. CYCLE   33 ..............................
........................................................................

 iter      E             dE          RMSdq      gap      omega  full diag
   1   -191.2008986 -0.191201E+03  0.103E-01    2.07       0.0  T
   2   -191.2009032 -0.462063E-05  0.608E-02    2.07       1.0  T
   3   -191.2008925  0.107702E-04  0.101E-02    2.07       1.0  T
   4   -191.2009051 -0.126799E-04  0.208E-03    2.07       4.5  T
   5   -191.2009054 -0.261374E-06  0.107E-03    2.07       8.7  T
   6   -191.2009055 -0.394271E-07  0.563E-04    2.07      16.4  T
   7   -191.2009055 -0.126752E-07  0.215E-04    2.07      43.0  T
   8   -191.2009055 -0.439132E-08  0.837E-05    2.07     110.5  T
   9   -191.2009055 -0.334353E-09  0.412E-05    2.07     224.2  T
     SCC iter.                  ...        0 min,  0.309 sec
     gradient                   ...        0 min,  0.332 sec
 * total energy  :  -188.2339600 Eh     change       -0.7892170E-03 Eh
   gradient norm :     0.0064448 Eh/α   predicted    -0.7626820E-03 (  -3.36%)
   displ. norm   :     0.7955011 α      lambda       -0.8738018E-03
   maximum displ.:     0.4522676 α      in ANC's #10, #3, #2, ...

........................................................................
.............................. CYCLE   34 ..............................
........................................................................

 iter      E             dE          RMSdq      gap      omega  full diag
   1   -191.1942064 -0.191194E+03  0.114E-01    2.08       0.0  T
   2   -191.1942122 -0.580763E-05  0.667E-02    2.08       1.0  T
   3   -191.1941981  0.141134E-04  0.113E-02    2.08       1.0  T
   4   -191.1942148 -0.167397E-04  0.211E-03    2.08       4.4  T
   5   -191.1942150 -0.213960E-06  0.118E-03    2.08       7.8  T
   6   -191.1942151 -0.465288E-07  0.616E-04    2.08      15.0  T
   7   -191.1942151 -0.157411E-07  0.197E-04    2.08      47.0  T
   8   -191.1942151 -0.390133E-08  0.852E-05    2.08     108.5  T
     SCC iter.                  ...        0 min,  0.315 sec
     gradient                   ...        0 min,  0.292 sec
 * total energy  :  -188.2345803 Eh     change       -0.6202626E-03 Eh
   gradient norm :     0.0095796 Eh/α   predicted    -0.7133842E-03 (  15.01%)
   displ. norm   :     0.6438498 α      lambda       -0.6497360E-03
   maximum displ.:     0.3655780 α      in ANC's #10, #3, #2, ...

........................................................................
.............................. CYCLE   35 ..............................
........................................................................

 iter      E             dE          RMSdq      gap      omega  full diag
   1   -191.1902534 -0.191190E+03  0.892E-02    2.08       0.0  T
   2   -191.1902565 -0.310886E-05  0.525E-02    2.08       1.0  T
   3   -191.1902497  0.685752E-05  0.812E-03    2.08       1.1  T
   4   -191.1902578 -0.815621E-05  0.171E-03    2.08       5.4  T
   5   -191.1902580 -0.170396E-06  0.892E-04    2.08      10.4  T
   6   -191.1902580 -0.222547E-07  0.474E-04    2.08      19.5  T
   7   -191.1902580 -0.899536E-08  0.163E-04    2.08      56.7  T
   8   -191.1902580 -0.258007E-08  0.727E-05    2.08     127.2  T
     SCC iter.                  ...        0 min,  0.258 sec
     gradient                   ...        0 min,  0.355 sec
 * total energy  :  -188.2350541 Eh     change       -0.4737809E-03 Eh
   gradient norm :     0.0093232 Eh/α   predicted    -0.4595401E-03 (  -3.01%)
   displ. norm   :     0.5947829 α      lambda       -0.7920773E-03
   maximum displ.:     0.2961493 α      in ANC's #10, #3, #2, ...

........................................................................
.............................. CYCLE   36 ..............................
........................................................................

 iter      E             dE          RMSdq      gap      omega  full diag
   1   -191.2061961 -0.191206E+03  0.864E-02    2.09       0.0  T
   2   -191.2062009 -0.480201E-05  0.508E-02    2.09       1.0  T
   3   -191.2061952  0.567728E-05  0.758E-03    2.09       1.2  T
   4   -191.2062022 -0.698634E-05  0.196E-03    2.09       4.7  T
   5   -191.2062025 -0.252668E-06  0.103E-03    2.09       9.0  T
   6   -191.2062025 -0.243634E-07  0.557E-04    2.09      16.6  T
   7   -191.2062025 -0.136685E-07  0.203E-04    2.09      45.5  T
   8   -191.2062025 -0.380305E-08  0.850E-05    2.09     108.8  T
   9   -191.2062025 -0.168825E-09  0.434E-05    2.09     213.0  T
     SCC iter.                  ...        0 min,  0.375 sec
     gradient                   ...        0 min,  0.308 sec
 * total energy  :  -188.2354622 Eh     change       -0.4081075E-03 Eh
   gradient norm :     0.0106513 Eh/α   predicted    -0.5361478E-03 (  31.37%)
   displ. norm   :     0.5986185 α      lambda       -0.6203285E-03
   maximum displ.:     0.3200682 α      in ANC's #10, #3, #2, ...

........................................................................
.............................. CYCLE   37 ..............................
........................................................................

 iter      E             dE          RMSdq      gap      omega  full diag
   1   -191.1987504 -0.191199E+03  0.825E-02    2.10       0.0  T
   2   -191.1987548 -0.444131E-05  0.486E-02    2.10       1.0  T
   3   -191.1987470  0.783895E-05  0.850E-03    2.09       1.1  T
   4   -191.1987563 -0.930367E-05  0.181E-03    2.10       5.1  T
   5   -191.1987565 -0.240799E-06  0.926E-04    2.10      10.0  T
   6   -191.1987565 -0.223509E-07  0.494E-04    2.10      18.7  T
   7   -191.1987565 -0.735173E-08  0.164E-04    2.10      56.3  T
   8   -191.1987565 -0.246061E-08  0.627E-05    2.10     147.5  T
     SCC iter.                  ...        0 min,  0.346 sec
     gradient                   ...        0 min,  0.334 sec
 * total energy  :  -188.2358557 Eh     change       -0.3935545E-03 Eh
   gradient norm :     0.0098966 Eh/α   predicted    -0.4213125E-03 (   7.05%)
   displ. norm   :     0.4801451 α      lambda       -0.5618333E-03
   maximum displ.:     0.2148221 α      in ANC's #10, #3, #2, ...

........................................................................
.............................. CYCLE   38 ..............................
........................................................................

 iter      E             dE          RMSdq      gap      omega  full diag
   1   -191.1951411 -0.191195E+03  0.636E-02    2.10       0.0  T
   2   -191.1951448 -0.366839E-05  0.374E-02    2.10       1.0  T
   3   -191.1951383  0.653439E-05  0.765E-03    2.09       1.2  T
   4   -191.1951460 -0.767893E-05  0.143E-03    2.09       6.5  T
   5   -191.1951461 -0.149436E-06  0.825E-04    2.09      11.2  T
   6   -191.1951461 -0.369139E-07  0.423E-04    2.09      21.8  T
   7   -191.1951461 -0.548366E-08  0.172E-04    2.09      53.7  T
   8   -191.1951462 -0.208206E-08  0.663E-05    2.09     139.5  T
     SCC iter.                  ...        0 min,  0.257 sec
     gradient                   ...        0 min,  0.314 sec
 * total energy  :  -188.2361676 Eh     change       -0.3118496E-03 Eh
   gradient norm :     0.0113104 Eh/α   predicted    -0.3456817E-03 (  10.85%)
   displ. norm   :     0.4127246 α      lambda       -0.5163992E-03
   maximum displ.:     0.1803345 α      in ANC's #3, #2, #10, ...

........................................................................
.............................. CYCLE   39 ..............................
........................................................................

 iter      E             dE          RMSdq      gap      omega  full diag
   1   -191.1958575 -0.191196E+03  0.521E-02    2.09       0.0  T
   2   -191.1958596 -0.206362E-05  0.307E-02    2.09       1.0  T
   3   -191.1958546  0.491501E-05  0.661E-03    2.09       1.4  T
   4   -191.1958603 -0.568017E-05  0.134E-03    2.09       6.9  T
   5   -191.1958605 -0.141349E-06  0.766E-04    2.09      12.1  T
   6   -191.1958605 -0.319394E-07  0.373E-04    2.09      24.8  T
   7   -191.1958605 -0.288452E-08  0.153E-04    2.09      60.4  T
   8   -191.1958605 -0.196977E-08  0.555E-05    2.09     166.5  T
     SCC iter.                  ...        0 min,  0.305 sec
     gradient                   ...        0 min,  0.354 sec
 * total energy  :  -188.2364940 Eh     change       -0.3263899E-03 Eh
   gradient norm :     0.0099964 Eh/α   predicted    -0.3021844E-03 (  -7.42%)
   displ. norm   :     0.5013967 α      lambda       -0.6102870E-03
   maximum displ.:     0.2215436 α      in ANC's #3, #2, #6, ...

........................................................................
.............................. CYCLE   40 ..............................
........................................................................

 iter      E             dE          RMSdq      gap      omega  full diag
   1   -191.2056794 -0.191206E+03  0.629E-02    2.09       0.0  T
   2   -191.2056820 -0.260320E-05  0.368E-02    2.09       1.0  T
   3   -191.2056762  0.586771E-05  0.706E-03    2.09       1.3  T
   4   -191.2056830 -0.682860E-05  0.163E-03    2.09       5.7  T
   5   -191.2056832 -0.186031E-06  0.901E-04    2.09      10.3  T
   6   -191.2056832 -0.309961E-07  0.479E-04    2.09      19.3  T
   7   -191.2056832 -0.940727E-08  0.155E-04    2.09      59.5  T
   8   -191.2056832 -0.192077E-08  0.619E-05    2.09     149.3  T
     SCC iter.                  ...        0 min,  0.285 sec
     gradient                   ...        0 min,  0.334 sec
 * total energy  :  -188.2368718 Eh     change       -0.3777971E-03 Eh
   gradient norm :     0.0079755 Eh/α   predicted    -0.3818609E-03 (   1.08%)
   displ. norm   :     0.5816807 α      lambda       -0.4181306E-03
   maximum displ.:     0.2721156 α      in ANC's #3, #2, #10, ...

........................................................................
.............................. CYCLE   41 ..............................
........................................................................

 iter      E             dE          RMSdq      gap      omega  full diag
   1   -191.2007333 -0.191201E+03  0.686E-02    2.09       0.0  T
   2   -191.2007356 -0.236364E-05  0.403E-02    2.09       1.0  T
   3   -191.2007291  0.658894E-05  0.749E-03    2.09       1.2  T
   4   -191.2007369 -0.782229E-05  0.135E-03    2.09       6.8  T
   5   -191.2007369 -0.561639E-07  0.870E-04    2.09      10.6  T
   6   -191.2007370 -0.371076E-07  0.430E-04    2.09      21.5  T
   7   -191.2007370 -0.107577E-07  0.142E-04    2.09      65.1  T
   8   -191.2007370 -0.123396E-08  0.587E-05    2.09     157.4  T
     SCC iter.                  ...        0 min,  0.342 sec
     gradient                   ...        0 min,  0.344 sec
 * total energy  :  -188.2371877 Eh     change       -0.3159669E-03 Eh
   gradient norm :     0.0076603 Eh/α   predicted    -0.2798047E-03 ( -11.44%)
   displ. norm   :     0.5212077 α      lambda       -0.4186716E-03
   maximum displ.:     0.2622333 α      in ANC's #3, #2, #6, ...

........................................................................
.............................. CYCLE   42 ..............................
........................................................................

 iter      E             dE          RMSdq      gap      omega  full diag
   1   -191.2007507 -0.191201E+03  0.607E-02    2.09       0.0  T
   2   -191.2007533 -0.261128E-05  0.356E-02    2.09       1.0  T
   3   -191.2007448  0.848963E-05  0.842E-03    2.09       1.1  T
   4   -191.2007546 -0.978437E-05  0.165E-03    2.09       5.6  T
   5   -191.2007547 -0.163341E-06  0.910E-04    2.09      10.2  T
   6   -191.2007548 -0.311573E-07  0.471E-04    2.09      19.6  T
   7   -191.2007548 -0.125690E-07  0.176E-04    2.09      52.6  T
   8   -191.2007548 -0.186034E-08  0.726E-05    2.09     127.4  T
     SCC iter.                  ...        0 min,  0.317 sec
     gradient                   ...        0 min,  0.375 sec
 * total energy  :  -188.2374906 Eh     change       -0.3028582E-03 Eh
   gradient norm :     0.0066112 Eh/α   predicted    -0.2662038E-03 ( -12.10%)
   displ. norm   :     0.5229436 α      lambda       -0.3829284E-03
   maximum displ.:     0.2735619 α      in ANC's #3, #2, #6, ...
 * RMSD in coord.:     1.0185180 α      energy gain  -0.1792029E-01 Eh

generating ANC from exact Hessian ...
Using Lindh-Hessian (1995)
 Shifting diagonal of input Hessian by    1.0096422837846468E-002
 Lowest  eigenvalues of input Hessian
    0.010000    0.010046    0.000000    0.000000    0.000000    0.000000
    0.000000    0.000000    0.010149    0.010179    0.010228    0.010285
    0.010375    0.010518    0.010617    0.010709    0.010857    0.010940
 Highest eigenvalues
    2.150955    2.205885    2.330993    2.337072    2.343735    3.130316


........................................................................
.............................. CYCLE   43 ..............................
........................................................................

 iter      E             dE          RMSdq      gap      omega  full diag
   1   -191.1991878 -0.191199E+03  0.603E-02    2.09       0.0  T
   2   -191.1991911 -0.327205E-05  0.355E-02    2.09       1.0  T
   3   -191.1991813  0.981832E-05  0.896E-03    2.09       1.0  T
   4   -191.1991926 -0.113429E-04  0.182E-03    2.09       5.1  T
   5   -191.1991928 -0.184638E-06  0.988E-04    2.09       9.4  T
   6   -191.1991929 -0.279701E-07  0.553E-04    2.09      16.7  T
   7   -191.1991929 -0.173642E-07  0.203E-04    2.09      45.5  T
   8   -191.1991929 -0.299298E-08  0.890E-05    2.09     103.9  T
   9   -191.1991929 -0.274781E-09  0.424E-05    2.09     218.2  T
     SCC iter.                  ...        0 min,  0.370 sec
     gradient                   ...        0 min,  0.317 sec
 * total energy  :  -188.2377510 Eh     change       -0.2603699E-03 Eh
   gradient norm :     0.0084788 Eh/α   predicted     0.0000000E+00 (-100.00%)
   displ. norm   :     0.0866824 α      lambda       -0.2110288E-03
   maximum displ.:     0.0321538 α      in ANC's #3, #15, #2, ...

........................................................................
.............................. CYCLE   44 ..............................
........................................................................

 iter      E             dE          RMSdq      gap      omega  full diag
   1   -191.2014362 -0.191201E+03  0.182E-02    2.09       0.0  T
   2   -191.2014367 -0.542951E-06  0.107E-02    2.09       1.0  T
   3   -191.2014358  0.938383E-06  0.310E-03    2.09       3.0  T
   4   -191.2014369 -0.109683E-05  0.646E-04    2.09      14.3  T
   5   -191.2014369 -0.301663E-07  0.282E-04    2.09      32.8  T
   6   -191.2014369 -0.143754E-08  0.156E-04    2.09      59.4  T
   7   -191.2014369 -0.876327E-09  0.577E-05    2.09     160.3  T
     SCC iter.                  ...        0 min,  0.288 sec
     gradient                   ...        0 min,  0.368 sec
 * total energy  :  -188.2379097 Eh     change       -0.1587298E-03 Eh
   gradient norm :     0.0035084 Eh/α   predicted    -0.1063075E-03 ( -33.03%)
   displ. norm   :     0.1952108 α      lambda       -0.2293139E-03
   maximum displ.:     0.0792025 α      in ANC's #3, #15, #2, ...

........................................................................
.............................. CYCLE   45 ..............................
........................................................................

 iter      E             dE          RMSdq      gap      omega  full diag
   1   -191.2035434 -0.191204E+03  0.315E-02    2.10       0.0  T
   2   -191.2035444 -0.987858E-06  0.185E-02    2.09       1.0  T
   3   -191.2035408  0.355639E-05  0.578E-03    2.09       1.6  T
   4   -191.2035449 -0.410694E-05  0.909E-04    2.09      10.2  T
   5   -191.2035449 -0.407025E-07  0.478E-04    2.09      19.3  T
   6   -191.2035449 -0.513447E-08  0.262E-04    2.09      35.4  T
   7   -191.2035449 -0.317530E-08  0.111E-04    2.09      83.2  T
   8   -191.2035450 -0.989104E-09  0.434E-05    2.09     212.8  T
     SCC iter.                  ...        0 min,  0.312 sec
     gradient                   ...        0 min,  0.308 sec
 * total energy  :  -188.2380731 Eh     change       -0.1633928E-03 Eh
   gradient norm :     0.0040126 Eh/α   predicted    -0.1190291E-03 ( -27.15%)
   displ. norm   :     0.2595832 α      lambda       -0.1919116E-03
   maximum displ.:     0.1112246 α      in ANC's #3, #2, #15, ...

........................................................................
.............................. CYCLE   46 ..............................
........................................................................

 iter      E             dE          RMSdq      gap      omega  full diag
   1   -191.2038969 -0.191204E+03  0.363E-02    2.10       0.0  T
   2   -191.2038979 -0.969185E-06  0.213E-02    2.10       1.0  T
   3   -191.2038931  0.475026E-05  0.646E-03    2.10       1.4  T
   4   -191.2038986 -0.546433E-05  0.980E-04    2.10       9.4  T
   5   -191.2038986 -0.307564E-07  0.587E-04    2.10      15.8  T
   6   -191.2038986 -0.133628E-07  0.292E-04    2.10      31.6  T
   7   -191.2038986 -0.476030E-08  0.123E-04    2.10      75.1  T
   8   -191.2038986 -0.770797E-09  0.520E-05    2.10     177.7  T
     SCC iter.                  ...        0 min,  0.318 sec
     gradient                   ...        0 min,  0.310 sec
 * total energy  :  -188.2382275 Eh     change       -0.1543926E-03 Eh
   gradient norm :     0.0064792 Eh/α   predicted    -0.1024636E-03 ( -33.63%)
   displ. norm   :     0.4045155 α      lambda       -0.2691572E-03
   maximum displ.:     0.1796555 α      in ANC's #3, #2, #15, ...

........................................................................
.............................. CYCLE   47 ..............................
........................................................................

 iter      E             dE          RMSdq      gap      omega  full diag
   1   -191.2026109 -0.191203E+03  0.522E-02    2.10       0.0  T
   2   -191.2026130 -0.218276E-05  0.306E-02    2.10       1.0  T
   3   -191.2026036  0.947577E-05  0.895E-03    2.10       1.0  T
   4   -191.2026145 -0.109139E-04  0.150E-03    2.10       6.2  T
   5   -191.2026146 -0.787100E-07  0.906E-04    2.10      10.2  T
   6   -191.2026146 -0.364082E-07  0.437E-04    2.10      21.2  T
   7   -191.2026146 -0.881880E-08  0.188E-04    2.10      49.2  T
   8   -191.2026146 -0.184613E-08  0.781E-05    2.10     118.3  T
     SCC iter.                  ...        0 min,  0.329 sec
     gradient                   ...        0 min,  0.334 sec
 * total energy  :  -188.2384418 Eh     change       -0.2143038E-03 Eh
   gradient norm :     0.0068784 Eh/α   predicted    -0.1566006E-03 ( -26.93%)
   displ. norm   :     0.4353764 α      lambda       -0.2594771E-03
   maximum displ.:     0.2052771 α      in ANC's #3, #2, #15, ...

........................................................................
.............................. CYCLE   48 ..............................
........................................................................

 iter      E             dE          RMSdq      gap      omega  full diag
   1   -191.2008441 -0.191201E+03  0.507E-02    2.10       0.0  T
   2   -191.2008462 -0.217641E-05  0.298E-02    2.10       1.0  T
   3   -191.2008385  0.775812E-05  0.784E-03    2.10       1.2  T
   4   -191.2008474 -0.894017E-05  0.150E-03    2.10       6.2  T
   5   -191.2008475 -0.972592E-07  0.927E-04    2.10      10.0  T
   6   -191.2008476 -0.439400E-07  0.435E-04    2.10      21.3  T
   7   -191.2008476 -0.668572E-08  0.172E-04    2.10      53.7  T
   8   -191.2008476 -0.173230E-08  0.761E-05    2.10     121.5  T
     SCC iter.                  ...        0 min,  0.310 sec
     gradient                   ...        0 min,  0.342 sec
 * total energy  :  -188.2386421 Eh     change       -0.2002754E-03 Eh
   gradient norm :     0.0056982 Eh/α   predicted    -0.1543340E-03 ( -22.94%)
   displ. norm   :     0.3785798 α      lambda       -0.2171976E-03
   maximum displ.:     0.1912658 α      in ANC's #3, #2, #1, ...

........................................................................
.............................. CYCLE   49 ..............................
........................................................................

 iter      E             dE          RMSdq      gap      omega  full diag
   1   -191.2004372 -0.191200E+03  0.401E-02    2.10       0.0  T
   2   -191.2004387 -0.148567E-05  0.236E-02    2.09       1.0  T
   3   -191.2004337  0.499310E-05  0.624E-03    2.10       1.5  T
   4   -191.2004394 -0.571952E-05  0.120E-03    2.09       7.7  T
   5   -191.2004395 -0.764822E-07  0.714E-04    2.09      12.9  T
   6   -191.2004395 -0.255619E-07  0.337E-04    2.09      27.4  T
   7   -191.2004395 -0.400499E-08  0.141E-04    2.09      65.5  T
   8   -191.2004395 -0.117336E-08  0.626E-05    2.09     147.7  T
     SCC iter.                  ...        0 min,  0.340 sec
     gradient                   ...        0 min,  0.363 sec
 * total energy  :  -188.2388176 Eh     change       -0.1754898E-03 Eh
   gradient norm :     0.0046228 Eh/α   predicted    -0.1241732E-03 ( -29.24%)
   displ. norm   :     0.3944793 α      lambda       -0.2284601E-03
   maximum displ.:     0.2069086 α      in ANC's #3, #2, #1, ...

........................................................................
.............................. CYCLE   50 ..............................
........................................................................

 iter      E             dE          RMSdq      gap      omega  full diag
   1   -191.2009607 -0.191201E+03  0.395E-02    2.09       0.0  T
   2   -191.2009623 -0.162317E-05  0.233E-02    2.09       1.0  T
   3   -191.2009570  0.533670E-05  0.663E-03    2.09       1.4  T
   4   -191.2009631 -0.608917E-05  0.123E-03    2.09       7.5  T
   5   -191.2009632 -0.852413E-07  0.656E-04    2.09      14.1  T
   6   -191.2009632 -0.173229E-07  0.323E-04    2.09      28.6  T
   7   -191.2009632 -0.464391E-08  0.148E-04    2.09      62.4  T
   8   -191.2009632 -0.115466E-08  0.656E-05    2.09     140.9  T
     SCC iter.                  ...        0 min,  0.259 sec
     gradient                   ...        0 min,  0.296 sec
 * total energy  :  -188.2390076 Eh     change       -0.1899977E-03 Eh
   gradient norm :     0.0051012 Eh/α   predicted    -0.1320060E-03 ( -30.52%)
   displ. norm   :     0.4760148 α      lambda       -0.2554898E-03
   maximum displ.:     0.2517611 α      in ANC's #3, #2, #1, ...

........................................................................
.............................. CYCLE   51 ..............................
........................................................................

 iter      E             dE          RMSdq      gap      omega  full diag
   1   -191.2010326 -0.191201E+03  0.456E-02    2.08       0.0  T
   2   -191.2010342 -0.164769E-05  0.268E-02    2.08       1.0  T
   3   -191.2010292  0.500279E-05  0.640E-03    2.08       1.4  T
   4   -191.2010350 -0.574312E-05  0.125E-03    2.08       7.4  T
   5   -191.2010350 -0.676508E-07  0.719E-04    2.08      12.9  T
   6   -191.2010351 -0.247408E-07  0.332E-04    2.08      27.8  T
   7   -191.2010351 -0.489757E-08  0.147E-04    2.08      63.0  T
   8   -191.2010351 -0.103287E-08  0.705E-05    2.08     131.1  T
     SCC iter.                  ...        0 min,  0.231 sec
     gradient                   ...        0 min,  0.304 sec
 * total energy  :  -188.2392263 Eh     change       -0.2187415E-03 Eh
   gradient norm :     0.0058049 Eh/α   predicted    -0.1566940E-03 ( -28.37%)
   displ. norm   :     0.5443416 α      lambda       -0.2857857E-03
   maximum displ.:     0.2904998 α      in ANC's #3, #2, #1, ...

........................................................................
.............................. CYCLE   52 ..............................
........................................................................

 iter      E             dE          RMSdq      gap      omega  full diag
   1   -191.2013421 -0.191201E+03  0.491E-02    2.07       0.0  T
   2   -191.2013436 -0.150280E-05  0.289E-02    2.07       1.0  T
   3   -191.2013391  0.451994E-05  0.604E-03    2.07       1.5  T
   4   -191.2013443 -0.522785E-05  0.122E-03    2.07       7.6  T
   5   -191.2013444 -0.549352E-07  0.717E-04    2.07      12.9  T
   6   -191.2013444 -0.257513E-07  0.296E-04    2.07      31.2  T
   7   -191.2013444 -0.330888E-08  0.134E-04    2.07      69.0  T
   8   -191.2013444 -0.900343E-09  0.652E-05    2.07     141.7  T
     SCC iter.                  ...        0 min,  0.216 sec
     gradient                   ...        0 min,  0.291 sec
 * total energy  :  -188.2394723 Eh     change       -0.2460399E-03 Eh
   gradient norm :     0.0055031 Eh/α   predicted    -0.1852401E-03 ( -24.71%)
   displ. norm   :     0.6078671 α      lambda       -0.2964112E-03
   maximum displ.:     0.3267079 α      in ANC's #3, #2, #1, ...

........................................................................
.............................. CYCLE   53 ..............................
........................................................................

 iter      E             dE          RMSdq      gap      omega  full diag
   1   -191.2010458 -0.191201E+03  0.516E-02    2.06       0.0  T
   2   -191.2010472 -0.144452E-05  0.304E-02    2.06       1.0  T
   3   -191.2010422  0.503311E-05  0.649E-03    2.06       1.4  T
   4   -191.2010480 -0.581240E-05  0.122E-03    2.06       7.6  T
   5   -191.2010481 -0.567675E-07  0.704E-04    2.06      13.1  T
   6   -191.2010481 -0.229708E-07  0.298E-04    2.06      31.0  T
   7   -191.2010481 -0.263293E-08  0.129E-04    2.06      71.5  T
   8   -191.2010481 -0.993992E-09  0.630E-05    2.06     146.8  T
     SCC iter.                  ...        0 min,  0.310 sec
     gradient                   ...        0 min,  0.298 sec
 * total energy  :  -188.2397301 Eh     change       -0.2577339E-03 Eh
   gradient norm :     0.0044515 Eh/α   predicted    -0.2029683E-03 ( -21.25%)
   displ. norm   :     0.6316079 α      lambda       -0.3059605E-03
   maximum displ.:     0.3415953 α      in ANC's #3, #2, #1, ...

........................................................................
.............................. CYCLE   54 ..............................
........................................................................

 iter      E             dE          RMSdq      gap      omega  full diag
   1   -191.2023382 -0.191202E+03  0.505E-02    2.06       0.0  T
   2   -191.2023399 -0.177163E-05  0.297E-02    2.05       1.0  T
   3   -191.2023318  0.812711E-05  0.846E-03    2.05       1.1  T
   4   -191.2023411 -0.923445E-05  0.127E-03    2.05       7.3  T
   5   -191.2023411 -0.947066E-07  0.644E-04    2.05      14.3  T
   6   -191.2023412 -0.134599E-07  0.307E-04    2.05      30.1  T
   7   -191.2023412 -0.268113E-08  0.108E-04    2.05      85.8  T
   8   -191.2023412 -0.464041E-09  0.569E-05    2.05     162.4  T
     SCC iter.                  ...        0 min,  0.239 sec
     gradient                   ...        0 min,  0.268 sec
 * total energy  :  -188.2399928 Eh     change       -0.2627701E-03 Eh
   gradient norm :     0.0044608 Eh/α   predicted    -0.2140089E-03 ( -18.56%)
   displ. norm   :     0.6969596 α      lambda       -0.3212089E-03
   maximum displ.:     0.3771557 α      in ANC's #3, #2, #1, ...

........................................................................
.............................. CYCLE   55 ..............................
........................................................................

 iter      E             dE          RMSdq      gap      omega  full diag
   1   -191.2005064 -0.191201E+03  0.542E-02    2.06       0.0  T
   2   -191.2005092 -0.284160E-05  0.318E-02    2.05       1.0  T
   3   -191.2004969  0.123397E-04  0.108E-02    2.05       1.0  T
   4   -191.2005110 -0.140906E-04  0.163E-03    2.05       5.7  T
   5   -191.2005111 -0.156350E-06  0.735E-04    2.05      12.6  T
   6   -191.2005111 -0.141940E-07  0.379E-04    2.05      24.4  T
   7   -191.2005111 -0.427769E-08  0.171E-04    2.05      54.0  T
   8   -191.2005111 -0.147750E-08  0.777E-05    2.05     119.0  T
     SCC iter.                  ...        0 min,  0.246 sec
     gradient                   ...        0 min,  0.236 sec
 * total energy  :  -188.2402645 Eh     change       -0.2716125E-03 Eh
   gradient norm :     0.0052951 Eh/α   predicted    -0.2386196E-03 ( -12.15%)
   displ. norm   :     0.6650225 α      lambda       -0.3813152E-03
   maximum displ.:     0.3533840 α      in ANC's #3, #2, #1, ...

........................................................................
.............................. CYCLE   56 ..............................
........................................................................

 iter      E             dE          RMSdq      gap      omega  full diag
   1   -191.2042039 -0.191204E+03  0.534E-02    2.06       0.0  T
   2   -191.2042075 -0.358167E-05  0.313E-02    2.06       1.0  T
   3   -191.2041898  0.177482E-04  0.133E-02    2.06       1.0  T
   4   -191.2042102 -0.204559E-04  0.162E-03    2.06       5.7  T
   5   -191.2042104 -0.158416E-06  0.736E-04    2.06      12.6  T
   6   -191.2042104 -0.153305E-07  0.380E-04    2.06      24.4  T
   7   -191.2042104 -0.446659E-08  0.148E-04    2.06      62.6  T
   8   -191.2042104 -0.704432E-09  0.715E-05    2.06     129.3  T
     SCC iter.                  ...        0 min,  0.274 sec
     gradient                   ...        0 min,  0.259 sec
 * total energy  :  -188.2405738 Eh     change       -0.3093421E-03 Eh
   gradient norm :     0.0063195 Eh/α   predicted    -0.2749775E-03 ( -11.11%)
   displ. norm   :     0.7107036 α      lambda       -0.3629301E-03
   maximum displ.:     0.3808950 α      in ANC's #3, #2, #5, ...

........................................................................
.............................. CYCLE   57 ..............................
........................................................................

 iter      E             dE          RMSdq      gap      omega  full diag
   1   -191.2034050 -0.191203E+03  0.549E-02    2.07       0.0  T
   2   -191.2034084 -0.335302E-05  0.322E-02    2.07       1.0  T
   3   -191.2033916  0.167830E-04  0.124E-02    2.07       1.0  T
   4   -191.2034107 -0.191549E-04  0.167E-03    2.07       5.5  T
   5   -191.2034109 -0.178539E-06  0.746E-04    2.07      12.4  T
   6   -191.2034109 -0.177725E-07  0.374E-04    2.07      24.7  T
   7   -191.2034109 -0.433550E-08  0.141E-04    2.07      65.8  T
   8   -191.2034109 -0.666660E-09  0.649E-05    2.07     142.4  T
     SCC iter.                  ...        0 min,  0.221 sec
     gradient                   ...        0 min,  0.288 sec
 * total energy  :  -188.2408958 Eh     change       -0.3220068E-03 Eh
   gradient norm :     0.0062279 Eh/α   predicted    -0.2731266E-03 ( -15.18%)
   displ. norm   :     0.6851564 α      lambda       -0.4090444E-03
   maximum displ.:     0.3568097 α      in ANC's #3, #2, #5, ...

........................................................................
.............................. CYCLE   58 ..............................
........................................................................

 iter      E             dE          RMSdq      gap      omega  full diag
   1   -191.2044003 -0.191204E+03  0.568E-02    2.08       0.0  T
   2   -191.2044032 -0.283852E-05  0.333E-02    2.08       1.0  T
   3   -191.2043868  0.163841E-04  0.120E-02    2.08       1.0  T
   4   -191.2044054 -0.186047E-04  0.154E-03    2.08       6.0  T
   5   -191.2044055 -0.135171E-06  0.734E-04    2.08      12.6  T
   6   -191.2044055 -0.136930E-07  0.341E-04    2.08      27.1  T
   7   -191.2044055 -0.354549E-08  0.147E-04    2.08      62.9  T
   8   -191.2044055 -0.966907E-09  0.589E-05    2.08     157.1  T
     SCC iter.                  ...        0 min,  0.206 sec
     gradient                   ...        0 min,  0.262 sec
 * total energy  :  -188.2412344 Eh     change       -0.3385788E-03 Eh
   gradient norm :     0.0046543 Eh/α   predicted    -0.3005333E-03 ( -11.24%)
   displ. norm   :     0.7221749 α      lambda       -0.3398853E-03
   maximum displ.:     0.3851246 α      in ANC's #3, #2, #5, ...

........................................................................
.............................. CYCLE   59 ..............................
........................................................................

 iter      E             dE          RMSdq      gap      omega  full diag
   1   -191.2021589 -0.191202E+03  0.551E-02    2.09       0.0  T
   2   -191.2021615 -0.261688E-05  0.324E-02    2.08       1.0  T
   3   -191.2021478  0.136841E-04  0.104E-02    2.08       1.0  T
   4   -191.2021633 -0.154905E-04  0.153E-03    2.08       6.0  T
   5   -191.2021635 -0.150357E-06  0.742E-04    2.08      12.5  T
   6   -191.2021635 -0.182581E-07  0.361E-04    2.08      25.6  T
   7   -191.2021635 -0.285988E-08  0.122E-04    2.08      75.7  T
   8   -191.2021635 -0.880505E-09  0.551E-05    2.08     167.8  T
     SCC iter.                  ...        0 min,  0.313 sec
     gradient                   ...        0 min,  0.335 sec
 * total energy  :  -188.2415207 Eh     change       -0.2862723E-03 Eh
   gradient norm :     0.0046528 Eh/α   predicted    -0.2585760E-03 (  -9.67%)
   displ. norm   :     0.6655710 α      lambda       -0.2952971E-03
   maximum displ.:     0.3556271 α      in ANC's #3, #2, #5, ...

........................................................................
.............................. CYCLE   60 ..............................
........................................................................

 iter      E             dE          RMSdq      gap      omega  full diag
   1   -191.2020633 -0.191202E+03  0.486E-02    2.09       0.0  T
   2   -191.2020650 -0.177085E-05  0.285E-02    2.09       1.0  T
   3   -191.2020565  0.848610E-05  0.815E-03    2.09       1.1  T
   4   -191.2020661 -0.955881E-05  0.134E-03    2.09       6.9  T
   5   -191.2020662 -0.127098E-06  0.655E-04    2.09      14.1  T
   6   -191.2020663 -0.180753E-07  0.326E-04    2.09      28.4  T
   7   -191.2020663 -0.164334E-08  0.143E-04    2.09      64.5  T
   8   -191.2020663 -0.187384E-08  0.566E-05    2.09     163.3  T
     SCC iter.                  ...        0 min,  0.270 sec
     gradient                   ...        0 min,  0.343 sec
 * total energy  :  -188.2417725 Eh     change       -0.2518252E-03 Eh
   gradient norm :     0.0047346 Eh/α   predicted    -0.2130582E-03 ( -15.39%)
   displ. norm   :     0.6798929 α      lambda       -0.2866054E-03
   maximum displ.:     0.3714599 α      in ANC's #3, #2, #5, ...

........................................................................
.............................. CYCLE   61 ..............................
........................................................................

 iter      E             dE          RMSdq      gap      omega  full diag
   1   -191.2012001 -0.191201E+03  0.449E-02    2.09       0.0  T
   2   -191.2012017 -0.154966E-05  0.265E-02    2.09       1.0  T
   3   -191.2011947  0.694115E-05  0.735E-03    2.09       1.3  T
   4   -191.2012025 -0.778413E-05  0.140E-03    2.09       6.6  T
   5   -191.2012027 -0.153346E-06  0.679E-04    2.09      13.6  T
   6   -191.2012027 -0.248298E-07  0.330E-04    2.09      28.0  T
   7   -191.2012027 -0.266974E-08  0.149E-04    2.09      62.2  T
   8   -191.2012027 -0.198474E-08  0.570E-05    2.09     162.2  T
     SCC iter.                  ...        0 min,  0.336 sec
     gradient                   ...        0 min,  0.329 sec
 * total energy  :  -188.2420251 Eh     change       -0.2525872E-03 Eh
   gradient norm :     0.0047790 Eh/α   predicted    -0.2095518E-03 ( -17.04%)
   displ. norm   :     0.6555495 α      lambda       -0.3213657E-03
   maximum displ.:     0.3532065 α      in ANC's #3, #2, #5, ...

........................................................................
.............................. CYCLE   62 ..............................
........................................................................

 iter      E             dE          RMSdq      gap      omega  full diag
   1   -191.2049440 -0.191205E+03  0.442E-02    2.09       0.0  T
   2   -191.2049459 -0.186281E-05  0.261E-02    2.08       1.0  T
   3   -191.2049394  0.649654E-05  0.726E-03    2.08       1.3  T
   4   -191.2049466 -0.718517E-05  0.169E-03    2.08       5.5  T
   5   -191.2049468 -0.287230E-06  0.725E-04    2.08      12.8  T
   6   -191.2049469 -0.305622E-07  0.362E-04    2.08      25.6  T
   7   -191.2049469 -0.410984E-08  0.155E-04    2.08      59.6  T
   8   -191.2049469 -0.186373E-08  0.593E-05    2.08     156.0  T
     SCC iter.                  ...        0 min,  0.336 sec
     gradient                   ...        0 min,  0.323 sec
 * total energy  :  -188.2422893 Eh     change       -0.2642409E-03 Eh
   gradient norm :     0.0045127 Eh/α   predicted    -0.2297388E-03 ( -13.06%)
   displ. norm   :     0.7186613 α      lambda       -0.3132221E-03
   maximum displ.:     0.3971339 α      in ANC's #3, #2, #5, ...

........................................................................
.............................. CYCLE   63 ..............................
........................................................................

 iter      E             dE          RMSdq      gap      omega  full diag
   1   -191.2012174 -0.191201E+03  0.468E-02    2.08       0.0  T
   2   -191.2012194 -0.194744E-05  0.275E-02    2.08       1.0  T
   3   -191.2012118  0.751884E-05  0.788E-03    2.08       1.2  T
   4   -191.2012202 -0.835280E-05  0.172E-03    2.08       5.4  T
   5   -191.2012205 -0.277595E-06  0.789E-04    2.08      11.7  T
   6   -191.2012205 -0.323608E-07  0.409E-04    2.08      22.6  T
   7   -191.2012205 -0.584848E-08  0.163E-04    2.08      56.6  T
   8   -191.2012205 -0.212961E-08  0.631E-05    2.08     146.4  T
     SCC iter.                  ...        0 min,  0.362 sec
     gradient                   ...        0 min,  0.353 sec
 * total energy  :  -188.2425449 Eh     change       -0.2556042E-03 Eh
   gradient norm :     0.0052253 Eh/α   predicted    -0.2375031E-03 (  -7.08%)
   displ. norm   :     0.5978369 α      lambda       -0.3034972E-03
   maximum displ.:     0.3035021 α      in ANC's #3, #5, #2, ...

........................................................................
.............................. CYCLE   64 ..............................
........................................................................

 iter      E             dE          RMSdq      gap      omega  full diag
   1   -191.2059007 -0.191206E+03  0.478E-02    2.08       0.0  T
   2   -191.2059024 -0.176604E-05  0.280E-02    2.08       1.0  T
   3   -191.2058970  0.538467E-05  0.687E-03    2.08       1.3  T
   4   -191.2059031 -0.604116E-05  0.161E-03    2.08       5.7  T
   5   -191.2059033 -0.253388E-06  0.757E-04    2.08      12.2  T
   6   -191.2059034 -0.299366E-07  0.391E-04    2.08      23.7  T
   7   -191.2059034 -0.521351E-08  0.146E-04    2.08      63.2  T
   8   -191.2059034 -0.155637E-08  0.552E-05    2.08     167.6  T
     SCC iter.                  ...        0 min,  0.310 sec
     gradient                   ...        0 min,  0.341 sec
 * total energy  :  -188.2427826 Eh     change       -0.2376530E-03 Eh
   gradient norm :     0.0051473 Eh/α   predicted    -0.2059856E-03 ( -13.33%)
   displ. norm   :     0.6423537 α      lambda       -0.2531672E-03
   maximum displ.:     0.3372344 α      in ANC's #3, #5, #2, ...

........................................................................
.............................. CYCLE   65 ..............................
........................................................................

 iter      E             dE          RMSdq      gap      omega  full diag
   1   -191.2040052 -0.191204E+03  0.451E-02    2.08       0.0  T
   2   -191.2040069 -0.174746E-05  0.263E-02    2.08       1.0  T
   3   -191.2040022  0.475415E-05  0.654E-03    2.08       1.4  T
   4   -191.2040076 -0.539909E-05  0.149E-03    2.08       6.2  T
   5   -191.2040078 -0.188270E-06  0.704E-04    2.08      13.1  T
   6   -191.2040078 -0.195055E-07  0.374E-04    2.08      24.7  T
   7   -191.2040078 -0.493583E-08  0.148E-04    2.08      62.3  T
   8   -191.2040078 -0.185565E-08  0.587E-05    2.08     157.6  T
     SCC iter.                  ...        0 min,  0.259 sec
     gradient                   ...        0 min,  0.326 sec
 * total energy  :  -188.2429877 Eh     change       -0.2051629E-03 Eh
   gradient norm :     0.0045230 Eh/α   predicted    -0.1788166E-03 ( -12.84%)
   displ. norm   :     0.5106530 α      lambda       -0.2318347E-03
   maximum displ.:     0.2593248 α      in ANC's #5, #3, #2, ...

........................................................................
.............................. CYCLE   66 ..............................
........................................................................

 iter      E             dE          RMSdq      gap      omega  full diag
   1   -191.2074931 -0.191207E+03  0.502E-02    2.09       0.0  T
   2   -191.2074950 -0.188611E-05  0.293E-02    2.09       1.0  T
   3   -191.2074906  0.436964E-05  0.665E-03    2.09       1.4  T
   4   -191.2074957 -0.510297E-05  0.138E-03    2.09       6.7  T
   5   -191.2074959 -0.123224E-06  0.719E-04    2.09      12.9  T
   6   -191.2074959 -0.224769E-07  0.369E-04    2.09      25.1  T
   7   -191.2074959 -0.545310E-08  0.137E-04    2.09      67.4  T
   8   -191.2074959 -0.141662E-08  0.615E-05    2.09     150.3  T
     SCC iter.                  ...        0 min,  0.323 sec
     gradient                   ...        0 min,  0.296 sec
 * total energy  :  -188.2431558 Eh     change       -0.1680471E-03 Eh
   gradient norm :     0.0041384 Eh/α   predicted    -0.1461452E-03 ( -13.03%)
   displ. norm   :     0.4839226 α      lambda       -0.1630152E-03
   maximum displ.:     0.2526020 α      in ANC's #5, #3, #2, ...
 * RMSD in coord.:     0.9241275 α      energy gain  -0.5665170E-02 Eh

generating ANC from exact Hessian ...
Using Lindh-Hessian (1995)
 Shifting diagonal of input Hessian by    1.0107095551723353E-002
 Lowest  eigenvalues of input Hessian
    0.010000    0.000000    0.000000    0.000000    0.000000    0.000000
    0.000000    0.010144    0.010173    0.010212    0.010305    0.010393
    0.010440    0.010534    0.010661    0.010890    0.010939    0.011071
 Highest eigenvalues
    2.150956    2.212929    2.330748    2.335304    2.379343    3.123473


........................................................................
.............................. CYCLE   67 ..............................
........................................................................

 iter      E             dE          RMSdq      gap      omega  full diag
   1   -191.2050470 -0.191205E+03  0.395E-02    2.09       0.0  T
   2   -191.2050487 -0.166862E-05  0.230E-02    2.09       1.0  T
   3   -191.2050430  0.567129E-05  0.724E-03    2.09       1.3  T
   4   -191.2050495 -0.646874E-05  0.121E-03    2.09       7.6  T
   5   -191.2050496 -0.100183E-06  0.561E-04    2.09      16.5  T
   6   -191.2050496 -0.967697E-08  0.293E-04    2.09      31.6  T
   7   -191.2050496 -0.255642E-08  0.108E-04    2.09      85.3  T
   8   -191.2050496 -0.862826E-09  0.490E-05    2.09     188.6  T
     SCC iter.                  ...        0 min,  0.284 sec
     gradient                   ...        0 min,  0.377 sec
 * total energy  :  -188.2432761 Eh     change       -0.1202865E-03 Eh
   gradient norm :     0.0040490 Eh/α   predicted     0.0000000E+00 (-100.00%)
   displ. norm   :     0.0605428 α      lambda       -0.5310992E-04
   maximum displ.:     0.0246762 α      in ANC's #5, #3, #16, ...

........................................................................
.............................. CYCLE   68 ..............................
........................................................................

 iter      E             dE          RMSdq      gap      omega  full diag
   1   -191.2060022 -0.191206E+03  0.105E-02    2.09       0.0  T
   2   -191.2060024 -0.193459E-06  0.621E-03    2.09       1.5  T
   3   -191.2060020  0.418836E-06  0.209E-03    2.09       4.4  T
   4   -191.2060025 -0.476524E-06  0.404E-04    2.09      22.9  T
   5   -191.2060025 -0.168482E-07  0.146E-04    2.09      63.1  T
   6   -191.2060025 -0.104831E-08  0.811E-05    2.09     114.0  T
     SCC iter.                  ...        0 min,  0.167 sec
     gradient                   ...        0 min,  0.340 sec
 * total energy  :  -188.2433338 Eh     change       -0.5768912E-04 Eh
   gradient norm :     0.0021281 Eh/α   predicted    -0.3329239E-04 ( -42.29%)
   displ. norm   :     0.2549560 α      lambda       -0.1971905E-03
   maximum displ.:     0.1051814 α      in ANC's #5, #3, #16, ...

........................................................................
.............................. CYCLE   69 ..............................
........................................................................

 iter      E             dE          RMSdq      gap      omega  full diag
   1   -191.2072166 -0.191207E+03  0.404E-02    2.10       0.0  T
   2   -191.2072183 -0.170418E-05  0.239E-02    2.10       1.0  T
   3   -191.2072122  0.609472E-05  0.749E-03    2.10       1.2  T
   4   -191.2072190 -0.685071E-05  0.125E-03    2.10       7.4  T
   5   -191.2072192 -0.142562E-06  0.506E-04    2.10      18.3  T
   6   -191.2072192 -0.105088E-07  0.292E-04    2.10      31.7  T
   7   -191.2072192 -0.221107E-08  0.126E-04    2.10      73.5  T
   8   -191.2072192 -0.139684E-08  0.446E-05    2.10     207.4  T
     SCC iter.                  ...        0 min,  0.276 sec
     gradient                   ...        0 min,  0.276 sec
 * total energy  :  -188.2434684 Eh     change       -0.1346936E-03 Eh
   gradient norm :     0.0038342 Eh/α   predicted    -0.1050073E-03 ( -22.04%)
   displ. norm   :     0.2293020 α      lambda       -0.1025552E-03
   maximum displ.:     0.1003148 α      in ANC's #5, #3, #16, ...

........................................................................
.............................. CYCLE   70 ..............................
........................................................................

 iter      E             dE          RMSdq      gap      omega  full diag
   1   -191.2069226 -0.191207E+03  0.335E-02    2.10       0.0  T
   2   -191.2069232 -0.650942E-06  0.197E-02    2.10       1.0  T
   3   -191.2069206  0.268459E-05  0.472E-03    2.10       2.0  T
   4   -191.2069236 -0.301176E-05  0.818E-04    2.10      11.3  T
   5   -191.2069236 -0.505626E-07  0.375E-04    2.10      24.7  T
   6   -191.2069236 -0.474205E-08  0.212E-04    2.10      43.6  T
   7   -191.2069236 -0.147813E-08  0.884E-05    2.10     104.6  T
   8   -191.2069236 -0.703636E-09  0.325E-05    2.10     284.1  T
     SCC iter.                  ...        0 min,  0.268 sec
     gradient                   ...        0 min,  0.371 sec
 * total energy  :  -188.2435512 Eh     change       -0.8276145E-04 Eh
   gradient norm :     0.0051350 Eh/α   predicted    -0.5435392E-04 ( -34.32%)
   displ. norm   :     0.3159620 α      lambda       -0.1372657E-03
   maximum displ.:     0.1428895 α      in ANC's #5, #3, #16, ...

........................................................................
.............................. CYCLE   71 ..............................
........................................................................

 iter      E             dE          RMSdq      gap      omega  full diag
   1   -191.2060011 -0.191206E+03  0.439E-02    2.11       0.0  T
   2   -191.2060020 -0.829180E-06  0.258E-02    2.11       1.0  T
   3   -191.2059992  0.280332E-05  0.475E-03    2.11       1.9  T
   4   -191.2060023 -0.318472E-05  0.970E-04    2.11       9.5  T
   5   -191.2060024 -0.686648E-07  0.465E-04    2.11      19.9  T
   6   -191.2060024 -0.667595E-08  0.242E-04    2.11      38.3  T
   7   -191.2060024 -0.197144E-08  0.100E-04    2.11      92.5  T
   8   -191.2060024 -0.856517E-09  0.411E-05    2.11     225.0  T
     SCC iter.                  ...        0 min,  0.273 sec
     gradient                   ...        0 min,  0.268 sec
 * total energy  :  -188.2436615 Eh     change       -0.1103397E-03 Eh
   gradient norm :     0.0046771 Eh/α   predicted    -0.7548550E-04 ( -31.59%)
   displ. norm   :     0.3477565 α      lambda       -0.1432040E-03
   maximum displ.:     0.1657262 α      in ANC's #5, #3, #6, ...

........................................................................
.............................. CYCLE   72 ..............................
........................................................................

 iter      E             dE          RMSdq      gap      omega  full diag
   1   -191.2053321 -0.191205E+03  0.451E-02    2.12       0.0  T
   2   -191.2053330 -0.958507E-06  0.265E-02    2.12       1.0  T
   3   -191.2053305  0.255063E-05  0.487E-03    2.12       1.9  T
   4   -191.2053334 -0.294590E-05  0.977E-04    2.12       9.5  T
   5   -191.2053335 -0.666267E-07  0.477E-04    2.12      19.4  T
   6   -191.2053335 -0.845708E-08  0.242E-04    2.12      38.2  T
   7   -191.2053335 -0.201899E-08  0.104E-04    2.12      88.9  T
   8   -191.2053335 -0.820364E-09  0.436E-05    2.12     211.8  T
     SCC iter.                  ...        0 min,  0.211 sec
     gradient                   ...        0 min,  0.250 sec
 * total energy  :  -188.2437731 Eh     change       -0.1115320E-03 Eh
   gradient norm :     0.0030742 Eh/α   predicted    -0.8026832E-04 ( -28.03%)
   displ. norm   :     0.3167209 α      lambda       -0.1124046E-03
   maximum displ.:     0.1585648 α      in ANC's #5, #3, #6, ...

........................................................................
.............................. CYCLE   73 ..............................
........................................................................

 iter      E             dE          RMSdq      gap      omega  full diag
   1   -191.2056501 -0.191206E+03  0.377E-02    2.12       0.0  T
   2   -191.2056510 -0.875772E-06  0.221E-02    2.13       1.0  T
   3   -191.2056487  0.236430E-05  0.488E-03    2.13       1.9  T
   4   -191.2056514 -0.271811E-05  0.878E-04    2.13      10.5  T
   5   -191.2056514 -0.535578E-07  0.385E-04    2.13      24.0  T
   6   -191.2056514 -0.524554E-08  0.207E-04    2.13      44.7  T
   7   -191.2056514 -0.126244E-08  0.933E-05    2.13      99.1  T
   8   -191.2056514 -0.619650E-09  0.420E-05    2.13     220.3  T
     SCC iter.                  ...        0 min,  0.192 sec
     gradient                   ...        0 min,  0.334 sec
 * total energy  :  -188.2438615 Eh     change       -0.8844729E-04 Eh
   gradient norm :     0.0023187 Eh/α   predicted    -0.6184743E-04 ( -30.07%)
   displ. norm   :     0.2914590 α      lambda       -0.9587892E-04
   maximum displ.:     0.1501584 α      in ANC's #5, #3, #2, ...

........................................................................
.............................. CYCLE   74 ..............................
........................................................................

 iter      E             dE          RMSdq      gap      omega  full diag
   1   -191.2065838 -0.191207E+03  0.315E-02    2.13       0.0  T
   2   -191.2065846 -0.801733E-06  0.186E-02    2.13       1.0  T
   3   -191.2065828  0.180116E-05  0.424E-03    2.13       2.2  T
   4   -191.2065849 -0.206674E-05  0.862E-04    2.13      10.7  T
   5   -191.2065849 -0.587841E-07  0.333E-04    2.13      27.8  T
   6   -191.2065849 -0.349942E-08  0.179E-04    2.13      51.7  T
   7   -191.2065849 -0.920664E-09  0.665E-05    2.13     139.0  T
     SCC iter.                  ...        0 min,  0.247 sec
     gradient                   ...        0 min,  0.322 sec
 * total energy  :  -188.2439420 Eh     change       -0.8048997E-04 Eh
   gradient norm :     0.0028662 Eh/α   predicted    -0.5203655E-04 ( -35.35%)
   displ. norm   :     0.3336896 α      lambda       -0.1162434E-03
   maximum displ.:     0.1763092 α      in ANC's #3, #5, #2, ...

........................................................................
.............................. CYCLE   75 ..............................
........................................................................

 iter      E             dE          RMSdq      gap      omega  full diag
   1   -191.2076763 -0.191208E+03  0.339E-02    2.14       0.0  T
   2   -191.2076772 -0.990044E-06  0.200E-02    2.14       1.0  T
   3   -191.2076751  0.210821E-05  0.430E-03    2.14       2.2  T
   4   -191.2076775 -0.239435E-05  0.103E-03    2.14       9.0  T
   5   -191.2076776 -0.102194E-06  0.413E-04    2.14      22.4  T
   6   -191.2076776 -0.595384E-08  0.237E-04    2.14      39.1  T
   7   -191.2076776 -0.181132E-08  0.107E-04    2.14      86.6  T
   8   -191.2076776 -0.788276E-09  0.481E-05    2.14     192.1  T
     SCC iter.                  ...        0 min,  0.312 sec
     gradient                   ...        0 min,  0.363 sec
 * total energy  :  -188.2440439 Eh     change       -0.1018941E-03 Eh
   gradient norm :     0.0037296 Eh/α   predicted    -0.6459643E-04 ( -36.60%)
   displ. norm   :     0.4445184 α      lambda       -0.1650654E-03
   maximum displ.:     0.2370011 α      in ANC's #3, #5, #2, ...

........................................................................
.............................. CYCLE   76 ..............................
........................................................................

 iter      E             dE          RMSdq      gap      omega  full diag
   1   -191.2083488 -0.191208E+03  0.441E-02    2.14       0.0  T
   2   -191.2083505 -0.164365E-05  0.260E-02    2.15       1.0  T
   3   -191.2083452  0.525825E-05  0.643E-03    2.15       1.4  T
   4   -191.2083511 -0.592876E-05  0.138E-03    2.15       6.7  T
   5   -191.2083513 -0.186672E-06  0.616E-04    2.15      15.0  T
   6   -191.2083513 -0.163101E-07  0.346E-04    2.15      26.8  T
   7   -191.2083513 -0.330681E-08  0.151E-04    2.15      61.1  T
   8   -191.2083513 -0.181103E-08  0.640E-05    2.15     144.4  T
     SCC iter.                  ...        0 min,  0.240 sec
     gradient                   ...        0 min,  0.314 sec
 * total energy  :  -188.2441896 Eh     change       -0.1457252E-03 Eh
   gradient norm :     0.0046030 Eh/α   predicted    -0.9886314E-04 ( -32.16%)
   displ. norm   :     0.5534234 α      lambda       -0.2107065E-03
   maximum displ.:     0.2963342 α      in ANC's #3, #5, #2, ...

........................................................................
.............................. CYCLE   77 ..............................
........................................................................

 iter      E             dE          RMSdq      gap      omega  full diag
   1   -191.2080609 -0.191208E+03  0.542E-02    2.15       0.0  T
   2   -191.2080633 -0.241959E-05  0.319E-02    2.15       1.0  T
   3   -191.2080512  0.121479E-04  0.985E-03    2.16       1.0  T
   4   -191.2080649 -0.137482E-04  0.162E-03    2.15       5.7  T
   5   -191.2080652 -0.220884E-06  0.804E-04    2.15      11.5  T
   6   -191.2080652 -0.294185E-07  0.437E-04    2.15      21.2  T
   7   -191.2080652 -0.394812E-08  0.196E-04    2.15      47.1  T
   8   -191.2080652 -0.351631E-08  0.756E-05    2.15     122.3  T
     SCC iter.                  ...        0 min,  0.317 sec
     gradient                   ...        0 min,  0.283 sec
 * total energy  :  -188.2443743 Eh     change       -0.1847091E-03 Eh
   gradient norm :     0.0050597 Eh/α   predicted    -0.1376211E-03 ( -25.49%)
   displ. norm   :     0.6057985 α      lambda       -0.2311353E-03
   maximum displ.:     0.3268268 α      in ANC's #3, #5, #2, ...

........................................................................
.............................. CYCLE   78 ..............................
........................................................................

 iter      E             dE          RMSdq      gap      omega  full diag
   1   -191.2072482 -0.191207E+03  0.585E-02    2.15       0.0  T
   2   -191.2072511 -0.294203E-05  0.344E-02    2.16       1.0  T
   3   -191.2072316  0.195459E-04  0.127E-02    2.16       1.0  T
   4   -191.2072538 -0.222223E-04  0.173E-03    2.16       5.4  T
   5   -191.2072540 -0.223118E-06  0.897E-04    2.16      10.3  T
   6   -191.2072540 -0.373742E-07  0.474E-04    2.16      19.5  T
   7   -191.2072540 -0.428557E-08  0.221E-04    2.16      41.8  T
   8   -191.2072540 -0.457234E-08  0.787E-05    2.16     117.5  T
   9   -191.2072540 -0.209269E-09  0.391E-05    2.16     236.5  T
     SCC iter.                  ...        0 min,  0.248 sec
     gradient                   ...        0 min,  0.265 sec
 * total energy  :  -188.2445741 Eh     change       -0.1997473E-03 Eh
   gradient norm :     0.0047639 Eh/α   predicted    -0.1579809E-03 ( -20.91%)
   displ. norm   :     0.6136350 α      lambda       -0.2242078E-03
   maximum displ.:     0.3354158 α      in ANC's #3, #5, #2, ...

........................................................................
.............................. CYCLE   79 ..............................
........................................................................

 iter      E             dE          RMSdq      gap      omega  full diag
   1   -191.2064562 -0.191206E+03  0.573E-02    2.16       0.0  T
   2   -191.2064593 -0.309015E-05  0.337E-02    2.16       1.0  T
   3   -191.2064372  0.220890E-04  0.137E-02    2.16       1.0  T
   4   -191.2064624 -0.251772E-04  0.175E-03    2.16       5.3  T
   5   -191.2064626 -0.228267E-06  0.882E-04    2.16      10.5  T
   6   -191.2064627 -0.342817E-07  0.471E-04    2.16      19.6  T
   7   -191.2064627 -0.534459E-08  0.222E-04    2.16      41.6  T
   8   -191.2064627 -0.419280E-08  0.762E-05    2.16     121.4  T
   9   -191.2064627 -0.276259E-09  0.389E-05    2.16     237.7  T
     SCC iter.                  ...        0 min,  0.284 sec
     gradient                   ...        0 min,  0.300 sec
 * total energy  :  -188.2447642 Eh     change       -0.1901090E-03 Eh
   gradient norm :     0.0037994 Eh/α   predicted    -0.1543179E-03 ( -18.83%)
   displ. norm   :     0.6079390 α      lambda       -0.2008796E-03
   maximum displ.:     0.3371991 α      in ANC's #3, #5, #2, ...

........................................................................
.............................. CYCLE   80 ..............................
........................................................................

 iter      E             dE          RMSdq      gap      omega  full diag
   1   -191.2058268 -0.191206E+03  0.536E-02    2.16       0.0  T
   2   -191.2058297 -0.285703E-05  0.316E-02    2.16       1.0  T
   3   -191.2058101  0.195535E-04  0.127E-02    2.16       1.0  T
   4   -191.2058324 -0.222141E-04  0.170E-03    2.16       5.4  T
   5   -191.2058326 -0.221973E-06  0.811E-04    2.16      11.4  T
   6   -191.2058326 -0.254527E-07  0.446E-04    2.16      20.7  T
   7   -191.2058326 -0.610868E-08  0.209E-04    2.16      44.3  T
   8   -191.2058326 -0.338326E-08  0.711E-05    2.16     129.9  T
   9   -191.2058326 -0.282370E-09  0.369E-05    2.16     250.6  T
     SCC iter.                  ...        0 min,  0.233 sec
     gradient                   ...        0 min,  0.277 sec
 * total energy  :  -188.2449352 Eh     change       -0.1710350E-03 Eh
   gradient norm :     0.0032928 Eh/α   predicted    -0.1375631E-03 ( -19.57%)
   displ. norm   :     0.6017284 α      lambda       -0.1875420E-03
   maximum displ.:     0.3373853 α      in ANC's #3, #5, #2, ...

........................................................................
.............................. CYCLE   81 ..............................
........................................................................

 iter      E             dE          RMSdq      gap      omega  full diag
   1   -191.2059953 -0.191206E+03  0.500E-02    2.17       0.0  T
   2   -191.2059976 -0.229368E-05  0.294E-02    2.17       1.0  T
   3   -191.2059828  0.147640E-04  0.108E-02    2.17       1.0  T
   4   -191.2059995 -0.166400E-04  0.155E-03    2.17       6.0  T
   5   -191.2059996 -0.185496E-06  0.727E-04    2.17      12.7  T
   6   -191.2059997 -0.176463E-07  0.404E-04    2.17      22.9  T
   7   -191.2059997 -0.537625E-08  0.186E-04    2.17      49.7  T
   8   -191.2059997 -0.285280E-08  0.644E-05    2.17     143.5  T
     SCC iter.                  ...        0 min,  0.313 sec
     gradient                   ...        0 min,  0.319 sec
 * total energy  :  -188.2450970 Eh     change       -0.1618094E-03 Eh
   gradient norm :     0.0037456 Eh/α   predicted    -0.1277253E-03 ( -21.06%)
   displ. norm   :     0.6206074 α      lambda       -0.1925745E-03
   maximum displ.:     0.3498577 α      in ANC's #3, #5, #2, ...

........................................................................
.............................. CYCLE   82 ..............................
........................................................................

 iter      E             dE          RMSdq      gap      omega  full diag
   1   -191.2065667 -0.191207E+03  0.485E-02    2.17       0.0  T
   2   -191.2065683 -0.162438E-05  0.285E-02    2.17       1.0  T
   3   -191.2065583  0.100794E-04  0.861E-03    2.17       1.1  T
   4   -191.2065696 -0.113142E-04  0.134E-03    2.17       6.9  T
   5   -191.2065697 -0.119776E-06  0.678E-04    2.17      13.6  T
   6   -191.2065697 -0.140635E-07  0.363E-04    2.17      25.5  T
   7   -191.2065697 -0.495530E-08  0.161E-04    2.17      57.5  T
   8   -191.2065697 -0.231410E-08  0.614E-05    2.17     150.7  T
     SCC iter.                  ...        0 min,  0.307 sec
     gradient                   ...        0 min,  0.364 sec
 * total energy  :  -188.2452652 Eh     change       -0.1681804E-03 Eh
   gradient norm :     0.0044454 Eh/α   predicted    -0.1333790E-03 ( -20.69%)
   displ. norm   :     0.6218406 α      lambda       -0.2060903E-03
   maximum displ.:     0.3515304 α      in ANC's #3, #5, #2, ...

........................................................................
.............................. CYCLE   83 ..............................
........................................................................

 iter      E             dE          RMSdq      gap      omega  full diag
   1   -191.2085466 -0.191209E+03  0.460E-02    2.17       0.0  T
   2   -191.2085479 -0.132194E-05  0.270E-02    2.17       1.0  T
   3   -191.2085405  0.737954E-05  0.730E-03    2.17       1.3  T
   4   -191.2085489 -0.835080E-05  0.112E-03    2.18       8.3  T
   5   -191.2085489 -0.570297E-07  0.616E-04    2.18      15.0  T
   6   -191.2085489 -0.107379E-07  0.315E-04    2.17      29.4  T
   7   -191.2085489 -0.451644E-08  0.140E-04    2.18      66.3  T
   8   -191.2085489 -0.160477E-08  0.602E-05    2.18     153.5  T
     SCC iter.                  ...        0 min,  0.302 sec
     gradient                   ...        0 min,  0.335 sec
 * total energy  :  -188.2454424 Eh     change       -0.1772140E-03 Eh
   gradient norm :     0.0044404 Eh/α   predicted    -0.1428918E-03 ( -19.37%)
   displ. norm   :     0.6608973 α      lambda       -0.2080466E-03
   maximum displ.:     0.3733832 α      in ANC's #3, #2, #5, ...

........................................................................
.............................. CYCLE   84 ..............................
........................................................................

 iter      E             dE          RMSdq      gap      omega  full diag
   1   -191.2075149 -0.191208E+03  0.469E-02    2.17       0.0  T
   2   -191.2075168 -0.190733E-05  0.276E-02    2.18       1.0  T
   3   -191.2075067  0.101117E-04  0.871E-03    2.18       1.1  T
   4   -191.2075182 -0.114924E-04  0.123E-03    2.18       7.5  T
   5   -191.2075183 -0.780331E-07  0.649E-04    2.18      14.2  T
   6   -191.2075183 -0.117414E-07  0.312E-04    2.18      29.6  T
   7   -191.2075183 -0.208900E-08  0.153E-04    2.18      60.3  T
   8   -191.2075183 -0.178261E-08  0.658E-05    2.18     140.5  T
     SCC iter.                  ...        0 min,  0.363 sec
     gradient                   ...        0 min,  0.302 sec
 * total energy  :  -188.2456138 Eh     change       -0.1713819E-03 Eh
   gradient norm :     0.0044566 Eh/α   predicted    -0.1494608E-03 ( -12.79%)
   displ. norm   :     0.5586065 α      lambda       -0.2294220E-03
   maximum displ.:     0.3094582 α      in ANC's #3, #2, #5, ...

........................................................................
.............................. CYCLE   85 ..............................
........................................................................

 iter      E             dE          RMSdq      gap      omega  full diag
   1   -191.2136363 -0.191214E+03  0.410E-02    2.17       0.0  T
   2   -191.2136396 -0.332501E-05  0.242E-02    2.18       1.0  T
   3   -191.2136256  0.140032E-04  0.115E-02    2.17       1.0  T
   4   -191.2136421 -0.164203E-04  0.150E-03    2.18       6.2  T
   5   -191.2136422 -0.130489E-06  0.658E-04    2.18      14.1  T
   6   -191.2136422 -0.100743E-07  0.355E-04    2.18      26.0  T
   7   -191.2136422 -0.347600E-08  0.169E-04    2.18      54.6  T
   8   -191.2136422 -0.200416E-08  0.688E-05    2.18     134.3  T
     SCC iter.                  ...        0 min,  0.274 sec
     gradient                   ...        0 min,  0.310 sec
 * total energy  :  -188.2457570 Eh     change       -0.1431499E-03 Eh
   gradient norm :     0.0047878 Eh/α   predicted    -0.1505087E-03 (   5.14%)
   displ. norm   :     0.5831011 α      lambda       -0.1807305E-03
   maximum displ.:     0.3350356 α      in ANC's #3, #2, #5, ...

........................................................................
.............................. CYCLE   86 ..............................
........................................................................

 iter      E             dE          RMSdq      gap      omega  full diag
   1   -191.2096496 -0.191210E+03  0.395E-02    2.17       0.0  T
   2   -191.2096517 -0.216745E-05  0.234E-02    2.17       1.0  T
   3   -191.2096413  0.103900E-04  0.877E-03    2.17       1.1  T
   4   -191.2096532 -0.118545E-04  0.122E-03    2.17       7.6  T
   5   -191.2096533 -0.102857E-06  0.622E-04    2.17      14.9  T
   6   -191.2096533 -0.122294E-07  0.316E-04    2.17      29.3  T
   7   -191.2096533 -0.190971E-08  0.146E-04    2.17      63.3  T
   8   -191.2096533 -0.146838E-08  0.637E-05    2.17     145.1  T
     SCC iter.                  ...        0 min,  0.279 sec
     gradient                   ...        0 min,  0.298 sec
 * total energy  :  -188.2459019 Eh     change       -0.1449337E-03 Eh
   gradient norm :     0.0043292 Eh/α   predicted    -0.1210949E-03 ( -16.45%)
   displ. norm   :     0.4449371 α      lambda       -0.1515637E-03
   maximum displ.:     0.2568602 α      in ANC's #3, #2, #5, ...

........................................................................
.............................. CYCLE   87 ..............................
........................................................................

 iter      E             dE          RMSdq      gap      omega  full diag
   1   -191.2081864 -0.191208E+03  0.313E-02    2.16       0.0  T
   2   -191.2081876 -0.118734E-05  0.185E-02    2.16       1.0  T
   3   -191.2081799  0.774055E-05  0.754E-03    2.16       1.2  T
   4   -191.2081887 -0.883084E-05  0.915E-04    2.16      10.1  T
   5   -191.2081887 -0.382597E-07  0.531E-04    2.16      17.4  T
   6   -191.2081888 -0.103352E-07  0.259E-04    2.16      35.7  T
   7   -191.2081888 -0.236753E-08  0.117E-04    2.16      79.2  T
   8   -191.2081888 -0.848189E-09  0.595E-05    2.16     155.3  T
     SCC iter.                  ...        0 min,  0.304 sec
     gradient                   ...        0 min,  0.312 sec
 * total energy  :  -188.2460331 Eh     change       -0.1311862E-03 Eh
   gradient norm :     0.0047379 Eh/α   predicted    -0.9078834E-04 ( -30.79%)
   displ. norm   :     0.5103102 α      lambda       -0.2131038E-03
   maximum displ.:     0.2874252 α      in ANC's #3, #2, #5, ...

........................................................................
.............................. CYCLE   88 ..............................
........................................................................

 iter      E             dE          RMSdq      gap      omega  full diag
   1   -191.2081249 -0.191208E+03  0.404E-02    2.15       0.0  T
   2   -191.2081269 -0.198067E-05  0.237E-02    2.15       1.0  T
   3   -191.2081155  0.113841E-04  0.936E-03    2.15       1.0  T
   4   -191.2081285 -0.130011E-04  0.127E-03    2.15       7.3  T
   5   -191.2081285 -0.692246E-07  0.728E-04    2.15      12.7  T
   6   -191.2081286 -0.222164E-07  0.343E-04    2.15      26.9  T
   7   -191.2081286 -0.604066E-08  0.152E-04    2.15      60.7  T
   8   -191.2081286 -0.122645E-08  0.815E-05    2.15     113.4  T
     SCC iter.                  ...        0 min,  0.336 sec
     gradient                   ...        0 min,  0.307 sec
 * total energy  :  -188.2462047 Eh     change       -0.1716286E-03 Eh
   gradient norm :     0.0041018 Eh/α   predicted    -0.1343015E-03 ( -21.75%)
   displ. norm   :     0.5537487 α      lambda       -0.1768811E-03
   maximum displ.:     0.3126033 α      in ANC's #2, #3, #5, ...

........................................................................
.............................. CYCLE   89 ..............................
........................................................................

 iter      E             dE          RMSdq      gap      omega  full diag
   1   -191.2083867 -0.191208E+03  0.427E-02    2.13       0.0  T
   2   -191.2083888 -0.207332E-05  0.251E-02    2.13       1.0  T
   3   -191.2083772  0.115747E-04  0.936E-03    2.13       1.0  T
   4   -191.2083904 -0.131611E-04  0.135E-03    2.13       6.8  T
   5   -191.2083904 -0.711998E-07  0.798E-04    2.13      11.6  T
   6   -191.2083905 -0.312094E-07  0.365E-04    2.13      25.3  T
   7   -191.2083905 -0.732052E-08  0.163E-04    2.13      56.6  T
   8   -191.2083905 -0.146554E-08  0.814E-05    2.13     113.5  T
     SCC iter.                  ...        0 min,  0.280 sec
     gradient                   ...        0 min,  0.311 sec
 * total energy  :  -188.2463488 Eh     change       -0.1440948E-03 Eh
   gradient norm :     0.0038128 Eh/α   predicted    -0.1155632E-03 ( -19.80%)
   displ. norm   :     0.5611463 α      lambda       -0.1568017E-03
   maximum displ.:     0.3206061 α      in ANC's #2, #3, #5, ...

........................................................................
.............................. CYCLE   90 ..............................
........................................................................

 iter      E             dE          RMSdq      gap      omega  full diag
   1   -191.2085534 -0.191209E+03  0.429E-02    2.12       0.0  T
   2   -191.2085554 -0.201902E-05  0.252E-02    2.12       1.0  T
   3   -191.2085453  0.100984E-04  0.874E-03    2.12       1.1  T
   4   -191.2085568 -0.114363E-04  0.134E-03    2.12       6.9  T
   5   -191.2085568 -0.692823E-07  0.805E-04    2.12      11.5  T
   6   -191.2085569 -0.371971E-07  0.366E-04    2.12      25.3  T
   7   -191.2085569 -0.714783E-08  0.161E-04    2.12      57.3  T
   8   -191.2085569 -0.152866E-08  0.742E-05    2.12     124.7  T
     SCC iter.                  ...        0 min,  0.224 sec
     gradient                   ...        0 min,  0.284 sec
 * total energy  :  -188.2464851 Eh     change       -0.1362751E-03 Eh
   gradient norm :     0.0035198 Eh/α   predicted    -0.1030890E-03 ( -24.35%)
   displ. norm   :     0.6144053 α      lambda       -0.1801426E-03
   maximum displ.:     0.3548599 α      in ANC's #2, #3, #5, ...

........................................................................
.............................. CYCLE   91 ..............................
........................................................................

 iter      E             dE          RMSdq      gap      omega  full diag
   1   -191.2092767 -0.191209E+03  0.488E-02    2.11       0.0  T
   2   -191.2092791 -0.240551E-05  0.286E-02    2.10       1.0  T
   3   -191.2092679  0.112029E-04  0.930E-03    2.10       1.0  T
   4   -191.2092805 -0.126526E-04  0.154E-03    2.10       6.0  T
   5   -191.2092806 -0.870163E-07  0.915E-04    2.10      10.1  T
   6   -191.2092807 -0.518999E-07  0.411E-04    2.10      22.5  T
   7   -191.2092807 -0.922626E-08  0.176E-04    2.10      52.4  T
   8   -191.2092807 -0.177991E-08  0.792E-05    2.10     116.7  T
     SCC iter.                  ...        0 min,  0.214 sec
     gradient                   ...        0 min,  0.250 sec
 * total energy  :  -188.2466446 Eh     change       -0.1595435E-03 Eh
   gradient norm :     0.0030990 Eh/α   predicted    -0.1240734E-03 ( -22.23%)
   displ. norm   :     0.6690898 α      lambda       -0.2007728E-03
   maximum displ.:     0.3896886 α      in ANC's #2, #3, #6, ...

........................................................................
.............................. CYCLE   92 ..............................
........................................................................

 iter      E             dE          RMSdq      gap      omega  full diag
   1   -191.2093394 -0.191209E+03  0.563E-02    2.09       0.0  T
   2   -191.2093425 -0.315793E-05  0.329E-02    2.09       1.0  T
   3   -191.2093299  0.126146E-04  0.100E-02    2.09       1.0  T
   4   -191.2093442 -0.142475E-04  0.177E-03    2.09       5.2  T
   5   -191.2093443 -0.110552E-06  0.104E-03    2.09       8.9  T
   6   -191.2093443 -0.729462E-07  0.466E-04    2.09      19.9  T
   7   -191.2093443 -0.111988E-07  0.197E-04    2.09      47.0  T
   8   -191.2093444 -0.217037E-08  0.881E-05    2.09     105.0  T
     SCC iter.                  ...        0 min,  0.199 sec
     gradient                   ...        0 min,  0.244 sec
 * total energy  :  -188.2468182 Eh     change       -0.1735634E-03 Eh
   gradient norm :     0.0032134 Eh/α   predicted    -0.1453297E-03 ( -16.27%)
   displ. norm   :     0.6646250 α      lambda       -0.1856828E-03
   maximum displ.:     0.3910375 α      in ANC's #2, #3, #6, ...
 * RMSD in coord.:     1.0334341 α      energy gain  -0.3662420E-02 Eh

generating ANC from exact Hessian ...
Using Lindh-Hessian (1995)
 Shifting diagonal of input Hessian by    1.0094920171175888E-002
 Lowest  eigenvalues of input Hessian
    0.010000    0.000000    0.000000    0.000000    0.000000    0.000000
    0.000000    0.010142    0.010173    0.010242    0.010319    0.010388
    0.010506    0.010667    0.010776    0.010956    0.011030    0.011083
 Highest eigenvalues
    2.154138    2.205286    2.326449    2.331464    2.352193    3.104479


........................................................................
.............................. CYCLE   93 ..............................
........................................................................

 iter      E             dE          RMSdq      gap      omega  full diag
   1   -191.2096783 -0.191210E+03  0.572E-02    2.08       0.0  T
   2   -191.2096812 -0.287703E-05  0.334E-02    2.08       1.0  T
   3   -191.2096698  0.113577E-04  0.946E-03    2.08       1.0  T
   4   -191.2096827 -0.128439E-04  0.179E-03    2.08       5.2  T
   5   -191.2096828 -0.947893E-07  0.106E-03    2.08       8.7  T
   6   -191.2096829 -0.792463E-07  0.444E-04    2.08      20.8  T
   7   -191.2096829 -0.983781E-08  0.198E-04    2.08      46.6  T
   8   -191.2096829 -0.208072E-08  0.892E-05    2.08     103.6  T
     SCC iter.                  ...        0 min,  0.226 sec
     gradient                   ...        0 min,  0.300 sec
 * total energy  :  -188.2469718 Eh     change       -0.1536019E-03 Eh
   gradient norm :     0.0033891 Eh/α   predicted     0.0000000E+00 (-100.00%)
   displ. norm   :     0.0427661 α      lambda       -0.3532606E-04
   maximum displ.:     0.0131357 α      in ANC's #2, #6, #4, ...

........................................................................
.............................. CYCLE   94 ..............................
........................................................................

 iter      E             dE          RMSdq      gap      omega  full diag
   1   -191.2105051 -0.191211E+03  0.808E-03    2.08       0.0  T
   2   -191.2105052 -0.124807E-06  0.477E-03    2.08       1.9  T
   3   -191.2105050  0.166048E-06  0.124E-03    2.08       7.4  T
   4   -191.2105052 -0.182790E-06  0.375E-04    2.08      24.7  T
   5   -191.2105052 -0.159198E-07  0.117E-04    2.08      78.8  T
   6   -191.2105052 -0.290697E-09  0.667E-05    2.08     138.6  T
     SCC iter.                  ...        0 min,  0.172 sec
     gradient                   ...        0 min,  0.292 sec
 * total energy  :  -188.2470070 Eh     change       -0.3518461E-04 Eh
   gradient norm :     0.0018289 Eh/α   predicted    -0.2119843E-04 ( -39.75%)
   displ. norm   :     0.2070171 α      lambda       -0.8524214E-04
   maximum displ.:     0.0698894 α      in ANC's #2, #4, #6, ...

........................................................................
.............................. CYCLE   95 ..............................
........................................................................

 iter      E             dE          RMSdq      gap      omega  full diag
   1   -191.2119158 -0.191212E+03  0.330E-02    2.07       0.0  T
   2   -191.2119173 -0.143379E-05  0.194E-02    2.07       1.0  T
   3   -191.2119144  0.287465E-05  0.501E-03    2.07       1.8  T
   4   -191.2119176 -0.317539E-05  0.134E-03    2.07       6.9  T
   5   -191.2119178 -0.196890E-06  0.436E-04    2.07      21.2  T
   6   -191.2119178 -0.384622E-08  0.245E-04    2.07      37.7  T
   7   -191.2119178 -0.217426E-08  0.898E-05    2.07     102.9  T
   8   -191.2119178 -0.571362E-09  0.392E-05    2.07     235.7  T
     SCC iter.                  ...        0 min,  0.258 sec
     gradient                   ...        0 min,  0.257 sec
 * total energy  :  -188.2470656 Eh     change       -0.5857609E-04 Eh
   gradient norm :     0.0036206 Eh/α   predicted    -0.4343306E-04 ( -25.85%)
   displ. norm   :     0.0488808 α      lambda       -0.2604282E-04
   maximum displ.:     0.0198351 α      in ANC's #2, #4, #1, ...

........................................................................
.............................. CYCLE   96 ..............................
........................................................................

 iter      E             dE          RMSdq      gap      omega  full diag
   1   -191.2115410 -0.191212E+03  0.608E-03    2.08       0.0  T
   2   -191.2115411 -0.533112E-07  0.360E-03    2.08       2.6  T
   3   -191.2115408  0.245017E-06  0.153E-03    2.08       6.1  T
   4   -191.2115411 -0.281936E-06  0.177E-04    2.08      52.2  T
   5   -191.2115411 -0.187308E-08  0.822E-05    2.08     112.5  T
   6   -191.2115411 -0.261593E-09  0.460E-05    2.08     200.9  T
     SCC iter.                  ...        0 min,  0.181 sec
     gradient                   ...        0 min,  0.257 sec
 * total energy  :  -188.2470890 Eh     change       -0.2343541E-04 Eh
   gradient norm :     0.0028018 Eh/α   predicted    -0.1305266E-04 ( -44.30%)
   displ. norm   :     0.2431851 α      lambda       -0.1051289E-03
   maximum displ.:     0.0986993 α      in ANC's #2, #4, #1, ...

........................................................................
.............................. CYCLE   97 ..............................
........................................................................

 iter      E             dE          RMSdq      gap      omega  full diag
   1   -191.2100864 -0.191210E+03  0.282E-02    2.09       0.0  T
   2   -191.2100874 -0.980630E-06  0.166E-02    2.08       1.0  T
   3   -191.2100828  0.460518E-05  0.646E-03    2.08       1.4  T
   4   -191.2100880 -0.522636E-05  0.751E-04    2.08      12.3  T
   5   -191.2100880 -0.371441E-07  0.365E-04    2.08      25.3  T
   6   -191.2100880 -0.667768E-08  0.195E-04    2.08      47.3  T
   7   -191.2100880 -0.114494E-08  0.864E-05    2.08     107.0  T
     SCC iter.                  ...        0 min,  0.253 sec
     gradient                   ...        0 min,  0.277 sec
 * total energy  :  -188.2471574 Eh     change       -0.6837401E-04 Eh
   gradient norm :     0.0019435 Eh/α   predicted    -0.5605510E-04 ( -18.02%)
   displ. norm   :     0.2675631 α      lambda       -0.3553862E-04
   maximum displ.:     0.1136921 α      in ANC's #2, #4, #1, ...

........................................................................
.............................. CYCLE   98 ..............................
........................................................................

 iter      E             dE          RMSdq      gap      omega  full diag
   1   -191.2095742 -0.191210E+03  0.278E-02    2.09       0.0  T
   2   -191.2095748 -0.629846E-06  0.164E-02    2.09       1.0  T
   3   -191.2095713  0.353313E-05  0.530E-03    2.09       1.7  T
   4   -191.2095752 -0.396369E-05  0.676E-04    2.09      13.7  T
   5   -191.2095753 -0.278555E-07  0.342E-04    2.09      27.1  T
   6   -191.2095753 -0.513728E-08  0.181E-04    2.09      51.2  T
   7   -191.2095753 -0.850036E-09  0.755E-05    2.09     122.4  T
     SCC iter.                  ...        0 min,  0.210 sec
     gradient                   ...        0 min,  0.282 sec
 * total energy  :  -188.2471926 Eh     change       -0.3521762E-04 Eh
   gradient norm :     0.0027032 Eh/α   predicted    -0.1833564E-04 ( -47.94%)
   displ. norm   :     0.1211411 α      lambda       -0.2820330E-04
   maximum displ.:     0.0558658 α      in ANC's #2, #1, #4, ...

........................................................................
.............................. CYCLE   99 ..............................
........................................................................

 iter      E             dE          RMSdq      gap      omega  full diag
   1   -191.2102100 -0.191210E+03  0.109E-02    2.09       0.0  T
   2   -191.2102101 -0.133337E-06  0.646E-03    2.09       1.4  T
   3   -191.2102096  0.514729E-06  0.211E-03    2.09       4.4  T
   4   -191.2102102 -0.582966E-06  0.371E-04    2.09      24.9  T
   5   -191.2102102 -0.107363E-07  0.153E-04    2.09      60.5  T
   6   -191.2102102 -0.628972E-09  0.866E-05    2.09     106.7  T
     SCC iter.                  ...        0 min,  0.168 sec
     gradient                   ...        0 min,  0.275 sec
 * total energy  :  -188.2472170 Eh     change       -0.2441094E-04 Eh
   gradient norm :     0.0018198 Eh/α   predicted    -0.1430980E-04 ( -41.38%)
   displ. norm   :     0.3384773 α      lambda       -0.5186129E-04
   maximum displ.:     0.1614877 α      in ANC's #2, #1, #4, ...

........................................................................
.............................. CYCLE  100 ..............................
........................................................................

 iter      E             dE          RMSdq      gap      omega  full diag
   1   -191.2116522 -0.191212E+03  0.286E-02    2.09       0.0  T
   2   -191.2116534 -0.120474E-05  0.170E-02    2.08       1.0  T
   3   -191.2116496  0.373665E-05  0.604E-03    2.08       1.5  T
   4   -191.2116539 -0.429696E-05  0.114E-03    2.08       8.1  T
   5   -191.2116540 -0.105811E-06  0.427E-04    2.08      21.6  T
   6   -191.2116540 -0.293340E-08  0.254E-04    2.08      36.3  T
   7   -191.2116540 -0.387024E-08  0.105E-04    2.08      88.3  T
   8   -191.2116540 -0.601830E-09  0.533E-05    2.08     173.4  T
     SCC iter.                  ...        0 min,  0.208 sec
     gradient                   ...        0 min,  0.287 sec
 * total energy  :  -188.2472644 Eh     change       -0.4739054E-04 Eh
   gradient norm :     0.0019510 Eh/α   predicted    -0.2725244E-04 ( -42.49%)
   displ. norm   :     0.1745067 α      lambda       -0.1891750E-04
   maximum displ.:     0.0875375 α      in ANC's #2, #1, #4, ...

........................................................................
.............................. CYCLE  101 ..............................
........................................................................

 iter      E             dE          RMSdq      gap      omega  full diag
   1   -191.2113687 -0.191211E+03  0.135E-02    2.08       0.0  T
   2   -191.2113689 -0.251353E-06  0.800E-03    2.08       1.2  T
   3   -191.2113685  0.442987E-06  0.205E-03    2.08       4.5  T
   4   -191.2113690 -0.518093E-06  0.441E-04    2.08      21.0  T
   5   -191.2113690 -0.144194E-07  0.184E-04    2.08      50.1  T
   6   -191.2113690 -0.314657E-09  0.108E-04    2.08      85.5  T
     SCC iter.                  ...        0 min,  0.173 sec
     gradient                   ...        0 min,  0.284 sec
 * total energy  :  -188.2472887 Eh     change       -0.2427052E-04 Eh
   gradient norm :     0.0018963 Eh/α   predicted    -0.9586943E-05 ( -60.50%)
   displ. norm   :     0.2792506 α      lambda       -0.3863655E-04
   maximum displ.:     0.1397788 α      in ANC's #2, #1, #4, ...

........................................................................
.............................. CYCLE  102 ..............................
........................................................................

 iter      E             dE          RMSdq      gap      omega  full diag
   1   -191.2109620 -0.191211E+03  0.226E-02    2.08       0.0  T
   2   -191.2109628 -0.785152E-06  0.134E-02    2.08       1.0  T
   3   -191.2109605  0.230105E-05  0.458E-03    2.08       2.0  T
   4   -191.2109632 -0.264016E-05  0.803E-04    2.08      11.5  T
   5   -191.2109632 -0.423142E-07  0.353E-04    2.08      26.2  T
   6   -191.2109632 -0.365389E-08  0.192E-04    2.08      48.2  T
   7   -191.2109632 -0.149635E-08  0.772E-05    2.08     119.7  T
     SCC iter.                  ...        0 min,  0.230 sec
     gradient                   ...        0 min,  0.257 sec
 * total energy  :  -188.2473332 Eh     change       -0.4451966E-04 Eh
   gradient norm :     0.0013373 Eh/α   predicted    -0.1998866E-04 ( -55.10%)
   displ. norm   :     0.3393583 α      lambda       -0.3628364E-04
   maximum displ.:     0.1716455 α      in ANC's #2, #1, #4, ...

........................................................................
.............................. CYCLE  103 ..............................
........................................................................

 iter      E             dE          RMSdq      gap      omega  full diag
   1   -191.2100657 -0.191210E+03  0.278E-02    2.08       0.0  T
   2   -191.2100668 -0.113467E-05  0.165E-02    2.08       1.0  T
   3   -191.2100619  0.489906E-05  0.669E-03    2.08       1.4  T
   4   -191.2100675 -0.561247E-05  0.908E-04    2.08      10.2  T
   5   -191.2100676 -0.445489E-07  0.441E-04    2.08      21.0  T
   6   -191.2100676 -0.744913E-08  0.235E-04    2.08      39.4  T
   7   -191.2100676 -0.165235E-08  0.103E-04    2.08      90.2  T
   8   -191.2100676 -0.523414E-09  0.449E-05    2.08     206.0  T
     SCC iter.                  ...        0 min,  0.299 sec
     gradient                   ...        0 min,  0.329 sec
 * total energy  :  -188.2473709 Eh     change       -0.3772554E-04 Eh
   gradient norm :     0.0014128 Eh/α   predicted    -0.1907197E-04 ( -49.45%)
   displ. norm   :     0.2817856 α      lambda       -0.2491382E-04
   maximum displ.:     0.1439604 α      in ANC's #2, #1, #4, ...

........................................................................
.............................. CYCLE  104 ..............................
........................................................................

 iter      E             dE          RMSdq      gap      omega  full diag
   1   -191.2099095 -0.191210E+03  0.226E-02    2.07       0.0  T
   2   -191.2099101 -0.651881E-06  0.133E-02    2.07       1.0  T
   3   -191.2099070  0.307786E-05  0.520E-03    2.07       1.8  T
   4   -191.2099105 -0.349918E-05  0.694E-04    2.07      13.3  T
   5   -191.2099106 -0.268421E-07  0.336E-04    2.07      27.5  T
   6   -191.2099106 -0.393223E-08  0.175E-04    2.07      52.7  T
   7   -191.2099106 -0.876440E-09  0.738E-05    2.07     125.3  T
     SCC iter.                  ...        0 min,  0.239 sec
     gradient                   ...        0 min,  0.264 sec
 * total energy  :  -188.2473991 Eh     change       -0.2816188E-04 Eh
   gradient norm :     0.0015102 Eh/α   predicted    -0.1290014E-04 ( -54.19%)
   displ. norm   :     0.2890282 α      lambda       -0.2719426E-04
   maximum displ.:     0.1482189 α      in ANC's #2, #1, #4, ...

........................................................................
.............................. CYCLE  105 ..............................
........................................................................

 iter      E             dE          RMSdq      gap      omega  full diag
   1   -191.2105681 -0.191211E+03  0.244E-02    2.07       0.0  T
   2   -191.2105686 -0.573553E-06  0.144E-02    2.07       1.0  T
   3   -191.2105650  0.360099E-05  0.560E-03    2.07       1.6  T
   4   -191.2105691 -0.407329E-05  0.658E-04    2.07      14.1  T
   5   -191.2105691 -0.201993E-07  0.345E-04    2.07      26.8  T
   6   -191.2105691 -0.481211E-08  0.177E-04    2.07      52.1  T
   7   -191.2105691 -0.867828E-09  0.703E-05    2.07     131.5  T
     SCC iter.                  ...        0 min,  0.225 sec
     gradient                   ...        0 min,  0.320 sec
 * total energy  :  -188.2474304 Eh     change       -0.3137912E-04 Eh
   gradient norm :     0.0014603 Eh/α   predicted    -0.1410507E-04 ( -55.05%)
   displ. norm   :     0.2804091 α      lambda       -0.2530575E-04
   maximum displ.:     0.1442601 α      in ANC's #2, #1, #5, ...

........................................................................
.............................. CYCLE  106 ..............................
........................................................................

 iter      E             dE          RMSdq      gap      omega  full diag
   1   -191.2106890 -0.191211E+03  0.243E-02    2.06       0.0  T
   2   -191.2106894 -0.418072E-06  0.143E-02    2.06       1.0  T
   3   -191.2106872  0.220315E-05  0.433E-03    2.06       2.1  T
   4   -191.2106897 -0.248402E-05  0.623E-04    2.06      14.8  T
   5   -191.2106897 -0.187641E-07  0.332E-04    2.06      27.8  T
   6   -191.2106897 -0.403529E-08  0.178E-04    2.06      52.0  T
   7   -191.2106897 -0.117308E-08  0.709E-05    2.06     130.3  T
     SCC iter.                  ...        0 min,  0.314 sec
     gradient                   ...        0 min,  0.308 sec
 * total energy  :  -188.2474562 Eh     change       -0.2573073E-04 Eh
   gradient norm :     0.0011309 Eh/α   predicted    -0.1309545E-04 ( -49.11%)
   displ. norm   :     0.1468437 α      lambda       -0.1114154E-04
   maximum displ.:     0.0755071 α      in ANC's #2, #1, #5, ...

........................................................................
.............................. CYCLE  107 ..............................
........................................................................

 iter      E             dE          RMSdq      gap      omega  full diag
   1   -191.2111141 -0.191211E+03  0.132E-02    2.06       0.0  T
   2   -191.2111142 -0.140559E-06  0.780E-03    2.06       1.2  T
   3   -191.2111137  0.465876E-06  0.203E-03    2.06       4.6  T
   4   -191.2111143 -0.529171E-06  0.389E-04    2.06      23.8  T
   5   -191.2111143 -0.109404E-07  0.189E-04    2.06      48.9  T
   6   -191.2111143 -0.120548E-08  0.108E-04    2.06      85.6  T
     SCC iter.                  ...        0 min,  0.187 sec
     gradient                   ...        0 min,  0.291 sec
 * total energy  :  -188.2474678 Eh     change       -0.1161238E-04 Eh
   gradient norm :     0.0006973 Eh/α   predicted    -0.5625970E-05 ( -51.55%)
   displ. norm   :     0.0963682 α      lambda       -0.7679447E-05
   maximum displ.:     0.0497476 α      in ANC's #1, #2, #5, ...

........................................................................
.............................. CYCLE  108 ..............................
........................................................................

 iter      E             dE          RMSdq      gap      omega  full diag
   1   -191.2111855 -0.191211E+03  0.933E-03    2.06       0.0  T
   2   -191.2111856 -0.901837E-07  0.556E-03    2.06       1.7  T
   3   -191.2111852  0.387039E-06  0.178E-03    2.06       5.2  T
   4   -191.2111856 -0.432680E-06  0.336E-04    2.06      27.5  T
   5   -191.2111856 -0.101259E-07  0.154E-04    2.06      59.9  T
   6   -191.2111856 -0.110833E-08  0.860E-05    2.06     107.5  T
     SCC iter.                  ...        0 min,  0.171 sec
     gradient                   ...        0 min,  0.308 sec
 * total energy  :  -188.2474768 Eh     change       -0.9016594E-05 Eh
   gradient norm :     0.0006264 Eh/α   predicted    -0.3856907E-05 ( -57.22%)
   displ. norm   :     0.1200410 α      lambda       -0.1000821E-04
   maximum displ.:     0.0596296 α      in ANC's #1, #2, #5, ...

........................................................................
.............................. CYCLE  109 ..............................
........................................................................

 iter      E             dE          RMSdq      gap      omega  full diag
   1   -191.2109272 -0.191211E+03  0.130E-02    2.05       0.0  T
   2   -191.2109273 -0.142609E-06  0.775E-03    2.05       1.2  T
   3   -191.2109265  0.815261E-06  0.254E-03    2.05       3.6  T
   4   -191.2109274 -0.912129E-06  0.404E-04    2.05      22.9  T
   5   -191.2109274 -0.137133E-07  0.194E-04    2.05      47.8  T
   6   -191.2109274 -0.173333E-08  0.106E-04    2.05      87.3  T
     SCC iter.                  ...        0 min,  0.248 sec
     gradient                   ...        0 min,  0.336 sec
 * total energy  :  -188.2474884 Eh     change       -0.1160609E-04 Eh
   gradient norm :     0.0010064 Eh/α   predicted    -0.5040173E-05 ( -56.57%)
   displ. norm   :     0.1491684 α      lambda       -0.1096834E-04
   maximum displ.:     0.0743942 α      in ANC's #1, #5, #2, ...

........................................................................
.............................. CYCLE  110 ..............................
........................................................................

 iter      E             dE          RMSdq      gap      omega  full diag
   1   -191.2106375 -0.191211E+03  0.167E-02    2.05       0.0  T
   2   -191.2106377 -0.167734E-06  0.986E-03    2.05       1.0  T
   3   -191.2106367  0.103271E-05  0.276E-03    2.05       3.3  T
   4   -191.2106378 -0.115821E-05  0.415E-04    2.05      22.3  T
   5   -191.2106379 -0.115668E-07  0.231E-04    2.05      40.0  T
   6   -191.2106379 -0.270151E-08  0.118E-04    2.05      78.3  T
   7   -191.2106379 -0.369994E-09  0.531E-05    2.05     174.1  T
     SCC iter.                  ...        0 min,  0.216 sec
     gradient                   ...        0 min,  0.246 sec
 * total energy  :  -188.2475010 Eh     change       -0.1259750E-04 Eh
   gradient norm :     0.0012094 Eh/α   predicted    -0.5542875E-05 ( -56.00%)
   displ. norm   :     0.1643174 α      lambda       -0.1099612E-04
   maximum displ.:     0.0834680 α      in ANC's #1, #5, #2, ...

........................................................................
.............................. CYCLE  111 ..............................
........................................................................

 iter      E             dE          RMSdq      gap      omega  full diag
   1   -191.2103404 -0.191210E+03  0.180E-02    2.05       0.0  T
   2   -191.2103406 -0.183724E-06  0.106E-02    2.05       1.0  T
   3   -191.2103397  0.900058E-06  0.259E-03    2.05       3.6  T
   4   -191.2103407 -0.101897E-05  0.411E-04    2.05      22.5  T
   5   -191.2103408 -0.939494E-08  0.244E-04    2.05      37.9  T
   6   -191.2103408 -0.348555E-08  0.112E-04    2.05      82.5  T
   7   -191.2103408 -0.294108E-09  0.535E-05    2.05     172.7  T
     SCC iter.                  ...        0 min,  0.225 sec
     gradient                   ...        0 min,  0.329 sec
 * total energy  :  -188.2475138 Eh     change       -0.1281156E-04 Eh
   gradient norm :     0.0010120 Eh/α   predicted    -0.5568966E-05 ( -56.53%)
   displ. norm   :     0.1775981 α      lambda       -0.1153075E-04
   maximum displ.:     0.0920468 α      in ANC's #1, #5, #2, ...

........................................................................
.............................. CYCLE  112 ..............................
........................................................................

 iter      E             dE          RMSdq      gap      omega  full diag
   1   -191.2102738 -0.191210E+03  0.184E-02    2.05       0.0  T
   2   -191.2102741 -0.215296E-06  0.108E-02    2.05       1.0  T
   3   -191.2102734  0.685259E-06  0.233E-03    2.05       4.0  T
   4   -191.2102742 -0.785171E-06  0.449E-04    2.05      20.6  T
   5   -191.2102742 -0.118994E-07  0.266E-04    2.05      34.8  T
   6   -191.2102742 -0.466397E-08  0.115E-04    2.05      80.3  T
   7   -191.2102742 -0.405436E-09  0.554E-05    2.05     166.8  T
     SCC iter.                  ...        0 min,  0.209 sec
     gradient                   ...        0 min,  0.257 sec
 * total energy  :  -188.2475273 Eh     change       -0.1349197E-04 Eh
   gradient norm :     0.0006589 Eh/α   predicted    -0.5848006E-05 ( -56.66%)
   displ. norm   :     0.1872678 α      lambda       -0.1173213E-04
   maximum displ.:     0.0994310 α      in ANC's #1, #5, #2, ...

........................................................................
.............................. CYCLE  113 ..............................
........................................................................

 iter      E             dE          RMSdq      gap      omega  full diag
   1   -191.2103932 -0.191210E+03  0.177E-02    2.05       0.0  T
   2   -191.2103934 -0.216091E-06  0.104E-02    2.05       1.0  T
   3   -191.2103929  0.571594E-06  0.219E-03    2.05       4.2  T
   4   -191.2103935 -0.652878E-06  0.490E-04    2.05      18.9  T
   5   -191.2103935 -0.168764E-07  0.274E-04    2.05      33.7  T
   6   -191.2103935 -0.532231E-08  0.116E-04    2.05      79.6  T
   7   -191.2103935 -0.443180E-09  0.536E-05    2.05     172.4  T
     SCC iter.                  ...        0 min,  0.173 sec
     gradient                   ...        0 min,  0.266 sec
 * total energy  :  -188.2475414 Eh     change       -0.1405454E-04 Eh
   gradient norm :     0.0008394 Eh/α   predicted    -0.5961918E-05 ( -57.58%)
   displ. norm   :     0.2054413 α      lambda       -0.1255594E-04
   maximum displ.:     0.1110858 α      in ANC's #1, #5, #2, ...

........................................................................
.............................. CYCLE  114 ..............................
........................................................................

 iter      E             dE          RMSdq      gap      omega  full diag
   1   -191.2104977 -0.191210E+03  0.184E-02    2.04       0.0  T
   2   -191.2104979 -0.221368E-06  0.108E-02    2.04       1.0  T
   3   -191.2104974  0.475487E-06  0.202E-03    2.04       4.6  T
   4   -191.2104980 -0.536784E-06  0.565E-04    2.04      16.4  T
   5   -191.2104980 -0.281679E-07  0.290E-04    2.04      31.9  T
   6   -191.2104980 -0.614702E-08  0.121E-04    2.04      76.2  T
   7   -191.2104980 -0.379316E-09  0.511E-05    2.04     180.8  T
     SCC iter.                  ...        0 min,  0.214 sec
     gradient                   ...        0 min,  0.274 sec
 * total energy  :  -188.2475566 Eh     change       -0.1521125E-04 Eh
   gradient norm :     0.0011709 Eh/α   predicted    -0.6396840E-05 ( -57.95%)
   displ. norm   :     0.2361917 α      lambda       -0.1381342E-04
   maximum displ.:     0.1294170 α      in ANC's #1, #5, #2, ...

........................................................................
.............................. CYCLE  115 ..............................
........................................................................

 iter      E             dE          RMSdq      gap      omega  full diag
   1   -191.2106634 -0.191211E+03  0.211E-02    2.04       0.0  T
   2   -191.2106637 -0.290667E-06  0.124E-02    2.04       1.0  T
   3   -191.2106632  0.532127E-06  0.218E-03    2.04       4.2  T
   4   -191.2106638 -0.594137E-06  0.703E-04    2.04      13.1  T
   5   -191.2106638 -0.485895E-07  0.329E-04    2.04      28.1  T
   6   -191.2106638 -0.739220E-08  0.147E-04    2.04      62.7  T
   7   -191.2106638 -0.756955E-09  0.557E-05    2.04     166.1  T
     SCC iter.                  ...        0 min,  0.209 sec
     gradient                   ...        0 min,  0.275 sec
 * total energy  :  -188.2475732 Eh     change       -0.1660612E-04 Eh
   gradient norm :     0.0011930 Eh/α   predicted    -0.7078701E-05 ( -57.37%)
   displ. norm   :     0.2639620 α      lambda       -0.1403286E-04
   maximum displ.:     0.1467467 α      in ANC's #1, #5, #2, ...

........................................................................
.............................. CYCLE  116 ..............................
........................................................................

 iter      E             dE          RMSdq      gap      omega  full diag
   1   -191.2105771 -0.191211E+03  0.237E-02    2.04       0.0  T
   2   -191.2105775 -0.436799E-06  0.139E-02    2.03       1.0  T
   3   -191.2105769  0.606410E-06  0.247E-03    2.03       3.7  T
   4   -191.2105776 -0.680528E-06  0.843E-04    2.03      11.0  T
   5   -191.2105777 -0.703899E-07  0.372E-04    2.03      24.8  T
   6   -191.2105777 -0.817212E-08  0.187E-04    2.03      49.6  T
   7   -191.2105777 -0.185258E-08  0.692E-05    2.03     133.6  T
     SCC iter.                  ...        0 min,  0.198 sec
     gradient                   ...        0 min,  0.277 sec
 * total energy  :  -188.2475898 Eh     change       -0.1660493E-04 Eh
   gradient norm :     0.0008784 Eh/α   predicted    -0.7237721E-05 ( -56.41%)
   displ. norm   :     0.2792637 α      lambda       -0.1338789E-04
   maximum displ.:     0.1576831 α      in ANC's #1, #5, #2, ...

........................................................................
.............................. CYCLE  117 ..............................
........................................................................

 iter      E             dE          RMSdq      gap      omega  full diag
   1   -191.2105412 -0.191211E+03  0.251E-02    2.03       0.0  T
   2   -191.2105418 -0.572914E-06  0.148E-02    2.03       1.0  T
   3   -191.2105411  0.680803E-06  0.274E-03    2.03       3.4  T
   4   -191.2105419 -0.776818E-06  0.916E-04    2.03      10.1  T
   5   -191.2105420 -0.805412E-07  0.380E-04    2.03      24.3  T
   6   -191.2105420 -0.595182E-08  0.209E-04    2.03      44.3  T
   7   -191.2105420 -0.292468E-08  0.800E-05    2.03     115.5  T
   8   -191.2105420 -0.229960E-09  0.391E-05    2.03     236.5  T
     SCC iter.                  ...        0 min,  0.308 sec
     gradient                   ...        0 min,  0.343 sec
 * total energy  :  -188.2476051 Eh     change       -0.1535910E-04 Eh
   gradient norm :     0.0005821 Eh/α   predicted    -0.6927723E-05 ( -54.90%)
   displ. norm   :     0.2608742 α      lambda       -0.1108322E-04
   maximum displ.:     0.1500630 α      in ANC's #1, #5, #2, ...

........................................................................
.............................. CYCLE  118 ..............................
........................................................................

 iter      E             dE          RMSdq      gap      omega  full diag
   1   -191.2103805 -0.191210E+03  0.234E-02    2.03       0.0  T
   2   -191.2103810 -0.551854E-06  0.138E-02    2.02       1.0  T
   3   -191.2103805  0.491500E-06  0.241E-03    2.02       3.8  T
   4   -191.2103811 -0.562620E-06  0.841E-04    2.02      11.0  T
   5   -191.2103812 -0.757125E-07  0.340E-04    2.02      27.2  T
   6   -191.2103812 -0.435560E-08  0.187E-04    2.02      49.3  T
   7   -191.2103812 -0.249906E-08  0.732E-05    2.02     126.4  T
     SCC iter.                  ...        0 min,  0.289 sec
     gradient                   ...        0 min,  0.355 sec
 * total energy  :  -188.2476175 Eh     change       -0.1239423E-04 Eh
   gradient norm :     0.0007691 Eh/α   predicted    -0.5712040E-05 ( -53.91%)
   displ. norm   :     0.1933343 α      lambda       -0.7970728E-05
   maximum displ.:     0.1143435 α      in ANC's #1, #5, #2, ...

........................................................................
.............................. CYCLE  119 ..............................
........................................................................

 iter      E             dE          RMSdq      gap      omega  full diag
   1   -191.2103910 -0.191210E+03  0.174E-02    2.02       0.0  T
   2   -191.2103913 -0.333555E-06  0.103E-02    2.02       1.0  T
   3   -191.2103911  0.253778E-06  0.170E-03    2.02       5.4  T
   4   -191.2103914 -0.284424E-06  0.619E-04    2.02      14.9  T
   5   -191.2103914 -0.488973E-07  0.235E-04    2.02      39.3  T
   6   -191.2103914 -0.234337E-08  0.120E-04    2.02      76.8  T
   7   -191.2103914 -0.105351E-08  0.482E-05    2.02     191.9  T
     SCC iter.                  ...        0 min,  0.297 sec
     gradient                   ...        0 min,  0.391 sec
 * total energy  :  -188.2476267 Eh     change       -0.9119544E-05 Eh
   gradient norm :     0.0008546 Eh/α   predicted    -0.4053693E-05 ( -55.55%)
   displ. norm   :     0.1359460 α      lambda       -0.5979756E-05
   maximum displ.:     0.0838953 α      in ANC's #1, #5, #4, ...

........................................................................
.............................. CYCLE  120 ..............................
........................................................................

 iter      E             dE          RMSdq      gap      omega  full diag
   1   -191.2104095 -0.191210E+03  0.129E-02    2.02       0.0  T
   2   -191.2104097 -0.197995E-06  0.777E-03    2.02       1.2  T
   3   -191.2104095  0.241227E-06  0.152E-03    2.02       6.1  T
   4   -191.2104097 -0.261489E-06  0.502E-04    2.02      18.4  T
   5   -191.2104098 -0.317939E-07  0.169E-04    2.02      54.8  T
   6   -191.2104098 -0.112803E-08  0.900E-05    2.02     102.7  T
     SCC iter.                  ...        0 min,  0.235 sec
     gradient                   ...        0 min,  0.319 sec
 * total energy  :  -188.2476336 Eh     change       -0.6941828E-05 Eh
   gradient norm :     0.0006794 Eh/α   predicted    -0.3017679E-05 ( -56.53%)
   displ. norm   :     0.0988223 α      lambda       -0.4610990E-05
   maximum displ.:     0.0640828 α      in ANC's #1, #5, #4, ...
 * RMSD in coord.:     0.3443835 α      energy gain  -0.8154062E-03 Eh

generating ANC from exact Hessian ...
Using Lindh-Hessian (1995)
 Shifting diagonal of input Hessian by    1.0096743534668169E-002
 Lowest  eigenvalues of input Hessian
    0.010000    0.000000    0.000000    0.000000    0.000000    0.000000
    0.000000    0.010152    0.010184    0.010275    0.010352    0.010394
    0.010524    0.010695    0.010799    0.010947    0.011040    0.011105
 Highest eigenvalues
    2.151288    2.202383    2.329418    2.332658    2.362490    3.097822


........................................................................
.............................. CYCLE  121 ..............................
........................................................................

 iter      E             dE          RMSdq      gap      omega  full diag
   1   -191.2103332 -0.191210E+03  0.108E-02    2.02       0.0  T
   2   -191.2103334 -0.153376E-06  0.648E-03    2.02       1.4  T
   3   -191.2103331  0.253485E-06  0.154E-03    2.02       6.0  T
   4   -191.2103334 -0.279213E-06  0.430E-04    2.02      21.5  T
   5   -191.2103334 -0.190735E-07  0.141E-04    2.02      65.6  T
   6   -191.2103334 -0.534044E-09  0.791E-05    2.02     116.9  T
     SCC iter.                  ...        0 min,  0.180 sec
     gradient                   ...        0 min,  0.242 sec
 * total energy  :  -188.2476390 Eh     change       -0.5346218E-05 Eh
   gradient norm :     0.0004560 Eh/α   predicted     0.0000000E+00 (-100.00%)
   displ. norm   :     0.0167659 α      lambda       -0.1562745E-05
   maximum displ.:     0.0089979 α      in ANC's #1, #4, #3, ...

........................................................................
.............................. CYCLE  122 ..............................
........................................................................

 iter      E             dE          RMSdq      gap      omega  full diag
   1   -191.2103305 -0.191210E+03  0.248E-03    2.02       0.0  T
   2   -191.2103305 -0.561135E-08  0.147E-03    2.02       6.3  T
   3   -191.2103305  0.469078E-08  0.235E-04    2.02      39.3  T
   4   -191.2103305 -0.537702E-08  0.857E-05    2.02     107.9  T
   5   -191.2103305 -0.646423E-09  0.318E-05    2.02     290.6  T
     SCC iter.                  ...        0 min,  0.148 sec
     gradient                   ...        0 min,  0.337 sec
 * total energy  :  -188.2476412 Eh     change       -0.2260980E-05 Eh
   gradient norm :     0.0003398 Eh/α   predicted    -0.8611269E-06 ( -61.91%)
   displ. norm   :     0.0774812 α      lambda       -0.6361428E-05
   maximum displ.:     0.0386650 α      in ANC's #1, #4, #3, ...

........................................................................
.............................. CYCLE  123 ..............................
........................................................................

 iter      E             dE          RMSdq      gap      omega  full diag
   1   -191.2103153 -0.191210E+03  0.107E-02    2.02       0.0  T
   2   -191.2103155 -0.144229E-06  0.637E-03    2.01       1.5  T
   3   -191.2103153  0.148386E-06  0.127E-03    2.01       7.3  T
   4   -191.2103155 -0.159991E-06  0.444E-04    2.01      20.8  T
   5   -191.2103155 -0.199386E-07  0.159E-04    2.01      58.0  T
   6   -191.2103155 -0.132195E-08  0.920E-05    2.01     100.5  T
     SCC iter.                  ...        0 min,  0.230 sec
     gradient                   ...        0 min,  0.282 sec
 * total energy  :  -188.2476478 Eh     change       -0.6539293E-05 Eh
   gradient norm :     0.0004909 Eh/α   predicted    -0.3190443E-05 ( -51.21%)
   displ. norm   :     0.0652517 α      lambda       -0.3194936E-05
   maximum displ.:     0.0352344 α      in ANC's #1, #4, #3, ...

........................................................................
.............................. CYCLE  124 ..............................
........................................................................

 iter      E             dE          RMSdq      gap      omega  full diag
   1   -191.2103082 -0.191210E+03  0.843E-03    2.01       0.0  T
   2   -191.2103083 -0.145366E-06  0.508E-03    2.01       1.8  T
   3   -191.2103082  0.101922E-06  0.107E-03    2.01       8.6  T
   4   -191.2103083 -0.102566E-06  0.459E-04    2.01      20.1  T
   5   -191.2103083 -0.245287E-07  0.142E-04    2.01      65.1  T
   6   -191.2103083 -0.895426E-09  0.798E-05    2.01     115.9  T
     SCC iter.                  ...        0 min,  0.200 sec
     gradient                   ...        0 min,  0.300 sec
 * total energy  :  -188.2476514 Eh     change       -0.3671286E-05 Eh
   gradient norm :     0.0004952 Eh/α   predicted    -0.1601098E-05 ( -56.39%)
   displ. norm   :     0.0791764 α      lambda       -0.3719030E-05
   maximum displ.:     0.0439069 α      in ANC's #1, #4, #3, ...

........................................................................
.............................. CYCLE  125 ..............................
........................................................................

 iter      E             dE          RMSdq      gap      omega  full diag
   1   -191.2102466 -0.191210E+03  0.984E-03    2.01       0.0  T
   2   -191.2102469 -0.287976E-06  0.599E-03    2.01       1.5  T
   3   -191.2102468  0.149080E-06  0.136E-03    2.01       6.8  T
   4   -191.2102469 -0.145624E-06  0.611E-04    2.01      15.1  T
   5   -191.2102469 -0.481911E-07  0.190E-04    2.01      48.6  T
   6   -191.2102470 -0.166591E-08  0.999E-05    2.01      92.5  T
     SCC iter.                  ...        0 min,  0.211 sec
     gradient                   ...        0 min,  0.343 sec
 * total energy  :  -188.2476562 Eh     change       -0.4760523E-05 Eh
   gradient norm :     0.0005153 Eh/α   predicted    -0.1866030E-05 ( -60.80%)
   displ. norm   :     0.1451839 α      lambda       -0.7217258E-05
   maximum displ.:     0.0815680 α      in ANC's #1, #3, #4, ...

........................................................................
.............................. CYCLE  126 ..............................
........................................................................

 iter      E             dE          RMSdq      gap      omega  full diag
   1   -191.2100382 -0.191210E+03  0.180E-02    2.00       0.0  T
   2   -191.2100395 -0.128220E-05  0.111E-02    2.00       1.0  T
   3   -191.2100389  0.626490E-06  0.288E-03    2.00       3.2  T
   4   -191.2100395 -0.609836E-06  0.129E-03    2.00       7.2  T
   5   -191.2100397 -0.217235E-06  0.395E-04    2.00      23.4  T
   6   -191.2100397 -0.751692E-08  0.207E-04    2.00      44.6  T
   7   -191.2100397 -0.239424E-08  0.872E-05    2.00     106.0  T
   8   -191.2100397 -0.172719E-09  0.390E-05    2.00     237.2  T
     SCC iter.                  ...        0 min,  0.232 sec
     gradient                   ...        0 min,  0.305 sec
 * total energy  :  -188.2476648 Eh     change       -0.8591325E-05 Eh
   gradient norm :     0.0007181 Eh/α   predicted    -0.3647630E-05 ( -57.54%)
   displ. norm   :     0.2056554 α      lambda       -0.9208029E-05
   maximum displ.:     0.1182520 α      in ANC's #1, #3, #7, ...

........................................................................
.............................. CYCLE  127 ..............................
........................................................................

 iter      E             dE          RMSdq      gap      omega  full diag
   1   -191.2096704 -0.191210E+03  0.253E-02    1.99       0.0  T
   2   -191.2096737 -0.329552E-05  0.158E-02    1.99       1.0  T
   3   -191.2096724  0.123676E-05  0.440E-03    1.99       2.1  T
   4   -191.2096736 -0.119100E-05  0.198E-03    1.99       4.7  T
   5   -191.2096742 -0.530677E-06  0.634E-04    1.99      14.6  T
   6   -191.2096742 -0.199585E-07  0.330E-04    1.99      28.0  T
   7   -191.2096742 -0.660020E-08  0.142E-04    1.99      64.9  T
   8   -191.2096742 -0.474273E-09  0.671E-05    1.99     137.7  T
     SCC iter.                  ...        0 min,  0.230 sec
     gradient                   ...        0 min,  0.265 sec
 * total energy  :  -188.2476747 Eh     change       -0.9941874E-05 Eh
   gradient norm :     0.0011791 Eh/α   predicted    -0.4691217E-05 ( -52.81%)
   displ. norm   :     0.2223964 α      lambda       -0.8788966E-05
   maximum displ.:     0.1323112 α      in ANC's #1, #3, #7, ...

........................................................................
.............................. CYCLE  128 ..............................
........................................................................

 iter      E             dE          RMSdq      gap      omega  full diag
   1   -191.2092856 -0.191209E+03  0.272E-02    1.98       0.0  T
   2   -191.2092910 -0.538298E-05  0.174E-02    1.97       1.0  T
   3   -191.2092897  0.120795E-05  0.529E-03    1.97       1.7  T
   4   -191.2092910 -0.121466E-05  0.231E-03    1.97       4.0  T
   5   -191.2092917 -0.711376E-06  0.787E-04    1.97      11.8  T
   6   -191.2092917 -0.297718E-07  0.412E-04    1.97      22.5  T
   7   -191.2092917 -0.107825E-07  0.183E-04    1.97      50.5  T
   8   -191.2092917 -0.836877E-09  0.844E-05    1.97     109.5  T
     SCC iter.                  ...        0 min,  0.237 sec
     gradient                   ...        0 min,  0.310 sec
 * total energy  :  -188.2476860 Eh     change       -0.1125694E-04 Eh
   gradient norm :     0.0017092 Eh/α   predicted    -0.4492400E-05 ( -60.09%)
   displ. norm   :     0.5678553 α      lambda       -0.2448323E-04
   maximum displ.:     0.3453466 α      in ANC's #1, #3, #7, ...

........................................................................
.............................. CYCLE  129 ..............................
........................................................................

 iter      E             dE          RMSdq      gap      omega  full diag
   1   -191.2077559 -0.191208E+03  0.703E-02    1.95       0.0  T
   2   -191.2078037 -0.478295E-04  0.458E-02    1.93       1.0  T
   3   -191.2077970  0.666795E-05  0.154E-02    1.92       1.0  T
   4   -191.2078041 -0.709606E-05  0.648E-03    1.92       1.4  T
   5   -191.2078096 -0.553279E-05  0.227E-03    1.92       4.1  T
   6   -191.2078099 -0.244476E-06  0.114E-03    1.92       8.1  T
   7   -191.2078100 -0.809134E-07  0.526E-04    1.92      17.6  T
   8   -191.2078100 -0.747190E-08  0.228E-04    1.92      40.6  T
   9   -191.2078100 -0.184826E-08  0.107E-04    1.92      86.8  T
  10   -191.2078100 -0.518099E-09  0.501E-05    1.92     184.5  T
     SCC iter.                  ...        0 min,  0.263 sec
     gradient                   ...        0 min,  0.279 sec
 * total energy  :  -188.2477307 Eh     change       -0.4472756E-04 Eh
   gradient norm :     0.0040719 Eh/α   predicted    -0.1400937E-04 ( -68.68%)
   displ. norm   :     0.4592292 α      lambda       -0.5415337E-04
   maximum displ.:     0.2806780 α      in ANC's #1, #3, #7, ...

........................................................................
.............................. CYCLE  130 ..............................
........................................................................

 iter      E             dE          RMSdq      gap      omega  full diag
   1   -191.2061757 -0.191206E+03  0.576E-02    1.91       0.0  T
   2   -191.2062135 -0.377978E-04  0.380E-02    1.88       1.0  T
   3   -191.2062094  0.412164E-05  0.137E-02    1.88       1.0  T
   4   -191.2062140 -0.458978E-05  0.565E-03    1.88       1.6  T
   5   -191.2062182 -0.414437E-05  0.198E-03    1.88       4.7  T
   6   -191.2062183 -0.181073E-06  0.992E-04    1.88       9.3  T
   7   -191.2062184 -0.611040E-07  0.456E-04    1.88      20.3  T
   8   -191.2062184 -0.560996E-08  0.196E-04    1.88      47.2  T
   9   -191.2062184 -0.135950E-08  0.871E-05    1.88     106.1  T
     SCC iter.                  ...        0 min,  0.235 sec
     gradient                   ...        0 min,  0.315 sec
 * total energy  :  -188.2477998 Eh     change       -0.6908755E-04 Eh
   gradient norm :     0.0066217 Eh/α   predicted    -0.3278978E-04 ( -52.54%)
   displ. norm   :     0.5235360 α      lambda       -0.1105925E-03
   maximum displ.:     0.3215924 α      in ANC's #1, #3, #7, ...

........................................................................
.............................. CYCLE  131 ..............................
........................................................................

 iter      E             dE          RMSdq      gap      omega  full diag
   1   -191.2042465 -0.191204E+03  0.665E-02    1.86       0.0  T
   2   -191.2043035 -0.570242E-04  0.442E-02    1.83       1.0  T
   3   -191.2042985  0.505611E-05  0.168E-02    1.82       1.0  T
   4   -191.2043044 -0.593095E-05  0.685E-03    1.82       1.3  T
   5   -191.2043104 -0.603718E-05  0.241E-03    1.82       3.8  T
   6   -191.2043107 -0.265724E-06  0.121E-03    1.82       7.6  T
   7   -191.2043108 -0.921159E-07  0.555E-04    1.82      16.7  T
   8   -191.2043108 -0.817957E-08  0.242E-04    1.82      38.2  T
   9   -191.2043108 -0.203110E-08  0.111E-04    1.82      83.5  T
  10   -191.2043108 -0.551637E-09  0.531E-05    1.82     174.1  T
     SCC iter.                  ...        0 min,  0.297 sec
     gradient                   ...        0 min,  0.297 sec
 * total energy  :  -188.2479356 Eh     change       -0.1358221E-03 Eh
   gradient norm :     0.0099068 Eh/α   predicted    -0.7045953E-04 ( -48.12%)
   displ. norm   :     0.5301005 α      lambda       -0.1968971E-03
   maximum displ.:     0.3286214 α      in ANC's #1, #3, #7, ...

........................................................................
.............................. CYCLE  132 ..............................
........................................................................

 iter      E             dE          RMSdq      gap      omega  full diag
   1   -191.2027065 -0.191203E+03  0.684E-02    1.80       0.0  T
   2   -191.2027752 -0.686475E-04  0.460E-02    1.77       1.0  T
   3   -191.2027705  0.466438E-05  0.184E-02    1.77       1.0  T
   4   -191.2027765 -0.596986E-05  0.745E-03    1.76       1.2  T
   5   -191.2027835 -0.702355E-05  0.264E-03    1.76       3.5  T
   6   -191.2027838 -0.306180E-06  0.133E-03    1.76       6.9  T
   7   -191.2027839 -0.112882E-06  0.609E-04    1.76      15.2  T
   8   -191.2027840 -0.972804E-08  0.272E-04    1.76      34.0  T
   9   -191.2027840 -0.265442E-08  0.130E-04    1.76      71.1  T
  10   -191.2027840 -0.861519E-09  0.643E-05    1.76     143.8  T
     SCC iter.                  ...        0 min,  0.316 sec
     gradient                   ...        0 min,  0.278 sec
 * total energy  :  -188.2481622 Eh     change       -0.2266157E-03 Eh
   gradient norm :     0.0132527 Eh/α   predicted    -0.1261180E-03 ( -44.35%)
   displ. norm   :     0.4882515 α      lambda       -0.2915952E-03
   maximum displ.:     0.3064546 α      in ANC's #1, #3, #7, ...

........................................................................
.............................. CYCLE  133 ..............................
........................................................................

 iter      E             dE          RMSdq      gap      omega  full diag
   1   -191.2021435 -0.191202E+03  0.641E-02    1.75       0.0  T
   2   -191.2022106 -0.670815E-04  0.435E-02    1.71       1.0  T
   3   -191.2022071  0.348942E-05  0.181E-02    1.71       1.0  T
   4   -191.2022121 -0.501135E-05  0.734E-03    1.70       1.3  T
   5   -191.2022188 -0.667809E-05  0.261E-03    1.71       3.5  T
   6   -191.2022191 -0.288626E-06  0.133E-03    1.71       7.0  T
   7   -191.2022192 -0.113859E-06  0.608E-04    1.71      15.2  T
   8   -191.2022192 -0.976331E-08  0.278E-04    1.71      33.2  T
   9   -191.2022192 -0.302333E-08  0.135E-04    1.71      68.4  T
  10   -191.2022192 -0.100212E-08  0.661E-05    1.71     140.0  T
     SCC iter.                  ...        0 min,  0.313 sec
     gradient                   ...        0 min,  0.268 sec
 * total energy  :  -188.2484745 Eh     change       -0.3123042E-03 Eh
   gradient norm :     0.0158291 Eh/α   predicted    -0.1805607E-03 ( -42.18%)
   displ. norm   :     0.4119118 α      lambda       -0.3536473E-03
   maximum displ.:     0.2627514 α      in ANC's #1, #3, #7, ...

........................................................................
.............................. CYCLE  134 ..............................
........................................................................

 iter      E             dE          RMSdq      gap      omega  full diag
   1   -191.2027708 -0.191203E+03  0.551E-02    1.69       0.0  T
   2   -191.2028241 -0.533361E-04  0.377E-02    1.66       1.0  T
   3   -191.2028219  0.225132E-05  0.160E-02    1.65       1.0  T
   4   -191.2028255 -0.366179E-05  0.654E-03    1.65       1.4  T
   5   -191.2028307 -0.518748E-05  0.235E-03    1.65       3.9  T
   6   -191.2028309 -0.221266E-06  0.121E-03    1.65       7.6  T
   7   -191.2028310 -0.951811E-07  0.554E-04    1.65      16.7  T
   8   -191.2028310 -0.834126E-08  0.259E-04    1.65      35.7  T
   9   -191.2028310 -0.293136E-08  0.125E-04    1.65      73.8  T
  10   -191.2028310 -0.855039E-09  0.602E-05    1.65     153.7  T
     SCC iter.                  ...        0 min,  0.264 sec
     gradient                   ...        0 min,  0.288 sec
 * total energy  :  -188.2488328 Eh     change       -0.3582256E-03 Eh
   gradient norm :     0.0171325 Eh/α   predicted    -0.2068311E-03 ( -42.26%)
   displ. norm   :     0.3086813 α      lambda       -0.3641515E-03
   maximum displ.:     0.2011299 α      in ANC's #1, #3, #7, ...

........................................................................
.............................. CYCLE  135 ..............................
........................................................................

 iter      E             dE          RMSdq      gap      omega  full diag
   1   -191.2044866 -0.191204E+03  0.425E-02    1.64       0.0  T
   2   -191.2045200 -0.334083E-04  0.292E-02    1.61       1.0  T
   3   -191.2045188  0.120233E-05  0.125E-02    1.61       1.0  T
   4   -191.2045210 -0.218855E-05  0.520E-03    1.61       1.8  T
   5   -191.2045241 -0.319407E-05  0.189E-03    1.61       4.9  T
   6   -191.2045243 -0.134602E-06  0.990E-04    1.61       9.3  T
   7   -191.2045243 -0.659435E-07  0.455E-04    1.61      20.3  T
   8   -191.2045244 -0.596896E-08  0.217E-04    1.61      42.7  T
   9   -191.2045244 -0.226632E-08  0.102E-04    1.61      90.6  T
  10   -191.2045244 -0.515570E-09  0.483E-05    1.61     191.2  T
     SCC iter.                  ...        0 min,  0.315 sec
     gradient                   ...        0 min,  0.286 sec
 * total energy  :  -188.2491906 Eh     change       -0.3578179E-03 Eh
   gradient norm :     0.0171656 Eh/α   predicted    -0.1994295E-03 ( -44.27%)
   displ. norm   :     0.6908213 α      lambda       -0.4715987E-02
   maximum displ.:     0.2811963 α      in ANC's #1, #29, #33, ...

........................................................................
.............................. CYCLE  136 ..............................
........................................................................

 iter      E             dE          RMSdq      gap      omega  full diag
   1   -191.2871347 -0.191287E+03  0.227E-01    1.51       0.0  T
   2   -191.2879055 -0.770876E-03  0.149E-01    1.37       1.0  T
   3   -191.2878116  0.939149E-04  0.609E-02    1.37       1.0  T
   4   -191.2879158 -0.104175E-03  0.303E-02    1.35       1.0  T
   5   -191.2880149 -0.991617E-04  0.111E-02    1.36       1.0  T
   6   -191.2880217 -0.673785E-05  0.577E-03    1.36       1.6  T
   7   -191.2880241 -0.238542E-05  0.265E-03    1.36       3.5  T
   8   -191.2880243 -0.205355E-06  0.125E-03    1.36       7.4  T
   9   -191.2880244 -0.751424E-07  0.562E-04    1.36      16.4  T
  10   -191.2880244 -0.961293E-08  0.259E-04    1.36      35.7  T
  11   -191.2880244 -0.399609E-08  0.112E-04    1.36      82.7  T
  12   -191.2880244 -0.313662E-09  0.540E-05    1.36     171.2  T
     SCC iter.                  ...        0 min,  0.360 sec
     gradient                   ...        0 min,  0.323 sec
 * total energy  :  -188.2493602 Eh     change       -0.1696748E-03 Eh
   gradient norm :     0.0390667 Eh/α   predicted    -0.3483416E-02 (1953.00%)
   displ. norm   :     0.2276835 α      lambda       -0.3379944E-02
   maximum displ.:     0.0611775 α      in ANC's #18, #7, #175, ...

........................................................................
.............................. CYCLE  137 ..............................
........................................................................

 iter      E             dE          RMSdq      gap      omega  full diag
   1   -191.2395405 -0.191240E+03  0.727E-02    1.37       0.0  T
   2   -191.2395565 -0.160409E-04  0.435E-02    1.39       1.0  T
   3   -191.2395312  0.252679E-04  0.165E-02    1.38       1.0  T
   4   -191.2395609 -0.296507E-04  0.416E-03    1.39       2.2  T
   5   -191.2395623 -0.143348E-05  0.214E-03    1.39       4.3  T
   6   -191.2395627 -0.343812E-06  0.956E-04    1.39       9.7  T
   7   -191.2395627 -0.347205E-07  0.509E-04    1.39      18.2  T
   8   -191.2395627 -0.137875E-07  0.216E-04    1.39      42.8  T
   9   -191.2395627 -0.179330E-08  0.105E-04    1.39      88.4  T
  10   -191.2395627 -0.356920E-09  0.498E-05    1.39     185.7  T
     SCC iter.                  ...        0 min,  0.289 sec
     gradient                   ...        0 min,  0.275 sec
 * total energy  :  -188.2514514 Eh     change       -0.2091166E-02 Eh
   gradient norm :     0.0124279 Eh/α   predicted    -0.1777534E-02 ( -15.00%)
   displ. norm   :     0.1461426 α      lambda       -0.6518169E-03
   maximum displ.:     0.0464480 α      in ANC's #27, #29, #33, ...

........................................................................
.............................. CYCLE  138 ..............................
........................................................................

 iter      E             dE          RMSdq      gap      omega  full diag
   1   -191.2226605 -0.191223E+03  0.326E-02    1.37       0.0  T
   2   -191.2226663 -0.579756E-05  0.197E-02    1.37       1.0  T
   3   -191.2226629  0.341012E-05  0.696E-03    1.36       1.3  T
   4   -191.2226670 -0.414007E-05  0.222E-03    1.36       4.2  T
   5   -191.2226674 -0.417378E-06  0.112E-03    1.36       8.3  T
   6   -191.2226675 -0.854431E-07  0.476E-04    1.36      19.4  T
   7   -191.2226675 -0.126799E-07  0.221E-04    1.36      41.8  T
   8   -191.2226675 -0.158585E-08  0.116E-04    1.36      79.6  T
   9   -191.2226675 -0.825025E-09  0.487E-05    1.36     189.9  T
     SCC iter.                  ...        0 min,  0.351 sec
     gradient                   ...        0 min,  0.314 sec
 * total energy  :  -188.2519231 Eh     change       -0.4717346E-03 Eh
   gradient norm :     0.0044923 Eh/α   predicted    -0.3328808E-03 ( -29.43%)
   displ. norm   :     0.4693166 α      lambda       -0.5700734E-03
   maximum displ.:     0.1933671 α      in ANC's #1, #5, #8, ...

........................................................................
.............................. CYCLE  139 ..............................
........................................................................

 iter      E             dE          RMSdq      gap      omega  full diag
   1   -191.2094156 -0.191209E+03  0.638E-02    1.35       0.0  T
   2   -191.2094191 -0.353141E-05  0.373E-02    1.35       1.0  T
   3   -191.2094057  0.133956E-04  0.100E-02    1.35       1.0  T
   4   -191.2094209 -0.151597E-04  0.199E-03    1.35       4.6  T
   5   -191.2094211 -0.255878E-06  0.111E-03    1.35       8.3  T
   6   -191.2094212 -0.713303E-07  0.445E-04    1.35      20.8  T
   7   -191.2094212 -0.978670E-08  0.200E-04    1.35      46.3  T
   8   -191.2094212 -0.235653E-08  0.986E-05    1.35      93.7  T
     SCC iter.                  ...        0 min,  0.312 sec
     gradient                   ...        0 min,  0.320 sec
 * total energy  :  -188.2522936 Eh     change       -0.3704932E-03 Eh
   gradient norm :     0.0068849 Eh/α   predicted    -0.3478331E-03 (  -6.12%)
   displ. norm   :     0.3873647 α      lambda       -0.5425276E-03
   maximum displ.:     0.1311142 α      in ANC's #8, #29, #27, ...

........................................................................
.............................. CYCLE  140 ..............................
........................................................................

 iter      E             dE          RMSdq      gap      omega  full diag
   1   -191.2073451 -0.191207E+03  0.816E-02    1.30       0.0  T
   2   -191.2074002 -0.551568E-04  0.496E-02    1.27       1.0  T
   3   -191.2073855  0.147182E-04  0.171E-02    1.26       1.0  T
   4   -191.2074010 -0.155279E-04  0.790E-03    1.26       1.2  T
   5   -191.2074078 -0.679629E-05  0.369E-03    1.26       2.5  T
   6   -191.2074089 -0.106543E-05  0.153E-03    1.26       6.0  T
   7   -191.2074090 -0.126897E-06  0.704E-04    1.26      13.1  T
   8   -191.2074090 -0.109942E-07  0.337E-04    1.26      27.4  T
   9   -191.2074090 -0.566831E-08  0.154E-04    1.26      60.1  T
  10   -191.2074090 -0.662737E-09  0.691E-05    1.26     133.8  T
     SCC iter.                  ...        0 min,  0.400 sec
     gradient                   ...        0 min,  0.267 sec
 * total energy  :  -188.2523270 Eh     change       -0.3333902E-04 Eh
   gradient norm :     0.0132322 Eh/α   predicted    -0.3119868E-03 ( 835.80%)
   displ. norm   :     0.3238902 α      lambda       -0.5833028E-03
   maximum displ.:     0.1920785 α      in ANC's #1, #3, #7, ...

........................................................................
.............................. CYCLE  141 ..............................
........................................................................

 iter      E             dE          RMSdq      gap      omega  full diag
   1   -191.2110107 -0.191211E+03  0.443E-02    1.28       0.0  T
   2   -191.2110221 -0.113897E-04  0.272E-02    1.29       1.0  T
   3   -191.2110174  0.468298E-05  0.822E-03    1.30       1.1  T
   4   -191.2110229 -0.552401E-05  0.306E-03    1.30       3.0  T
   5   -191.2110239 -0.103136E-05  0.122E-03    1.30       7.6  T
   6   -191.2110240 -0.581813E-07  0.615E-04    1.30      15.0  T
   7   -191.2110240 -0.190729E-07  0.328E-04    1.30      28.2  T
   8   -191.2110240 -0.374141E-08  0.153E-04    1.30      60.3  T
   9   -191.2110240 -0.165360E-08  0.656E-05    1.30     141.0  T
     SCC iter.                  ...        0 min,  0.252 sec
     gradient                   ...        0 min,  0.317 sec
 * total energy  :  -188.2526672 Eh     change       -0.3402444E-03 Eh
   gradient norm :     0.0045677 Eh/α   predicted    -0.3222284E-03 (  -5.30%)
   displ. norm   :     0.3531077 α      lambda       -0.1758813E-03
   maximum displ.:     0.1641453 α      in ANC's #1, #8, #4, ...

........................................................................
.............................. CYCLE  142 ..............................
........................................................................

 iter      E             dE          RMSdq      gap      omega  full diag
   1   -191.2145643 -0.191215E+03  0.458E-02    1.29       0.0  T
   2   -191.2145652 -0.929124E-06  0.269E-02    1.29       1.0  T
   3   -191.2145603  0.491173E-05  0.589E-03    1.29       1.6  T
   4   -191.2145658 -0.550575E-05  0.973E-04    1.29       9.5  T
   5   -191.2145659 -0.808571E-07  0.547E-04    1.29      16.9  T
   6   -191.2145659 -0.184017E-07  0.265E-04    1.29      34.9  T
   7   -191.2145659 -0.987313E-09  0.103E-04    1.29      90.1  T
   8   -191.2145659 -0.108662E-08  0.359E-05    1.29     257.8  T
     SCC iter.                  ...        0 min,  0.338 sec
     gradient                   ...        0 min,  0.381 sec
 * total energy  :  -188.2528135 Eh     change       -0.1463117E-03 Eh
   gradient norm :     0.0040163 Eh/α   predicted    -0.9890630E-04 ( -32.40%)
   displ. norm   :     0.4735566 α      lambda       -0.2227917E-03
   maximum displ.:     0.2111823 α      in ANC's #1, #8, #4, ...

........................................................................
.............................. CYCLE  143 ..............................
........................................................................

 iter      E             dE          RMSdq      gap      omega  full diag
   1   -191.2202362 -0.191220E+03  0.625E-02    1.29       0.0  T
   2   -191.2202380 -0.180949E-05  0.367E-02    1.29       1.0  T
   3   -191.2202282  0.975352E-05  0.851E-03    1.29       1.1  T
   4   -191.2202391 -0.109067E-04  0.139E-03    1.29       6.6  T
   5   -191.2202393 -0.165508E-06  0.755E-04    1.29      12.2  T
   6   -191.2202393 -0.340393E-07  0.370E-04    1.29      25.0  T
   7   -191.2202393 -0.236065E-08  0.153E-04    1.29      60.2  T
   8   -191.2202393 -0.219831E-08  0.530E-05    1.29     174.4  T
     SCC iter.                  ...        0 min,  0.282 sec
     gradient                   ...        0 min,  0.343 sec
 * total energy  :  -188.2529847 Eh     change       -0.1711339E-03 Eh
   gradient norm :     0.0029141 Eh/α   predicted    -0.1363818E-03 ( -20.31%)
   displ. norm   :     0.5236326 α      lambda       -0.1579931E-03
   maximum displ.:     0.2291290 α      in ANC's #1, #8, #5, ...

........................................................................
.............................. CYCLE  144 ..............................
........................................................................

 iter      E             dE          RMSdq      gap      omega  full diag
   1   -191.2198059 -0.191220E+03  0.672E-02    1.28       0.0  T
   2   -191.2198079 -0.199166E-05  0.395E-02    1.28       1.0  T
   3   -191.2197965  0.114078E-04  0.913E-03    1.27       1.0  T
   4   -191.2198092 -0.127399E-04  0.150E-03    1.28       6.2  T
   5   -191.2198094 -0.188459E-06  0.860E-04    1.28      10.8  T
   6   -191.2198094 -0.478809E-07  0.394E-04    1.28      23.5  T
   7   -191.2198094 -0.246661E-08  0.148E-04    1.28      62.6  T
   8   -191.2198094 -0.207399E-08  0.572E-05    1.28     161.5  T
     SCC iter.                  ...        0 min,  0.299 sec
     gradient                   ...        0 min,  0.251 sec
 * total energy  :  -188.2531058 Eh     change       -0.1211069E-03 Eh
   gradient norm :     0.0024748 Eh/α   predicted    -0.1006580E-03 ( -16.88%)
   displ. norm   :     0.4226236 α      lambda       -0.1031573E-03
   maximum displ.:     0.1823470 α      in ANC's #1, #8, #5, ...

........................................................................
.............................. CYCLE  145 ..............................
........................................................................

 iter      E             dE          RMSdq      gap      omega  full diag
   1   -191.2205141 -0.191221E+03  0.521E-02    1.27       0.0  T
   2   -191.2205154 -0.124200E-05  0.305E-02    1.27       1.0  T
   3   -191.2205084  0.694142E-05  0.724E-03    1.27       1.3  T
   4   -191.2205162 -0.774228E-05  0.119E-03    1.27       7.7  T
   5   -191.2205163 -0.129004E-06  0.637E-04    1.27      14.5  T
   6   -191.2205163 -0.281611E-07  0.304E-04    1.27      30.4  T
   7   -191.2205163 -0.159730E-08  0.121E-04    1.27      76.6  T
   8   -191.2205163 -0.104663E-08  0.497E-05    1.27     185.9  T
     SCC iter.                  ...        0 min,  0.198 sec
     gradient                   ...        0 min,  0.302 sec
 * total energy  :  -188.2531824 Eh     change       -0.7665805E-04 Eh
   gradient norm :     0.0022399 Eh/α   predicted    -0.6079520E-04 ( -20.69%)
   displ. norm   :     0.3333987 α      lambda       -0.6778382E-04
   maximum displ.:     0.1420242 α      in ANC's #1, #8, #7, ...

........................................................................
.............................. CYCLE  146 ..............................
........................................................................

 iter      E             dE          RMSdq      gap      omega  full diag
   1   -191.2198729 -0.191220E+03  0.394E-02    1.27       0.0  T
   2   -191.2198737 -0.801386E-06  0.231E-02    1.27       1.0  T
   3   -191.2198698  0.388067E-05  0.539E-03    1.26       1.7  T
   4   -191.2198741 -0.432670E-05  0.989E-04    1.27       9.3  T
   5   -191.2198742 -0.894708E-07  0.493E-04    1.27      18.7  T
   6   -191.2198742 -0.159114E-07  0.243E-04    1.27      38.1  T
   7   -191.2198742 -0.180924E-08  0.881E-05    1.27     105.0  T
   8   -191.2198742 -0.414161E-09  0.416E-05    1.27     222.5  T
     SCC iter.                  ...        0 min,  0.229 sec
     gradient                   ...        0 min,  0.316 sec
 * total energy  :  -188.2532339 Eh     change       -0.5146555E-04 Eh
   gradient norm :     0.0018007 Eh/α   predicted    -0.3766390E-04 ( -26.82%)
   displ. norm   :     0.3838843 α      lambda       -0.5706640E-04
   maximum displ.:     0.1487600 α      in ANC's #8, #1, #7, ...

........................................................................
.............................. CYCLE  147 ..............................
........................................................................

 iter      E             dE          RMSdq      gap      omega  full diag
   1   -191.2199901 -0.191220E+03  0.486E-02    1.26       0.0  T
   2   -191.2199916 -0.148705E-05  0.284E-02    1.27       1.0  T
   3   -191.2199858  0.583402E-05  0.654E-03    1.26       1.4  T
   4   -191.2199923 -0.653676E-05  0.131E-03    1.27       7.1  T
   5   -191.2199924 -0.129622E-06  0.637E-04    1.26      14.5  T
   6   -191.2199925 -0.197943E-07  0.342E-04    1.26      27.1  T
   7   -191.2199925 -0.697537E-08  0.113E-04    1.26      81.8  T
   8   -191.2199925 -0.698208E-09  0.546E-05    1.26     169.3  T
     SCC iter.                  ...        0 min,  0.207 sec
     gradient                   ...        0 min,  0.260 sec
 * total energy  :  -188.2532829 Eh     change       -0.4898230E-04 Eh
   gradient norm :     0.0020310 Eh/α   predicted    -0.3040387E-04 ( -37.93%)
   displ. norm   :     0.0540009 α      lambda       -0.1942753E-04
   maximum displ.:     0.0241809 α      in ANC's #14, #15, #19, ...

........................................................................
.............................. CYCLE  148 ..............................
........................................................................

 iter      E             dE          RMSdq      gap      omega  full diag
   1   -191.2194957 -0.191219E+03  0.109E-02    1.26       0.0  T
   2   -191.2194958 -0.875637E-07  0.647E-03    1.27       1.4  T
   3   -191.2194954  0.439459E-06  0.185E-03    1.27       5.0  T
   4   -191.2194959 -0.487959E-06  0.313E-04    1.27      29.6  T
   5   -191.2194959 -0.928284E-08  0.120E-04    1.27      77.3  T
   6   -191.2194959 -0.514206E-09  0.623E-05    1.27     148.4  T
     SCC iter.                  ...        0 min,  0.146 sec
     gradient                   ...        0 min,  0.223 sec
 * total energy  :  -188.2532989 Eh     change       -0.1597132E-04 Eh
   gradient norm :     0.0014999 Eh/α   predicted    -0.9745467E-05 ( -38.98%)
   displ. norm   :     0.2143012 α      lambda       -0.3322406E-04
   maximum displ.:     0.0923363 α      in ANC's #14, #15, #4, ...

........................................................................
.............................. CYCLE  149 ..............................
........................................................................

 iter      E             dE          RMSdq      gap      omega  full diag
   1   -191.2200776 -0.191220E+03  0.399E-02    1.26       0.0  T
   2   -191.2200786 -0.975067E-06  0.236E-02    1.27       1.0  T
   3   -191.2200739  0.467300E-05  0.605E-03    1.27       1.5  T
   4   -191.2200790 -0.514448E-05  0.119E-03    1.27       7.8  T
   5   -191.2200792 -0.153280E-06  0.432E-04    1.27      21.4  T
   6   -191.2200792 -0.376653E-08  0.253E-04    1.27      36.5  T
   7   -191.2200792 -0.388761E-08  0.108E-04    1.27      85.7  T
   8   -191.2200792 -0.623771E-09  0.480E-05    1.27     192.4  T
     SCC iter.                  ...        0 min,  0.195 sec
     gradient                   ...        0 min,  0.281 sec
 * total energy  :  -188.2533185 Eh     change       -0.1961457E-04 Eh
   gradient norm :     0.0014982 Eh/α   predicted    -0.1695593E-04 ( -13.55%)
   displ. norm   :     0.0339145 α      lambda       -0.7153200E-05
   maximum displ.:     0.0133310 α      in ANC's #29, #14, #37, ...

........................................................................
.............................. CYCLE  150 ..............................
........................................................................

 iter      E             dE          RMSdq      gap      omega  full diag
   1   -191.2193142 -0.191219E+03  0.926E-03    1.27       0.0  T
   2   -191.2193143 -0.679965E-07  0.541E-03    1.27       1.7  T
   3   -191.2193142  0.146793E-06  0.112E-03    1.26       8.2  T
   4   -191.2193143 -0.162379E-06  0.309E-04    1.26      30.0  T
   5   -191.2193143 -0.817820E-08  0.132E-04    1.26      69.8  T
   6   -191.2193143 -0.393243E-09  0.718E-05    1.26     128.7  T
     SCC iter.                  ...        0 min,  0.163 sec
     gradient                   ...        0 min,  0.282 sec
 * total energy  :  -188.2533267 Eh     change       -0.8202879E-05 Eh
   gradient norm :     0.0008640 Eh/α   predicted    -0.3579715E-05 ( -56.36%)
   displ. norm   :     0.0735767 α      lambda       -0.1000676E-04
   maximum displ.:     0.0250669 α      in ANC's #9, #8, #15, ...
 * RMSD in coord.:     0.2134759 α      energy gain  -0.5693068E-02 Eh

generating ANC from exact Hessian ...
Using Lindh-Hessian (1995)
 Shifting diagonal of input Hessian by    1.0110532148836024E-002
 Lowest  eigenvalues of input Hessian
    0.010000    0.000000    0.000000    0.000000    0.000000    0.000000
    0.000000    0.010154    0.010185    0.010288    0.010352    0.010394
    0.010534    0.010697    0.010796    0.010961    0.010975    0.011132
 Highest eigenvalues
    2.146440    2.257247    2.330227    2.333573    2.413039    3.060727


........................................................................
.............................. CYCLE  151 ..............................
........................................................................

 iter      E             dE          RMSdq      gap      omega  full diag
   1   -191.2196200 -0.191220E+03  0.159E-02    1.26       0.0  T
   2   -191.2196201 -0.154709E-06  0.931E-03    1.26       1.0  T
   3   -191.2196197  0.458914E-06  0.196E-03    1.26       4.7  T
   4   -191.2196202 -0.513486E-06  0.470E-04    1.26      19.7  T
   5   -191.2196202 -0.170846E-07  0.229E-04    1.26      40.4  T
   6   -191.2196202 -0.170590E-08  0.119E-04    1.26      77.4  T
   7   -191.2196202 -0.859131E-09  0.456E-05    1.26     202.6  T
     SCC iter.                  ...        0 min,  0.198 sec
     gradient                   ...        0 min,  0.258 sec
 * total energy  :  -188.2533360 Eh     change       -0.9369712E-05 Eh
   gradient norm :     0.0007239 Eh/α   predicted     0.0000000E+00 (-100.00%)
   displ. norm   :     0.0145115 α      lambda       -0.5346096E-06
   maximum displ.:     0.0067525 α      in ANC's #4, #9, #15, ...

........................................................................
.............................. CYCLE  152 ..............................
........................................................................

 iter      E             dE          RMSdq      gap      omega  full diag
   1   -191.2196560 -0.191220E+03  0.253E-03    1.26       0.0  T
   2   -191.2196560 -0.100095E-07  0.150E-03    1.26       6.1  T
   3   -191.2196560  0.412093E-07  0.596E-04    1.26      15.5  T
   4   -191.2196561 -0.470929E-07  0.121E-04    1.26      76.4  T
   5   -191.2196561 -0.126425E-08  0.463E-05    1.26     199.6  T
     SCC iter.                  ...        0 min,  0.130 sec
     gradient                   ...        0 min,  0.283 sec
 * total energy  :  -188.2533380 Eh     change       -0.1989098E-05 Eh
   gradient norm :     0.0003313 Eh/α   predicted    -0.8390936E-06 ( -57.82%)
   displ. norm   :     0.0506145 α      lambda       -0.3801946E-05
   maximum displ.:     0.0233641 α      in ANC's #4, #9, #15, ...

........................................................................
.............................. CYCLE  153 ..............................
........................................................................

 iter      E             dE          RMSdq      gap      omega  full diag
   1   -191.2196265 -0.191220E+03  0.749E-03    1.26       0.0  T
   2   -191.2196266 -0.760547E-07  0.444E-03    1.26       2.1  T
   3   -191.2196262  0.366895E-06  0.171E-03    1.26       5.4  T
   4   -191.2196267 -0.418508E-06  0.319E-04    1.26      29.0  T
   5   -191.2196267 -0.788228E-08  0.127E-04    1.26      72.5  T
   6   -191.2196267 -0.352458E-09  0.685E-05    1.26     135.0  T
     SCC iter.                  ...        0 min,  0.149 sec
     gradient                   ...        0 min,  0.240 sec
 * total energy  :  -188.2533419 Eh     change       -0.3863664E-05 Eh
   gradient norm :     0.0007857 Eh/α   predicted    -0.1903291E-05 ( -50.74%)
   displ. norm   :     0.0506145 α      lambda        0.0000000E+00
   maximum displ.:     0.0233641 α      in ANC's #4, #9, #15, ...

........................................................................
.............................. CYCLE  154 ..............................
........................................................................

 iter      E             dE          RMSdq      gap      omega  full diag
   1   -191.2195705 -0.191220E+03  0.749E-03    1.26       0.0  T
   2   -191.2195705 -0.766279E-07  0.444E-03    1.26       2.1  T
   3   -191.2195702  0.372146E-06  0.173E-03    1.26       5.4  T
   4   -191.2195706 -0.424372E-06  0.322E-04    1.26      28.7  T
   5   -191.2195706 -0.793818E-08  0.128E-04    1.26      72.0  T
   6   -191.2195706 -0.350610E-09  0.690E-05    1.26     134.0  T
     SCC iter.                  ...        0 min,  0.181 sec
     gradient                   ...        0 min,  0.244 sec
 * total energy  :  -188.2533421 Eh     change       -0.1840122E-06 Eh
   gradient norm :     0.0017558 Eh/α   predicted     0.1050746E-08 (-100.57%)
   displ. norm   :     0.0203317 α      lambda       -0.3216536E-05
   maximum displ.:     0.0095597 α      in ANC's #4, #9, #3, ...

........................................................................
.............................. CYCLE  155 ..............................
........................................................................

 iter      E             dE          RMSdq      gap      omega  full diag
   1   -191.2195299 -0.191220E+03  0.326E-03    1.26       0.0  T
   2   -191.2195299 -0.130345E-07  0.194E-03    1.26       4.8  T
   3   -191.2195299  0.361662E-07  0.569E-04    1.26      16.3  T
   4   -191.2195299 -0.407242E-07  0.122E-04    1.26      75.5  T
   5   -191.2195299 -0.162200E-08  0.464E-05    1.26     199.4  T
     SCC iter.                  ...        0 min,  0.132 sec
     gradient                   ...        0 min,  0.254 sec
 * total energy  :  -188.2533456 Eh     change       -0.3563728E-05 Eh
   gradient norm :     0.0012096 Eh/α   predicted    -0.1609638E-05 ( -54.83%)
   displ. norm   :     0.0568353 α      lambda       -0.4861237E-05
   maximum displ.:     0.0274016 α      in ANC's #4, #9, #3, ...

........................................................................
.............................. CYCLE  156 ..............................
........................................................................

 iter      E             dE          RMSdq      gap      omega  full diag
   1   -191.2195553 -0.191220E+03  0.765E-03    1.26       0.0  T
   2   -191.2195554 -0.697435E-07  0.456E-03    1.26       2.0  T
   3   -191.2195551  0.269838E-06  0.151E-03    1.26       6.1  T
   4   -191.2195554 -0.310748E-06  0.248E-04    1.26      37.3  T
   5   -191.2195554 -0.595170E-08  0.960E-05    1.26      96.3  T
   6   -191.2195554 -0.245393E-09  0.566E-05    1.26     163.2  T
     SCC iter.                  ...        0 min,  0.166 sec
     gradient                   ...        0 min,  0.272 sec
 * total energy  :  -188.2533508 Eh     change       -0.5181946E-05 Eh
   gradient norm :     0.0005346 Eh/α   predicted    -0.2435501E-05 ( -53.00%)
   displ. norm   :     0.0990535 α      lambda       -0.4058531E-05
   maximum displ.:     0.0478303 α      in ANC's #4, #9, #3, ...

........................................................................
.............................. CYCLE  157 ..............................
........................................................................

 iter      E             dE          RMSdq      gap      omega  full diag
   1   -191.2194712 -0.191219E+03  0.123E-02    1.26       0.0  T
   2   -191.2194713 -0.102509E-06  0.730E-03    1.26       1.3  T
   3   -191.2194707  0.604603E-06  0.215E-03    1.26       4.3  T
   4   -191.2194714 -0.685988E-06  0.301E-04    1.26      30.7  T
   5   -191.2194714 -0.687078E-08  0.142E-04    1.26      65.3  T
   6   -191.2194714 -0.377213E-09  0.783E-05    1.26     118.1  T
     SCC iter.                  ...        0 min,  0.194 sec
     gradient                   ...        0 min,  0.303 sec
 * total energy  :  -188.2533554 Eh     change       -0.4555268E-05 Eh
   gradient norm :     0.0007219 Eh/α   predicted    -0.2039733E-05 ( -55.22%)
   displ. norm   :     0.1207105 α      lambda       -0.3836139E-05
   maximum displ.:     0.0584790 α      in ANC's #4, #9, #3, ...

........................................................................
.............................. CYCLE  158 ..............................
........................................................................

 iter      E             dE          RMSdq      gap      omega  full diag
   1   -191.2194037 -0.191219E+03  0.147E-02    1.25       0.0  T
   2   -191.2194039 -0.136153E-06  0.869E-03    1.25       1.1  T
   3   -191.2194030  0.904046E-06  0.258E-03    1.25       3.6  T
   4   -191.2194040 -0.102090E-05  0.339E-04    1.25      27.3  T
   5   -191.2194040 -0.806182E-08  0.167E-04    1.25      55.2  T
   6   -191.2194040 -0.724839E-09  0.883E-05    1.25     104.7  T
     SCC iter.                  ...        0 min,  0.203 sec
     gradient                   ...        0 min,  0.328 sec
 * total energy  :  -188.2533595 Eh     change       -0.4128473E-05 Eh
   gradient norm :     0.0006747 Eh/α   predicted    -0.1934457E-05 ( -53.14%)
   displ. norm   :     0.1108857 α      lambda       -0.3023250E-05
   maximum displ.:     0.0542556 α      in ANC's #4, #9, #2, ...

........................................................................
.............................. CYCLE  159 ..............................
........................................................................

 iter      E             dE          RMSdq      gap      omega  full diag
   1   -191.2194395 -0.191219E+03  0.129E-02    1.25       0.0  T
   2   -191.2194396 -0.934127E-07  0.764E-03    1.25       1.2  T
   3   -191.2194390  0.641723E-06  0.213E-03    1.25       4.3  T
   4   -191.2194397 -0.723259E-06  0.284E-04    1.25      32.6  T
   5   -191.2194397 -0.539183E-08  0.154E-04    1.25      60.2  T
   6   -191.2194397 -0.996920E-09  0.767E-05    1.25     120.5  T
     SCC iter.                  ...        0 min,  0.251 sec
     gradient                   ...        0 min,  0.367 sec
 * total energy  :  -188.2533626 Eh     change       -0.3123677E-05 Eh
   gradient norm :     0.0004282 Eh/α   predicted    -0.1521444E-05 ( -51.29%)
   displ. norm   :     0.0844099 α      lambda       -0.2286216E-05
   maximum displ.:     0.0414772 α      in ANC's #4, #2, #9, ...

........................................................................
.............................. CYCLE  160 ..............................
........................................................................

 iter      E             dE          RMSdq      gap      omega  full diag
   1   -191.2195033 -0.191220E+03  0.971E-03    1.25       0.0  T
   2   -191.2195033 -0.513002E-07  0.573E-03    1.25       1.6  T
   3   -191.2195030  0.323487E-06  0.150E-03    1.25       6.1  T
   4   -191.2195034 -0.362461E-06  0.225E-04    1.25      41.1  T
   5   -191.2195034 -0.341774E-08  0.127E-04    1.25      73.0  T
   6   -191.2195034 -0.100417E-08  0.591E-05    1.25     156.4  T
     SCC iter.                  ...        0 min,  0.246 sec
     gradient                   ...        0 min,  0.308 sec
 * total energy  :  -188.2533652 Eh     change       -0.2519771E-05 Eh
   gradient norm :     0.0002988 Eh/α   predicted    -0.1151029E-05 ( -54.32%)
   displ. norm   :     0.0840872 α      lambda       -0.2498240E-05
   maximum displ.:     0.0395870 α      in ANC's #4, #2, #3, ...

........................................................................
.............................. CYCLE  161 ..............................
........................................................................

 iter      E             dE          RMSdq      gap      omega  full diag
   1   -191.2195573 -0.191220E+03  0.977E-03    1.25       0.0  T
   2   -191.2195574 -0.458594E-07  0.575E-03    1.25       1.6  T
   3   -191.2195571  0.263948E-06  0.134E-03    1.25       6.9  T
   4   -191.2195574 -0.295301E-06  0.221E-04    1.25      41.8  T
   5   -191.2195574 -0.341265E-08  0.131E-04    1.25      70.7  T
   6   -191.2195574 -0.131388E-08  0.530E-05    1.25     174.6  T
     SCC iter.                  ...        0 min,  0.239 sec
     gradient                   ...        0 min,  0.239 sec
 * total energy  :  -188.2533679 Eh     change       -0.2792728E-05 Eh
   gradient norm :     0.0004546 Eh/α   predicted    -0.1256821E-05 ( -55.00%)
   displ. norm   :     0.0791374 α      lambda       -0.2406867E-05
   maximum displ.:     0.0377610 α      in ANC's #2, #4, #3, ...

........................................................................
.............................. CYCLE  162 ..............................
........................................................................

 iter      E             dE          RMSdq      gap      omega  full diag
   1   -191.2195420 -0.191220E+03  0.963E-03    1.25       0.0  T
   2   -191.2195421 -0.335434E-07  0.567E-03    1.25       1.6  T
   3   -191.2195419  0.175607E-06  0.110E-03    1.25       8.4  T
   4   -191.2195421 -0.196625E-06  0.207E-04    1.25      44.6  T
   5   -191.2195421 -0.305701E-08  0.117E-04    1.25      79.2  T
   6   -191.2195421 -0.899007E-09  0.503E-05    1.25     183.7  T
     SCC iter.                  ...        0 min,  0.134 sec
     gradient                   ...        0 min,  0.252 sec
 * total energy  :  -188.2533706 Eh     change       -0.2680041E-05 Eh
   gradient norm :     0.0004965 Eh/α   predicted    -0.1207629E-05 ( -54.94%)
   displ. norm   :     0.0619508 α      lambda       -0.1812627E-05
   maximum displ.:     0.0315111 α      in ANC's #2, #4, #3, ...

........................................................................
.............................. CYCLE  163 ..............................
........................................................................

 iter      E             dE          RMSdq      gap      omega  full diag
   1   -191.2194886 -0.191219E+03  0.772E-03    1.25       0.0  T
   2   -191.2194887 -0.219071E-07  0.454E-03    1.25       2.0  T
   3   -191.2194885  0.105492E-06  0.858E-04    1.25      10.8  T
   4   -191.2194887 -0.117507E-06  0.174E-04    1.25      53.3  T
   5   -191.2194887 -0.260741E-08  0.859E-05    1.25     107.6  T
     SCC iter.                  ...        0 min,  0.112 sec
     gradient                   ...        0 min,  0.232 sec
 * total energy  :  -188.2533727 Eh     change       -0.2102155E-05 Eh
   gradient norm :     0.0003893 Eh/α   predicted    -0.9112546E-06 ( -56.65%)
   displ. norm   :     0.0556902 α      lambda       -0.1554833E-05
   maximum displ.:     0.0298357 α      in ANC's #2, #3, #4, ...

........................................................................
.............................. CYCLE  164 ..............................
........................................................................

 iter      E             dE          RMSdq      gap      omega  full diag
   1   -191.2194644 -0.191219E+03  0.678E-03    1.25       0.0  T
   2   -191.2194644 -0.242976E-07  0.397E-03    1.25       2.3  T
   3   -191.2194643  0.709481E-07  0.727E-04    1.25      12.7  T
   4   -191.2194644 -0.801679E-07  0.173E-04    1.25      53.5  T
   5   -191.2194644 -0.246723E-08  0.801E-05    1.25     115.4  T
     SCC iter.                  ...        0 min,  0.105 sec
     gradient                   ...        0 min,  0.252 sec
 * total energy  :  -188.2533746 Eh     change       -0.1838425E-05 Eh
   gradient norm :     0.0002548 Eh/α   predicted    -0.7824184E-06 ( -57.44%)
   displ. norm   :     0.0528666 α      lambda       -0.1381381E-05
   maximum displ.:     0.0296151 α      in ANC's #2, #3, #4, ...

........................................................................
.............................. CYCLE  165 ..............................
........................................................................

 iter      E             dE          RMSdq      gap      omega  full diag
   1   -191.2194523 -0.191219E+03  0.621E-03    1.25       0.0  T
   2   -191.2194523 -0.238893E-07  0.362E-03    1.25       2.6  T
   3   -191.2194522  0.493258E-07  0.636E-04    1.25      14.5  T
   4   -191.2194523 -0.573968E-07  0.158E-04    1.25      58.6  T
   5   -191.2194523 -0.175058E-08  0.744E-05    1.25     124.2  T
     SCC iter.                  ...        0 min,  0.106 sec
     gradient                   ...        0 min,  0.244 sec
 * total energy  :  -188.2533762 Eh     change       -0.1624785E-05 Eh
   gradient norm :     0.0002368 Eh/α   predicted    -0.6942197E-06 ( -57.27%)
   displ. norm   :     0.0522889 α      lambda       -0.1264560E-05
   maximum displ.:     0.0298210 α      in ANC's #2, #3, #1, ...

........................................................................
.............................. CYCLE  166 ..............................
........................................................................

 iter      E             dE          RMSdq      gap      omega  full diag
   1   -191.2194515 -0.191219E+03  0.592E-03    1.25       0.0  T
   2   -191.2194515 -0.186461E-07  0.346E-03    1.25       2.7  T
   3   -191.2194515  0.309824E-07  0.519E-04    1.25      17.8  T
   4   -191.2194515 -0.372262E-07  0.133E-04    1.25      69.4  T
   5   -191.2194515 -0.103779E-08  0.680E-05    1.25     136.0  T
     SCC iter.                  ...        0 min,  0.116 sec
     gradient                   ...        0 min,  0.242 sec
 * total energy  :  -188.2533777 Eh     change       -0.1532837E-05 Eh
   gradient norm :     0.0003284 Eh/α   predicted    -0.6366653E-06 ( -58.46%)
   displ. norm   :     0.0636774 α      lambda       -0.1488002E-05
   maximum displ.:     0.0362044 α      in ANC's #2, #3, #1, ...

........................................................................
.............................. CYCLE  167 ..............................
........................................................................

 iter      E             dE          RMSdq      gap      omega  full diag
   1   -191.2194553 -0.191219E+03  0.700E-03    1.25       0.0  T
   2   -191.2194553 -0.176363E-07  0.410E-03    1.25       2.3  T
   3   -191.2194553  0.267381E-07  0.486E-04    1.25      19.0  T
   4   -191.2194554 -0.333868E-07  0.131E-04    1.25      70.6  T
   5   -191.2194554 -0.881528E-09  0.728E-05    1.25     127.1  T
     SCC iter.                  ...        0 min,  0.114 sec
     gradient                   ...        0 min,  0.256 sec
 * total energy  :  -188.2533795 Eh     change       -0.1816094E-05 Eh
   gradient norm :     0.0004123 Eh/α   predicted    -0.7474225E-06 ( -58.84%)
   displ. norm   :     0.0812094 α      lambda       -0.1819342E-05
   maximum displ.:     0.0459700 α      in ANC's #2, #3, #1, ...

........................................................................
.............................. CYCLE  168 ..............................
........................................................................

 iter      E             dE          RMSdq      gap      omega  full diag
   1   -191.2194569 -0.191219E+03  0.863E-03    1.25       0.0  T
   2   -191.2194569 -0.201009E-07  0.506E-03    1.25       1.8  T
   3   -191.2194569  0.507731E-07  0.627E-04    1.25      14.7  T
   4   -191.2194569 -0.609521E-07  0.145E-04    1.25      63.7  T
   5   -191.2194569 -0.100135E-08  0.825E-05    1.25     112.1  T
     SCC iter.                  ...        0 min,  0.118 sec
     gradient                   ...        0 min,  0.221 sec
 * total energy  :  -188.2533817 Eh     change       -0.2189082E-05 Eh
   gradient norm :     0.0004366 Eh/α   predicted    -0.9141082E-06 ( -58.24%)
   displ. norm   :     0.0972517 α      lambda       -0.2002811E-05
   maximum displ.:     0.0553198 α      in ANC's #2, #3, #1, ...

........................................................................
.............................. CYCLE  169 ..............................
........................................................................

 iter      E             dE          RMSdq      gap      omega  full diag
   1   -191.2194681 -0.191219E+03  0.994E-03    1.25       0.0  T
   2   -191.2194681 -0.285355E-07  0.583E-03    1.25       1.6  T
   3   -191.2194680  0.107209E-06  0.895E-04    1.25      10.3  T
   4   -191.2194682 -0.124799E-06  0.170E-04    1.25      54.3  T
   5   -191.2194682 -0.126786E-08  0.914E-05    1.25     101.2  T
     SCC iter.                  ...        0 min,  0.104 sec
     gradient                   ...        0 min,  0.231 sec
 * total energy  :  -188.2533841 Eh     change       -0.2348951E-05 Eh
   gradient norm :     0.0003625 Eh/α   predicted    -0.1007874E-05 ( -57.09%)
   displ. norm   :     0.0957312 α      lambda       -0.1740917E-05
   maximum displ.:     0.0551547 α      in ANC's #2, #3, #1, ...

........................................................................
.............................. CYCLE  170 ..............................
........................................................................

 iter      E             dE          RMSdq      gap      omega  full diag
   1   -191.2194934 -0.191219E+03  0.925E-03    1.25       0.0  T
   2   -191.2194934 -0.330179E-07  0.543E-03    1.25       1.7  T
   3   -191.2194933  0.140565E-06  0.103E-03    1.25       9.0  T
   4   -191.2194934 -0.161350E-06  0.176E-04    1.25      52.6  T
   5   -191.2194934 -0.150158E-08  0.882E-05    1.25     104.8  T
     SCC iter.                  ...        0 min,  0.104 sec
     gradient                   ...        0 min,  0.229 sec
 * total energy  :  -188.2533861 Eh     change       -0.2032305E-05 Eh
   gradient norm :     0.0002576 Eh/α   predicted    -0.8764591E-06 ( -56.87%)
   displ. norm   :     0.0820611 α      lambda       -0.1422466E-05
   maximum displ.:     0.0479059 α      in ANC's #2, #3, #1, ...

........................................................................
.............................. CYCLE  171 ..............................
........................................................................

 iter      E             dE          RMSdq      gap      omega  full diag
   1   -191.2195307 -0.191220E+03  0.750E-03    1.25       0.0  T
   2   -191.2195307 -0.301714E-07  0.441E-03    1.25       2.1  T
   3   -191.2195306  0.118749E-06  0.968E-04    1.25       9.5  T
   4   -191.2195307 -0.135792E-06  0.161E-04    1.25      57.3  T
   5   -191.2195307 -0.157419E-08  0.776E-05    1.25     119.1  T
     SCC iter.                  ...        0 min,  0.107 sec
     gradient                   ...        0 min,  0.229 sec
 * total energy  :  -188.2533878 Eh     change       -0.1716818E-05 Eh
   gradient norm :     0.0002441 Eh/α   predicted    -0.7154663E-06 ( -58.33%)
   displ. norm   :     0.0811161 α      lambda       -0.1433246E-05
   maximum displ.:     0.0474769 α      in ANC's #2, #3, #1, ...

........................................................................
.............................. CYCLE  172 ..............................
........................................................................

 iter      E             dE          RMSdq      gap      omega  full diag
   1   -191.2195594 -0.191220E+03  0.723E-03    1.25       0.0  T
   2   -191.2195595 -0.306131E-07  0.426E-03    1.25       2.2  T
   3   -191.2195593  0.111737E-06  0.949E-04    1.25       9.7  T
   4   -191.2195595 -0.127357E-06  0.168E-04    1.25      55.1  T
   5   -191.2195595 -0.202974E-08  0.791E-05    1.25     116.9  T
     SCC iter.                  ...        0 min,  0.118 sec
     gradient                   ...        0 min,  0.221 sec
 * total energy  :  -188.2533896 Eh     change       -0.1790030E-05 Eh
   gradient norm :     0.0003284 Eh/α   predicted    -0.7224232E-06 ( -59.64%)
   displ. norm   :     0.0910863 α      lambda       -0.1622706E-05
   maximum displ.:     0.0529598 α      in ANC's #2, #3, #1, ...

........................................................................
.............................. CYCLE  173 ..............................
........................................................................

 iter      E             dE          RMSdq      gap      omega  full diag
   1   -191.2195649 -0.191220E+03  0.816E-03    1.25       0.0  T
   2   -191.2195650 -0.324831E-07  0.480E-03    1.25       1.9  T
   3   -191.2195649  0.122450E-06  0.991E-04    1.25       9.3  T
   4   -191.2195650 -0.139163E-06  0.183E-04    1.25      50.7  T
   5   -191.2195650 -0.240820E-08  0.882E-05    1.25     104.8  T
     SCC iter.                  ...        0 min,  0.094 sec
     gradient                   ...        0 min,  0.206 sec
 * total energy  :  -188.2533916 Eh     change       -0.2027043E-05 Eh
   gradient norm :     0.0003901 Eh/α   predicted    -0.8169124E-06 ( -59.70%)
   displ. norm   :     0.1027922 α      lambda       -0.1761110E-05
   maximum displ.:     0.0593809 α      in ANC's #2, #3, #1, ...

........................................................................
.............................. CYCLE  174 ..............................
........................................................................

 iter      E             dE          RMSdq      gap      omega  full diag
   1   -191.2195518 -0.191220E+03  0.925E-03    1.25       0.0  T
   2   -191.2195519 -0.312832E-07  0.543E-03    1.25       1.7  T
   3   -191.2195517  0.138217E-06  0.104E-03    1.25       8.9  T
   4   -191.2195519 -0.157185E-06  0.188E-04    1.25      49.1  T
   5   -191.2195519 -0.217523E-08  0.979E-05    1.25      94.5  T
     SCC iter.                  ...        0 min,  0.102 sec
     gradient                   ...        0 min,  0.211 sec
 * total energy  :  -188.2533938 Eh     change       -0.2150406E-05 Eh
   gradient norm :     0.0003737 Eh/α   predicted    -0.8857449E-06 ( -58.81%)
   displ. norm   :     0.1059794 α      lambda       -0.1639869E-05
   maximum displ.:     0.0610270 α      in ANC's #2, #3, #1, ...

........................................................................
.............................. CYCLE  175 ..............................
........................................................................

 iter      E             dE          RMSdq      gap      omega  full diag
   1   -191.2195294 -0.191220E+03  0.949E-03    1.25       0.0  T
   2   -191.2195294 -0.263574E-07  0.557E-03    1.25       1.7  T
   3   -191.2195293  0.134033E-06  0.102E-03    1.25       9.1  T
   4   -191.2195295 -0.153108E-06  0.176E-04    1.25      52.4  T
   5   -191.2195295 -0.133605E-08  0.100E-04    1.25      92.2  T
     SCC iter.                  ...        0 min,  0.100 sec
     gradient                   ...        0 min,  0.207 sec
 * total energy  :  -188.2533958 Eh     change       -0.1958553E-05 Eh
   gradient norm :     0.0002778 Eh/α   predicted    -0.8287618E-06 ( -57.68%)
   displ. norm   :     0.0938038 α      lambda       -0.1267678E-05
   maximum displ.:     0.0538255 α      in ANC's #2, #3, #1, ...

........................................................................
.............................. CYCLE  176 ..............................
........................................................................

 iter      E             dE          RMSdq      gap      omega  full diag
   1   -191.2195110 -0.191220E+03  0.831E-03    1.25       0.0  T
   2   -191.2195110 -0.203790E-07  0.488E-03    1.25       1.9  T
   3   -191.2195109  0.822490E-07  0.812E-04    1.25      11.4  T
   4   -191.2195110 -0.954041E-07  0.156E-04    1.25      59.1  T
   5   -191.2195110 -0.919187E-09  0.902E-05    1.25     102.5  T
     SCC iter.                  ...        0 min,  0.103 sec
     gradient                   ...        0 min,  0.268 sec
 * total energy  :  -188.2533973 Eh     change       -0.1512215E-05 Eh
   gradient norm :     0.0001989 Eh/α   predicted    -0.6394903E-06 ( -57.71%)
   displ. norm   :     0.0681871 α      lambda       -0.8990655E-06
   maximum displ.:     0.0397185 α      in ANC's #3, #2, #1, ...

........................................................................
.............................. CYCLE  177 ..............................
........................................................................

 iter      E             dE          RMSdq      gap      omega  full diag
   1   -191.2195169 -0.191220E+03  0.596E-03    1.25       0.0  T
   2   -191.2195169 -0.117781E-07  0.350E-03    1.25       2.6  T
   3   -191.2195169  0.358017E-07  0.567E-04    1.25      16.3  T
   4   -191.2195169 -0.424510E-07  0.118E-04    1.25      78.4  T
   5   -191.2195169 -0.464638E-09  0.657E-05    1.25     140.7  T
     SCC iter.                  ...        0 min,  0.112 sec
     gradient                   ...        0 min,  0.225 sec
 * total energy  :  -188.2533984 Eh     change       -0.1104801E-05 Eh
   gradient norm :     0.0001894 Eh/α   predicted    -0.4522616E-06 ( -59.06%)
   displ. norm   :     0.0532111 α      lambda       -0.7512806E-06
   maximum displ.:     0.0318537 α      in ANC's #3, #2, #1, ...

........................................................................
.............................. CYCLE  178 ..............................
........................................................................

 iter      E             dE          RMSdq      gap      omega  full diag
   1   -191.2195182 -0.191220E+03  0.460E-03    1.25       0.0  T
   2   -191.2195182 -0.911959E-08  0.270E-03    1.25       3.4  T
   3   -191.2195182  0.354325E-07  0.574E-04    1.25      16.1  T
   4   -191.2195182 -0.409733E-07  0.104E-04    1.25      88.7  T
   5   -191.2195182 -0.419988E-09  0.563E-05    1.25     164.1  T
     SCC iter.                  ...        0 min,  0.110 sec
     gradient                   ...        0 min,  0.226 sec
 * total energy  :  -188.2533993 Eh     change       -0.9486006E-06 Eh
   gradient norm :     0.0002053 Eh/α   predicted    -0.3787253E-06 ( -60.08%)
   displ. norm   :     0.0508690 α      lambda       -0.7009698E-06
   maximum displ.:     0.0312656 α      in ANC's #3, #2, #1, ...

........................................................................
.............................. CYCLE  179 ..............................
........................................................................

 iter      E             dE          RMSdq      gap      omega  full diag
   1   -191.2195176 -0.191220E+03  0.423E-03    1.25       0.0  T
   2   -191.2195176 -0.874903E-08  0.248E-03    1.25       3.7  T
   3   -191.2195176  0.484900E-07  0.659E-04    1.25      14.0  T
   4   -191.2195177 -0.551031E-07  0.103E-04    1.25      89.5  T
   5   -191.2195177 -0.439286E-09  0.545E-05    1.25     169.5  T
     SCC iter.                  ...        0 min,  0.106 sec
     gradient                   ...        0 min,  0.231 sec
 * total energy  :  -188.2534002 Eh     change       -0.9253964E-06 Eh
   gradient norm :     0.0001925 Eh/α   predicted    -0.3557629E-06 ( -61.56%)
   displ. norm   :     0.0469583 α      lambda       -0.6546139E-06
   maximum displ.:     0.0296861 α      in ANC's #3, #2, #6, ...

........................................................................
.............................. CYCLE  180 ..............................
........................................................................

 iter      E             dE          RMSdq      gap      omega  full diag
   1   -191.2195271 -0.191220E+03  0.367E-03    1.25       0.0  T
   2   -191.2195271 -0.873405E-08  0.215E-03    1.25       4.3  T
   3   -191.2195271  0.520857E-07  0.683E-04    1.25      13.5  T
   4   -191.2195271 -0.589543E-07  0.101E-04    1.25      91.7  T
   5   -191.2195271 -0.498630E-09  0.503E-05    1.25     183.9  T
     SCC iter.                  ...        0 min,  0.096 sec
     gradient                   ...        0 min,  0.215 sec
 * total energy  :  -188.2534011 Eh     change       -0.8703414E-06 Eh
   gradient norm :     0.0001582 Eh/α   predicted    -0.3302176E-06 ( -62.06%)
   displ. norm   :     0.0451299 α      lambda       -0.6483020E-06
   maximum displ.:     0.0292280 α      in ANC's #3, #2, #6, ...

........................................................................
.............................. CYCLE  181 ..............................
........................................................................

 iter      E             dE          RMSdq      gap      omega  full diag
   1   -191.2195379 -0.191220E+03  0.330E-03    1.25       0.0  T
   2   -191.2195379 -0.906670E-08  0.193E-03    1.25       4.8  T
   3   -191.2195378  0.461462E-07  0.642E-04    1.25      14.4  T
   4   -191.2195379 -0.522419E-07  0.101E-04    1.25      91.8  T
   5   -191.2195379 -0.596003E-09  0.470E-05    1.25     196.9  T
     SCC iter.                  ...        0 min,  0.099 sec
     gradient                   ...        0 min,  0.211 sec
 * total energy  :  -188.2534020 Eh     change       -0.8663795E-06 Eh
   gradient norm :     0.0001387 Eh/α   predicted    -0.3270711E-06 ( -62.25%)
   displ. norm   :     0.0459750 α      lambda       -0.6706355E-06
   maximum displ.:     0.0303719 α      in ANC's #3, #2, #6, ...

........................................................................
.............................. CYCLE  182 ..............................
........................................................................

 iter      E             dE          RMSdq      gap      omega  full diag
   1   -191.2195500 -0.191220E+03  0.322E-03    1.25       0.0  T
   2   -191.2195500 -0.979992E-08  0.189E-03    1.25       4.9  T
   3   -191.2195500  0.373988E-07  0.577E-04    1.25      16.0  T
   4   -191.2195500 -0.424991E-07  0.103E-04    1.25      90.0  T
   5   -191.2195500 -0.707530E-09  0.474E-05    1.25     195.0  T
     SCC iter.                  ...        0 min,  0.100 sec
     gradient                   ...        0 min,  0.205 sec
 * total energy  :  -188.2534029 Eh     change       -0.8859429E-06 Eh
   gradient norm :     0.0001559 Eh/α   predicted    -0.3381539E-06 ( -61.83%)
   displ. norm   :     0.0444403 α      lambda       -0.6194607E-06
   maximum displ.:     0.0296691 α      in ANC's #3, #2, #6, ...

........................................................................
.............................. CYCLE  183 ..............................
........................................................................

 iter      E             dE          RMSdq      gap      omega  full diag
   1   -191.2195646 -0.191220E+03  0.311E-03    1.25       0.0  T
   2   -191.2195646 -0.798570E-08  0.183E-03    1.25       5.0  T
   3   -191.2195646  0.215992E-07  0.430E-04    1.25      21.5  T
   4   -191.2195646 -0.250631E-07  0.849E-05    1.25     108.9  T
   5   -191.2195646 -0.399211E-09  0.437E-05    1.25     211.5  T
     SCC iter.                  ...        0 min,  0.100 sec
     gradient                   ...        0 min,  0.222 sec
 * total energy  :  -188.2534037 Eh     change       -0.8217396E-06 Eh
   gradient norm :     0.0001661 Eh/α   predicted    -0.3136138E-06 ( -61.84%)
   displ. norm   :     0.0417814 α      lambda       -0.5375657E-06
   maximum displ.:     0.0282600 α      in ANC's #3, #6, #2, ...
 * RMSD in coord.:     0.1767993 α      energy gain  -0.7701502E-04 Eh

generating ANC from exact Hessian ...
Using Lindh-Hessian (1995)
 Shifting diagonal of input Hessian by    1.0110083478694564E-002
 Lowest  eigenvalues of input Hessian
    0.010000    0.000000    0.000000    0.000000    0.000000    0.000000
    0.000000    0.010154    0.010185    0.010289    0.010350    0.010387
    0.010531    0.010692    0.010791    0.010951    0.010968    0.011131
 Highest eigenvalues
    2.146470    2.256366    2.330108    2.333536    2.413535    3.059528


........................................................................
.............................. CYCLE  184 ..............................
........................................................................

 iter      E             dE          RMSdq      gap      omega  full diag
   1   -191.2195727 -0.191220E+03  0.306E-03    1.25       0.0  T
   2   -191.2195727 -0.638627E-08  0.181E-03    1.25       5.1  T
   3   -191.2195727  0.185845E-07  0.380E-04    1.25      24.3  T
   4   -191.2195727 -0.216905E-07  0.714E-05    1.25     129.5  T
   5   -191.2195727 -0.235957E-09  0.391E-05    1.25     236.5  T
     SCC iter.                  ...        0 min,  0.100 sec
     gradient                   ...        0 min,  0.240 sec
 * total energy  :  -188.2534044 Eh     change       -0.7063500E-06 Eh
   gradient norm :     0.0001469 Eh/α   predicted     0.0000000E+00 (-100.00%)
   displ. norm   :     0.0002203 α      lambda        0.0000000E+00
   maximum displ.:     0.0001035 α      in ANC's #344, #345, #341, ...

........................................................................
.............................. CYCLE  185 ..............................
........................................................................

 iter      E             dE          RMSdq      gap      omega  full diag
   1   -191.2195760 -0.191220E+03  0.251E-04    1.25       0.0  T
   2   -191.2195760 -0.116898E-08  0.133E-04    1.25      69.8  T
   3   -191.2195760  0.314344E-10  0.785E-05    1.25     117.8  T
     SCC iter.                  ...        0 min,  0.064 sec
     gradient                   ...        0 min,  0.226 sec
 * total energy  :  -188.2534044 Eh     change       -0.1901867E-07 Eh
   gradient norm :     0.0000947 Eh/α   predicted    -0.4999920E-08 ( -73.71%)
   displ. norm   :     0.0002203 α      lambda        0.0000000E+00
   maximum displ.:     0.0001035 α      in ANC's #344, #345, #341, ...

   *** GEOMETRY OPTIMIZATION CONVERGED AFTER 185 ITERATIONS ***

------------------------------------------------------------------------
 total energy gain   :        -0.9058772 Eh     -568.4465 kcal/mol
 total RMSD          :         2.5086280 a0        1.3275 Å
 total power (kW/mol):       -12.8561097 (step)  -20.4995 (real)
------------------------------------------------------------------------

 ANCopt (total)                0 d,  0 h,  1 min, 56.022 sec
 optimizer setup                ...        0 min,  0.002 sec (  0.001%)
 model hessian                  ...        0 min,  0.830 sec (  0.715%)
 ANC generation                 ...        0 min,  0.177 sec (  0.152%)
 coordinate transformation      ...        0 min,  0.038 sec (  0.032%)
 single point calculation       ...        1 min, 54.724 sec ( 98.882%)
 optimization log               ...        0 min,  0.142 sec (  0.122%)
 hessian update                 ...        0 min,  0.028 sec (  0.024%)
 rational function              ...        0 min,  0.060 sec (  0.052%)

================
 final structure:
================
117
 xtb: 6.7.1 (edcfbbe)
O            0.44710251138253        3.18941335753081       -0.85079173999162
P           -0.21381192150719        2.21633278001603        0.05613795282230
O           -1.09812745335683        2.72535478560440        1.15985938597873
O           -1.06005752157869        1.15415471563846       -0.87417478586470
C           -1.53714745995288        0.08039153399962       -0.15545128405836
C           -2.88603166361924        0.05231993571419        0.26506067411892
C           -3.31689130790290       -1.00327555340574        1.03070292183438
C           -2.45113969534366       -2.04474674287571        1.41449022031367
C           -2.89289401245622       -3.11192235474952        2.22567147974552
C           -2.03171470586820       -4.09840548402387        2.61609864128205
C           -0.68556513807366       -4.05032936898217        2.22264894058483
C           -0.22874992251577       -3.03494892447948        1.42840923423423
C           -1.09883437486671       -2.01601059280217        0.98351273324969
C           -0.66625854919504       -0.93816162898313        0.16545023886350
C            0.72806016828334       -0.84424981416051       -0.31206153019742
C            1.48097884813428        0.24940760834298        0.06889324800971
O            0.89510902541494        1.24792446524640        0.80618470753159
C            2.85876739533333        0.32912785815101       -0.26052808497791
C            3.41134180883277       -0.66142099111319       -1.03695446048386
C            2.65146358479992       -1.74064588950742       -1.52402773480113
C            3.21489234907249       -2.72906116035425       -2.35907437761250
C            2.45531777156492       -3.76267265051936       -2.83039302297917
C            1.09525663788082       -3.84498909059016       -2.49379724532431
C            0.52281283242263       -2.90875301574485       -1.67762725539057
C            1.28512690322308       -1.84117384140748       -1.15571177745778
C           -3.84248490413655        1.10026252602245       -0.12958559029603
C           -4.58864213612548        1.76845637588343        0.83593315678982
C           -5.57086083620468        2.66755481608016        0.46236550913794
C           -5.83248426419335        2.89334023740588       -0.87829929575592
C           -5.07621058512111        2.25086133025540       -1.84442902784913
C           -4.07776588436668        1.36866429307125       -1.47431093672211
C            3.72762646510870        1.39740287564221        0.26065441119055
C            4.63328451495080        2.04082755326473       -0.58006701184951
C            5.52758330308361        2.96647964952884       -0.07389923893488
C            5.53502634856704        3.25895557573527        1.28012560951749
C            4.63053511723325        2.63263438484153        2.12133693083443
C            3.72848863190214        1.71218256238293        1.61737690683261
H           -1.51805899824666        4.20703818627767        1.24255149939255
H           -4.34983396443006       -1.03854984442981        1.34941370020988
H           -3.92817710313717       -3.12843826807951        2.53660806006295
H           -2.37638474174593       -4.91277438082286        3.23667935917504
H           -0.00727325395080       -4.82268073840940        2.55549945648286
H            0.81181762423854       -3.00170990471545        1.14093000851237
H            4.46547721571027       -0.62132525694010       -1.27476655954383
H            4.25994992345223       -2.64697105964506       -2.62337993977424
H            2.89172194020941       -4.51591548863487       -3.47011010094146
H            0.49906719699972       -4.65507870342830       -2.88838427551713
H           -0.52729007142088       -2.97372951108342       -1.43258960863428
H           -4.38802697145267        1.57932497125364        1.88096450757595
H           -6.14650884713576        3.18101532371815        1.21928483327025
H           -6.62238979943083        3.56979557629049       -1.16923123791079
H           -5.27328629256767        2.42911452638360       -2.89181537165719
H           -3.49117040929745        0.85968778462745       -2.22598578907787
H            4.62720516212211        1.81485782800646       -1.63720761989462
H            6.22718915610899        3.45571561420368       -0.73684673086009
H            6.23957336704285        3.97384137075442        1.67837662624960
H            4.64016411644140        2.85442071202610        3.17932640643623
H            3.03139311196421        1.21389558991360        2.27600957826148
C           -2.12605316993762        7.38028217148465        2.35984797846238
C           -1.58191759364683        6.00417083916650        2.21792261062722
N           -1.97049853019824        5.17905112680580        1.30042081067685
C           -2.92098862214341        5.37256406817517        0.28509210994349
C           -4.12591368420643        6.04344994132484        0.47456272616356
C           -4.99434288986801        6.20532536073678       -0.58999045865022
C           -4.67450354222901        5.70102312867389       -1.83897186607056
C           -3.49601629681059        4.99249220763495       -2.01504911935482
C           -2.62734103759826        4.81368608592133       -0.95708750971237
C           -0.53434644202487        5.58155775050914        3.14109465953034
C           -0.54634533817751        6.02466074713220        4.46923950744783
C            0.44435174202288        5.62953920913373        5.34627812153667
C            1.47322802825087        4.80629968059081        4.91245788993166
C            1.50274172717263        4.37618202374347        3.59638444699534
C            0.50846967668665        4.75446616101904        2.71541865868980
H           -2.97777886904658        7.38814951457180        3.04049743411697
H           -1.36163138894683        8.03601145533887        2.77092415781524
H           -2.45427384867378        7.77005217086494        1.39545051755477
H           -4.40794954090038        6.40637921998158        1.44877671660600
H           -5.92523788110611        6.73119319767896       -0.43900290898938
H           -5.35014679865119        5.84144998672160       -2.66962415620551
H           -3.25592272328452        4.56956032804119       -2.97845082966749
H           -1.71498675392233        4.25333703233874       -1.07760843749547
H           -1.34939180982495        6.65373725311586        4.82264675491104
H            0.41795928100749        5.96791060776768        6.37178274343010
H            2.25306199104087        4.51031875172624        5.59794061469227
H            2.30357945773700        3.74639152510688        3.24355722408578
H            0.56385300059124        4.43560348348284        1.68900293818409
C            1.43975664215707        8.99151582581469        3.75393037456030
O            1.08567948277165        8.55379558004747        2.45082960626676
C            1.85819119731348        7.56745520343344        1.92458410607894
O            2.77101227936194        7.08445195114624        2.56904869977062
C            1.45559445775225        7.22878652098489        0.56846142737038
C            1.97297847450666        6.18364010391071       -0.12564480082569
C            3.01411578279118        5.22762966369948        0.34387017040325
N            1.52293753354673        5.91798080309716       -1.39435523101936
C            0.34042415336157        6.41451933186347       -1.89714349790296
C           -0.14010756735777        5.66707150774518       -3.09584605977936
C           -0.25034148971849        7.45589363909275       -1.26970059947550
C           -1.56676741955240        8.01389703537637       -1.56875327290382
O           -2.26792279943482        8.55873707813838       -0.73365665461423
O           -1.95102531697735        7.90700754268551       -2.85435751612936
C           -3.19145944706822        8.51085935196157       -3.19882065016013
C            0.46730381654310        8.14141761110896       -0.12314784160420
H            0.73524503765394        9.78009447223624        4.00765083182682
H            1.37374419966493        8.16477960350510        4.46546326629742
H            2.46183023456375        9.37631181164724        3.76039775769544
H            3.30326424712722        5.43706181758855        1.36638451415786
H            2.63276736212185        4.20918877995271        0.26736458046505
H            3.89242010222607        5.30491537558679       -0.29605949227064
H            1.81525965471952        5.02711546818994       -1.77644943452105
H            0.53140738795438        5.86703405752368       -3.93109935748500
H           -0.11404862488564        4.59791947593936       -2.88550110600518
H           -1.14123462098811        5.96429596084561       -3.37928217265469
H           -3.08711172455957        9.59829422448543       -3.20792904087568
H           -3.43912997466791        8.14634629499059       -4.19262371505054
H           -3.96303270040271        8.23442123089901       -2.47794631379717
H           -0.26540419644862        8.52654261608347        0.58386937591580
H            1.00707984237676        9.01328172567283       -0.52135459941270

 Bond Distances (Angstroems)
 ---------------------------
O1-P2=1.4853         P2-O1=1.4853         P2-O3=1.5031         P2-O4=1.6462         P2-O17=1.6523        O3-P2=1.5031         
O4-P2=1.6462         O4-C5=1.3774         C5-O4=1.3774         C5-C6=1.4132         C5-C14=1.3780        C6-C5=1.4132         
C6-C7=1.3734         C6-C26=1.4727        C7-C6=1.3734         C7-C8=1.4077         C7-H39=1.0816        C8-C7=1.4077         
C8-C9=1.4114         C8-C13=1.4196        C9-C8=1.4114         C9-C10=1.3665        C9-H40=1.0811        C10-C9=1.3665        
C10-C11=1.4033       C10-H41=1.0803       C11-C10=1.4033       C11-C12=1.3677       C11-H42=1.0805       C12-C11=1.3677       
C12-C13=1.4118       C12-H43=1.0801       C13-C8=1.4196        C13-C12=1.4118       C13-C14=1.4206       C14-C5=1.3780        
C14-C13=1.4206       C14-C15=1.4768       C15-C14=1.4768       C15-C16=1.3813       C15-C25=1.4198       C16-C15=1.3813       
C16-O17=1.3725       C16-C18=1.4189       O17-P2=1.6523        O17-C16=1.3725       C18-C16=1.4189       C18-C19=1.3745       
C18-C32=1.4723       C19-C18=1.3745       C19-C20=1.4069       C19-H44=1.0814       C20-C19=1.4069       C20-C21=1.4113       
C20-C25=1.4187       C21-C20=1.4113       C21-C22=1.3665       C21-H45=1.0811       C22-C21=1.3665       C22-C23=1.4035       
C22-H46=1.0803       C23-C22=1.4035       C23-C24=1.3676       C23-H47=1.0805       C24-C23=1.3676       C24-C25=1.4118       
C24-H48=1.0803       C25-C15=1.4198       C25-C20=1.4187       C25-C24=1.4118       C26-C6=1.4727        C26-C27=1.3912       
C26-C31=1.3913       C27-C26=1.3912       C27-C28=1.3830       C27-H49=1.0808       C28-C27=1.3830       C28-C29=1.3845       
C28-H50=1.0807       C29-C28=1.3845       C29-C30=1.3850       C29-H51=1.0799       C30-C29=1.3850       C30-C31=1.3828       
C30-H52=1.0806       C31-C26=1.3913       C31-C30=1.3828       C31-H53=1.0808       C32-C18=1.4723       C32-C33=1.3932       
C32-C37=1.3928       C33-C32=1.3932       C33-C34=1.3830       C33-H54=1.0810       C34-C33=1.3830       C34-C35=1.3853       
C34-H55=1.0809       C35-C34=1.3853       C35-C36=1.3849       C35-H56=1.0798       C36-C35=1.3849       C36-C37=1.3838       
C36-H57=1.0810       C37-C32=1.3928       C37-C36=1.3838       C37-H58=1.0808       H38-N61=1.0737       H39-C7=1.0816        
H40-C9=1.0811        H41-C10=1.0803       H42-C11=1.0805       H43-C12=1.0801       H44-C19=1.0814       H45-C21=1.0811       
H46-C22=1.0803       H47-C23=1.0805       H48-C24=1.0803       H49-C27=1.0808       H50-C28=1.0807       H51-C29=1.0799       
H52-C30=1.0806       H53-C31=1.0808       H54-C33=1.0810       H55-C34=1.0809       H56-C35=1.0798       H57-C36=1.0810       
H58-C37=1.0808       C59-C60=1.4866       C59-H74=1.0903       C59-H75=1.0878       C59-H76=1.0907       C60-C59=1.4866       
C60-N61=1.2937       C60-C68=1.4589       N61-H38=1.0737       N61-C60=1.2937       N61-C62=1.4042       C62-N61=1.4042       
C62-C63=1.3921       C62-C67=1.3934       C63-C62=1.3921       C63-C64=1.3833       C63-H77=1.0772       C64-C63=1.3833       
C64-C65=1.3844       C64-H78=1.0798       C65-C64=1.3844       C65-C66=1.3863       C65-H79=1.0799       C66-C65=1.3863       
C66-C67=1.3805       C66-H80=1.0792       C67-C62=1.3934       C67-C66=1.3805       C67-H81=1.0775       C68-C60=1.4589       
C68-C69=1.4002       C68-C73=1.3974       C69-C68=1.4002       C69-C70=1.3809       C69-H82=1.0796       C70-C69=1.3809       
C70-C71=1.3873       C70-H83=1.0802       C71-C70=1.3873       C71-C72=1.3849       C71-H84=1.0796       C72-C71=1.3849       
C72-C73=1.3812       C72-H85=1.0782       C73-C68=1.3974       C73-C72=1.3812       C73-H86=1.0762       H74-C59=1.0903       
H75-C59=1.0878       H76-C59=1.0907       H77-C63=1.0772       H78-C64=1.0798       H79-C65=1.0799       H80-C66=1.0792       
H81-C67=1.0775       H82-C69=1.0796       H83-C70=1.0802       H84-C71=1.0796       H85-C72=1.0782       H86-C73=1.0762       
C87-O88=1.4195       C87-H103=1.0875      C87-H104=1.0928      C87-H105=1.0921      O88-C87=1.4195       O88-C89=1.3589       
C89-O88=1.3589       C89-O90=1.2173       C89-C91=1.4546       O90-C89=1.2173       C91-C89=1.4546       C91-C92=1.3571       
C91-C102=1.5126      C92-C91=1.3571       C92-C93=1.4894       C92-N94=1.3721       C93-C92=1.4894       C93-H106=1.0831      
C93-H107=1.0902      C93-H108=1.0895      N94-C92=1.3721       N94-C95=1.3776       N94-H109=1.0125      C95-N94=1.3776       
C95-C96=1.4921       C95-C97=1.3517       C96-C95=1.4921       C96-H110=1.0902      C96-H111=1.0900      C96-H112=1.0821      
C97-C95=1.3517       C97-C98=1.4607       C97-C102=1.5164      C98-C97=1.4607       C98-O99=1.2190       C98-O100=1.3461      
O99-C98=1.2190       O100-C98=1.3461      O100-C101=1.4220     C101-O100=1.4220     C101-H113=1.0925     C101-H114=1.0871     
C101-H115=1.0915     C102-C91=1.5126      C102-C97=1.5164      C102-H116=1.0886     C102-H117=1.1000     H103-C87=1.0875      
H104-C87=1.0928      H105-C87=1.0921      H106-C93=1.0831      H107-C93=1.0902      H108-C93=1.0895      H109-N94=1.0125      
H110-C96=1.0902      H111-C96=1.0900      H112-C96=1.0821      H113-C101=1.0925     H114-C101=1.0871     H115-C101=1.0915     
H116-C102=1.0886     H117-C102=1.1000     
 C  H  Rav=1.0835 sigma=0.0053  Rmin=1.0762  Rmax=1.1000    47
 C  C  Rav=1.4076 sigma=0.0394  Rmin=1.3517  Rmax=1.5164    59
 N  H  Rav=1.0431 sigma=0.0306  Rmin=1.0125  Rmax=1.0737     2
 N  C  Rav=1.3619 sigma=0.0412  Rmin=1.2937  Rmax=1.4042     4
 O  C  Rav=1.3416 sigma=0.0755  Rmin=1.2173  Rmax=1.4220     8
 P  O  Rav=1.5717 sigma=0.0778  Rmin=1.4853  Rmax=1.6523     4

 selected bond angles (degree)
 --------------------
O3-P2-O1=119.23                O4-P2-O1=107.84                O4-P2-O3=109.33                O17-P2-O1=111.25               
O17-P2-O3=105.07               O17-P2-O4=102.91               C5-O4-P2=112.72                C6-C5-O4=120.09                
C14-C5-O4=118.61               C14-C5-C6=121.28               C7-C6-C5=118.73                C26-C6-C5=121.74               
C26-C6-C7=119.51               C8-C7-C6=121.85                H39-C7-C6=119.27               H39-C7-C8=118.88               
C9-C8-C7=121.58                C13-C8-C7=119.22               C13-C8-C9=119.21               C10-C9-C8=120.85               
H40-C9-C8=118.46               H40-C9-C10=120.68              C11-C10-C9=119.98              H41-C10-C9=120.48              
H41-C10-C11=119.53             

 selected dihedral angles (degree)
 ---------------------------------
C5-O4-P2-O1=170.16            C5-O4-P2-O3=301.19            C5-O4-P2-O17= 52.48           C6-C5-O4-P2=100.23            
C14-C5-O4-P2=281.72           C7-C6-C5-O4=182.86            C7-C6-C5-C14=  1.33           C26-C6-C5-O4=  4.71           
C26-C6-C5-C14=183.18          C8-C7-C6-C5=  0.58            C8-C7-C6-C26=178.77           H39-C7-C6-C5=180.59           
H39-C7-C6-C26=358.78          C9-C8-C7-C6=178.60            C9-C8-C7-H39=358.60           C13-C8-C7-C6=359.07           
C13-C8-C7-H39=179.07          C10-C9-C8-C7=181.59           C10-C9-C8-C13=  1.12          H40-C9-C8-C7=  1.24           
H40-C9-C8-C13=180.77          C11-C10-C9-C8=  0.72          C11-C10-C9-H40=181.08         H41-C10-C9-C8=180.03          
H41-C10-C9-H40=  0.39         
           -------------------------------------------------
          |                Final Singlepoint                |
           -------------------------------------------------

          ...................................................
          :                      SETUP                      :
          :.................................................:
          :  # basis functions                 327          :
          :  # atomic orbitals                 326          :
          :  # shells                          186          :
          :  # electrons                       340          :
          :  max. iterations                   250          :
          :  Hamiltonian                  GFN2-xTB          :
          :  restarted?                      false          :
          :  GBSA solvation                   true          :
          :  PC potential                    false          :
          :  electronic temp.          300.0000000     K    :
          :  accuracy                    0.2000000          :
          :  -> integral cutoff          0.3198970E+02      :
          :  -> integral neglect         0.2000000E-08      :
          :  -> SCF convergence          0.2000000E-06 Eh   :
          :  -> wf. convergence          0.2000000E-04 e    :
          :  Broyden damping             0.4000000          :
          :  net charge                          0          :
          :  unpaired electrons                  0          :
          ...................................................

 iter      E             dE          RMSdq      gap      omega  full diag
   1   -191.2195760 -0.191220E+03  0.370E-05    1.25       0.0  T
   2   -191.2195760 -0.148077E-10  0.288E-05    1.25     320.9  T
   3   -191.2195760 -0.830767E-10  0.117E-05    1.25     789.2  T

   *** convergence criteria satisfied after 3 iterations ***

         #    Occupation            Energy/Eh            Energy/eV
      -------------------------------------------------------------
         1        2.0000           -0.7370196             -20.0553
       ...           ...                  ...                  ...
       164        2.0000           -0.4005136             -10.8985
       165        2.0000           -0.3999033             -10.8819
       166        2.0000           -0.3846054             -10.4656
       167        2.0000           -0.3820721             -10.3967
       168        2.0000           -0.3772644             -10.2659
       169        2.0000           -0.3664457              -9.9715
       170        2.0000           -0.3589334              -9.7671 (HOMO)
       171                         -0.3129459              -8.5157 (LUMO)
       172                         -0.2698005              -7.3416
       173                         -0.2669859              -7.2651
       174                         -0.2561156              -6.9693
       175                         -0.2429531              -6.6111
       ...                                ...                  ...
       326                          1.3035610              35.4717
      -------------------------------------------------------------
                  HL-Gap            0.0459875 Eh            1.2514 eV
             Fermi-level           -0.3359396 Eh           -9.1414 eV

 SCC (total)                   0 d,  0 h,  0 min,  0.348 sec
 SCC setup                      ...        0 min,  0.006 sec (  1.787%)
 Dispersion                     ...        0 min,  0.004 sec (  1.156%)
 classical contributions        ...        0 min,  0.001 sec (  0.292%)
 integral evaluation            ...        0 min,  0.050 sec ( 14.400%)
 iterations                     ...        0 min,  0.064 sec ( 18.336%)
 molecular gradient             ...        0 min,  0.220 sec ( 63.199%)
 printout                       ...        0 min,  0.003 sec (  0.820%)

         :::::::::::::::::::::::::::::::::::::::::::::::::::::
         ::                     SUMMARY                     ::
         :::::::::::::::::::::::::::::::::::::::::::::::::::::
         :: total energy            -188.253404412591 Eh    ::
         :: total w/o Gsasa/hb      -188.176750827085 Eh    ::
         :: gradient norm              0.000096273971 Eh/a0 ::
         :: HOMO-LUMO gap              1.251384219801 eV    ::
         ::.................................................::
         :: SCC energy              -191.208911731605 Eh    ::
         :: -> isotropic ES            0.277307724712 Eh    ::
         :: -> anisotropic ES         -0.034395232425 Eh    ::
         :: -> anisotropic XC          0.083318113255 Eh    ::
         :: -> dispersion             -0.189683257638 Eh    ::
         :: -> Gsolv                  -0.090518747851 Eh    ::
         ::    -> Gelec               -0.013865162346 Eh    ::
         ::    -> Gsasa               -0.078861728644 Eh    ::
         ::    -> Ghb                  0.000000000000 Eh    ::
         ::    -> Gshift               0.002208143139 Eh    ::
         :: repulsion energy           2.955507319014 Eh    ::
         :: add. restraining           0.000000000000 Eh    ::
         :: total charge              -0.000000000000 e     ::
         :::::::::::::::::::::::::::::::::::::::::::::::::::::

           -------------------------------------------------
          |                Property Printout                |
           -------------------------------------------------

    * Orbital Energies and Occupations

         #    Occupation            Energy/Eh            Energy/eV
      -------------------------------------------------------------
         1        2.0000           -0.7370196             -20.0553
       ...           ...                  ...                  ...
       158        2.0000           -0.4082208             -11.1083
       159        2.0000           -0.4072600             -11.0821
       160        2.0000           -0.4051068             -11.0235
       161        2.0000           -0.4040593             -10.9950
       162        2.0000           -0.4034234             -10.9777
       163        2.0000           -0.4030063             -10.9664
       164        2.0000           -0.4005136             -10.8985
       165        2.0000           -0.3999033             -10.8819
       166        2.0000           -0.3846054             -10.4656
       167        2.0000           -0.3820721             -10.3967
       168        2.0000           -0.3772644             -10.2659
       169        2.0000           -0.3664457              -9.9715
       170        2.0000           -0.3589334              -9.7671 (HOMO)
       171                         -0.3129459              -8.5157 (LUMO)
       172                         -0.2698005              -7.3416
       173                         -0.2669859              -7.2651
       174                         -0.2561156              -6.9693
       175                         -0.2429531              -6.6111
       176                         -0.2419672              -6.5843
       177                         -0.2413619              -6.5678
       178                         -0.2374425              -6.4611
       179                         -0.2354648              -6.4073
       180                         -0.2346483              -6.3851
       181                         -0.2223375              -6.0501
       ...                                ...                  ...
       326                          1.3035610              35.4717
      -------------------------------------------------------------
                  HL-Gap            0.0459875 Eh            1.2514 eV
             Fermi-level           -0.3359396 Eh           -9.1414 eV

     #   Z          covCN         q      C6AA      α(0)
     1   8 O        0.808    -0.580    25.665     6.791
     2  15 P        3.878     0.616   135.661    20.923
     3   8 O        0.817    -0.576    25.564     6.778
     4   8 O        1.661    -0.321    19.372     5.942
     5   6 C        3.230     0.154    23.945     7.946
     6   6 C        2.971    -0.004    28.129     8.700
     7   6 C        2.927    -0.052    29.288     8.875
     8   6 C        2.984     0.006    27.871     8.660
     9   6 C        2.919    -0.036    28.907     8.817
    10   6 C        2.915    -0.032    28.801     8.800
    11   6 C        2.916    -0.032    28.797     8.800
    12   6 C        2.917    -0.035    28.882     8.813
    13   6 C        2.986     0.010    27.783     8.646
    14   6 C        2.975    -0.009    28.240     8.717
    15   6 C        2.975    -0.010    28.263     8.720
    16   6 C        3.118     0.151    24.569     8.119
    17   8 O        1.661    -0.319    19.350     5.938
    18   6 C        2.970    -0.009    28.238     8.716
    19   6 C        2.927    -0.052    29.294     8.876
    20   6 C        2.984     0.005    27.895     8.664
    21   6 C        2.919    -0.036    28.902     8.816
    22   6 C        2.915    -0.032    28.801     8.800
    23   6 C        2.916    -0.032    28.790     8.799
    24   6 C        2.917    -0.035    28.869     8.811
    25   6 C        2.986     0.010    27.786     8.647
    26   6 C        2.980     0.026    27.411     8.588
    27   6 C        2.925    -0.034    28.836     8.806
    28   6 C        2.919    -0.034    28.846     8.807
    29   6 C        2.920    -0.035    28.878     8.812
    30   6 C        2.919    -0.032    28.803     8.801
    31   6 C        2.924    -0.031    28.762     8.795
    32   6 C        2.978     0.022    27.501     8.602
    33   6 C        2.925    -0.036    28.891     8.815
    34   6 C        2.918    -0.031    28.782     8.798
    35   6 C        2.919    -0.032    28.793     8.799
    36   6 C        2.919    -0.030    28.757     8.794
    37   6 C        2.924    -0.029    28.736     8.791
    38   1 H        0.862     0.275     0.794     1.396
    39   1 H        0.925     0.038     2.477     2.461
    40   1 H        0.926     0.034     2.533     2.489
    41   1 H        0.926     0.034     2.533     2.489
    42   1 H        0.926     0.032     2.560     2.502
    43   1 H        0.926     0.029     2.599     2.521
    44   1 H        0.925     0.040     2.446     2.446
    45   1 H        0.926     0.034     2.530     2.487
    46   1 H        0.926     0.034     2.535     2.490
    47   1 H        0.926     0.032     2.561     2.503
    48   1 H        0.926     0.028     2.612     2.527
    49   1 H        0.926     0.031     2.576     2.510
    50   1 H        0.926     0.032     2.563     2.504
    51   1 H        0.926     0.034     2.536     2.490
    52   1 H        0.926     0.033     2.544     2.494
    53   1 H        0.926     0.029     2.594     2.519
    54   1 H        0.926     0.031     2.569     2.506
    55   1 H        0.926     0.033     2.546     2.495
    56   1 H        0.926     0.035     2.510     2.478
    57   1 H        0.926     0.031     2.571     2.507
    58   1 H        0.926     0.030     2.583     2.513
    59   6 C        3.757    -0.137    23.192     6.866
    60   6 C        2.888     0.119    25.385     8.260
    61   7 N        2.696    -0.073    22.653     7.069
    62   6 C        2.913     0.067    26.501     8.441
    63   6 C        2.919    -0.036    28.888     8.814
    64   6 C        2.920    -0.024    28.610     8.771
    65   6 C        2.919    -0.025    28.630     8.774
    66   6 C        2.920    -0.021    28.527     8.759
    67   6 C        2.926    -0.039    28.968     8.826
    68   6 C        2.980     0.001    28.005     8.681
    69   6 C        2.923    -0.028    28.690     8.784
    70   6 C        2.917    -0.026    28.644     8.776
    71   6 C        2.920    -0.013    28.329     8.728
    72   6 C        2.918    -0.014    28.356     8.732
    73   6 C        2.923    -0.016    28.407     8.740
    74   1 H        0.924     0.098     1.802     2.099
    75   1 H        0.925     0.092     1.857     2.131
    76   1 H        0.924     0.107     1.721     2.052
    77   1 H        0.926     0.058     2.218     2.329
    78   1 H        0.926     0.056     2.243     2.342
    79   1 H        0.926     0.054     2.269     2.355
    80   1 H        0.926     0.051     2.309     2.376
    81   1 H        0.926     0.068     2.111     2.272
    82   1 H        0.926     0.057     2.237     2.339
    83   1 H        0.926     0.054     2.266     2.354
    84   1 H        0.926     0.054     2.274     2.358
    85   1 H        0.926     0.054     2.266     2.354
    86   1 H        0.926     0.061     2.182     2.310
    87   6 C        3.651     0.036    20.279     6.468
    88   8 O        1.704    -0.287    18.766     5.849
    89   6 C        2.724     0.340    21.225     7.542
    90   8 O        0.856    -0.466    23.041     6.436
    91   6 C        2.954    -0.073    29.825     8.957
    92   6 C        2.892     0.089    26.019     8.363
    93   6 C        3.761    -0.135    23.135     6.857
    94   7 N        2.717    -0.110    23.410     7.186
    95   6 C        2.889     0.083    26.141     8.382
    96   6 C        3.760    -0.135    23.135     6.857
    97   6 C        2.954    -0.071    29.775     8.950
    98   6 C        2.725     0.344    21.152     7.529
    99   8 O        0.857    -0.468    23.098     6.444
   100   8 O        1.704    -0.276    18.574     5.819
   101   6 C        3.652     0.032    20.336     6.476
   102   6 C        3.817    -0.059    21.628     6.619
   103   1 H        0.925     0.070     2.090     2.261
   104   1 H        0.924     0.055     2.253     2.347
   105   1 H        0.924     0.059     2.205     2.322
   106   1 H        0.925     0.089     1.893     2.152
   107   1 H        0.925     0.067     2.114     2.274
   108   1 H        0.925     0.068     2.109     2.271
   109   1 H        0.860     0.205     1.080     1.628
   110   1 H        0.924     0.074     2.043     2.235
   111   1 H        0.925     0.076     2.024     2.225
   112   1 H        0.925     0.076     2.020     2.223
   113   1 H        0.924     0.062     2.176     2.307
   114   1 H        0.925     0.072     2.066     2.248
   115   1 H        0.924     0.064     2.156     2.296
   116   1 H        0.925     0.072     2.064     2.247
   117   1 H        0.923     0.043     2.409     2.427

 Mol. C6AA /au·bohr⁶  :     183451.198863
 Mol. C8AA /au·bohr⁸  :    4619145.512943
 Mol. α(0) /au        :        681.539233


Wiberg/Mayer (AO) data.
largest (>0.10) Wiberg bond orders for each atom

 ---------------------------------------------------------------------------
     #   Z sym  total        # sym  WBO       # sym  WBO       # sym  WBO
 ---------------------------------------------------------------------------
     1   8 O    1.976 --     2 P    1.738
     2  15 P    5.565 --     1 O    1.738     3 O    1.620     4 O    1.056
                            17 O    1.045
     3   8 O    2.018 --     2 P    1.620    38 H    0.130
     4   8 O    2.291 --     2 P    1.056     5 C    0.989
     5   6 C    3.925 --    14 C    1.454     6 C    1.248     4 O    0.989
     6   6 C    3.987 --     7 C    1.503     5 C    1.248    26 C    1.032
     7   6 C    3.984 --     6 C    1.503     8 C    1.282    39 H    0.966
                            14 C    0.103
     8   6 C    3.988 --     7 C    1.282     9 C    1.278    13 C    1.250
     9   6 C    3.985 --    10 C    1.556     8 C    1.278    40 H    0.968
                            12 C    0.117
    10   6 C    3.987 --     9 C    1.556    11 C    1.322    41 H    0.971
    11   6 C    3.987 --    12 C    1.552    10 C    1.322    42 H    0.971
    12   6 C    3.990 --    11 C    1.552    13 C    1.285    43 H    0.966
                             9 C    0.117
    13   6 C    3.986 --    12 C    1.285     8 C    1.250    14 C    1.239
    14   6 C    3.985 --     5 C    1.454    13 C    1.239    15 C    1.030
                             7 C    0.103
    15   6 C    3.985 --    16 C    1.449    25 C    1.241    14 C    1.030
                            19 C    0.101
    16   6 C    3.924 --    15 C    1.449    18 C    1.239    17 O    1.001
    17   8 O    2.300 --     2 P    1.045    16 C    1.001
    18   6 C    3.986 --    19 C    1.500    16 C    1.239    32 C    1.041
    19   6 C    3.984 --    18 C    1.500    20 C    1.282    44 H    0.965
                            15 C    0.101
    20   6 C    3.987 --    19 C    1.282    21 C    1.278    25 C    1.250
    21   6 C    3.986 --    22 C    1.555    20 C    1.278    45 H    0.968
                            24 C    0.117
    22   6 C    3.987 --    21 C    1.555    23 C    1.322    46 H    0.971
    23   6 C    3.986 --    24 C    1.552    22 C    1.322    47 H    0.971
    24   6 C    3.990 --    23 C    1.552    25 C    1.284    48 H    0.967
                            21 C    0.117
    25   6 C    3.986 --    24 C    1.284    20 C    1.250    15 C    1.241
    26   6 C    3.988 --    27 C    1.394    31 C    1.394     6 C    1.032
                            29 C    0.108
    27   6 C    3.988 --    28 C    1.449    26 C    1.394    49 H    0.970
                            30 C    0.109
    28   6 C    3.992 --    27 C    1.449    29 C    1.436    50 H    0.971
                            31 C    0.109
    29   6 C    3.988 --    28 C    1.436    30 C    1.434    51 H    0.970
                            26 C    0.108
    30   6 C    3.991 --    31 C    1.449    29 C    1.434    52 H    0.970
                            27 C    0.109
    31   6 C    3.988 --    30 C    1.449    26 C    1.394    53 H    0.970
                            28 C    0.109
    32   6 C    3.988 --    37 C    1.390    33 C    1.390    18 C    1.041
                            35 C    0.107
    33   6 C    3.989 --    34 C    1.451    32 C    1.390    54 H    0.969
                            36 C    0.109
    34   6 C    3.992 --    33 C    1.451    35 C    1.433    55 H    0.970
                            37 C    0.109
    35   6 C    3.987 --    36 C    1.435    34 C    1.433    56 H    0.971
                            32 C    0.107
    36   6 C    3.992 --    37 C    1.449    35 C    1.435    57 H    0.969
                            33 C    0.109
    37   6 C    3.988 --    36 C    1.449    32 C    1.390    58 H    0.970
                            34 C    0.109
    38   1 H    0.924 --    61 N    0.750     3 O    0.130
    39   1 H    0.997 --     7 C    0.966
    40   1 H    0.998 --     9 C    0.968
    41   1 H    0.998 --    10 C    0.971
    42   1 H    0.998 --    11 C    0.971
    43   1 H    0.999 --    12 C    0.966
    44   1 H    0.997 --    19 C    0.965
    45   1 H    0.998 --    21 C    0.968
    46   1 H    0.998 --    22 C    0.971
    47   1 H    0.998 --    23 C    0.971
    48   1 H    0.999 --    24 C    0.967
    49   1 H    0.999 --    27 C    0.970
    50   1 H    0.998 --    28 C    0.971
    51   1 H    0.998 --    29 C    0.970
    52   1 H    0.998 --    30 C    0.970
    53   1 H    0.999 --    31 C    0.970
    54   1 H    0.999 --    33 C    0.969
    55   1 H    0.998 --    34 C    0.970
    56   1 H    0.998 --    35 C    0.971
    57   1 H    0.998 --    36 C    0.969
    58   1 H    0.999 --    37 C    0.970
    59   6 C    3.979 --    60 C    1.049    75 H    0.964    76 H    0.948
                            74 H    0.933
    60   6 C    3.936 --    61 N    1.589    68 C    1.088    59 C    1.049
    61   7 N    3.651 --    60 C    1.589    62 C    1.043    38 H    0.750
    62   6 C    3.954 --    63 C    1.376    67 C    1.365    61 N    1.043
    63   6 C    3.980 --    64 C    1.444    62 C    1.376    77 H    0.965
                            66 C    0.105
    64   6 C    3.990 --    63 C    1.444    65 C    1.436    78 H    0.968
                            67 C    0.108
    65   6 C    3.981 --    64 C    1.436    66 C    1.424    79 H    0.969
    66   6 C    3.990 --    67 C    1.457    65 C    1.424    80 H    0.967
                            63 C    0.105
    67   6 C    3.981 --    66 C    1.457    62 C    1.365    81 H    0.955
                            64 C    0.108
    68   6 C    3.984 --    73 C    1.362    69 C    1.355    60 C    1.088
    69   6 C    3.980 --    70 C    1.466    68 C    1.355    82 H    0.966
                            72 C    0.106
    70   6 C    3.990 --    69 C    1.466    71 C    1.420    83 H    0.968
                            73 C    0.102
    71   6 C    3.981 --    72 C    1.435    70 C    1.420    84 H    0.970
    72   6 C    3.989 --    73 C    1.452    71 C    1.435    85 H    0.964
                            69 C    0.106
    73   6 C    3.981 --    72 C    1.452    68 C    1.362    86 H    0.957
                            70 C    0.102
    74   1 H    0.988 --    59 C    0.933
    75   1 H    0.991 --    59 C    0.964
    76   1 H    0.988 --    59 C    0.948
    77   1 H    0.996 --    63 C    0.965
    78   1 H    0.996 --    64 C    0.968
    79   1 H    0.997 --    65 C    0.969
    80   1 H    0.996 --    66 C    0.967
    81   1 H    0.995 --    67 C    0.955
    82   1 H    0.997 --    69 C    0.966
    83   1 H    0.996 --    70 C    0.968
    84   1 H    0.997 --    71 C    0.970
    85   1 H    0.996 --    72 C    0.964
    86   1 H    0.996 --    73 C    0.957
    87   6 C    3.929 --   103 H    0.981   105 H    0.977   104 H    0.975
                            88 O    0.963
    88   8 O    2.263 --    89 C    1.077    87 C    0.963    90 O    0.146
    89   6 C    3.923 --    90 O    1.653    91 C    1.090    88 O    1.077
    90   8 O    1.986 --    89 C    1.653    88 O    0.146
    91   6 C    3.966 --    92 C    1.598    89 C    1.090   102 C    0.997
    92   6 C    3.967 --    91 C    1.598    94 N    1.169    93 C    1.033
    93   6 C    3.986 --    92 C    1.033   106 H    0.968   107 H    0.959
                           108 H    0.958
    94   7 N    3.521 --    92 C    1.169    95 C    1.148   109 H    0.921
    95   6 C    3.966 --    97 C    1.631    94 N    1.148    96 C    1.030
    96   6 C    3.988 --    95 C    1.030   112 H    0.971   111 H    0.963
                           110 H    0.958
    97   6 C    3.968 --    95 C    1.631    98 C    1.066   102 C    0.992
    98   6 C    3.920 --    99 O    1.652   100 O    1.103    97 C    1.066
    99   8 O    1.976 --    98 C    1.652   100 O    0.151
   100   8 O    2.287 --    98 C    1.103   101 C    0.956    99 O    0.151
   101   6 C    3.923 --   114 H    0.981   113 H    0.976   115 H    0.974
                           100 O    0.956
   102   6 C    3.993 --    91 C    0.997    97 C    0.992   116 H    0.961
                           117 H    0.954
   103   1 H    0.995 --    87 C    0.981
   104   1 H    0.996 --    87 C    0.975
   105   1 H    0.996 --    87 C    0.977
   106   1 H    0.992 --    93 C    0.968
   107   1 H    0.995 --    93 C    0.959
   108   1 H    0.995 --    93 C    0.958
   109   1 H    0.957 --    94 N    0.921
   110   1 H    0.994 --    96 C    0.958
   111   1 H    0.994 --    96 C    0.963
   112   1 H    0.994 --    96 C    0.971
   113   1 H    0.996 --   101 C    0.976
   114   1 H    0.994 --   101 C    0.981
   115   1 H    0.996 --   101 C    0.974
   116   1 H    0.995 --   102 C    0.961
   117   1 H    0.998 --   102 C    0.954
 ---------------------------------------------------------------------------

Topologies differ in total number of bonds
Writing topology from bond orders to xtbtopo.mol

molecular dipole:
                 x           y           z       tot (Debye)
 q only:       -1.737       2.434       0.533
   full:       -1.610       1.880       0.395       6.370
molecular quadrupole (traceless):
                xx          xy          yy          xz          yz          zz
 q only:      -13.378     -39.823      16.300      -4.079      14.877      -2.921
  q+dip:       -7.228     -40.022       3.398      -9.379      15.051       3.830
   full:      -10.052     -35.601       7.849      -6.893      12.113       2.202

           -------------------------------------------------
          |                Geometry Summary                 |
           -------------------------------------------------

      molecular mass/u    :      920.9834508
   center of mass at/Å    :       -0.2841368       3.0368398       0.3042147
  moments of inertia/u·Å² :        0.1039510E+05   0.1645837E+05   0.2019324E+05
rotational constants/cm⁻¹ :        0.1621690E-02   0.1024259E-02   0.8348156E-03

 * 113 selected distances

     #   Z          #   Z                                           value/Å
     1   8 O        2  15 P                                       1.4853335
     2  15 P        3   8 O                                       1.5031031
     2  15 P        4   8 O                                       1.6461580
     4   8 O        5   6 C                                       1.3773692
     5   6 C        6   6 C                                       1.4131905
     6   6 C        7   6 C                                       1.3733646
     7   6 C        8   6 C                                       1.4076509
     8   6 C        9   6 C                                       1.4113915
     9   6 C       10   6 C                                       1.3664598
    10   6 C       11   6 C                                       1.4032936
    11   6 C       12   6 C                                       1.3676603
     8   6 C       13   6 C                                       1.4196117
    12   6 C       13   6 C                                       1.4118129
     5   6 C       14   6 C                                       1.3779972
    13   6 C       14   6 C                                       1.4206009
    15   6 C       16   6 C                                       1.3813399
     2  15 P       17   8 O                                       1.6522987 (max)
    16   6 C       17   8 O                                       1.3725445
    16   6 C       18   6 C                                       1.4188641
    18   6 C       19   6 C                                       1.3745413
    19   6 C       20   6 C                                       1.4069051
    20   6 C       21   6 C                                       1.4112831
    21   6 C       22   6 C                                       1.3665460
    22   6 C       23   6 C                                       1.4035097
    23   6 C       24   6 C                                       1.3676124
    15   6 C       25   6 C                                       1.4198334
    20   6 C       25   6 C                                       1.4186750
    24   6 C       25   6 C                                       1.4118230
    26   6 C       27   6 C                                       1.3912083
    27   6 C       28   6 C                                       1.3829985
    28   6 C       29   6 C                                       1.3844885
    29   6 C       30   6 C                                       1.3849679
    26   6 C       31   6 C                                       1.3912883
    30   6 C       31   6 C                                       1.3828055
    32   6 C       33   6 C                                       1.3932066
    33   6 C       34   6 C                                       1.3830431
    34   6 C       35   6 C                                       1.3852730
    35   6 C       36   6 C                                       1.3849258
    32   6 C       37   6 C                                       1.3927610
    36   6 C       37   6 C                                       1.3837975
     7   6 C       39   1 H                                       1.0815690
     9   6 C       40   1 H                                       1.0810946
    10   6 C       41   1 H                                       1.0803309
    11   6 C       42   1 H                                       1.0804611
    12   6 C       43   1 H                                       1.0800603
    19   6 C       44   1 H                                       1.0813713
    21   6 C       45   1 H                                       1.0810836
    22   6 C       46   1 H                                       1.0803062
    23   6 C       47   1 H                                       1.0804565
    24   6 C       48   1 H                                       1.0802693
    27   6 C       49   1 H                                       1.0807904
    28   6 C       50   1 H                                       1.0807125
    29   6 C       51   1 H                                       1.0799001
    30   6 C       52   1 H                                       1.0805699
    31   6 C       53   1 H                                       1.0808176
    33   6 C       54   1 H                                       1.0810392
    34   6 C       55   1 H                                       1.0808792
    35   6 C       56   1 H                                       1.0798390
    36   6 C       57   1 H                                       1.0810291
    37   6 C       58   1 H                                       1.0807540
    59   6 C       60   6 C                                       1.4865763
    60   6 C       61   7 N                                       1.2936876
    61   7 N       62   6 C                                       1.4041978
    62   6 C       63   6 C                                       1.3920602
    63   6 C       64   6 C                                       1.3833462
    64   6 C       65   6 C                                       1.3844034
    65   6 C       66   6 C                                       1.3863087
    62   6 C       67   6 C                                       1.3934074
    66   6 C       67   6 C                                       1.3805258
    68   6 C       69   6 C                                       1.4001619
    69   6 C       70   6 C                                       1.3808689
    70   6 C       71   6 C                                       1.3872671
    71   6 C       72   6 C                                       1.3848906
    68   6 C       73   6 C                                       1.3974070
    72   6 C       73   6 C                                       1.3812230
    59   6 C       74   1 H                                       1.0903130
    59   6 C       75   1 H                                       1.0877984
    59   6 C       76   1 H                                       1.0907393
    63   6 C       77   1 H                                       1.0771978
    64   6 C       78   1 H                                       1.0797685
    65   6 C       79   1 H                                       1.0799060
    66   6 C       80   1 H                                       1.0791939
    67   6 C       81   1 H                                       1.0774539
    69   6 C       82   1 H                                       1.0795915
    70   6 C       83   1 H                                       1.0802091
    71   6 C       84   1 H                                       1.0796446
    72   6 C       85   1 H                                       1.0781764
    73   6 C       86   1 H                                       1.0762296
    87   6 C       88   8 O                                       1.4195216
    88   8 O       89   6 C                                       1.3588879
    89   6 C       90   8 O                                       1.2173206
    91   6 C       92   6 C                                       1.3571297
    92   6 C       94   7 N                                       1.3721291
    94   7 N       95   6 C                                       1.3775648
    95   6 C       97   6 C                                       1.3517209
    98   6 C       99   8 O                                       1.2189570
    98   6 C      100   8 O                                       1.3460528
   100   8 O      101   6 C                                       1.4219596
    87   6 C      103   1 H                                       1.0874590
    87   6 C      104   1 H                                       1.0927624
    87   6 C      105   1 H                                       1.0921284
    93   6 C      106   1 H                                       1.0830533
    93   6 C      107   1 H                                       1.0901843
    93   6 C      108   1 H                                       1.0894502
    94   7 N      109   1 H                                       1.0124670 (min)
    96   6 C      110   1 H                                       1.0902136
    96   6 C      111   1 H                                       1.0899589
    96   6 C      112   1 H                                       1.0820970
   101   6 C      113   1 H                                       1.0924680
   101   6 C      114   1 H                                       1.0871316
   101   6 C      115   1 H                                       1.0915142
   102   6 C      116   1 H                                       1.0886027
   102   6 C      117   1 H                                       1.1000337

 * 6 distinct bonds (by element types)

   Z      Z             #   av. dist./Å        max./Å        min./Å
Note: The following floating-point exceptions are signalling: IEEE_DIVIDE_BY_ZERO IEEE_UNDERFLOW_FLAG IEEE_DENORMAL
normal termination of xtb
   1 H    6 C          47     1.0835450     1.1000337     1.0762296
   6 C    6 C          49     1.3926945     1.4865763     1.3517209
   1 H    7 N           1     1.0124670     1.0124670     1.0124670
   6 C    7 N           4     1.3618948     1.4041978     1.2936876
   6 C    8 O           8     1.3415767     1.4219596     1.2173206
   8 O   15 P           4     1.5717233     1.6522987     1.4853335


optimized geometry written to: xtbopt.xyz


           -------------------------------------------------
          | TOTAL ENERGY             -188.253404412591 Eh   |
          | GRADIENT NORM               0.000096273971 Eh/α |
          | HOMO-LUMO GAP               1.251384219801 eV   |
           -------------------------------------------------

------------------------------------------------------------------------
 * finished run on 2026/09/10 at 23:09:05.490     
------------------------------------------------------------------------
 total:
 * wall-time:     0 d,  0 h,  1 min, 57.203 sec
 *  cpu-time:     0 d,  0 h,  0 min, 16.188 sec
 * ratio c/w:     0.138 speedup
 SCF:
 * wall-time:     0 d,  0 h,  0 min,  0.708 sec
 *  cpu-time:     0 d,  0 h,  0 min,  0.062 sec
 * ratio c/w:     0.088 speedup
 ANC optimizer:
 * wall-time:     0 d,  0 h,  1 min, 56.388 sec
 *  cpu-time:     0 d,  0 h,  0 min, 16.125 sec
 * ratio c/w:     0.139 speedup

