 Entering Gaussian System
 *********************************************
 Gaussian 98:
 frequency output generated by the xtb code
 *********************************************
                         Standard orientation:
 --------------------------------------------------------------------
  Center     Atomic     Atomic              Coordinates (Angstroms)
  Number     Number      Type              X           Y           Z
 --------------------------------------------------------------------
    1          6             0       -0.554654   -1.382824   -1.626150
    2          6             0       -0.203175   -0.368858   -0.568729
    3          7             0       -1.058542    0.208990    0.168261
    4          6             0       -2.409824   -0.024420    0.234253
    5          6             0       -2.918649   -1.218328    0.755017
    6          6             0       -4.279055   -1.377534    0.932934
    7          6             0       -5.156565   -0.363137    0.586358
    8          6             0       -4.659164    0.823779    0.070353
    9          6             0       -3.300518    1.001288   -0.095412
   10          6             0        1.207294    0.004958   -0.394352
   11          6             0        2.244392   -0.661995   -1.045550
   12          6             0        3.559179   -0.281340   -0.849780
   13          6             0        3.884727    0.773079   -0.006157
   14          6             0        5.308989    1.178561    0.217681
   15          6             0        2.849621    1.438704    0.646073
   16          6             0        1.537278    1.062383    0.458442
   17          1             0       -0.129200   -1.090842   -2.584740
   18          1             0       -1.635842   -1.461233   -1.725924
   19          1             0       -0.157907   -2.360381   -1.354227
   20          1             0       -2.230770   -2.005747    1.030822
   21          1             0       -4.658064   -2.305283    1.338918
   22          1             0       -6.220340   -0.494791    0.720267
   23          1             0       -5.337881    1.620368   -0.200960
   24          1             0       -2.907788    1.924426   -0.496577
   25          1             0        2.037981   -1.490270   -1.706023
   26          1             0        4.347153   -0.814407   -1.363840
   27          1             0        5.406333    2.262691    0.203002
   28          1             0        5.961462    0.754339   -0.541781
   29          1             0        5.646244    0.827779    1.193823
   30          1             0        3.082469    2.261968    1.307042
   31          1             0        0.737620    1.581093    0.964373
 --------------------------------------------------------------------
     1 basis functions        1 primitive gaussians
     1 alpha electrons        1 beta electrons

 Harmonic frequencies (cm**-1), IR intensities (km*mol⁻¹),
 Raman scattering activities (A**4/amu), Raman depolarization ratios,
 reduced masses (AMU), force constants (mDyne/A) and normal coordinates:
                      1                      2                      3
                        a                      a                      a 
 Frequencies --   -10.2699                27.3751                41.0715
 Red. masses --     1.3564                 9.4039                10.0423
 Frc consts  --     0.0000                 0.0000                 0.0000
 IR Inten    --     0.5912                 0.0906                 0.1402
 Raman Activ --     0.0000                 0.0000                 0.0000
 Depolar     --     0.0000                 0.0000                 0.0000
 Atom AN      X      Y      Z        X      Y      Z        X      Y      Z
   1   6     0.02  -0.07   0.07     0.01  -0.12   0.11    -0.06   0.24  -0.18
   2   6     0.00  -0.02   0.02     0.01  -0.05   0.04    -0.03   0.19  -0.14
   3   7    -0.01   0.01  -0.01     0.00  -0.01  -0.00    -0.02   0.14  -0.09
   4   6    -0.00   0.01  -0.01    -0.00   0.00  -0.00    -0.01   0.05  -0.03
   5   6    -0.00   0.03   0.04    -0.02   0.09   0.19     0.14   0.10   0.22
   6   6    -0.00   0.03   0.04    -0.02   0.12   0.17     0.16  -0.01   0.31
   7   6    -0.00   0.01  -0.01    -0.01   0.06  -0.04     0.04  -0.17   0.13
   8   6    -0.01  -0.01  -0.06     0.00  -0.03  -0.24    -0.10  -0.22  -0.13
   9   6    -0.01  -0.01  -0.06     0.01  -0.06  -0.22    -0.12  -0.11  -0.21
  10   6     0.00  -0.00   0.01     0.01  -0.04   0.02    -0.02   0.14  -0.12
  11   6     0.00   0.02  -0.02    -0.01   0.21  -0.26    -0.04   0.06  -0.06
  12   6    -0.00   0.05  -0.03    -0.02   0.23  -0.28    -0.02  -0.07   0.05
  13   6    -0.01   0.04  -0.02     0.00   0.01  -0.01     0.02  -0.11   0.09
  14   6     0.01  -0.04  -0.00    -0.01   0.07  -0.04     0.04  -0.29   0.24
  15   6    -0.01   0.01   0.01     0.02  -0.23   0.27     0.03  -0.00  -0.01
  16   6    -0.00  -0.01   0.02     0.03  -0.25   0.29     0.00   0.12  -0.11
  17   1    -0.01  -0.03   0.01    -0.06  -0.01   0.01    -0.01   0.07  -0.05
  18   1     0.00  -0.03   0.03     0.00  -0.09   0.08    -0.02   0.08  -0.05
  19   1     0.02  -0.01   0.03     0.07  -0.02   0.01    -0.03   0.06  -0.06
  20   1     0.00   0.01   0.02    -0.01   0.04   0.10     0.07   0.06   0.10
  21   1     0.00   0.01   0.02    -0.01   0.06   0.09     0.08   0.01   0.15
  22   1    -0.00   0.00  -0.00    -0.01   0.02  -0.02     0.02  -0.07   0.06
  23   1    -0.00  -0.01  -0.03     0.00  -0.02  -0.12    -0.06  -0.10  -0.08
  24   1    -0.00  -0.01  -0.03     0.01  -0.04  -0.11    -0.07  -0.04  -0.12
  25   1     0.00   0.01  -0.01    -0.01   0.11  -0.14    -0.02   0.02  -0.02
  26   1     0.00   0.02  -0.01    -0.01   0.12  -0.15    -0.01  -0.04   0.03
  27   1    -0.06  -0.00   0.56    -0.01   0.02  -0.09     0.05  -0.09   0.07
  28   1    -0.08   0.42  -0.32     0.01  -0.03   0.03     0.02  -0.10   0.09
  29   1     0.17  -0.52  -0.24    -0.02   0.10   0.02    -0.03  -0.10   0.08
  30   1    -0.01   0.00   0.01     0.01  -0.12   0.14     0.02  -0.01   0.00
  31   1    -0.00  -0.01   0.01     0.01  -0.13   0.15     0.00   0.06  -0.05
                      4                      5                      6
                        a                      a                      a 
 Frequencies --    46.8291                61.7349               107.1129
 Red. masses --    10.4979                10.4031                 9.9751
 Frc consts  --     0.0000                 0.0000                 0.0000
 IR Inten    --     1.5213                 1.4973                 0.5130
 Raman Activ --     0.0000                 0.0000                 0.0000
 Depolar     --     0.0000                 0.0000                 0.0000
 Atom AN      X      Y      Z        X      Y      Z        X      Y      Z
   1   6    -0.10   0.37  -0.10     0.06   0.09  -0.38     0.03   0.17  -0.18
   2   6    -0.01   0.08   0.16     0.04  -0.14  -0.16     0.00   0.04  -0.04
   3   7     0.04  -0.14   0.40     0.05  -0.36  -0.01    -0.06   0.13  -0.18
   4   6     0.01  -0.08   0.21     0.03  -0.19  -0.01    -0.05   0.11  -0.19
   5   6    -0.09  -0.04   0.21    -0.11  -0.07   0.12     0.07   0.08  -0.12
   6   6    -0.12  -0.02  -0.05    -0.13   0.16   0.23     0.11   0.01   0.07
   7   6    -0.05  -0.05  -0.29    -0.00   0.26   0.20     0.01  -0.04   0.17
   8   6     0.05  -0.09  -0.28     0.14   0.12   0.03    -0.12  -0.05   0.04
   9   6     0.08  -0.10  -0.03     0.16  -0.10  -0.08    -0.15   0.03  -0.15
  10   6     0.01   0.01   0.13     0.02  -0.10  -0.08     0.02  -0.13   0.17
  11   6    -0.05  -0.05   0.11     0.10  -0.05   0.00     0.02  -0.19   0.23
  12   6    -0.03  -0.06   0.00     0.06   0.03   0.08     0.02  -0.14   0.16
  13   6     0.04  -0.00  -0.10    -0.06   0.08   0.06     0.01  -0.03   0.03
  14   6     0.06   0.01  -0.25    -0.10   0.18   0.14    -0.01   0.25  -0.33
  15   6     0.10   0.04  -0.06    -0.13   0.03  -0.02     0.03  -0.14   0.17
  16   6     0.08   0.05   0.06    -0.10  -0.05  -0.08     0.03  -0.19   0.24
  17   1    -0.01   0.15  -0.00     0.03   0.08  -0.09     0.07   0.06  -0.02
  18   1    -0.03   0.16  -0.04     0.02   0.04  -0.12     0.01   0.10  -0.11
  19   1    -0.07   0.07  -0.09     0.01   0.01  -0.16    -0.05   0.03  -0.06
  20   1    -0.04  -0.01   0.11    -0.06  -0.04   0.04     0.05   0.04  -0.05
  21   1    -0.06   0.00  -0.02    -0.07   0.07   0.10     0.06  -0.00   0.04
  22   1    -0.02  -0.01  -0.15    -0.00   0.13   0.09     0.01  -0.02   0.10
  23   1     0.03  -0.03  -0.14     0.07   0.06  -0.00    -0.06  -0.03   0.03
  24   1     0.05  -0.04  -0.01     0.08  -0.06  -0.06    -0.08   0.01  -0.07
  25   1    -0.03  -0.03   0.05     0.05  -0.02   0.00     0.01  -0.07   0.08
  26   1    -0.02  -0.03  -0.00     0.04   0.02   0.04     0.00  -0.04   0.04
  27   1     0.01   0.00  -0.07    -0.05   0.06   0.07    -0.07   0.08  -0.10
  28   1    -0.01   0.01  -0.10    -0.01   0.09   0.04    -0.04   0.12  -0.15
  29   1     0.05  -0.00  -0.09    -0.03   0.04   0.03     0.10   0.09  -0.13
  30   1     0.05   0.02  -0.04    -0.07   0.02  -0.01     0.01  -0.04   0.04
  31   1     0.03   0.03   0.02    -0.05  -0.03  -0.04     0.01  -0.06   0.08
                      7                      8                      9
                        a                      a                      a 
 Frequencies --   155.6860               201.7150               239.6234
 Red. masses --    10.3548                 1.7161                10.1654
 Frc consts  --     0.0000                 0.0000                 0.0000
 IR Inten    --     1.6956                 0.8184                 0.5988
 Raman Activ --     0.0000                 0.0000                 0.0000
 Depolar     --     0.0000                 0.0000                 0.0000
 Atom AN      X      Y      Z        X      Y      Z        X      Y      Z
   1   6    -0.29  -0.00  -0.03    -0.08  -0.02   0.07     0.20  -0.12  -0.13
   2   6    -0.05  -0.05  -0.08     0.00   0.04  -0.01    -0.00   0.06  -0.22
   3   7     0.15   0.11   0.02     0.01  -0.03   0.04    -0.07  -0.04  -0.22
   4   6     0.15   0.17   0.16     0.01  -0.06  -0.02    -0.07   0.02   0.13
   5   6     0.23   0.15   0.16    -0.01  -0.06  -0.05    -0.14   0.11   0.32
   6   6     0.23   0.00  -0.04    -0.01   0.00   0.01    -0.17   0.03   0.07
   7   6     0.18  -0.10  -0.22     0.01   0.04   0.06    -0.21  -0.11  -0.25
   8   6     0.13  -0.00  -0.05     0.03  -0.00  -0.02    -0.15  -0.01   0.06
   9   6     0.13   0.15   0.16     0.03  -0.05  -0.06    -0.12   0.07   0.33
  10   6    -0.03  -0.17  -0.12     0.00   0.04  -0.02     0.03   0.09  -0.18
  11   6     0.01  -0.14  -0.06    -0.01   0.05  -0.04     0.10   0.04  -0.04
  12   6    -0.02  -0.06   0.03    -0.01   0.07  -0.07     0.12  -0.06   0.10
  13   6    -0.15  -0.02   0.04     0.00   0.03  -0.02     0.13  -0.07   0.10
  14   6    -0.22   0.19   0.09     0.01  -0.02   0.03     0.12   0.12  -0.06
  15   6    -0.21  -0.10   0.01     0.01  -0.02   0.04     0.09  -0.11   0.08
  16   6    -0.15  -0.17  -0.07     0.01   0.01   0.02     0.08  -0.00  -0.08
  17   1    -0.07  -0.04  -0.01     0.41  -0.35   0.11     0.14  -0.11  -0.02
  18   1    -0.09   0.06  -0.00    -0.02   0.39  -0.32     0.06  -0.02  -0.11
  19   1    -0.14  -0.02  -0.00    -0.50  -0.11   0.33     0.02  -0.02   0.06
  20   1     0.08   0.07   0.07    -0.01  -0.03  -0.02    -0.05   0.04   0.14
  21   1     0.07  -0.01  -0.03    -0.01   0.01   0.01    -0.05   0.01   0.02
  22   1     0.05  -0.07  -0.13     0.00   0.03   0.04    -0.07  -0.07  -0.18
  23   1     0.02  -0.02  -0.03     0.01   0.00  -0.01    -0.03   0.00   0.01
  24   1     0.03   0.06   0.07     0.02  -0.02  -0.03    -0.04   0.04   0.14
  25   1     0.02  -0.04  -0.02    -0.00   0.00   0.00     0.05   0.01  -0.02
  26   1     0.02   0.00   0.02    -0.00   0.03  -0.03     0.03  -0.03   0.04
  27   1    -0.12   0.06   0.05     0.01  -0.01   0.01    -0.02   0.04  -0.03
  28   1    -0.04   0.10   0.02     0.01  -0.01   0.01     0.02   0.06  -0.04
  29   1    -0.05   0.06   0.02    -0.01  -0.01   0.01     0.09   0.06  -0.03
  30   1    -0.08  -0.03   0.01     0.01  -0.02   0.03     0.02  -0.05   0.05
  31   1    -0.07  -0.07  -0.04     0.00  -0.00   0.01     0.02   0.01  -0.03
                     10                     11                     12
                        a                      a                      a 
 Frequencies --   253.3248               272.1080               333.6799
 Red. masses --    10.1202                 9.5446                 9.1030
 Frc consts  --     0.0000                 0.0000                 0.0000
 IR Inten    --     0.1638                 0.4285                 0.2406
 Raman Activ --     0.0000                 0.0000                 0.0000
 Depolar     --     0.0000                 0.0000                 0.0000
 Atom AN      X      Y      Z        X      Y      Z        X      Y      Z
   1   6    -0.06   0.09  -0.05    -0.42   0.04   0.19    -0.41  -0.10  -0.08
   2   6     0.02  -0.16   0.17    -0.04   0.13  -0.03    -0.03  -0.16  -0.11
   3   7    -0.03   0.01   0.02     0.01   0.07   0.12    -0.01  -0.08  -0.15
   4   6    -0.08   0.14  -0.03    -0.02  -0.06   0.01    -0.00  -0.01  -0.05
   5   6    -0.07   0.14   0.01    -0.10  -0.09  -0.12     0.01   0.01   0.03
   6   6    -0.05   0.02   0.02    -0.11  -0.03  -0.05     0.01   0.00   0.02
   7   6    -0.15  -0.08  -0.00    -0.09   0.05   0.13     0.00  -0.02  -0.05
   8   6    -0.20  -0.04   0.04    -0.04  -0.03  -0.01     0.00   0.01   0.03
   9   6    -0.20   0.08   0.03    -0.04  -0.12  -0.12     0.00   0.02   0.03
  10   6     0.11  -0.32   0.15     0.06   0.06  -0.23    -0.01  -0.08   0.02
  11   6     0.18  -0.13   0.01     0.14   0.02  -0.11     0.13   0.07   0.09
  12   6     0.16   0.12  -0.22     0.18  -0.12   0.10     0.06   0.25   0.19
  13   6     0.14   0.14  -0.22     0.20  -0.12   0.11     0.06   0.28   0.16
  14   6     0.09   0.06   0.30     0.11   0.29   0.08     0.29  -0.23  -0.19
  15   6     0.07   0.07  -0.26     0.14  -0.15   0.03    -0.05   0.19   0.10
  16   6     0.11  -0.19  -0.02     0.13  -0.02  -0.16    -0.02  -0.05   0.04
  17   1     0.02   0.07   0.02    -0.23  -0.02  -0.00    -0.18  -0.04  -0.05
  18   1    -0.02   0.08  -0.05    -0.13   0.01   0.18    -0.13   0.03   0.07
  19   1    -0.07  -0.01  -0.07    -0.09   0.02   0.04    -0.15  -0.06  -0.07
  20   1    -0.01   0.05   0.00    -0.05  -0.05  -0.05     0.00   0.01   0.02
  21   1     0.01  -0.01   0.01    -0.04  -0.01  -0.03     0.00   0.00   0.01
  22   1    -0.04  -0.05  -0.01    -0.02   0.04   0.09    -0.00  -0.01  -0.03
  23   1    -0.07  -0.02   0.01    -0.00   0.00  -0.00     0.00   0.01   0.02
  24   1    -0.09   0.04   0.01    -0.01  -0.04  -0.06     0.00   0.01   0.01
  25   1     0.07  -0.06   0.02     0.04   0.02  -0.06     0.08   0.02   0.01
  26   1     0.05   0.06  -0.09     0.05  -0.05   0.05     0.03   0.09   0.06
  27   1     0.05   0.02   0.13    -0.09   0.10   0.03     0.24  -0.08  -0.10
  28   1     0.11   0.03   0.15     0.06   0.16   0.01    -0.04  -0.19  -0.09
  29   1    -0.10  -0.02   0.12     0.08   0.11   0.01     0.12  -0.08  -0.07
  30   1    -0.00   0.05  -0.10     0.02  -0.05   0.02    -0.07   0.07   0.03
  31   1     0.03  -0.07   0.01     0.04   0.01  -0.06    -0.02  -0.03   0.01
                     13                     14                     15
                        a                      a                      a 
 Frequencies --   368.0784               369.8183               390.0732
 Red. masses --     8.9220                 9.0667                 9.9250
 Frc consts  --     0.0000                 0.0000                 0.0000
 IR Inten    --     0.1113                 1.4670                 2.2374
 Raman Activ --     0.0000                 0.0000                 0.0000
 Depolar     --     0.0000                 0.0000                 0.0000
 Atom AN      X      Y      Z        X      Y      Z        X      Y      Z
   1   6    -0.01  -0.00   0.01     0.03   0.00  -0.00     0.22   0.06   0.04
   2   6    -0.00   0.03  -0.03     0.01   0.01  -0.01     0.03  -0.07   0.18
   3   7    -0.02   0.02  -0.05     0.02  -0.01   0.01     0.13  -0.04   0.32
   4   6    -0.00  -0.04  -0.01     0.01   0.01   0.01     0.02   0.20   0.11
   5   6    -0.01  -0.06  -0.07     0.03   0.17   0.39    -0.03   0.12  -0.13
   6   6     0.00   0.04   0.10    -0.03  -0.15  -0.38    -0.01   0.01  -0.05
   7   6     0.01   0.01  -0.02    -0.01  -0.00   0.00    -0.09  -0.01   0.14
   8   6     0.02  -0.02  -0.09     0.02   0.15   0.38    -0.13  -0.08  -0.07
   9   6     0.03   0.02   0.10    -0.03  -0.15  -0.38    -0.11   0.06  -0.04
  10   6    -0.01   0.02   0.02     0.01  -0.00  -0.00     0.08  -0.16  -0.15
  11   6    -0.05   0.25  -0.28    -0.00   0.05  -0.08     0.14   0.04  -0.29
  12   6     0.02  -0.27   0.29     0.00  -0.06   0.07     0.06   0.04   0.13
  13   6     0.00  -0.00  -0.05    -0.02   0.01  -0.00    -0.08  -0.05   0.30
  14   6    -0.01   0.02   0.02    -0.02  -0.01  -0.01    -0.01  -0.10  -0.16
  15   6    -0.01   0.25  -0.33    -0.02   0.07  -0.07    -0.17   0.06   0.04
  16   6     0.04  -0.26   0.35    -0.00  -0.07   0.08    -0.09  -0.08  -0.22
  17   1     0.01  -0.03  -0.00     0.02  -0.02   0.00     0.14   0.06   0.06
  18   1    -0.00   0.01  -0.01     0.01   0.01  -0.01     0.07   0.00  -0.08
  19   1    -0.02  -0.00   0.02    -0.00   0.00   0.02     0.06   0.01   0.01
  20   1    -0.01  -0.03  -0.04     0.02   0.10   0.22    -0.00   0.02  -0.08
  21   1    -0.00   0.03   0.06    -0.02  -0.10  -0.24     0.03  -0.02  -0.04
  22   1     0.00   0.00  -0.01    -0.00  -0.00  -0.00    -0.02  -0.01   0.08
  23   1     0.01  -0.02  -0.05     0.01   0.09   0.23    -0.05  -0.05  -0.06
  24   1     0.02   0.01   0.06    -0.02  -0.09  -0.23    -0.08   0.03  -0.04
  25   1    -0.03   0.16  -0.19    -0.00   0.04  -0.05     0.09   0.05  -0.15
  26   1     0.01  -0.17   0.18     0.01  -0.04   0.05     0.06   0.05   0.06
  27   1    -0.01   0.01   0.02     0.00  -0.00  -0.00     0.02  -0.03  -0.10
  28   1     0.01   0.01   0.02    -0.01  -0.01  -0.00    -0.10  -0.07  -0.11
  29   1    -0.02   0.00   0.01    -0.01  -0.00  -0.00     0.12  -0.00  -0.08
  30   1    -0.00   0.16  -0.20    -0.01   0.04  -0.04    -0.10   0.05  -0.01
  31   1     0.03  -0.16   0.22    -0.00  -0.04   0.05    -0.07  -0.04  -0.12
                     16                     17                     18
                        a                      a                      a 
 Frequencies --   424.4513               463.2996               493.5021
 Red. masses --     9.8673                10.1693                10.9120
 Frc consts  --     0.0000                 0.0000                 0.0000
 IR Inten    --     2.4226                 5.5089                 1.8000
 Raman Activ --     0.0000                 0.0000                 0.0000
 Depolar     --     0.0000                 0.0000                 0.0000
 Atom AN      X      Y      Z        X      Y      Z        X      Y      Z
   1   6     0.10   0.11   0.11    -0.01   0.22   0.19     0.08   0.03  -0.03
   2   6     0.01   0.35  -0.16     0.18   0.05   0.18    -0.24   0.01   0.08
   3   7     0.06   0.26   0.00    -0.03   0.25  -0.20    -0.26   0.38  -0.20
   4   6     0.07  -0.07   0.14     0.03  -0.26  -0.32    -0.11  -0.09   0.27
   5   6    -0.06  -0.09   0.01    -0.01  -0.11   0.05     0.07  -0.24   0.14
   6   6    -0.11   0.01  -0.04    -0.05   0.09   0.14     0.02  -0.08  -0.09
   7   6    -0.10   0.06   0.07    -0.07  -0.05  -0.23     0.18   0.14   0.08
   8   6    -0.00  -0.04  -0.04     0.04   0.07   0.16     0.06   0.09  -0.14
   9   6     0.02  -0.15   0.05     0.03  -0.15   0.05     0.05  -0.07   0.04
  10   6     0.10  -0.00  -0.25     0.18  -0.15   0.10    -0.16  -0.22   0.08
  11   6     0.15  -0.26   0.06     0.10  -0.06  -0.15    -0.04   0.01   0.00
  12   6     0.06   0.03   0.04     0.04   0.01  -0.07    -0.04   0.12  -0.00
  13   6    -0.13   0.31  -0.23    -0.13  -0.13   0.18     0.15  -0.05   0.17
  14   6    -0.06  -0.12  -0.03    -0.16  -0.06  -0.05     0.21   0.05   0.03
  15   6    -0.11   0.02   0.07    -0.07   0.09   0.02    -0.03  -0.04  -0.12
  16   6    -0.02  -0.24   0.06    -0.01   0.03  -0.07    -0.02  -0.13  -0.12
  17   1     0.01  -0.03   0.00    -0.02   0.09   0.05     0.11   0.08   0.05
  18   1     0.03  -0.05   0.05    -0.01   0.13   0.08     0.04  -0.04  -0.12
  19   1     0.10   0.08   0.12    -0.05   0.03  -0.01     0.05   0.02  -0.02
  20   1    -0.05  -0.06  -0.01    -0.03  -0.02   0.12     0.01  -0.09  -0.00
  21   1    -0.04  -0.00  -0.03    -0.03   0.07   0.14    -0.07  -0.02  -0.09
  22   1    -0.03   0.03   0.03    -0.02  -0.02  -0.09     0.05   0.05   0.03
  23   1     0.03  -0.00  -0.05     0.05   0.08   0.14     0.02   0.00  -0.10
  24   1     0.01  -0.05  -0.00     0.04  -0.02   0.11     0.09  -0.07  -0.04
  25   1     0.08  -0.15   0.10     0.02   0.03  -0.09     0.04   0.03  -0.05
  26   1     0.06  -0.00   0.09     0.04   0.08  -0.05    -0.03   0.07  -0.07
  27   1     0.12  -0.05   0.02    -0.07  -0.02  -0.04     0.03   0.02  -0.01
  28   1    -0.02  -0.10   0.02    -0.08  -0.02  -0.05     0.03   0.02  -0.01
  29   1    -0.12  -0.10   0.01     0.02   0.01  -0.03     0.11   0.04  -0.00
  30   1    -0.06  -0.05   0.09    -0.02   0.07  -0.05    -0.07   0.04  -0.08
  31   1    -0.04  -0.17   0.07    -0.05   0.02  -0.10     0.00   0.02  -0.07
                     19                     20                     21
                        a                      a                      a 
 Frequencies --   506.4616               548.4400               588.3572
 Red. masses --    10.5447                 9.0916                11.2351
 Frc consts  --     0.0000                 0.0000                 0.0000
 IR Inten    --     0.4467                 5.3944                 2.7812
 Raman Activ --     0.0000                 0.0000                 0.0000
 Depolar     --     0.0000                 0.0000                 0.0000
 Atom AN      X      Y      Z        X      Y      Z        X      Y      Z
   1   6    -0.07  -0.08  -0.10     0.01   0.01   0.02    -0.00   0.07   0.07
   2   6     0.21  -0.13  -0.07     0.06  -0.43   0.41     0.04   0.01   0.06
   3   7     0.22   0.17  -0.30    -0.05   0.17  -0.16    -0.17   0.01  -0.19
   4   6     0.23   0.08   0.30     0.00  -0.03   0.03    -0.14   0.12  -0.01
   5   6    -0.04   0.05   0.04     0.04  -0.05   0.03    -0.32   0.13   0.06
   6   6    -0.11   0.04  -0.19     0.02   0.03  -0.03    -0.26  -0.42   0.10
   7   6    -0.23   0.08   0.23    -0.00   0.04   0.00     0.15  -0.10   0.13
   8   6    -0.05  -0.16  -0.12    -0.04   0.04  -0.02     0.34  -0.19  -0.03
   9   6     0.00  -0.17   0.14    -0.03  -0.05   0.02     0.23   0.36  -0.08
  10   6     0.14   0.01   0.20    -0.03   0.22  -0.26     0.09   0.01  -0.01
  11   6     0.02   0.03   0.03    -0.00   0.09  -0.09     0.07  -0.03  -0.05
  12   6     0.02  -0.03  -0.10     0.02  -0.12   0.14     0.06  -0.03  -0.01
  13   6    -0.09  -0.14   0.06    -0.02   0.17  -0.22    -0.05   0.00  -0.01
  14   6    -0.16  -0.04  -0.02     0.00   0.01  -0.02    -0.09  -0.03  -0.02
  15   6     0.03   0.10   0.01     0.01  -0.12   0.13     0.02   0.04   0.05
  16   6     0.01   0.15   0.12    -0.01   0.07  -0.08     0.04   0.02  -0.01
  17   1    -0.07  -0.02  -0.05     0.06   0.21   0.09    -0.01   0.03   0.02
  18   1    -0.04   0.07   0.04     0.00   0.12  -0.07    -0.00   0.05   0.04
  19   1    -0.09  -0.07  -0.10    -0.09  -0.10  -0.23    -0.03  -0.00  -0.01
  20   1    -0.07  -0.06  -0.06     0.00  -0.02   0.01    -0.03   0.07  -0.04
  21   1    -0.01  -0.04  -0.16    -0.01   0.01  -0.02    -0.06  -0.14  -0.01
  22   1    -0.06   0.03   0.07     0.00  -0.00   0.01     0.02   0.10  -0.02
  23   1     0.03  -0.05  -0.16    -0.00   0.01  -0.01     0.03  -0.12  -0.03
  24   1    -0.04  -0.07  -0.06     0.01  -0.03  -0.00     0.04   0.09  -0.06
  25   1    -0.06   0.05  -0.02     0.01  -0.06   0.07     0.02  -0.01  -0.01
  26   1     0.01   0.04  -0.07     0.02  -0.14   0.17     0.04   0.01   0.01
  27   1    -0.08  -0.01  -0.01     0.05  -0.00   0.02    -0.02  -0.01  -0.00
  28   1    -0.04   0.01  -0.01     0.02  -0.01   0.02    -0.03  -0.01  -0.00
  29   1    -0.02   0.01  -0.01    -0.07  -0.03   0.01    -0.03  -0.01  -0.01
  30   1     0.06   0.06  -0.05     0.02  -0.14   0.17     0.02   0.01   0.02
  31   1    -0.00   0.08  -0.01     0.01  -0.06   0.08    -0.00  -0.01  -0.01
                     22                     23                     24
                        a                      a                      a 
 Frequencies --   599.1687               609.6534               657.9260
 Red. masses --    11.2694                11.2912                10.0727
 Frc consts  --     0.0000                 0.0000                 0.0000
 IR Inten    --     6.9912                 0.3534                 0.2351
 Raman Activ --     0.0000                 0.0000                 0.0000
 Depolar     --     0.0000                 0.0000                 0.0000
 Atom AN      X      Y      Z        X      Y      Z        X      Y      Z
   1   6     0.03  -0.06  -0.06     0.00  -0.04  -0.04    -0.02  -0.07  -0.07
   2   6    -0.07  -0.07   0.01     0.02  -0.03   0.00    -0.04  -0.02  -0.01
   3   7     0.24   0.31   0.07     0.00  -0.04  -0.02    -0.04   0.05  -0.03
   4   6     0.25   0.05  -0.06     0.00  -0.00  -0.00    -0.05   0.16   0.46
   5   6    -0.17   0.17  -0.18     0.01   0.00   0.01    -0.04  -0.17  -0.24
   6   6    -0.16   0.04   0.13     0.01   0.01  -0.02     0.00   0.05   0.35
   7   6    -0.24  -0.15  -0.09    -0.00   0.01   0.01     0.06  -0.10  -0.28
   8   6     0.24  -0.22   0.20    -0.02   0.00  -0.01     0.00   0.18   0.30
   9   6     0.19  -0.12  -0.10    -0.01  -0.00   0.01    -0.04  -0.04  -0.28
  10   6    -0.20  -0.03  -0.02     0.04  -0.09  -0.07     0.06   0.03  -0.01
  11   6    -0.19   0.04   0.06    -0.27  -0.30  -0.23     0.08  -0.01   0.01
  12   6    -0.18   0.07   0.05    -0.44   0.09   0.12     0.09  -0.01  -0.04
  13   6     0.12   0.02   0.02    -0.04   0.09   0.07    -0.05  -0.03   0.02
  14   6     0.21   0.07   0.05    -0.04   0.06   0.05    -0.12  -0.04  -0.02
  15   6    -0.04  -0.09  -0.09     0.29   0.31   0.23     0.05   0.08   0.04
  16   6    -0.07  -0.08  -0.03     0.45  -0.08  -0.12     0.07   0.03   0.04
  17   1     0.06   0.04   0.02    -0.01  -0.01  -0.01     0.00  -0.01  -0.01
  18   1     0.02  -0.04  -0.08    -0.00  -0.00  -0.00    -0.01  -0.02  -0.03
  19   1     0.03  -0.01  -0.04    -0.01  -0.02  -0.02    -0.01  -0.02  -0.03
  20   1    -0.08   0.04   0.01     0.00  -0.00  -0.00    -0.01  -0.10  -0.22
  21   1     0.03   0.01   0.11     0.00   0.00  -0.01    -0.03  -0.01  -0.00
  22   1    -0.08   0.04  -0.03     0.00  -0.00   0.00     0.01  -0.07  -0.21
  23   1     0.11  -0.01   0.10    -0.00  -0.00  -0.01    -0.03  -0.00  -0.01
  24   1    -0.01   0.01   0.01    -0.00  -0.00  -0.00    -0.01  -0.08  -0.23
  25   1    -0.03   0.00   0.02    -0.03  -0.09  -0.07     0.02  -0.00   0.00
  26   1    -0.09  -0.02  -0.01    -0.09   0.05   0.05     0.04   0.02  -0.01
  27   1     0.05   0.02   0.01    -0.04   0.02   0.03    -0.04  -0.01  -0.01
  28   1     0.06   0.02   0.01     0.02   0.04   0.03    -0.03  -0.01  -0.01
  29   1     0.06   0.02   0.01    -0.02   0.02   0.02    -0.03  -0.01  -0.01
  30   1    -0.05  -0.02  -0.02     0.04   0.09   0.07     0.04   0.02   0.00
  31   1     0.01   0.00   0.01     0.10  -0.05  -0.05     0.02   0.00   0.01
                     25                     26                     27
                        a                      a                      a 
 Frequencies --   673.5728               715.7874               768.4492
 Red. masses --    10.3923                 7.7110                 6.9416
 Frc consts  --     0.0000                 0.0000                 0.0000
 IR Inten    --     1.1675                25.5858                22.9702
 Raman Activ --     0.0000                 0.0000                 0.0000
 Depolar     --     0.0000                 0.0000                 0.0000
 Atom AN      X      Y      Z        X      Y      Z        X      Y      Z
   1   6    -0.01   0.01  -0.03    -0.10  -0.24  -0.24     0.09   0.09   0.08
   2   6    -0.03   0.09  -0.09    -0.24  -0.04  -0.00     0.22   0.00  -0.05
   3   7     0.00   0.02  -0.01     0.05   0.28   0.21     0.05  -0.12  -0.17
   4   6     0.02   0.01   0.03    -0.04  -0.01   0.01     0.00   0.14   0.36
   5   6    -0.01  -0.01  -0.01    -0.03  -0.06  -0.03    -0.04  -0.11  -0.11
   6   6    -0.01   0.01   0.02    -0.05  -0.10  -0.08    -0.03  -0.12  -0.05
   7   6    -0.01  -0.01  -0.01     0.04  -0.01  -0.05     0.07  -0.05  -0.15
   8   6     0.02  -0.01   0.03    -0.01  -0.02  -0.11    -0.09   0.05  -0.11
   9   6     0.02  -0.02  -0.00    -0.01  -0.02  -0.07    -0.07   0.02  -0.16
  10   6     0.02  -0.34   0.41     0.00  -0.01   0.01     0.08   0.01   0.02
  11   6    -0.03   0.19  -0.21     0.16   0.08   0.05    -0.10  -0.11  -0.08
  12   6     0.02  -0.20   0.26     0.19  -0.02  -0.02    -0.12  -0.03  -0.01
  13   6    -0.02   0.26  -0.31    -0.08  -0.03  -0.01     0.03   0.02  -0.01
  14   6    -0.00   0.03  -0.04    -0.26  -0.07  -0.05     0.20   0.06   0.04
  15   6     0.03  -0.22   0.25     0.14   0.11   0.09    -0.11  -0.04  -0.02
  16   6    -0.02   0.18  -0.22     0.17   0.04   0.03    -0.14   0.03   0.04
  17   1    -0.01  -0.06  -0.03     0.06  -0.00  -0.01    -0.06  -0.03  -0.03
  18   1    -0.00  -0.03   0.01    -0.01  -0.16  -0.19     0.00   0.13   0.14
  19   1     0.02   0.03   0.07     0.03  -0.04  -0.06    -0.05  -0.01  -0.00
  20   1    -0.01  -0.01  -0.02     0.02   0.09   0.23     0.02   0.07   0.20
  21   1    -0.00  -0.00  -0.01    -0.01   0.07   0.21    -0.02   0.09   0.26
  22   1    -0.01  -0.00  -0.02     0.03   0.12   0.25     0.05   0.14   0.37
  23   1     0.01  -0.00  -0.01     0.01   0.08   0.21    -0.04   0.10   0.25
  24   1     0.00  -0.01  -0.02     0.03   0.09   0.23     0.00   0.09   0.18
  25   1    -0.01   0.13  -0.16     0.05   0.03  -0.01    -0.06  -0.02  -0.02
  26   1    -0.00  -0.03   0.04     0.08   0.03  -0.01    -0.04  -0.01  -0.01
  27   1     0.10   0.00   0.05    -0.07  -0.02  -0.01     0.06   0.02   0.01
  28   1     0.04  -0.03   0.05    -0.07  -0.02  -0.01     0.06   0.02   0.01
  29   1    -0.14  -0.06   0.01    -0.08  -0.02  -0.01     0.06   0.02   0.01
  30   1     0.00  -0.03   0.04     0.08   0.04   0.00    -0.04  -0.01  -0.01
  31   1    -0.01   0.14  -0.16     0.06   0.04   0.00    -0.07  -0.01  -0.01
                     28                     29                     30
                        a                      a                      a 
 Frequencies --   803.7058               816.0266               852.2952
 Red. masses --     4.3747                10.9834                10.7264
 Frc consts  --     0.0000                 0.0000                 0.0000
 IR Inten    --    16.0647                28.6087                 0.3751
 Raman Activ --     0.0000                 0.0000                 0.0000
 Depolar     --     0.0000                 0.0000                 0.0000
 Atom AN      X      Y      Z        X      Y      Z        X      Y      Z
   1   6     0.02  -0.01   0.04     0.01   0.18   0.17    -0.09  -0.07  -0.07
   2   6     0.03  -0.06   0.05    -0.11  -0.01   0.02    -0.18   0.04   0.08
   3   7     0.02  -0.01   0.01    -0.33  -0.28  -0.20    -0.27  -0.03   0.03
   4   6    -0.00  -0.01  -0.02     0.01   0.08   0.19    -0.07  -0.00   0.03
   5   6    -0.00   0.00   0.01     0.10   0.10  -0.11     0.08   0.05  -0.04
   6   6    -0.00  -0.01   0.01     0.14   0.27  -0.15     0.10   0.20  -0.09
   7   6     0.02   0.00   0.01    -0.23  -0.06  -0.05    -0.15  -0.03   0.00
   8   6    -0.02   0.02  -0.00     0.20  -0.23   0.05     0.16  -0.16   0.06
   9   6    -0.01   0.02   0.00     0.12  -0.07  -0.01     0.09  -0.02   0.02
  10   6    -0.03   0.20  -0.24    -0.13  -0.02  -0.04     0.12   0.05   0.00
  11   6     0.01  -0.16   0.22     0.06   0.15   0.13     0.03  -0.31  -0.22
  12   6     0.00  -0.11   0.16     0.06   0.09   0.07     0.12  -0.23  -0.18
  13   6     0.00   0.08  -0.09     0.01   0.00   0.01    -0.07  -0.01  -0.02
  14   6    -0.01   0.03  -0.04    -0.22  -0.06  -0.04     0.29   0.08   0.05
  15   6     0.01  -0.12   0.12     0.10  -0.05  -0.05    -0.08   0.22   0.19
  16   6     0.02  -0.14   0.14     0.16  -0.13  -0.12    -0.19   0.22   0.20
  17   1     0.02   0.06   0.03     0.02   0.04   0.06     0.05   0.03   0.03
  18   1     0.00   0.05  -0.01     0.01   0.02   0.04    -0.01  -0.11  -0.13
  19   1    -0.03  -0.04  -0.06     0.03   0.07   0.08     0.04   0.01   0.01
  20   1     0.00   0.00  -0.01     0.02   0.05   0.04     0.02   0.02   0.00
  21   1    -0.00  -0.01  -0.01     0.13   0.08   0.05     0.08   0.04  -0.01
  22   1     0.00  -0.01  -0.02    -0.04   0.05   0.18    -0.04   0.01   0.03
  23   1    -0.01  -0.00  -0.01     0.12   0.02   0.07     0.09  -0.01  -0.00
  24   1    -0.01   0.00  -0.01     0.01  -0.01   0.00     0.02  -0.02  -0.03
  25   1    -0.03   0.28  -0.34     0.07   0.04   0.02    -0.07  -0.04  -0.10
  26   1    -0.04   0.28  -0.34     0.00   0.02   0.01     0.08   0.01  -0.06
  27   1     0.09   0.00   0.05    -0.06  -0.02  -0.01     0.10   0.02   0.01
  28   1     0.04  -0.03   0.05    -0.07  -0.02  -0.01     0.09   0.03   0.02
  29   1    -0.14  -0.06   0.01    -0.07  -0.02  -0.01     0.09   0.02   0.01
  30   1    -0.04   0.24  -0.30    -0.00  -0.01  -0.02     0.05   0.06   0.04
  31   1    -0.02   0.20  -0.24     0.08   0.00  -0.02    -0.12  -0.00   0.02
                     31                     32                     33
                        a                      a                      a 
 Frequencies --   867.3218               870.2747               879.4897
 Red. masses --     3.3008                 3.3863                 3.9235
 Frc consts  --     0.0000                 0.0000                 0.0000
 IR Inten    --     2.0343                 1.1482                 1.4603
 Raman Activ --     0.0000                 0.0000                 0.0000
 Depolar     --     0.0000                 0.0000                 0.0000
 Atom AN      X      Y      Z        X      Y      Z        X      Y      Z
   1   6     0.00  -0.00  -0.01     0.01   0.01  -0.00     0.01   0.02   0.01
   2   6     0.01  -0.00  -0.00     0.01   0.00  -0.01     0.00  -0.01  -0.01
   3   7     0.01   0.01   0.01     0.01   0.00   0.00    -0.04  -0.04  -0.04
   4   6     0.02  -0.00  -0.01     0.00   0.00  -0.00    -0.00   0.04   0.11
   5   6    -0.02  -0.11  -0.24    -0.01  -0.01  -0.03    -0.00  -0.09  -0.22
   6   6    -0.02  -0.09  -0.16    -0.01  -0.02  -0.02     0.01   0.04   0.01
   7   6     0.02   0.01   0.01     0.01   0.00   0.00    -0.00   0.12   0.32
   8   6     0.00   0.08   0.16    -0.01   0.02   0.02     0.02  -0.02   0.01
   9   6     0.01   0.10   0.24    -0.00   0.01   0.03    -0.01  -0.08  -0.24
  10   6    -0.00   0.00  -0.00     0.00  -0.03   0.03    -0.00  -0.00   0.00
  11   6    -0.00   0.02  -0.02     0.01  -0.14   0.20     0.00  -0.00  -0.00
  12   6    -0.00   0.01  -0.01     0.00  -0.09   0.14     0.00  -0.00  -0.00
  13   6     0.00   0.00  -0.00     0.00  -0.01   0.01    -0.00   0.00   0.00
  14   6    -0.00  -0.00  -0.00    -0.01  -0.01   0.00     0.00   0.00   0.00
  15   6     0.00  -0.02   0.02    -0.01   0.14  -0.20     0.00   0.00   0.00
  16   6     0.00  -0.02   0.02    -0.01   0.15  -0.21     0.00  -0.00  -0.00
  17   1    -0.00  -0.00  -0.00    -0.00  -0.01  -0.01    -0.01  -0.00  -0.00
  18   1     0.00  -0.00   0.00     0.00   0.01  -0.00     0.00   0.02   0.02
  19   1    -0.00  -0.00   0.00    -0.00   0.00   0.01    -0.01   0.00   0.01
  20   1     0.04   0.20   0.48     0.00   0.02   0.06     0.04   0.17   0.41
  21   1     0.01   0.13   0.33    -0.00   0.01   0.04     0.00  -0.04  -0.10
  22   1     0.00  -0.01  -0.02     0.00  -0.00  -0.00    -0.05  -0.21  -0.50
  23   1    -0.03  -0.13  -0.33    -0.01  -0.02  -0.04     0.00  -0.03  -0.07
  24   1    -0.04  -0.18  -0.46    -0.00  -0.02  -0.05     0.04   0.18   0.43
  25   1     0.00  -0.03   0.04    -0.03   0.29  -0.35    -0.00  -0.00   0.00
  26   1     0.00  -0.02   0.03    -0.03   0.21  -0.25     0.00   0.00   0.00
  27   1    -0.00  -0.00   0.00    -0.02  -0.00  -0.01     0.00   0.00  -0.00
  28   1    -0.00  -0.00   0.00    -0.01  -0.00  -0.01    -0.00  -0.00  -0.00
  29   1    -0.00  -0.00   0.00     0.01   0.00  -0.00     0.00  -0.00  -0.00
  30   1    -0.00   0.03  -0.04     0.04  -0.32   0.38    -0.00   0.00  -0.00
  31   1    -0.00   0.04  -0.04     0.04  -0.29   0.35    -0.00  -0.00  -0.00
                     34                     35                     36
                        a                      a                      a 
 Frequencies --   916.8825               921.4959               923.7946
 Red. masses --     3.0511                 3.9627                 2.7505
 Frc consts  --     0.0000                 0.0000                 0.0000
 IR Inten    --     0.0157                 0.4253                 0.0165
 Raman Activ --     0.0000                 0.0000                 0.0000
 Depolar     --     0.0000                 0.0000                 0.0000
 Atom AN      X      Y      Z        X      Y      Z        X      Y      Z
   1   6    -0.01   0.01  -0.01     0.00   0.00   0.00     0.00  -0.00  -0.01
   2   6     0.00   0.00  -0.00     0.00  -0.00   0.00     0.00  -0.00   0.00
   3   7     0.00   0.00  -0.00    -0.00  -0.01  -0.01     0.00   0.00   0.01
   4   6     0.00   0.00   0.00    -0.01   0.00   0.01    -0.00  -0.03  -0.08
   5   6    -0.00   0.00   0.00     0.02   0.08   0.19    -0.01  -0.02  -0.06
   6   6    -0.00  -0.00  -0.00    -0.01  -0.10  -0.28     0.01   0.08   0.20
   7   6     0.00  -0.00  -0.00    -0.01  -0.00   0.00    -0.01  -0.08  -0.21
   8   6    -0.00   0.00   0.00     0.03   0.10   0.28     0.01   0.09   0.20
   9   6    -0.00  -0.00  -0.00    -0.01  -0.08  -0.20    -0.01  -0.03  -0.05
  10   6     0.00   0.01  -0.01     0.00   0.00  -0.00     0.00   0.00  -0.00
  11   6    -0.02   0.18  -0.21     0.00  -0.00   0.00    -0.00  -0.00   0.00
  12   6     0.03  -0.20   0.24    -0.00   0.00  -0.00    -0.00   0.00  -0.00
  13   6     0.00  -0.01   0.02     0.00  -0.00   0.00     0.00   0.00   0.00
  14   6    -0.00  -0.00  -0.00    -0.00   0.00  -0.00    -0.00   0.00  -0.00
  15   6     0.00  -0.02   0.03     0.00  -0.00   0.00    -0.00  -0.00   0.00
  16   6    -0.01   0.06  -0.07    -0.00   0.00  -0.00     0.00  -0.00  -0.00
  17   1    -0.00  -0.01  -0.01    -0.00  -0.00  -0.00    -0.00  -0.00  -0.00
  18   1    -0.00  -0.02   0.01    -0.00   0.00   0.00    -0.00  -0.00   0.00
  19   1     0.01   0.01   0.01     0.00   0.00   0.00    -0.00  -0.00   0.00
  20   1    -0.00  -0.00  -0.00    -0.02  -0.13  -0.31     0.02   0.09   0.22
  21   1    -0.00   0.00   0.00     0.04   0.19   0.46    -0.03  -0.19  -0.46
  22   1     0.00   0.00   0.00    -0.00  -0.00  -0.00     0.03   0.18   0.44
  23   1    -0.00  -0.00  -0.01    -0.03  -0.19  -0.46    -0.04  -0.19  -0.46
  24   1     0.00   0.00   0.00     0.03   0.13   0.32     0.02   0.08   0.22
  25   1     0.03  -0.34   0.42    -0.00   0.00  -0.01    -0.00   0.00  -0.00
  26   1    -0.05   0.40  -0.49     0.00  -0.01   0.01     0.00  -0.00   0.00
  27   1     0.00  -0.00   0.01     0.00   0.00   0.00     0.00   0.00  -0.00
  28   1     0.01  -0.00   0.01     0.00  -0.00   0.00    -0.00  -0.00  -0.00
  29   1    -0.01  -0.01   0.00    -0.00  -0.00   0.00    -0.00  -0.00  -0.00
  30   1    -0.02   0.12  -0.14    -0.00   0.01  -0.01    -0.00   0.00  -0.00
  31   1     0.02  -0.18   0.21    -0.00  -0.00   0.00     0.00   0.00   0.00
                     37                     38                     39
                        a                      a                      a 
 Frequencies --   931.7184               971.3315               991.9731
 Red. masses --     3.8636                 9.7264                 5.5986
 Frc consts  --     0.0000                 0.0000                 0.0000
 IR Inten    --     0.3509                 6.7487                 9.4741
 Raman Activ --     0.0000                 0.0000                 0.0000
 Depolar     --     0.0000                 0.0000                 0.0000
 Atom AN      X      Y      Z        X      Y      Z        X      Y      Z
   1   6    -0.00  -0.00   0.01     0.13  -0.22  -0.15    -0.06   0.29  -0.27
   2   6    -0.00  -0.00  -0.00     0.12   0.19   0.07     0.05  -0.31   0.26
   3   7    -0.00  -0.00   0.00    -0.04   0.11   0.14     0.04   0.09  -0.05
   4   6     0.00  -0.00  -0.00    -0.17  -0.03  -0.01     0.00   0.01  -0.01
   5   6    -0.00   0.00   0.00     0.20  -0.34   0.13     0.07  -0.15   0.06
   6   6     0.00   0.00  -0.00     0.03   0.17  -0.06    -0.02   0.01   0.00
   7   6     0.00  -0.00  -0.00    -0.31  -0.04   0.03    -0.09  -0.01   0.01
   8   6     0.00   0.00   0.01     0.10  -0.15   0.05     0.01  -0.03   0.00
   9   6    -0.00  -0.00  -0.00     0.08   0.38  -0.14     0.02   0.13  -0.05
  10   6    -0.00   0.00  -0.01     0.09   0.03   0.03     0.01   0.05  -0.07
  11   6    -0.01   0.08  -0.11     0.01  -0.02  -0.02    -0.00  -0.01   0.01
  12   6     0.01  -0.10   0.13    -0.07   0.08   0.07    -0.02   0.01   0.03
  13   6    -0.00   0.01  -0.01     0.03   0.03   0.02     0.01  -0.01  -0.01
  14   6     0.00  -0.00  -0.00    -0.05   0.01   0.01     0.01  -0.02  -0.02
  15   6    -0.03   0.21  -0.24    -0.02  -0.14  -0.12     0.00  -0.00   0.01
  16   6     0.02  -0.21   0.26     0.00  -0.02  -0.02    -0.01   0.01   0.03
  17   1     0.00   0.01   0.01    -0.12  -0.07  -0.11    -0.06  -0.39  -0.22
  18   1    -0.00   0.00  -0.00    -0.00   0.15   0.12    -0.01  -0.20   0.07
  19   1    -0.00  -0.01  -0.01    -0.14  -0.17  -0.19     0.15   0.28   0.46
  20   1    -0.00  -0.00  -0.01     0.03  -0.12   0.04    -0.01  -0.07   0.02
  21   1     0.00   0.00   0.00    -0.04   0.06  -0.03    -0.04   0.01  -0.01
  22   1     0.00   0.00   0.00    -0.08  -0.01   0.01    -0.03   0.01   0.00
  23   1    -0.00  -0.00  -0.01    -0.02  -0.07   0.03    -0.02  -0.02   0.02
  24   1    -0.00   0.00   0.01    -0.02   0.11  -0.06    -0.02   0.04  -0.02
  25   1     0.01  -0.10   0.12    -0.01  -0.01   0.01     0.01   0.01  -0.02
  26   1    -0.01   0.14  -0.16    -0.01   0.03   0.02    -0.01   0.01  -0.00
  27   1    -0.01  -0.00  -0.00     0.02  -0.00  -0.01    -0.03  -0.00   0.01
  28   1     0.00   0.00   0.00    -0.05  -0.03  -0.02     0.04   0.02   0.01
  29   1     0.00   0.00  -0.00     0.00  -0.01  -0.01    -0.02   0.00   0.01
  30   1     0.05  -0.36   0.44    -0.02  -0.04  -0.03     0.01   0.00  -0.01
  31   1    -0.04   0.38  -0.45     0.02   0.00   0.01    -0.00   0.03  -0.02
                     40                     41                     42
                        a                      a                      a 
 Frequencies --  1002.3922              1009.8538              1013.3152
 Red. masses --     7.9715                 7.7657                 5.3627
 Frc consts  --     0.0000                 0.0000                 0.0000
 IR Inten    --     3.1987                13.0668                 8.6534
 Raman Activ --     0.0000                 0.0000                 0.0000
 Depolar     --     0.0000                 0.0000                 0.0000
 Atom AN      X      Y      Z        X      Y      Z        X      Y      Z
   1   6     0.09  -0.09  -0.24     0.14   0.03  -0.02    -0.18   0.08   0.16
   2   6     0.05   0.10   0.22    -0.02  -0.03   0.00    -0.03  -0.09  -0.13
   3   7    -0.22   0.05   0.07     0.03   0.03   0.02     0.14  -0.07  -0.09
   4   6    -0.06  -0.00   0.02     0.01  -0.00  -0.01     0.07   0.01  -0.01
   5   6    -0.13   0.27  -0.10     0.01  -0.03   0.01     0.07  -0.15   0.05
   6   6     0.04   0.00  -0.01    -0.01  -0.00   0.00    -0.03  -0.02   0.01
   7   6     0.18   0.02  -0.02    -0.02  -0.00   0.00    -0.09  -0.01   0.01
   8   6     0.05   0.01  -0.00    -0.00  -0.00   0.00    -0.04   0.02  -0.00
   9   6    -0.04  -0.30   0.11     0.00   0.03  -0.01     0.02   0.16  -0.06
  10   6     0.09   0.08   0.03    -0.18  -0.02  -0.01     0.03   0.02   0.03
  11   6     0.02  -0.13  -0.10    -0.08   0.19   0.17    -0.02  -0.11  -0.09
  12   6    -0.05   0.06   0.06     0.19  -0.31  -0.27    -0.04  -0.01   0.00
  13   6     0.03   0.07   0.05    -0.13   0.01   0.01     0.00   0.07   0.04
  14   6    -0.12   0.13   0.12     0.04   0.17   0.15    -0.13   0.20   0.20
  15   6     0.03  -0.22  -0.18    -0.02   0.24   0.20     0.09  -0.14  -0.12
  16   6     0.01   0.03   0.03     0.16  -0.22  -0.19     0.01   0.09   0.07
  17   1    -0.14  -0.21  -0.19    -0.08  -0.08  -0.09     0.16   0.17   0.18
  18   1    -0.00   0.05   0.13     0.01   0.11   0.15    -0.01  -0.15  -0.20
  19   1    -0.08  -0.05   0.00    -0.06  -0.03  -0.00     0.12   0.10   0.06
  20   1     0.01   0.11  -0.05    -0.00  -0.02  -0.00    -0.01  -0.06   0.03
  21   1     0.08  -0.02   0.01    -0.01   0.00  -0.00    -0.05   0.01  -0.00
  22   1     0.05   0.01  -0.01    -0.00   0.00   0.00    -0.03  -0.01   0.01
  23   1     0.07   0.04  -0.02    -0.01  -0.00   0.00    -0.05  -0.02   0.01
  24   1     0.05  -0.11   0.04    -0.00   0.01  -0.01    -0.03   0.06  -0.02
  25   1    -0.00  -0.03  -0.03    -0.22   0.07   0.08     0.02  -0.04  -0.03
  26   1     0.02   0.05   0.03    -0.05  -0.18  -0.14    -0.01  -0.00  -0.01
  27   1     0.22   0.01  -0.04     0.27   0.02  -0.03     0.33   0.02  -0.06
  28   1    -0.28  -0.15  -0.09    -0.21  -0.12  -0.07    -0.40  -0.20  -0.12
  29   1     0.09  -0.06  -0.04     0.15  -0.04  -0.04     0.17  -0.07  -0.06
  30   1     0.05  -0.06  -0.06    -0.12   0.07   0.08     0.13  -0.05  -0.06
  31   1     0.08   0.08   0.04    -0.03  -0.12  -0.10     0.09   0.10   0.08
                     43                     44                     45
                        a                      a                      a 
 Frequencies --  1028.9049              1079.1056              1095.9763
 Red. masses --     4.6977                 6.6492                 7.4490
 Frc consts  --     0.0000                 0.0000                 0.0000
 IR Inten    --    14.0295                 0.2367                18.3305
 Raman Activ --     0.0000                 0.0000                 0.0000
 Depolar     --     0.0000                 0.0000                 0.0000
 Atom AN      X      Y      Z        X      Y      Z        X      Y      Z
   1   6     0.00  -0.00  -0.00     0.01   0.00  -0.01    -0.28  -0.13  -0.10
   2   6    -0.00   0.00   0.00    -0.01   0.00   0.01     0.27   0.21   0.19
   3   7    -0.00   0.00   0.00    -0.02  -0.00  -0.00    -0.08  -0.05  -0.05
   4   6    -0.00  -0.00   0.00    -0.01  -0.01   0.01    -0.05  -0.01   0.04
   5   6    -0.00   0.00  -0.00     0.15   0.02  -0.02    -0.02   0.03  -0.02
   6   6     0.00   0.00  -0.00     0.00  -0.32   0.13     0.02   0.02  -0.01
   7   6     0.00   0.00  -0.00    -0.44  -0.07   0.06     0.01  -0.01   0.00
   8   6     0.00  -0.00   0.00    -0.12   0.32  -0.12     0.01  -0.00  -0.00
   9   6    -0.00  -0.00   0.00     0.16   0.03  -0.02    -0.00  -0.02   0.00
  10   6     0.01   0.01  -0.01    -0.01   0.00   0.00     0.40   0.13   0.06
  11   6     0.01  -0.01   0.03     0.00  -0.01  -0.01    -0.02   0.17   0.14
  12   6     0.00  -0.03   0.05     0.00   0.00   0.00    -0.14   0.00   0.01
  13   6    -0.03   0.23  -0.29    -0.00   0.00   0.00     0.01  -0.01  -0.00
  14   6     0.02  -0.29   0.32     0.00  -0.00  -0.00     0.02   0.01  -0.00
  15   6     0.00  -0.04   0.05     0.00  -0.00  -0.00    -0.09  -0.07  -0.05
  16   6     0.01  -0.02   0.01    -0.00   0.00   0.00     0.09  -0.14  -0.12
  17   1    -0.00  -0.00  -0.00    -0.01  -0.01  -0.01     0.11   0.06   0.08
  18   1    -0.00   0.00  -0.00     0.00   0.01   0.01    -0.03  -0.26  -0.29
  19   1    -0.00  -0.00  -0.00    -0.00  -0.00   0.00     0.10   0.05   0.02
  20   1     0.00   0.00  -0.00     0.26   0.16  -0.09     0.01   0.03  -0.00
  21   1     0.00  -0.00  -0.00     0.28  -0.20   0.06     0.03  -0.00   0.00
  22   1     0.00   0.00  -0.00    -0.13  -0.04   0.02     0.00  -0.01   0.01
  23   1     0.00   0.00  -0.00     0.17   0.25  -0.11     0.01   0.00  -0.00
  24   1     0.00  -0.00   0.00     0.36  -0.11   0.01     0.03  -0.01   0.01
  25   1    -0.00   0.04  -0.04     0.00  -0.00  -0.00    -0.19   0.07   0.07
  26   1    -0.01   0.04  -0.05     0.01   0.00   0.00    -0.16  -0.11  -0.07
  27   1    -0.41  -0.03  -0.22    -0.00  -0.00   0.00     0.00   0.00   0.01
  28   1    -0.15   0.13  -0.17     0.00   0.00   0.00    -0.00  -0.01   0.00
  29   1     0.54   0.26   0.00    -0.00   0.00   0.00    -0.01  -0.00   0.00
  30   1    -0.01   0.05  -0.05     0.00  -0.00   0.00    -0.18  -0.00   0.02
  31   1    -0.00   0.03  -0.04     0.00   0.01   0.00    -0.17  -0.21  -0.18
                     46                     47                     48
                        a                      a                      a 
 Frequencies --  1113.8392              1143.9746              1177.9214
 Red. masses --     4.0479                 2.8571                 1.3807
 Frc consts  --     0.0000                 0.0000                 0.0000
 IR Inten    --     0.6019                11.0931                 0.4355
 Raman Activ --     0.0000                 0.0000                 0.0000
 Depolar     --     0.0000                 0.0000                 0.0000
 Atom AN      X      Y      Z        X      Y      Z        X      Y      Z
   1   6     0.01   0.00  -0.01     0.05   0.01   0.01    -0.00   0.00   0.01
   2   6    -0.00  -0.00  -0.00    -0.04  -0.04  -0.04     0.00  -0.01  -0.01
   3   7     0.01   0.04  -0.01     0.01   0.03   0.03     0.01  -0.00   0.00
   4   6     0.02  -0.16   0.06    -0.07  -0.01   0.00    -0.01  -0.06   0.03
   5   6    -0.23   0.11  -0.03    -0.01   0.01  -0.00     0.09   0.02  -0.02
   6   6     0.08   0.18  -0.08     0.01   0.02  -0.01     0.03  -0.01  -0.00
   7   6     0.06  -0.20   0.07     0.00  -0.00   0.00    -0.01   0.08  -0.03
   8   6    -0.12   0.11  -0.03     0.01  -0.02   0.01    -0.03  -0.04   0.02
   9   6     0.16   0.17  -0.07    -0.00  -0.01   0.01    -0.09  -0.01   0.01
  10   6    -0.01  -0.01   0.00     0.04  -0.11  -0.10     0.01   0.00   0.00
  11   6    -0.00  -0.00  -0.00     0.06   0.11   0.08    -0.00   0.00   0.00
  12   6     0.01  -0.00  -0.00    -0.13   0.07   0.07    -0.00  -0.00  -0.00
  13   6    -0.00   0.00   0.00     0.06  -0.10  -0.09    -0.00   0.00   0.00
  14   6     0.00  -0.00  -0.00    -0.03   0.05   0.04     0.00   0.00  -0.00
  15   6    -0.00   0.00   0.00     0.12   0.08   0.06    -0.00  -0.00  -0.00
  16   6    -0.00   0.00   0.00    -0.15   0.06   0.07     0.00   0.00   0.00
  17   1    -0.00  -0.00  -0.00    -0.02  -0.03  -0.02     0.00   0.00   0.00
  18   1     0.00   0.00   0.01     0.00   0.06   0.07     0.00   0.00   0.00
  19   1    -0.00   0.00   0.00    -0.02  -0.01  -0.02     0.00   0.00   0.00
  20   1    -0.38  -0.20   0.12     0.01   0.02  -0.01    -0.08  -0.07   0.04
  21   1     0.24  -0.03  -0.01     0.01   0.00  -0.00     0.38  -0.14   0.03
  22   1     0.08  -0.41   0.16     0.00  -0.00   0.00    -0.11   0.66  -0.26
  23   1    -0.26  -0.13   0.07     0.01  -0.00   0.00    -0.37  -0.27   0.14
  24   1     0.42  -0.10  -0.00     0.03  -0.02   0.00     0.18  -0.08   0.02
  25   1     0.00  -0.00  -0.00     0.33  -0.01  -0.03    -0.01   0.00   0.00
  26   1     0.01   0.00   0.00    -0.26  -0.18  -0.12     0.00   0.00   0.00
  27   1    -0.00  -0.00  -0.00     0.05   0.01  -0.01     0.00   0.00   0.00
  28   1     0.00   0.00   0.00    -0.07  -0.03  -0.02     0.00   0.00   0.00
  29   1     0.00   0.00   0.00     0.02  -0.02  -0.01    -0.00  -0.00   0.00
  30   1    -0.00   0.00   0.00     0.52  -0.03  -0.08    -0.01   0.00   0.00
  31   1     0.01   0.01   0.01    -0.41  -0.30  -0.22     0.00   0.00   0.00
                     49                     50                     51
                        a                      a                      a 
 Frequencies --  1187.8394              1201.8528              1235.4492
 Red. masses --     2.1701                 2.1211                 7.8329
 Frc consts  --     0.0000                 0.0000                 0.0000
 IR Inten    --    21.3454                46.3624                24.5137
 Raman Activ --     0.0000                 0.0000                 0.0000
 Depolar     --     0.0000                 0.0000                 0.0000
 Atom AN      X      Y      Z        X      Y      Z        X      Y      Z
   1   6    -0.01  -0.03  -0.03    -0.04  -0.03  -0.03     0.08   0.07   0.07
   2   6     0.00   0.07   0.07     0.10   0.07   0.06    -0.19  -0.21  -0.18
   3   7    -0.09  -0.03  -0.00    -0.03  -0.01  -0.00     0.11   0.07   0.04
   4   6     0.15   0.00  -0.01     0.02  -0.00   0.01    -0.19  -0.00  -0.00
   5   6    -0.06  -0.07   0.03     0.00   0.00  -0.00    -0.04  -0.01   0.01
   6   6     0.08  -0.11   0.04    -0.00   0.00  -0.00     0.04   0.04  -0.02
   7   6     0.01   0.01  -0.00    -0.00  -0.00   0.00     0.02   0.00  -0.00
   8   6     0.03   0.14  -0.06    -0.00   0.00  -0.00     0.04  -0.04   0.01
   9   6    -0.07   0.05  -0.02     0.00   0.00  -0.00    -0.05  -0.01   0.01
  10   6    -0.03  -0.01  -0.00    -0.03  -0.06  -0.05     0.14   0.05   0.04
  11   6     0.01  -0.00  -0.00     0.11  -0.02  -0.02    -0.06  -0.13  -0.10
  12   6     0.01  -0.00  -0.00    -0.05  -0.07  -0.05     0.09   0.05   0.03
  13   6     0.00  -0.00  -0.00     0.11   0.00  -0.01     0.49   0.11   0.05
  14   6    -0.00  -0.00   0.00    -0.04  -0.00  -0.01    -0.23  -0.05  -0.04
  15   6     0.00   0.01   0.01    -0.08   0.09   0.08     0.11  -0.00  -0.02
  16   6    -0.01  -0.00  -0.00    -0.01   0.08   0.07    -0.06   0.12   0.11
  17   1    -0.01  -0.01  -0.01     0.01  -0.02   0.00    -0.01   0.02   0.00
  18   1    -0.00  -0.01  -0.01    -0.01  -0.00  -0.01     0.01   0.06   0.07
  19   1    -0.01  -0.01  -0.02     0.01  -0.00  -0.02    -0.02   0.01   0.03
  20   1    -0.39  -0.29   0.15     0.02   0.01  -0.01    -0.02  -0.01   0.01
  21   1     0.45  -0.19   0.05    -0.01   0.01  -0.00     0.09  -0.02  -0.00
  22   1    -0.01   0.04  -0.02    -0.00   0.00   0.00     0.01   0.00  -0.00
  23   1     0.28   0.23  -0.11    -0.01  -0.01   0.01     0.11   0.05  -0.03
  24   1    -0.46   0.19  -0.03     0.01  -0.00   0.00     0.02  -0.02  -0.00
  25   1     0.04  -0.00  -0.01     0.49  -0.06  -0.09    -0.27  -0.01   0.02
  26   1    -0.01  -0.01  -0.01    -0.41  -0.37  -0.26    -0.10  -0.11  -0.08
  27   1    -0.00  -0.00  -0.00    -0.03   0.00   0.01    -0.10  -0.01   0.01
  28   1    -0.00  -0.00  -0.00    -0.04  -0.03  -0.01    -0.12  -0.06  -0.03
  29   1     0.00  -0.00  -0.00    -0.02  -0.00   0.00    -0.09  -0.02  -0.00
  30   1     0.03  -0.00  -0.00    -0.35   0.06   0.09    -0.36   0.05   0.08
  31   1    -0.02  -0.01  -0.01     0.23   0.23   0.17    -0.21  -0.14  -0.10
                     52                     53                     54
                        a                      a                      a 
 Frequencies --  1250.4324              1276.8239              1279.1690
 Red. masses --     9.5707                 4.0351                 3.7034
 Frc consts  --     0.0000                 0.0000                 0.0000
 IR Inten    --   196.1229                 2.8353                18.9329
 Raman Activ --     0.0000                 0.0000                 0.0000
 Depolar     --     0.0000                 0.0000                 0.0000
 Atom AN      X      Y      Z        X      Y      Z        X      Y      Z
   1   6     0.01   0.07   0.06    -0.00  -0.02  -0.01     0.02   0.00   0.00
   2   6    -0.01  -0.20  -0.21    -0.01   0.02   0.02     0.03   0.06   0.05
   3   7     0.23   0.11   0.05    -0.03  -0.06   0.01    -0.06  -0.02  -0.00
   4   6    -0.52  -0.03   0.03     0.01   0.38  -0.15     0.05   0.05  -0.02
   5   6    -0.12  -0.04   0.02     0.12   0.01  -0.01     0.03   0.01  -0.01
   6   6     0.09   0.12  -0.05     0.14  -0.13   0.04     0.01  -0.03   0.01
   7   6     0.07   0.01  -0.01     0.01  -0.08   0.03    -0.01  -0.01   0.01
   8   6     0.12  -0.12   0.04    -0.11  -0.12   0.06    -0.02  -0.00   0.00
   9   6    -0.15  -0.01   0.02    -0.09  -0.02   0.01    -0.00  -0.00  -0.00
  10   6     0.22  -0.01  -0.02    -0.01   0.05   0.03     0.06  -0.22  -0.20
  11   6     0.09   0.10   0.07     0.00   0.00   0.00     0.07  -0.03  -0.03
  12   6    -0.14   0.00   0.01    -0.02  -0.02  -0.01     0.11   0.10   0.07
  13   6    -0.30  -0.06  -0.02    -0.02  -0.02  -0.01     0.09   0.17   0.13
  14   6     0.14   0.04   0.02     0.01   0.01   0.00    -0.03  -0.06  -0.05
  15   6    -0.10  -0.04  -0.02     0.01  -0.01  -0.01    -0.09   0.06   0.06
  16   6     0.08  -0.03  -0.04     0.01  -0.00  -0.00    -0.14  -0.06  -0.04
  17   1     0.03   0.02   0.03     0.00   0.01   0.00    -0.03   0.01  -0.01
  18   1     0.00   0.03   0.04    -0.00   0.01   0.00     0.01  -0.04  -0.04
  19   1     0.03   0.03   0.03    -0.00  -0.01  -0.01    -0.03  -0.01   0.01
  20   1     0.00   0.03  -0.00    -0.36  -0.29   0.15    -0.05  -0.04   0.02
  21   1     0.21  -0.03  -0.00    -0.34   0.11  -0.02    -0.06   0.02  -0.00
  22   1     0.02   0.01  -0.01    -0.04   0.21  -0.08    -0.01   0.03  -0.01
  23   1     0.26   0.12  -0.07     0.26   0.17  -0.09     0.01   0.01  -0.01
  24   1     0.08  -0.06   0.01     0.40  -0.17   0.04     0.04  -0.02   0.00
  25   1     0.00   0.03   0.03     0.07  -0.01  -0.01    -0.52   0.05   0.09
  26   1    -0.07  -0.02  -0.01     0.03   0.02   0.02    -0.27  -0.24  -0.17
  27   1     0.05   0.01   0.00     0.01   0.00  -0.00    -0.09  -0.00   0.02
  28   1     0.07   0.03   0.02     0.00   0.00   0.00     0.02   0.01   0.00
  29   1     0.04   0.01   0.00     0.01  -0.00  -0.00    -0.06   0.02   0.02
  30   1     0.06  -0.02  -0.03    -0.05   0.00   0.01     0.41  -0.03  -0.07
  31   1     0.19   0.13   0.09    -0.03  -0.03  -0.02     0.21   0.21   0.15
                     55                     56                     57
                        a                      a                      a 
 Frequencies --  1303.5686              1316.1964              1332.0887
 Red. masses --    10.5447                11.3682                11.5534
 Frc consts  --     0.0000                 0.0000                 0.0000
 IR Inten    --    45.1993                 4.5321                11.2373
 Raman Activ --     0.0000                 0.0000                 0.0000
 Depolar     --     0.0000                 0.0000                 0.0000
 Atom AN      X      Y      Z        X      Y      Z        X      Y      Z
   1   6     0.11   0.04   0.03    -0.00  -0.01   0.00    -0.06  -0.02  -0.02
   2   6    -0.46  -0.16  -0.10     0.02   0.02   0.02     0.17   0.03   0.02
   3   7    -0.14   0.00   0.04     0.00  -0.01  -0.01     0.10   0.01  -0.01
   4   6     0.26   0.03  -0.05    -0.07   0.38  -0.14    -0.11  -0.01   0.01
   5   6     0.08   0.02  -0.01    -0.32  -0.27   0.13    -0.05  -0.03   0.01
   6   6    -0.03  -0.09   0.04     0.29  -0.11   0.02     0.01   0.04  -0.02
   7   6    -0.06   0.02  -0.00    -0.07   0.42  -0.16     0.03   0.01  -0.00
   8   6    -0.05   0.08  -0.03    -0.24  -0.19   0.09     0.02  -0.04   0.02
   9   6     0.13  -0.03   0.00     0.38  -0.17   0.04    -0.05   0.02  -0.00
  10   6     0.36   0.22   0.15    -0.02  -0.01  -0.01    -0.29   0.24   0.23
  11   6     0.30   0.01  -0.02    -0.02  -0.00   0.00     0.28  -0.08  -0.09
  12   6    -0.22  -0.03  -0.00     0.02   0.00   0.00    -0.16  -0.23  -0.18
  13   6    -0.26   0.07   0.08     0.01  -0.00  -0.00    -0.00   0.33   0.28
  14   6     0.10   0.00  -0.01    -0.00  -0.00   0.00    -0.03  -0.07  -0.05
  15   6     0.05  -0.11  -0.10    -0.01   0.01   0.01     0.37  -0.00  -0.04
  16   6     0.03  -0.06  -0.05    -0.00   0.00   0.00    -0.30  -0.22  -0.16
  17   1    -0.05   0.00  -0.03    -0.00   0.00   0.00     0.03   0.01   0.02
  18   1     0.01   0.08   0.11    -0.00   0.00  -0.01    -0.01  -0.02  -0.03
  19   1    -0.06  -0.02   0.01     0.01  -0.00  -0.01     0.03   0.02   0.01
  20   1    -0.04  -0.05   0.02     0.05   0.03  -0.01     0.03   0.03  -0.01
  21   1    -0.09   0.00   0.00     0.14  -0.05   0.01     0.05  -0.01  -0.00
  22   1    -0.01  -0.03   0.01     0.02  -0.11   0.04     0.01   0.00  -0.00
  23   1    -0.14  -0.07   0.04    -0.10  -0.08   0.04     0.05   0.02  -0.01
  24   1    -0.10   0.05  -0.01    -0.03   0.00   0.00     0.04  -0.02   0.00
  25   1    -0.05   0.02   0.03     0.00  -0.00  -0.00     0.03  -0.02  -0.02
  26   1    -0.17  -0.10  -0.07     0.01   0.00   0.00     0.00  -0.02  -0.02
  27   1     0.00   0.00   0.02    -0.00  -0.00  -0.00    -0.07  -0.01   0.04
  28   1     0.07   0.04   0.02    -0.00  -0.00  -0.00     0.04   0.03   0.01
  29   1     0.00   0.03   0.01    -0.00  -0.00  -0.00    -0.05   0.06   0.03
  30   1    -0.07  -0.02  -0.01     0.01   0.00  -0.00     0.09   0.00  -0.01
  31   1     0.01  -0.02  -0.02     0.00   0.00   0.00    -0.03  -0.01  -0.00
                     58                     59                     60
                        a                      a                      a 
 Frequencies --  1377.1332              1402.3121              1407.9854
 Red. masses --     3.2732                 3.1876                 9.6553
 Frc consts  --     0.0000                 0.0000                 0.0000
 IR Inten    --    19.3182                 6.1904                 4.4188
 Raman Activ --     0.0000                 0.0000                 0.0000
 Depolar     --     0.0000                 0.0000                 0.0000
 Atom AN      X      Y      Z        X      Y      Z        X      Y      Z
   1   6     0.05   0.31   0.30    -0.00   0.01   0.00     0.02  -0.04  -0.03
   2   6    -0.01  -0.03  -0.03    -0.00  -0.00  -0.00     0.03   0.04   0.03
   3   7     0.00   0.01   0.00     0.01  -0.00  -0.00    -0.06   0.01   0.02
   4   6    -0.01  -0.00   0.00    -0.00  -0.00  -0.00     0.02   0.01   0.00
   5   6    -0.00   0.00  -0.00    -0.00  -0.00   0.00     0.01   0.01  -0.00
   6   6     0.01  -0.00   0.00    -0.00   0.00  -0.00     0.01  -0.01   0.00
   7   6    -0.00  -0.00   0.00     0.00   0.00  -0.00    -0.01   0.00   0.00
   8   6    -0.00  -0.00   0.00     0.00  -0.00   0.00     0.00   0.01  -0.00
   9   6     0.00   0.00  -0.00    -0.00   0.00  -0.00     0.01  -0.01   0.00
  10   6     0.01  -0.02  -0.01    -0.01   0.03   0.02     0.08  -0.25  -0.22
  11   6     0.04   0.02   0.01    -0.01   0.00   0.00     0.30   0.17   0.11
  12   6    -0.05  -0.01  -0.01     0.01  -0.01  -0.01    -0.37  -0.05  -0.01
  13   6     0.01  -0.02  -0.02    -0.05  -0.00   0.01     0.11  -0.24  -0.21
  14   6    -0.01   0.01   0.01     0.41   0.11   0.11    -0.03   0.09   0.08
  15   6     0.05   0.01   0.00    -0.02   0.00   0.00     0.32   0.15   0.10
  16   6    -0.04   0.00   0.01     0.02  -0.02  -0.02    -0.34  -0.00   0.03
  17   1    -0.10  -0.49  -0.17     0.00  -0.01  -0.00    -0.02   0.07   0.01
  18   1     0.07  -0.36  -0.32     0.00  -0.00  -0.00    -0.00   0.03   0.02
  19   1    -0.13  -0.16  -0.49     0.00  -0.00  -0.01    -0.01   0.01   0.07
  20   1    -0.01  -0.00   0.00     0.00   0.00  -0.00    -0.01  -0.01   0.00
  21   1    -0.00   0.00  -0.00     0.00  -0.00   0.00    -0.01   0.00   0.00
  22   1    -0.00   0.01  -0.00     0.00  -0.00   0.00    -0.00  -0.00   0.00
  23   1     0.00   0.00  -0.00     0.00   0.00  -0.00    -0.01  -0.01   0.00
  24   1    -0.00   0.00  -0.00     0.00  -0.00   0.00    -0.01   0.00   0.00
  25   1    -0.00   0.01   0.01     0.02  -0.00  -0.00    -0.16   0.08   0.08
  26   1     0.01   0.02   0.02     0.02   0.01   0.01     0.10   0.17   0.13
  27   1     0.01   0.00  -0.00    -0.47   0.05  -0.23     0.03   0.01  -0.08
  28   1    -0.00  -0.00   0.00    -0.37  -0.14  -0.26    -0.05  -0.04   0.01
  29   1     0.01  -0.00  -0.00    -0.47  -0.28   0.08     0.03  -0.10  -0.04
  30   1    -0.04   0.01   0.01     0.03  -0.00  -0.01    -0.19   0.08   0.09
  31   1    -0.00   0.01   0.01     0.01  -0.00  -0.00     0.04   0.12   0.10
                     61                     62                     63
                        a                      a                      a 
 Frequencies --  1432.6108              1464.5152              1475.7115
 Red. masses --     9.0237                 8.7120                 1.7233
 Frc consts  --     0.0000                 0.0000                 0.0000
 IR Inten    --     6.4008                19.0590                 7.2051
 Raman Activ --     0.0000                 0.0000                 0.0000
 Depolar     --     0.0000                 0.0000                 0.0000
 Atom AN      X      Y      Z        X      Y      Z        X      Y      Z
   1   6     0.00  -0.00  -0.00    -0.05  -0.01   0.01    -0.06  -0.15   0.16
   2   6    -0.02  -0.01  -0.00     0.09  -0.04  -0.05    -0.03  -0.03   0.02
   3   7     0.01   0.05  -0.02     0.06   0.04   0.02    -0.03   0.00   0.01
   4   6     0.04  -0.34   0.13    -0.42  -0.04   0.05     0.06   0.01  -0.01
   5   6    -0.31   0.09  -0.01     0.16   0.25  -0.12    -0.00  -0.03   0.01
   6   6     0.40   0.05  -0.05     0.24  -0.20   0.06    -0.05   0.02  -0.00
   7   6     0.03  -0.23   0.09    -0.24  -0.02   0.02     0.03   0.00  -0.00
   8   6    -0.39  -0.03   0.04     0.18   0.24  -0.11    -0.01  -0.02   0.01
   9   6     0.28   0.15  -0.08     0.23  -0.21   0.07    -0.03   0.02  -0.01
  10   6     0.00  -0.00   0.01     0.04   0.01   0.01     0.02  -0.00  -0.01
  11   6     0.01  -0.00  -0.00    -0.08   0.02   0.02     0.00   0.00  -0.00
  12   6    -0.00   0.00   0.00    -0.00  -0.05  -0.04    -0.00  -0.00   0.00
  13   6    -0.01  -0.00   0.00     0.08   0.04   0.02     0.00   0.00   0.00
  14   6     0.00   0.00   0.00    -0.02  -0.01  -0.01     0.00  -0.01  -0.00
  15   6     0.00  -0.00  -0.00    -0.03   0.03   0.03     0.00  -0.00  -0.00
  16   6     0.00   0.00   0.00    -0.05  -0.05  -0.04     0.00   0.00   0.00
  17   1    -0.02   0.00  -0.01     0.06  -0.06   0.01    -0.26  -0.18  -0.15
  18   1     0.00   0.02  -0.01    -0.01   0.08   0.01    -0.01   0.57  -0.40
  19   1     0.01   0.01   0.02     0.11   0.03  -0.05     0.54   0.18  -0.07
  20   1     0.04   0.13  -0.05    -0.22  -0.12   0.08     0.02   0.01   0.00
  21   1    -0.18   0.13  -0.04    -0.23   0.05  -0.01     0.03  -0.01   0.00
  22   1    -0.06   0.33  -0.13    -0.07  -0.02   0.01     0.01  -0.01   0.00
  23   1     0.12   0.16  -0.08    -0.21  -0.12   0.06     0.02   0.01  -0.01
  24   1    -0.10   0.12  -0.04    -0.25   0.05  -0.01     0.03  -0.01   0.00
  25   1    -0.00  -0.00   0.00     0.05  -0.00  -0.01    -0.02  -0.00   0.01
  26   1    -0.00  -0.00  -0.00     0.05   0.02   0.02    -0.00   0.00  -0.00
  27   1     0.00   0.00  -0.00    -0.01  -0.00   0.03     0.01  -0.00   0.01
  28   1     0.00   0.00  -0.00    -0.02  -0.02  -0.00    -0.01   0.01  -0.01
  29   1    -0.00   0.00   0.00    -0.01   0.02   0.01    -0.01   0.02   0.01
  30   1    -0.00  -0.00   0.00     0.05   0.00  -0.00    -0.00   0.00  -0.00
  31   1    -0.00  -0.00  -0.00     0.04   0.03   0.02    -0.00   0.00  -0.00
                     64                     65                     66
                        a                      a                      a 
 Frequencies --  1476.7061              1477.8733              1481.3949
 Red. masses --     2.1336                 1.9956                 1.8826
 Frc consts  --     0.0000                 0.0000                 0.0000
 IR Inten    --     9.1449                 9.2225                 6.4951
 Raman Activ --     0.0000                 0.0000                 0.0000
 Depolar     --     0.0000                 0.0000                 0.0000
 Atom AN      X      Y      Z        X      Y      Z        X      Y      Z
   1   6    -0.11   0.02  -0.04     0.16  -0.03   0.07     0.02  -0.00   0.00
   2   6    -0.04  -0.01  -0.01     0.03  -0.00   0.01    -0.01  -0.00   0.00
   3   7    -0.04   0.01   0.02     0.07  -0.01  -0.03    -0.02  -0.00   0.00
   4   6     0.07   0.00  -0.01    -0.09  -0.01   0.01     0.03   0.00  -0.00
   5   6    -0.02  -0.03   0.01     0.02   0.03  -0.01    -0.01  -0.01   0.01
   6   6    -0.02   0.02  -0.01     0.02  -0.02   0.01    -0.01   0.01  -0.00
   7   6     0.03  -0.00  -0.00    -0.03   0.01   0.00     0.01   0.00  -0.00
   8   6    -0.03  -0.02   0.01     0.03   0.03  -0.01    -0.01  -0.01   0.01
   9   6    -0.02   0.02  -0.01     0.02  -0.02   0.01    -0.01   0.01  -0.00
  10   6     0.08   0.06   0.04    -0.08   0.04   0.04     0.06  -0.06  -0.06
  11   6    -0.05   0.00   0.01     0.03  -0.03  -0.03    -0.01   0.05   0.05
  12   6    -0.01  -0.03  -0.02     0.03   0.03   0.02    -0.07  -0.06  -0.04
  13   6     0.08   0.03  -0.01    -0.06   0.01  -0.01     0.01  -0.00  -0.03
  14   6    -0.04   0.16  -0.06    -0.00   0.12  -0.03     0.13  -0.02  -0.18
  15   6    -0.07   0.03   0.04    -0.00  -0.02  -0.01    -0.00   0.01   0.01
  16   6    -0.04  -0.08  -0.06     0.04   0.01   0.01    -0.00   0.02   0.02
  17   1     0.31  -0.19   0.08    -0.47   0.26  -0.13    -0.05   0.03  -0.01
  18   1    -0.04   0.07   0.23     0.05  -0.08  -0.37     0.01  -0.02  -0.02
  19   1     0.18   0.02  -0.20    -0.24  -0.03   0.29    -0.04  -0.01   0.03
  20   1     0.02   0.01  -0.01    -0.03  -0.01   0.01     0.01   0.01  -0.00
  21   1     0.02  -0.00   0.00    -0.02   0.00  -0.00     0.01  -0.00   0.00
  22   1     0.01   0.01  -0.00    -0.01  -0.01   0.00     0.00   0.00  -0.00
  23   1     0.02   0.01  -0.01    -0.02  -0.02   0.01     0.01   0.01  -0.00
  24   1     0.02  -0.00   0.00    -0.03   0.00  -0.00     0.01  -0.00   0.00
  25   1     0.01   0.00  -0.00     0.03  -0.02  -0.01     0.03   0.01   0.01
  26   1     0.03   0.02   0.02    -0.03  -0.03  -0.02     0.06   0.05   0.04
  27   1    -0.31   0.04   0.07    -0.21   0.03   0.01    -0.13   0.02   0.66
  28   1     0.11  -0.43   0.34     0.11  -0.28   0.25    -0.29  -0.36  -0.07
  29   1     0.28  -0.28  -0.21     0.20  -0.23  -0.16     0.00   0.46   0.16
  30   1     0.07   0.00  -0.01    -0.01  -0.00  -0.01     0.01   0.00  -0.00
  31   1     0.05   0.03   0.02    -0.02  -0.02  -0.02     0.01   0.01   0.01
                     67                     68                     69
                        a                      a                      a 
 Frequencies --  1491.9501              1566.9767              1570.9504
 Red. masses --     9.0469                11.4222                11.4022
 Frc consts  --     0.0000                 0.0000                 0.0000
 IR Inten    --     0.7398                 2.5793                 2.3096
 Raman Activ --     0.0000                 0.0000                 0.0000
 Depolar     --     0.0000                 0.0000                 0.0000
 Atom AN      X      Y      Z        X      Y      Z        X      Y      Z
   1   6    -0.06   0.00  -0.02    -0.00   0.00  -0.00     0.02  -0.00  -0.00
   2   6     0.14   0.03   0.01    -0.00  -0.00  -0.00    -0.01   0.01   0.00
   3   7     0.00   0.01   0.01    -0.00   0.02  -0.00    -0.05   0.01   0.02
   4   6    -0.07  -0.00   0.01     0.06  -0.40   0.15     0.03  -0.00   0.00
   5   6     0.01   0.03  -0.01     0.15   0.27  -0.12     0.01   0.00  -0.00
   6   6     0.05  -0.03   0.01     0.12  -0.27   0.10    -0.02   0.00   0.00
   7   6    -0.04   0.00   0.00    -0.08   0.54  -0.21     0.01   0.01  -0.00
   8   6     0.04   0.04  -0.02    -0.08  -0.32   0.13    -0.02  -0.01   0.01
   9   6     0.02  -0.03   0.01    -0.18   0.22  -0.07     0.01   0.01  -0.00
  10   6    -0.37  -0.15  -0.09     0.00   0.00   0.01     0.20  -0.33  -0.30
  11   6     0.26  -0.08  -0.09     0.00  -0.00  -0.00    -0.28   0.17   0.17
  12   6     0.07   0.17   0.13    -0.00   0.00   0.00    -0.03  -0.26  -0.21
  13   6    -0.39  -0.04  -0.01     0.00  -0.00  -0.00    -0.12   0.39   0.34
  14   6     0.12   0.05  -0.01    -0.00   0.00   0.00    -0.00  -0.03  -0.02
  15   6     0.21  -0.14  -0.14    -0.00   0.00   0.00     0.19  -0.16  -0.15
  16   6     0.18   0.26   0.20    -0.00  -0.00  -0.00     0.04   0.21   0.17
  17   1     0.14  -0.08   0.04     0.00  -0.00  -0.00    -0.01   0.01  -0.00
  18   1    -0.01   0.03   0.08    -0.00   0.00   0.01     0.00   0.00   0.01
  19   1     0.10   0.02  -0.08     0.00   0.00   0.00    -0.02  -0.00   0.01
  20   1    -0.03  -0.01   0.01    -0.09  -0.03   0.02     0.00  -0.00   0.00
  21   1    -0.03   0.01  -0.00    -0.06  -0.04   0.02     0.00  -0.00   0.00
  22   1    -0.01  -0.00   0.00     0.03  -0.15   0.06     0.00  -0.00   0.00
  23   1    -0.03  -0.02   0.01     0.08  -0.01  -0.00     0.00   0.00  -0.00
  24   1    -0.03   0.00   0.00     0.08   0.00  -0.01     0.00   0.00  -0.00
  25   1    -0.24   0.01   0.03    -0.00  -0.00   0.00     0.12   0.02   0.01
  26   1    -0.16  -0.10  -0.07    -0.00   0.00   0.00     0.09   0.02   0.01
  27   1    -0.05   0.01   0.07     0.00  -0.00   0.00    -0.07  -0.00  -0.06
  28   1     0.02  -0.09   0.05    -0.00  -0.00  -0.00     0.09   0.03   0.05
  29   1     0.06   0.01  -0.01    -0.00   0.00   0.00    -0.01  -0.07  -0.03
  30   1    -0.21  -0.01   0.01     0.00   0.00   0.00    -0.06  -0.03  -0.02
  31   1    -0.16  -0.12  -0.08     0.00   0.00   0.00    -0.06  -0.01  -0.00
                     70                     71                     72
                        a                      a                      a 
 Frequencies --  1592.5023              1599.8278              1699.7971
 Red. masses --    11.4741                11.4908                12.7809
 Frc consts  --     0.0000                 0.0000                 0.0000
 IR Inten    --   192.4536                20.7751               261.9019
 Raman Activ --     0.0000                 0.0000                 0.0000
 Depolar     --     0.0000                 0.0000                 0.0000
 Atom AN      X      Y      Z        X      Y      Z        X      Y      Z
   1   6    -0.00  -0.00  -0.01     0.00  -0.01  -0.01    -0.01   0.03   0.04
   2   6    -0.04   0.05   0.06    -0.06   0.03   0.04     0.46  -0.33  -0.43
   3   7     0.08  -0.03  -0.06     0.03  -0.02  -0.02    -0.52   0.24   0.35
   4   6    -0.22  -0.00   0.02     0.11  -0.00  -0.01     0.11   0.03  -0.01
   5   6     0.35   0.11  -0.08    -0.18  -0.06   0.04     0.04   0.01  -0.00
   6   6    -0.42   0.08  -0.00     0.22  -0.04  -0.00    -0.05   0.01   0.00
   7   6     0.19  -0.01  -0.01    -0.10   0.00   0.01     0.02   0.00  -0.00
   8   6    -0.37  -0.15   0.09     0.19   0.08  -0.04    -0.05  -0.02   0.01
   9   6     0.40  -0.05  -0.01    -0.22   0.03   0.00     0.06  -0.01  -0.00
  10   6     0.07   0.02   0.01     0.19   0.04   0.02     0.01   0.04   0.04
  11   6    -0.17  -0.02  -0.00    -0.36  -0.03   0.01    -0.08  -0.01   0.00
  12   6     0.17   0.11   0.08     0.33   0.20   0.14     0.06   0.04   0.02
  13   6    -0.14  -0.05  -0.03    -0.26  -0.09  -0.05    -0.03  -0.02  -0.01
  14   6     0.02   0.01  -0.00     0.04   0.01  -0.00     0.01   0.00   0.00
  15   6     0.22   0.02  -0.01     0.42   0.03  -0.02     0.05   0.01   0.00
  16   6    -0.17  -0.08  -0.05    -0.33  -0.16  -0.10    -0.04  -0.05  -0.04
  17   1     0.01  -0.01   0.00    -0.00  -0.01  -0.00    -0.01   0.06   0.01
  18   1    -0.00   0.01   0.01    -0.00   0.01   0.00     0.01  -0.03  -0.04
  19   1     0.00  -0.00  -0.01    -0.00  -0.00  -0.01    -0.00   0.01   0.05
  20   1    -0.04  -0.07   0.03     0.02   0.04  -0.02    -0.00  -0.01  -0.00
  21   1     0.09  -0.05   0.01    -0.04   0.03  -0.01     0.01  -0.01   0.00
  22   1     0.05   0.01  -0.01    -0.02  -0.01   0.00     0.00   0.00  -0.00
  23   1     0.06   0.07  -0.04    -0.03  -0.04   0.02     0.00   0.01  -0.00
  24   1    -0.07   0.06  -0.02     0.04  -0.03   0.01    -0.01   0.01  -0.00
  25   1     0.03  -0.01  -0.01     0.07  -0.02  -0.03     0.01  -0.01  -0.01
  26   1    -0.03  -0.04  -0.03    -0.06  -0.07  -0.05    -0.01  -0.01  -0.01
  27   1     0.00   0.00   0.02     0.00   0.00   0.03     0.00   0.00   0.00
  28   1    -0.00  -0.01   0.00    -0.00  -0.02   0.00    -0.00  -0.00  -0.00
  29   1     0.01   0.01   0.00     0.01   0.02   0.00     0.00   0.00  -0.00
  30   1    -0.06   0.02   0.02    -0.10   0.03   0.04    -0.00   0.00   0.00
  31   1     0.01   0.03   0.03     0.02   0.06   0.05     0.02   0.01   0.01
                     73                     74                     75
                        a                      a                      a 
 Frequencies --  2995.8516              3007.6133              3020.7953
 Red. masses --     1.8225                 1.8614                 1.6703
 Frc consts  --     0.0000                 0.0000                 0.0000
 IR Inten    --    25.3201                15.7146                20.9133
 Raman Activ --     0.0000                 0.0000                 0.0000
 Depolar     --     0.0000                 0.0000                 0.0000
 Atom AN      X      Y      Z        X      Y      Z        X      Y      Z
   1   6     0.00   0.00   0.00    -0.09   0.23  -0.12     0.15   0.01  -0.19
   2   6    -0.00  -0.00   0.00    -0.00   0.01  -0.00     0.01  -0.00  -0.01
   3   7     0.00   0.00  -0.00     0.00  -0.00  -0.00    -0.00   0.00   0.00
   4   6    -0.00   0.00   0.00     0.00   0.00  -0.00    -0.00  -0.00  -0.00
   5   6    -0.00   0.00  -0.00     0.00  -0.00   0.00     0.00  -0.00   0.00
   6   6     0.00   0.00  -0.00    -0.00  -0.00   0.00     0.00   0.00  -0.00
   7   6     0.00   0.00  -0.00    -0.00  -0.00   0.00     0.00   0.00  -0.00
   8   6     0.00  -0.00   0.00     0.00   0.00  -0.00     0.00  -0.00   0.00
   9   6     0.00  -0.00   0.00    -0.00  -0.00   0.00    -0.00  -0.00   0.00
  10   6    -0.00  -0.00  -0.00    -0.00  -0.00   0.00     0.00  -0.00   0.00
  11   6     0.00  -0.00  -0.00    -0.00  -0.00  -0.00     0.00   0.01   0.00
  12   6    -0.00  -0.00  -0.00    -0.00   0.00   0.00     0.00  -0.00  -0.00
  13   6     0.01  -0.00   0.01    -0.00  -0.00  -0.00     0.00   0.00   0.00
  14   6     0.06  -0.13   0.23     0.00   0.00  -0.00    -0.00  -0.00   0.00
  15   6    -0.00  -0.00  -0.00    -0.00  -0.00  -0.00     0.00   0.00   0.00
  16   6     0.00   0.00   0.00     0.00  -0.00  -0.00    -0.00   0.00   0.00
  17   1     0.00   0.00  -0.00    -0.12  -0.04   0.22    -0.36  -0.26   0.81
  18   1    -0.00  -0.00  -0.00     0.08   0.04  -0.01    -0.10  -0.00  -0.04
  19   1     0.00  -0.00   0.00     0.34  -0.82   0.23    -0.07   0.23  -0.09
  20   1     0.00  -0.00   0.00    -0.01   0.01  -0.00    -0.01   0.01  -0.00
  21   1    -0.00  -0.00   0.00     0.00   0.00  -0.00    -0.00  -0.00   0.00
  22   1    -0.00  -0.00   0.00     0.00  -0.00   0.00    -0.00  -0.00   0.00
  23   1    -0.00   0.00  -0.00     0.00  -0.00   0.00    -0.00   0.00  -0.00
  24   1     0.00   0.00  -0.00     0.00   0.00  -0.00     0.00   0.00  -0.00
  25   1    -0.00   0.00   0.00     0.00   0.01   0.01    -0.01  -0.02  -0.01
  26   1     0.00  -0.00  -0.00     0.00  -0.00  -0.00    -0.00   0.00   0.00
  27   1     0.02   0.19   0.03    -0.00  -0.00  -0.00     0.00   0.01  -0.00
  28   1     0.05  -0.05  -0.02    -0.00   0.00   0.00     0.00  -0.00  -0.00
  29   1    -0.28   0.30  -0.84     0.00  -0.00   0.00     0.00  -0.00   0.00
  30   1     0.00   0.01   0.01    -0.00   0.00   0.00    -0.00  -0.00  -0.00
  31   1     0.00  -0.00  -0.00    -0.00   0.00   0.00     0.00  -0.00  -0.00
                     76                     77                     78
                        a                      a                      a 
 Frequencies --  3025.1430              3032.3679              3040.3948
 Red. masses --     1.6586                 1.6104                 1.6592
 Frc consts  --     0.0000                 0.0000                 0.0000
 IR Inten    --    25.0564                22.1377                25.4230
 Raman Activ --     0.0000                 0.0000                 0.0000
 Depolar     --     0.0000                 0.0000                 0.0000
 Atom AN      X      Y      Z        X      Y      Z        X      Y      Z
   1   6     0.01   0.00  -0.00     0.23   0.04   0.03    -0.00  -0.00  -0.00
   2   6     0.00  -0.00  -0.00     0.01   0.00   0.00    -0.00  -0.00  -0.00
   3   7     0.00   0.00  -0.00    -0.00  -0.00  -0.00     0.00   0.00   0.00
   4   6    -0.00  -0.00   0.00    -0.00  -0.00   0.00    -0.00  -0.00   0.00
   5   6    -0.00   0.00  -0.00     0.00  -0.00   0.00    -0.00   0.00  -0.00
   6   6     0.00   0.00  -0.00     0.00   0.00  -0.00     0.00   0.00  -0.00
   7   6     0.00   0.00  -0.00     0.00   0.00  -0.00     0.00   0.00  -0.00
   8   6     0.00  -0.00   0.00     0.00  -0.00   0.00     0.00  -0.00   0.00
   9   6    -0.00  -0.00   0.00     0.00   0.00  -0.00    -0.00  -0.00   0.00
  10   6    -0.00  -0.00  -0.00    -0.00  -0.00   0.00    -0.00  -0.00  -0.00
  11   6    -0.00   0.00   0.00     0.00   0.00   0.00     0.00  -0.00  -0.00
  12   6     0.00  -0.00  -0.00     0.00  -0.00  -0.00    -0.02   0.01   0.01
  13   6     0.00   0.01   0.00    -0.00  -0.00  -0.00     0.01  -0.00  -0.00
  14   6     0.02   0.24   0.05     0.00  -0.00  -0.00     0.16  -0.09  -0.16
  15   6    -0.00  -0.01  -0.01     0.00   0.00   0.00     0.00   0.01   0.00
  16   6    -0.00   0.00   0.00    -0.00   0.00   0.00     0.00  -0.00  -0.00
  17   1    -0.00  -0.00   0.01     0.07   0.03  -0.08    -0.00  -0.00   0.00
  18   1    -0.02  -0.00  -0.00    -0.95  -0.06  -0.08     0.01   0.00   0.00
  19   1     0.00   0.00  -0.00     0.07  -0.10   0.03    -0.00   0.00  -0.00
  20   1     0.00  -0.00   0.00    -0.02   0.02  -0.01     0.00  -0.00   0.00
  21   1    -0.00  -0.00   0.00    -0.00  -0.01   0.00    -0.00  -0.00   0.00
  22   1    -0.00  -0.00   0.00    -0.00  -0.00   0.00    -0.00  -0.00   0.00
  23   1    -0.00   0.00  -0.00    -0.00   0.00  -0.00    -0.00   0.00  -0.00
  24   1     0.00   0.00  -0.00    -0.00  -0.00   0.00     0.00   0.00  -0.00
  25   1    -0.00  -0.00  -0.00    -0.00  -0.00  -0.00     0.00   0.01   0.00
  26   1    -0.01   0.01   0.01    -0.00   0.00   0.00     0.05  -0.03  -0.03
  27   1    -0.07  -0.94   0.02     0.00   0.01  -0.00     0.02  -0.06  -0.02
  28   1     0.04   0.01  -0.04    -0.01   0.00   0.01    -0.56   0.38   0.68
  29   1    -0.06   0.10  -0.17     0.00  -0.00   0.00    -0.00   0.01  -0.09
  30   1     0.01   0.03   0.02    -0.00  -0.00  -0.00    -0.01  -0.02  -0.01
  31   1     0.00  -0.00  -0.00     0.00  -0.00  -0.00    -0.00   0.00   0.00
                     79                     80                     81
                        a                      a                      a 
 Frequencies --  3059.9440              3063.5062              3067.0209
 Red. masses --     1.7567                 1.7722                 1.8036
 Frc consts  --     0.0000                 0.0000                 0.0000
 IR Inten    --    17.5262                14.8854                52.5323
 Raman Activ --     0.0000                 0.0000                 0.0000
 Depolar     --     0.0000                 0.0000                 0.0000
 Atom AN      X      Y      Z        X      Y      Z        X      Y      Z
   1   6    -0.00  -0.00   0.00     0.00   0.00  -0.00    -0.00   0.00   0.00
   2   6    -0.00  -0.00   0.00    -0.00   0.00   0.00    -0.00  -0.00  -0.00
   3   7     0.00   0.00  -0.00     0.00  -0.00   0.00     0.00   0.00  -0.00
   4   6     0.01  -0.00   0.00     0.00   0.00  -0.00    -0.00  -0.00   0.00
   5   6     0.09  -0.10   0.03    -0.03   0.04  -0.01    -0.00   0.00  -0.00
   6   6     0.07   0.18  -0.08    -0.01  -0.02   0.01     0.00   0.00  -0.00
   7   6    -0.07  -0.01   0.01    -0.08  -0.01   0.01     0.00   0.00  -0.00
   8   6     0.01  -0.02   0.01     0.14  -0.17   0.06    -0.00   0.00  -0.00
   9   6    -0.00  -0.00   0.00     0.03   0.07  -0.03    -0.00  -0.00   0.00
  10   6     0.00   0.00   0.00     0.00   0.00  -0.00     0.00   0.00   0.00
  11   6     0.00   0.00   0.00    -0.00   0.00   0.00     0.01   0.04   0.03
  12   6     0.00  -0.00  -0.00     0.00  -0.00  -0.00     0.19  -0.13  -0.12
  13   6     0.00   0.00   0.00     0.00   0.00  -0.00     0.01  -0.00  -0.00
  14   6    -0.00  -0.00   0.00    -0.00  -0.00  -0.00     0.01  -0.01  -0.01
  15   6     0.00   0.00   0.00     0.00   0.00   0.00    -0.02  -0.05  -0.04
  16   6     0.00  -0.00  -0.00     0.00  -0.00  -0.00    -0.01   0.00   0.00
  17   1     0.00   0.00  -0.01    -0.00  -0.00   0.00     0.00   0.00  -0.01
  18   1     0.02   0.00   0.00    -0.00   0.00  -0.00     0.00   0.00   0.00
  19   1    -0.00   0.01  -0.00     0.00  -0.00   0.00     0.00  -0.01   0.00
  20   1    -0.33   0.37  -0.13     0.11  -0.13   0.05     0.00  -0.01   0.00
  21   1    -0.27  -0.66   0.29     0.03   0.07  -0.03    -0.00  -0.00   0.00
  22   1     0.26   0.03  -0.03     0.32   0.04  -0.04    -0.01  -0.00   0.00
  23   1    -0.05   0.06  -0.02    -0.52   0.61  -0.21     0.00  -0.01   0.00
  24   1     0.00   0.00  -0.00    -0.11  -0.26   0.11     0.00   0.01  -0.00
  25   1    -0.00  -0.00  -0.00    -0.00  -0.00  -0.00    -0.04  -0.16  -0.13
  26   1    -0.00   0.00   0.00    -0.01   0.01   0.01    -0.66   0.45   0.43
  27   1     0.00   0.00  -0.00     0.00   0.00  -0.00     0.00   0.02  -0.00
  28   1     0.00  -0.00  -0.00     0.00  -0.00  -0.00    -0.05   0.03   0.05
  29   1     0.00  -0.00   0.00     0.00  -0.00   0.00     0.00  -0.00  -0.00
  30   1    -0.00  -0.00  -0.00    -0.00  -0.00  -0.00     0.05   0.17   0.13
  31   1    -0.00   0.00   0.00    -0.00   0.00   0.00     0.03  -0.02  -0.02
                     82                     83                     84
                        a                      a                      a 
 Frequencies --  3071.1814              3071.5087              3078.9416
 Red. masses --     1.8086                 1.8495                 1.8543
 Frc consts  --     0.0000                 0.0000                 0.0000
 IR Inten    --    42.9784                97.4187               124.5121
 Raman Activ --     0.0000                 0.0000                 0.0000
 Depolar     --     0.0000                 0.0000                 0.0000
 Atom AN      X      Y      Z        X      Y      Z        X      Y      Z
   1   6    -0.00   0.00   0.00     0.00   0.00  -0.00    -0.00   0.00  -0.00
   2   6    -0.00   0.00   0.00     0.00   0.00   0.00    -0.00   0.00   0.00
   3   7     0.00   0.00   0.00     0.00  -0.00  -0.00    -0.00  -0.00   0.00
   4   6    -0.00  -0.00   0.00    -0.01  -0.00   0.00     0.00   0.00  -0.00
   5   6    -0.01   0.01  -0.00    -0.14   0.16  -0.06    -0.04   0.04  -0.01
   6   6     0.00   0.01  -0.00     0.04   0.10  -0.04     0.03   0.08  -0.04
   7   6    -0.00  -0.00   0.00    -0.10  -0.01   0.01     0.15   0.02  -0.02
   8   6    -0.00   0.00  -0.00    -0.04   0.05  -0.02    -0.01   0.02  -0.01
   9   6    -0.00  -0.00   0.00    -0.01  -0.03   0.01     0.07   0.18  -0.08
  10   6     0.00  -0.00  -0.00    -0.00  -0.00   0.00     0.00  -0.00   0.00
  11   6     0.00   0.01   0.01    -0.00  -0.00  -0.00    -0.00  -0.00  -0.00
  12   6     0.04  -0.03  -0.03    -0.00   0.00   0.00    -0.00   0.00   0.00
  13   6     0.01   0.01   0.00    -0.00  -0.00  -0.00    -0.00  -0.00  -0.00
  14   6     0.00   0.01   0.00    -0.00  -0.00  -0.00    -0.00   0.00   0.00
  15   6     0.05   0.20   0.16    -0.00  -0.01  -0.01    -0.00  -0.00  -0.00
  16   6     0.03  -0.02  -0.02    -0.00   0.00   0.00    -0.00   0.00   0.00
  17   1     0.00   0.00  -0.00    -0.00  -0.00   0.01    -0.00  -0.00   0.00
  18   1     0.00   0.00   0.00    -0.02  -0.00  -0.00     0.00   0.00  -0.00
  19   1     0.00  -0.00   0.00     0.01  -0.01   0.00     0.00  -0.00   0.00
  20   1     0.04  -0.04   0.01     0.47  -0.55   0.19     0.12  -0.13   0.05
  21   1    -0.01  -0.02   0.01    -0.14  -0.34   0.15    -0.11  -0.27   0.12
  22   1     0.01   0.00  -0.00     0.37   0.05  -0.05    -0.51  -0.06   0.06
  23   1     0.01  -0.01   0.00     0.14  -0.17   0.06     0.04  -0.05   0.02
  24   1     0.00   0.01  -0.01     0.04   0.10  -0.04    -0.26  -0.62   0.27
  25   1    -0.01  -0.05  -0.04     0.00   0.01   0.01     0.00   0.00   0.00
  26   1    -0.16   0.11   0.10     0.01  -0.01  -0.01     0.00  -0.00  -0.00
  27   1    -0.00  -0.03   0.00     0.00   0.00  -0.00     0.00   0.00  -0.00
  28   1     0.01  -0.00  -0.01     0.00  -0.00  -0.00     0.00  -0.00  -0.00
  29   1    -0.01   0.01  -0.01     0.00  -0.00   0.00     0.00  -0.00   0.00
  30   1    -0.20  -0.70  -0.56     0.01   0.04   0.04     0.00   0.00   0.00
  31   1    -0.13   0.08   0.08     0.01  -0.01  -0.01     0.00  -0.00  -0.00
                     85                     86                     87
                        a                      a                      a 
 Frequencies --  3086.0892              3094.4627              3100.6744
 Red. masses --     1.9102                 1.8458                 1.8489
 Frc consts  --     0.0000                 0.0000                 0.0000
 IR Inten    --    72.9837                46.8589                15.3306
 Raman Activ --     0.0000                 0.0000                 0.0000
 Depolar     --     0.0000                 0.0000                 0.0000
 Atom AN      X      Y      Z        X      Y      Z        X      Y      Z
   1   6     0.00  -0.00   0.00     0.00  -0.00  -0.00     0.00  -0.00   0.00
   2   6    -0.00   0.00   0.00    -0.00  -0.00  -0.00     0.00  -0.00  -0.00
   3   7     0.00  -0.00  -0.00     0.00   0.00   0.00    -0.00   0.00   0.00
   4   6    -0.01  -0.00   0.00    -0.00  -0.00   0.00    -0.00  -0.00   0.00
   5   6    -0.04   0.04  -0.01     0.00  -0.00   0.00    -0.00   0.00  -0.00
   6   6     0.03   0.07  -0.03    -0.00  -0.00   0.00     0.00   0.00  -0.00
   7   6     0.17   0.02  -0.02    -0.00  -0.00   0.00     0.00   0.00  -0.00
   8   6     0.08  -0.09   0.03    -0.00   0.00  -0.00     0.00  -0.00   0.00
   9   6    -0.06  -0.14   0.06     0.00   0.00  -0.00    -0.00  -0.00   0.00
  10   6    -0.00  -0.00  -0.00    -0.01  -0.00  -0.00     0.01   0.00   0.00
  11   6    -0.00  -0.00  -0.00    -0.05  -0.20  -0.16     0.00   0.02   0.01
  12   6    -0.00   0.00   0.00     0.05  -0.03  -0.03    -0.00   0.00   0.00
  13   6    -0.00  -0.00  -0.00     0.00   0.00   0.00    -0.00   0.00   0.00
  14   6    -0.00  -0.00   0.00     0.00  -0.00  -0.00     0.00  -0.00  -0.00
  15   6    -0.00  -0.00  -0.00    -0.00  -0.00  -0.00    -0.01  -0.04  -0.04
  16   6    -0.00   0.00   0.00     0.02  -0.01  -0.01     0.20  -0.13  -0.13
  17   1     0.00   0.00  -0.00    -0.01  -0.00   0.02     0.00  -0.00   0.00
  18   1    -0.00  -0.00   0.00    -0.01  -0.00  -0.00    -0.00  -0.00  -0.00
  19   1     0.00  -0.00   0.00    -0.01   0.02  -0.00     0.00   0.00  -0.00
  20   1     0.12  -0.14   0.05    -0.00   0.00  -0.00     0.00  -0.01   0.00
  21   1    -0.10  -0.24   0.10     0.00   0.01  -0.00    -0.00  -0.00   0.00
  22   1    -0.58  -0.07   0.07     0.01   0.00  -0.00    -0.01  -0.00   0.00
  23   1    -0.26   0.30  -0.10     0.01  -0.01   0.00    -0.00   0.00  -0.00
  24   1     0.20   0.47  -0.20    -0.00  -0.01   0.00     0.00   0.00  -0.00
  25   1     0.00   0.02   0.01     0.19   0.71   0.57    -0.01  -0.06  -0.05
  26   1     0.00  -0.00  -0.00    -0.15   0.11   0.10     0.02  -0.01  -0.01
  27   1     0.00   0.00  -0.00    -0.00   0.00  -0.00     0.00   0.00  -0.00
  28   1     0.00  -0.00  -0.00    -0.01   0.00   0.01    -0.00   0.00   0.00
  29   1     0.00  -0.00   0.00    -0.00  -0.00  -0.00     0.00  -0.00   0.00
  30   1     0.00   0.01   0.01     0.00   0.00   0.00     0.04   0.13   0.10
  31   1     0.01  -0.01  -0.00    -0.06   0.04   0.04    -0.70   0.45   0.44
