      -----------------------------------------------------------      
     |                   =====================                   |     
     |                           x T B                           |     
     |                   =====================                   |     
     |                         S. Grimme                         |     
     |          Mulliken Center for Theoretical Chemistry        |     
     |                    University of Bonn                     |     
      -----------------------------------------------------------      

   * xtb version 6.7.1 (edcfbbe) compiled by 'VssAdministrator@runnervm171ch' on 2026-06-10

   xtb is free software: you can redistribute it and/or modify it under
   the terms of the GNU Lesser General Public License as published by
   the Free Software Foundation, either version 3 of the License, or
   (at your option) any later version.
   
   xtb is distributed in the hope that it will be useful,
   but WITHOUT ANY WARRANTY; without even the implied warranty of
   MERCHANTABILITY or FITNESS FOR A PARTICULAR PURPOSE.  See the
   GNU Lesser General Public License for more details.
   
   Cite this work as:
   * C. Bannwarth, E. Caldeweyher, S. Ehlert, A. Hansen, P. Pracht,
     J. Seibert, S. Spicher, S. Grimme, WIREs Comput. Mol. Sci., 2020, 11,
     e01493. DOI: 10.1002/wcms.1493
   
   for GFN2-xTB:
   * C. Bannwarth, S. Ehlert and S. Grimme., J. Chem. Theory Comput., 2019,
     15, 1652-1671. DOI: 10.1021/acs.jctc.8b01176
   for GFN1-xTB:
   * S. Grimme, C. Bannwarth, P. Shushkov, J. Chem. Theory Comput., 2017,
     13, 1989-2009. DOI: 10.1021/acs.jctc.7b00118
   for GFN0-xTB:
   * P. Pracht, E. Caldeweyher, S. Ehlert, S. Grimme, ChemRxiv, 2019, preprint.
     DOI: 10.26434/chemrxiv.8326202.v1
   for GFN-FF:
   * S. Spicher and S. Grimme, Angew. Chem. Int. Ed., 2020, 59, 15665-15673.
     DOI: 10.1002/anie.202004239
   
   for ALPB and GBSA implicit solvation:
   * S. Ehlert, M. Stahn, S. Spicher, S. Grimme, J. Chem. Theory Comput.,
     2021, 17, 4250-4261. DOI: 10.1021/acs.jctc.1c00471
   
   for ddCOSMO and CPCM-X implicit solvation:
   * M. Stahn, S. Ehlert, S. Grimme, J. Phys. Chem. A,
     2023, XX, XXXX-XXXX. DOI: 10.1021/acs.jpca.3c04382
   
   for DFT-D4:
   * E. Caldeweyher, C. Bannwarth and S. Grimme, J. Chem. Phys., 2017,
     147, 034112. DOI: 10.1063/1.4993215
   * E. Caldeweyher, S. Ehlert, A. Hansen, H. Neugebauer, S. Spicher,
     C. Bannwarth and S. Grimme, J. Chem. Phys., 2019, 150, 154122.
     DOI: 10.1063/1.5090222
   * E. Caldeweyher, J.-M. Mewes, S. Ehlert and S. Grimme, Phys. Chem. Chem. Phys.
     2020, 22, 8499-8512. DOI: 10.1039/D0CP00502A
   
   for sTDA-xTB:
   * S. Grimme and C. Bannwarth, J. Chem. Phys., 2016, 145, 054103.
     DOI: 10.1063/1.4959605
   
   in the mass-spec context:
   * V. Asgeirsson, C. Bauer and S. Grimme, Chem. Sci., 2017, 8, 4879.
     DOI: 10.1039/c7sc00601b
   * J. Koopman and S. Grimme, ACS Omega 2019, 4, 12, 15120-15133.
     DOI: 10.1021/acsomega.9b02011
   
   for metadynamics refer to:
   * S. Grimme, J. Chem. Theory Comput., 2019, 155, 2847-2862
     DOI: 10.1021/acs.jctc.9b00143
   
   for SPH calculations refer to:
   * S. Spicher and S. Grimme, J. Chem. Theory Comput., 2021, 17, 1701-1714
     DOI: 10.1021/acs.jctc.0c01306
   
   for ONIOM refer to:
   * C. Plett, A. Katbashev, S. Ehlert, S. Grimme, M. Bursch,
     Phys. Chem. Chem. Phys., 2023, 25, 17860-17868. DOI: 10.1039/D3CP02178E
   
   for DIPRO refer to:
   * J. Kohn, N. Gildemeister, S. Grimme, D. Fazzi, A. Hansen,
     J. Chem. Phys., 2023, just accepted.
   
   for PTB refer to:
   * S. Grimme, M. Mueller, A. Hansen, J. Chem. Phys., 2023, 158, 124111.
     DOI: 10.1063/5.0137838
   
   with help from (in alphabetical order)
   P. Atkinson, C. Bannwarth, F. Bohle, G. Brandenburg, E. Caldeweyher
   M. Checinski, S. Dohm, S. Ehlert, S. Ehrlich, I. Gerasimov, C. Hölzer
   A. Katbashev, J. Kohn, J. Koopman, C. Lavigne, S. Lehtola, F. März, M. Müller,
   F. Musil, H. Neugebauer, J. Pisarek, C. Plett, P. Pracht, F. Pultar,
   J. Seibert, P. Shushkov, S. Spicher, M. Stahn, M. Steiner, T. Strunk,
   J. Stückrath, T. Rose, and J. Unsleber
   
 * started run on 2026/09/10 at 23:01:12.085     
   ID    Z sym.   atoms
    1    6 C      1, 2, 4-16
    2    7 N      3
    3    1 H      17-31

           -------------------------------------------------
          |                Calculation Setup                |
           -------------------------------------------------

          program call               : C:\Users\HUIWEI\miniconda3\envs\phase2ff\Library\bin\xtb.exe input.xyz --gfn 2 --chrg 0 --uhf 0 --alpb toluene --acc 0.2 --opt extreme
          coordinate file            : input.xyz
          omp threads                :                     1


           -------------------------------------------------
          |                 G F N 2 - x T B                 |
           -------------------------------------------------

        Reference                      10.1021/acs.jctc.8b01176
      * Hamiltonian:
        H0-scaling (s, p, d)           1.850000    2.230000    2.230000
        zeta-weighting                 0.500000
      * Dispersion:
        s8                             2.700000
        a1                             0.520000
        a2                             5.000000
        s9                             5.000000
      * Repulsion:
        kExp                           1.500000    1.000000
        rExp                           1.000000
      * Coulomb:
        alpha                          2.000000
        third order                    shell-resolved
        anisotropic                    true
        a3                             3.000000
        a5                             4.000000
        cn-shift                       1.200000
        cn-exp                         4.000000
        max-rad                        5.000000

      * Solvation model:               ALPB
        Solvent                        toluene
        Parameter file                 internal GFN2-xTB/ALPB
        Dielectric constant                7.0000E+00
        Reference state                gsolv [1 M gas/solution]
        Free energy shift                  2.2081E-03 Eh       1.3856E+00 kcal/mol
        Temperature                        2.9815E+02 K
        Density                            8.6700E-01 kg/L
        Solvent mass                       7.8110E+01 g/mol
        Interaction kernel             P16
        Born radius scaling (c1)           1.7172E+00
        Born radii integrator          GBOBC
        Born offset                        0.0000E+00 a0       0.0000E+00 AA
        H-bond correction              false
        Ion screening                  false
        Surface tension                    1.0000E-05 Eh       1.5569E+01 dyn/cm
        Grid points                               230 per atom

          ...................................................
          :                      SETUP                      :
          :.................................................:
          :  # basis functions                  79          :
          :  # atomic orbitals                  79          :
          :  # shells                           47          :
          :  # electrons                        80          :
          :  max. iterations                   250          :
          :  Hamiltonian                  GFN2-xTB          :
          :  restarted?                      false          :
          :  GBSA solvation                   true          :
          :  PC potential                    false          :
          :  electronic temp.          300.0000000     K    :
          :  accuracy                    0.2000000          :
          :  -> integral cutoff          0.3198970E+02      :
          :  -> integral neglect         0.2000000E-08      :
          :  -> SCF convergence          0.2000000E-06 Eh   :
          :  -> wf. convergence          0.2000000E-04 e    :
          :  Broyden damping             0.4000000          :
          :  net charge                          0          :
          :  unpaired electrons                  0          :
          ...................................................

 iter      E             dE          RMSdq      gap      omega  full diag
   1    -43.4336725 -0.434337E+02  0.379E+00    2.74       0.0  T
   2    -43.4634043 -0.297318E-01  0.228E+00    2.61       1.0  T
   3    -43.4556245  0.777981E-02  0.859E-01    2.44       1.0  T
   4    -43.4671083 -0.114839E-01  0.267E-01    2.43       1.0  T
   5    -43.4684470 -0.133868E-02  0.614E-02    2.43       1.0  T
   6    -43.4684963 -0.492362E-04  0.303E-02    2.43       1.0  T
   7    -43.4685009 -0.463595E-05  0.146E-02    2.43       1.2  T
   8    -43.4685029 -0.197086E-05  0.304E-03    2.43       5.9  T
   9    -43.4685030 -0.153091E-06  0.118E-03    2.43      15.2  T
  10    -43.4685030 -0.851498E-08  0.522E-04    2.43      34.4  T
  11    -43.4685030 -0.122103E-08  0.216E-04    2.43      83.0  T
  12    -43.4685030 -0.696531E-09  0.914E-05    2.43     196.6  T
  13    -43.4685030 -0.346319E-10  0.423E-05    2.43     424.3  T

   *** convergence criteria satisfied after 13 iterations ***

         #    Occupation            Energy/Eh            Energy/eV
      -------------------------------------------------------------
         1        2.0000           -0.6498903             -17.6844
       ...           ...                  ...                  ...
        34        2.0000           -0.4174866             -11.3604
        35        2.0000           -0.4130277             -11.2391
        36        2.0000           -0.4065996             -11.0641
        37        2.0000           -0.4040327             -10.9943
        38        2.0000           -0.3951001             -10.7512
        39        2.0000           -0.3859764             -10.5030
        40        2.0000           -0.3524990              -9.5920 (HOMO)
        41                         -0.2633088              -7.1650 (LUMO)
        42                         -0.2210720              -6.0157
        43                         -0.2127910              -5.7903
        44                         -0.2055619              -5.5936
        45                         -0.1794275              -4.8825
       ...                                ...                  ...
        79                          0.7041664              19.1613
      -------------------------------------------------------------
                  HL-Gap            0.0891902 Eh            2.4270 eV
             Fermi-level           -0.3079039 Eh           -8.3785 eV

 SCC (total)                   0 d,  0 h,  0 min,  0.035 sec
 SCC setup                      ...        0 min,  0.001 sec (  3.474%)
 Dispersion                     ...        0 min,  0.000 sec (  1.348%)
 classical contributions        ...        0 min,  0.000 sec (  0.377%)
 integral evaluation            ...        0 min,  0.004 sec ( 12.165%)
 iterations                     ...        0 min,  0.016 sec ( 46.288%)
 molecular gradient             ...        0 min,  0.013 sec ( 35.554%)
 printout                       ...        0 min,  0.000 sec (  0.723%)

         :::::::::::::::::::::::::::::::::::::::::::::::::::::
         ::                     SUMMARY                     ::
         :::::::::::::::::::::::::::::::::::::::::::::::::::::
         :: total energy             -42.685808854677 Eh    ::
         :: total w/o Gsasa/hb       -42.667335453182 Eh    ::
         :: gradient norm              0.021614296905 Eh/a0 ::
         :: HOMO-LUMO gap              2.426989471435 eV    ::
         ::.................................................::
         :: SCC energy               -43.468658174869 Eh    ::
         :: -> isotropic ES            0.011288218879 Eh    ::
         :: -> anisotropic ES          0.006425092499 Eh    ::
         :: -> anisotropic XC          0.031186862068 Eh    ::
         :: -> dispersion             -0.029876655805 Eh    ::
         :: -> Gsolv                  -0.018848318976 Eh    ::
         ::    -> Gelec               -0.000374917481 Eh    ::
         ::    -> Gsasa               -0.020681544633 Eh    ::
         ::    -> Ghb                  0.000000000000 Eh    ::
         ::    -> Gshift               0.002208143139 Eh    ::
         :: repulsion energy           0.782849320192 Eh    ::
         :: add. restraining           0.000000000000 Eh    ::
         :: total charge               0.000000000000 e     ::
         :::::::::::::::::::::::::::::::::::::::::::::::::::::

      ----------------------------------------------------------- 
     |                   =====================                   |
     |                        A N C O P T                        |
     |                   =====================                   |
     |               Approximate Normal Coordinate               |
     |                Rational Function Optimizer                |
      ----------------------------------------------------------- 
      ----------------------------------------------------------- 
     |                   =====================                   |
     |                        A N C O P T                        |
     |                   =====================                   |
     |               Approximate Normal Coordinate               |
     |                Rational Function Optimizer                |
      ----------------------------------------------------------- 

          ...................................................
          :                      SETUP                      :
          :.................................................:
          :   optimization level           extreme          :
          :   max. optcycles                   620          :
          :   ANC micro-cycles                  20          :
          :   degrees of freedom                87          :
          :.................................................:
          :   RF solver                   davidson          :
          :   write xtbopt.log                true          :
          :   linear?                        false          :
          :   energy convergence         0.5000000E-07 Eh   :
          :   grad. convergence          0.5000000E-04 Eh/α :
          :   maxmium RF displ.          1.0000000          :
          :   Hlow (freq-cutoff)         0.1000000E-01      :
          :   Hmax (freq-cutoff)         5.0000000          :
          :   S6 in model hess.         20.0000000          :
          ...................................................

generating ANC from exact Hessian ...
Using Lindh-Hessian (1995)
 Shifting diagonal of input Hessian by    9.3934248652018711E-003
 Lowest  eigenvalues of input Hessian
    0.000000    0.000000    0.000000    0.000000    0.000000    0.000000
    0.010000    0.010513    0.010584    0.011369    0.013312    0.014560
    0.017709    0.018158    0.019409    0.022889    0.024359    0.024986
 Highest eigenvalues
    1.894300    1.948243    1.999474    2.017675    2.044109    2.239936


........................................................................
.............................. CYCLE    1 ..............................
........................................................................

 iter      E             dE          RMSdq      gap      omega  full diag
   1    -43.4685030 -0.434685E+02  0.143E-05    2.43       0.0  T
   2    -43.4685030 -0.206057E-11  0.903E-06    2.43    1988.0  T
   3    -43.4685030 -0.164846E-11  0.512E-06    2.43    3506.4  T
     SCC iter.                  ...        0 min,  0.005 sec
     gradient                   ...        0 min,  0.014 sec
 * total energy  :   -42.6858089 Eh     change       -0.1328004E-10 Eh
   gradient norm :     0.0216144 Eh/α   predicted     0.0000000E+00 (-100.00%)
   displ. norm   :     0.0504136 α      lambda       -0.7177272E-03
   maximum displ.:     0.0225766 α      in ANC's #26, #50, #25, ...

........................................................................
.............................. CYCLE    2 ..............................
........................................................................

 iter      E             dE          RMSdq      gap      omega  full diag
   1    -43.4721214 -0.434721E+02  0.579E-02    2.43       0.0  T
   2    -43.4721255 -0.404349E-05  0.334E-02    2.43       1.0  T
   3    -43.4721256 -0.139071E-06  0.649E-03    2.43       2.8  T
   4    -43.4721257 -0.117763E-06  0.170E-03    2.43      10.6  T
   5    -43.4721257 -0.249766E-07  0.104E-03    2.43      17.2  T
   6    -43.4721257 -0.127919E-07  0.254E-04    2.43      70.8  T
   7    -43.4721257 -0.404931E-09  0.983E-05    2.43     182.7  T
   8    -43.4721257 -0.237755E-09  0.323E-05    2.43     556.7  T
     SCC iter.                  ...        0 min,  0.011 sec
     gradient                   ...        0 min,  0.013 sec
 * total energy  :   -42.6862415 Eh     change       -0.4326094E-03 Eh
   gradient norm :     0.0068377 Eh/α   predicted    -0.3607271E-03 ( -16.62%)
   displ. norm   :     0.0151750 α      lambda       -0.7301234E-04
   maximum displ.:     0.0055118 α      in ANC's #70, #26, #50, ...

........................................................................
.............................. CYCLE    3 ..............................
........................................................................

 iter      E             dE          RMSdq      gap      omega  full diag
   1    -43.4731730 -0.434732E+02  0.157E-02    2.43       0.0  T
   2    -43.4731733 -0.263736E-06  0.902E-03    2.43       2.0  T
   3    -43.4731733  0.191721E-08  0.191E-03    2.43       9.4  T
   4    -43.4731733 -0.179835E-07  0.616E-04    2.43      29.2  T
   5    -43.4731733 -0.549370E-08  0.272E-04    2.43      66.2  T
   6    -43.4731733 -0.189807E-09  0.869E-05    2.43     206.6  T
   7    -43.4731733 -0.494609E-10  0.359E-05    2.43     500.6  T
     SCC iter.                  ...        0 min,  0.012 sec
     gradient                   ...        0 min,  0.014 sec
 * total energy  :   -42.6862791 Eh     change       -0.3761439E-04 Eh
   gradient norm :     0.0010862 Eh/α   predicted    -0.3652367E-04 (  -2.90%)
   displ. norm   :     0.0066789 α      lambda       -0.2376154E-05
   maximum displ.:     0.0021230 α      in ANC's #4, #5, #50, ...

........................................................................
.............................. CYCLE    4 ..............................
........................................................................

 iter      E             dE          RMSdq      gap      omega  full diag
   1    -43.4729673 -0.434730E+02  0.594E-03    2.43       0.0  T
   2    -43.4729673 -0.154265E-07  0.346E-03    2.43       5.2  T
   3    -43.4729673  0.781619E-08  0.694E-04    2.43      25.9  T
   4    -43.4729673 -0.109573E-07  0.216E-04    2.43      83.2  T
   5    -43.4729673 -0.655319E-09  0.908E-05    2.43     197.9  T
   6    -43.4729673 -0.122213E-11  0.331E-05    2.43     543.3  T
     SCC iter.                  ...        0 min,  0.010 sec
     gradient                   ...        0 min,  0.014 sec
 * total energy  :   -42.6862807 Eh     change       -0.1630483E-05 Eh
   gradient norm :     0.0003641 Eh/α   predicted    -0.1192258E-05 ( -26.88%)
   displ. norm   :     0.0035877 α      lambda       -0.2396396E-06
   maximum displ.:     0.0016417 α      in ANC's #8, #4, #2, ...

........................................................................
.............................. CYCLE    5 ..............................
........................................................................

 iter      E             dE          RMSdq      gap      omega  full diag
   1    -43.4729726 -0.434730E+02  0.205E-03    2.43       0.0  T
   2    -43.4729726 -0.713513E-09  0.123E-03    2.43      14.6  T
   3    -43.4729726  0.184385E-08  0.273E-04    2.43      65.8  T
   4    -43.4729726 -0.220243E-08  0.367E-05    2.43     490.0  T
   5    -43.4729726 -0.974154E-11  0.206E-05    2.43     873.8  T
     SCC iter.                  ...        0 min,  0.008 sec
     gradient                   ...        0 min,  0.012 sec
 * total energy  :   -42.6862809 Eh     change       -0.2391273E-06 Eh
   gradient norm :     0.0001287 Eh/α   predicted    -0.1396063E-06 ( -41.62%)
   displ. norm   :     0.0038029 α      lambda       -0.9258309E-07
   maximum displ.:     0.0021984 α      in ANC's #8, #2, #4, ...

........................................................................
.............................. CYCLE    6 ..............................
........................................................................

 iter      E             dE          RMSdq      gap      omega  full diag
   1    -43.4729825 -0.434730E+02  0.122E-03    2.43       0.0  T
   2    -43.4729825 -0.321783E-09  0.713E-04    2.43      25.2  T
   3    -43.4729825  0.367400E-09  0.134E-04    2.43     134.0  T
   4    -43.4729825 -0.465803E-09  0.251E-05    2.43     715.3  T
     SCC iter.                  ...        0 min,  0.005 sec
     gradient                   ...        0 min,  0.013 sec
 * total energy  :   -42.6862810 Eh     change       -0.9825042E-07 Eh
   gradient norm :     0.0000716 Eh/α   predicted    -0.4812050E-07 ( -51.02%)
   displ. norm   :     0.0038029 α      lambda        0.0000000E+00
   maximum displ.:     0.0021984 α      in ANC's #8, #2, #4, ...

........................................................................
.............................. CYCLE    7 ..............................
........................................................................

 iter      E             dE          RMSdq      gap      omega  full diag
   1    -43.4729921 -0.434730E+02  0.122E-03    2.43       0.0  T
   2    -43.4729921 -0.318089E-09  0.715E-04    2.43      25.1  T
   3    -43.4729921  0.418652E-09  0.140E-04    2.43     128.5  T
   4    -43.4729921 -0.519577E-09  0.256E-05    2.43     701.6  T
     SCC iter.                  ...        0 min,  0.006 sec
     gradient                   ...        0 min,  0.013 sec
 * total energy  :   -42.6862811 Eh     change       -0.5884090E-08 Eh
   gradient norm :     0.0002171 Eh/α   predicted    -0.3613060E-08 ( -38.60%)
   displ. norm   :     0.0021133 α      lambda       -0.1282409E-07
   maximum displ.:     0.0013271 α      in ANC's #8, #2, #5, ...

........................................................................
.............................. CYCLE    8 ..............................
........................................................................

 iter      E             dE          RMSdq      gap      omega  full diag
   1    -43.4729856 -0.434730E+02  0.838E-04    2.43       0.0  T
   2    -43.4729856 -0.247269E-09  0.490E-04    2.43      36.6  T
   3    -43.4729856  0.436415E-10  0.636E-05    2.43     282.6  T
   4    -43.4729856 -0.793960E-10  0.259E-05    2.43     694.3  T
     SCC iter.                  ...        0 min,  0.006 sec
     gradient                   ...        0 min,  0.013 sec
 * total energy  :   -42.6862811 Eh     change       -0.7061971E-07 Eh
   gradient norm :     0.0001265 Eh/α   predicted    -0.3161671E-07 ( -55.23%)
   displ. norm   :     0.0053101 α      lambda       -0.7092386E-07
   maximum displ.:     0.0032268 α      in ANC's #8, #2, #5, ...

........................................................................
.............................. CYCLE    9 ..............................
........................................................................

 iter      E             dE          RMSdq      gap      omega  full diag
   1    -43.4729781 -0.434730E+02  0.163E-03    2.43       0.0  T
   2    -43.4729781 -0.571276E-09  0.948E-04    2.43      18.9  T
   3    -43.4729781  0.444111E-09  0.154E-04    2.43     116.3  T
   4    -43.4729781 -0.641201E-09  0.449E-05    2.43     399.6  T
     SCC iter.                  ...        0 min,  0.007 sec
     gradient                   ...        0 min,  0.012 sec
 * total energy  :   -42.6862812 Eh     change       -0.7294086E-07 Eh
   gradient norm :     0.0000600 Eh/α   predicted    -0.3660312E-07 ( -49.82%)
   displ. norm   :     0.0053101 α      lambda        0.0000000E+00
   maximum displ.:     0.0032268 α      in ANC's #8, #2, #5, ...

........................................................................
.............................. CYCLE   10 ..............................
........................................................................

 iter      E             dE          RMSdq      gap      omega  full diag
   1    -43.4729699 -0.434730E+02  0.163E-03    2.43       0.0  T
   2    -43.4729699 -0.553456E-09  0.950E-04    2.43      18.9  T
   3    -43.4729699  0.477471E-09  0.156E-04    2.43     114.8  T
   4    -43.4729699 -0.675250E-09  0.447E-05    2.43     401.9  T
     SCC iter.                  ...        0 min,  0.006 sec
     gradient                   ...        0 min,  0.014 sec
 * total energy  :   -42.6862812 Eh     change       -0.7395045E-09 Eh
   gradient norm :     0.0001602 Eh/α   predicted     0.1962004E-09 (-126.53%)
   displ. norm   :     0.0008647 α      lambda       -0.3290534E-07
   maximum displ.:     0.0004026 α      in ANC's #2, #5, #4, ...

........................................................................
.............................. CYCLE   11 ..............................
........................................................................

 iter      E             dE          RMSdq      gap      omega  full diag
   1    -43.4729775 -0.434730E+02  0.552E-04    2.43       0.0  T
   2    -43.4729775 -0.159815E-09  0.322E-04    2.43      55.7  T
   3    -43.4729775  0.872475E-10  0.672E-05    2.43     267.5  T
   4    -43.4729775 -0.114312E-09  0.182E-05    2.43     985.4  T
     SCC iter.                  ...        0 min,  0.006 sec
     gradient                   ...        0 min,  0.016 sec
 * total energy  :   -42.6862812 Eh     change       -0.3313241E-07 Eh
   gradient norm :     0.0000545 Eh/α   predicted    -0.1690099E-07 ( -48.99%)
   displ. norm   :     0.0008647 α      lambda        0.0000000E+00
   maximum displ.:     0.0004026 α      in ANC's #2, #5, #4, ...

........................................................................
.............................. CYCLE   12 ..............................
........................................................................

 iter      E             dE          RMSdq      gap      omega  full diag
   1    -43.4729851 -0.434730E+02  0.550E-04    2.43       0.0  T
   2    -43.4729851 -0.150791E-09  0.323E-04    2.43      55.6  T
   3    -43.4729851  0.133568E-09  0.747E-05    2.43     240.4  T
   4    -43.4729851 -0.164171E-09  0.191E-05    2.43     939.3  T
     SCC iter.                  ...        0 min,  0.007 sec
     gradient                   ...        0 min,  0.013 sec
 * total energy  :   -42.6862812 Eh     change        0.2346049E-08 Eh
   gradient norm :     0.0000773 Eh/α   predicted     0.1596230E-08 ( -31.96%)
   displ. norm   :     0.0010493 α      lambda       -0.1712425E-07
   maximum displ.:     0.0006248 α      in ANC's #2, #7, #5, ...

........................................................................
.............................. CYCLE   13 ..............................
........................................................................

 iter      E             dE          RMSdq      gap      omega  full diag
   1    -43.4729827 -0.434730E+02  0.548E-04    2.43       0.0  T
   2    -43.4729827 -0.622578E-10  0.325E-04    2.43      55.2  T
   3    -43.4729827  0.149718E-09  0.723E-05    2.43     248.4  T
   4    -43.4729827 -0.179348E-09  0.119E-05    2.43    1515.0  T
     SCC iter.                  ...        0 min,  0.005 sec
     gradient                   ...        0 min,  0.016 sec
 * total energy  :   -42.6862812 Eh     change       -0.1607011E-07 Eh
   gradient norm :     0.0000258 Eh/α   predicted    -0.9146399E-08 ( -43.08%)
   displ. norm   :     0.0010493 α      lambda        0.0000000E+00
   maximum displ.:     0.0006248 α      in ANC's #2, #7, #5, ...

   *** GEOMETRY OPTIMIZATION CONVERGED AFTER 13 ITERATIONS ***

------------------------------------------------------------------------
 total energy gain   :        -0.0004724 Eh       -0.2964 kcal/mol
 total RMSD          :         0.0111665 a0        0.0059 Å
 total power (kW/mol):        -0.0954043 (step)   -3.3448 (real)
------------------------------------------------------------------------

 ANCopt (total)                0 d,  0 h,  0 min,  0.371 sec
 optimizer setup                ...        0 min,  0.001 sec (  0.161%)
 model hessian                  ...        0 min,  0.006 sec (  1.648%)
 ANC generation                 ...        0 min,  0.001 sec (  0.280%)
 coordinate transformation      ...        0 min,  0.000 sec (  0.073%)
 single point calculation       ...        0 min,  0.356 sec ( 95.950%)
 optimization log               ...        0 min,  0.004 sec (  1.080%)
 hessian update                 ...        0 min,  0.000 sec (  0.094%)
 rational function              ...        0 min,  0.002 sec (  0.443%)

================
 final structure:
================
31
 xtb: 6.7.1 (edcfbbe)
C           -0.55464123079507       -1.38282415397828       -1.62615457866239
C           -0.20317141560936       -0.36885770955782       -0.56873047530815
N           -1.05854369330000        0.20898404797056        0.16825782920215
C           -2.40982491431416       -0.02443310831399        0.23424430409438
C           -2.91864498009187       -1.21834480295821        0.75500449867892
C           -4.27905077954335       -1.37755751254749        0.93291689456717
C           -5.15656511883429       -0.36316543880635        0.58633969819917
C           -4.65916820680015        0.82375451039696        0.07033814446682
C           -3.30052238467580        1.00127030584063       -0.09542144427538
C            1.20729533916721        0.00496517787230       -0.39434741054625
C            2.24439876150248       -0.66198170739036       -1.04554351430432
C            3.55918293541071       -0.28132032820581       -0.84976838633389
C            3.88472217943472        0.77309880597526       -0.00614216921027
C            5.30898176603885        1.17858848329046        0.21770156625561
C            2.84961070612065        1.43871773368855        0.64608522159014
C            1.53727081136241        1.06238982651062        0.45844931483599
H           -0.12918560451124       -1.09083808183731       -2.58474168674167
H           -1.63582791437081       -1.46123841319126       -1.72593171893423
H           -0.15789012279745       -2.36037892473862       -1.35423188994334
H           -2.23076320578151       -2.00575992924583        1.03081015062223
H           -4.65805587545218       -2.30530918811154        1.33889757720915
H           -6.22033915732167       -0.49482509624321        0.72024480970831
H           -5.33788872917513        1.62034027614888       -0.20097605496781
H           -2.90779625651430        1.92441127499896       -0.49658332711456
H            2.03799409453280       -1.49025650887573       -1.70601827044479
H            4.34716120109445       -0.81438213149517       -1.36382659718699
H            5.40631988212867        2.26271867693213        0.20302515218492
H            5.96145916630772        0.75437080442266       -0.54175847458933
H            5.64623498409977        0.82780665801048        1.19384429917379
H            3.08245257538276        2.26198170657449        1.30705625742108
H            0.73760781956712        1.58109481534204        0.96437803659757

 Bond Distances (Angstroems)
 ---------------------------
C1-C2=1.5066         C1-H17=1.0886        C1-H18=1.0886        C1-H19=1.0895        C2-C1=1.5066         C2-N3=1.2684         
C2-C10=1.4695        N3-C2=1.2684         N3-C4=1.3729         C4-N3=1.3729         C4-C5=1.3984         C4-C9=1.3979         
C5-C4=1.3984         C5-C6=1.3812         C5-H20=1.0813        C6-C5=1.3812         C6-C7=1.3853         C6-H21=1.0813        
C7-C6=1.3853         C7-C8=1.3865         C7-H22=1.0802        C8-C7=1.3865         C8-C9=1.3802         C8-H23=1.0811        
C9-C4=1.3979         C9-C8=1.3802         C9-H24=1.0804        C10-C2=1.4695        C10-C11=1.3944       C10-C16=1.3980       
C11-C10=1.3944       C11-C12=1.3827       C11-H25=1.0793       C12-C11=1.3827       C12-C13=1.3891       C12-H26=1.0814       
C13-C12=1.3891       C13-C14=1.4977       C13-C15=1.3928       C14-C13=1.4977       C14-H27=1.0886       C14-H28=1.0874       
C14-H29=1.0907       C15-C13=1.3928       C15-C16=1.3781       C15-H30=1.0811       C16-C10=1.3980       C16-C15=1.3781       
C16-H31=1.0791       H17-C1=1.0886        H18-C1=1.0886        H19-C1=1.0895        H20-C5=1.0813        H21-C6=1.0813        
H22-C7=1.0802        H23-C8=1.0811        H24-C9=1.0804        H25-C11=1.0793       H26-C12=1.0814       H27-C14=1.0886       
H28-C14=1.0874       H29-C14=1.0907       H30-C15=1.0811       H31-C16=1.0791       
 C  H  Rav=1.0839 sigma=0.0042  Rmin=1.0791  Rmax=1.0907    15
 C  C  Rav=1.4092 sigma=0.0421  Rmin=1.3781  Rmax=1.5066    15
 N  C  Rav=1.3206 sigma=0.0523  Rmin=1.2684  Rmax=1.3729     2

 selected bond angles (degree)
 --------------------
H17-C1-C2=110.26               H18-C1-C2=110.15               H18-C1-H17=109.07              H19-C1-C2=110.11               
H19-C1-H17=108.55              H19-C1-H18=108.66              N3-C2-C1=123.86                C10-C2-C1=118.58               
C10-C2-N3=117.54               C4-N3-C2=127.90                C5-C4-N3=121.41                C9-C4-N3=119.41                
C9-C4-C5=118.84                C6-C5-C4=120.32                H20-C5-C4=119.03               H20-C5-C6=120.65               
C7-C6-C5=120.48                H21-C6-C5=119.51               H21-C6-C7=120.01               C8-C7-C6=119.52                
H22-C7-C6=120.23               H22-C7-C8=120.25               C9-C8-C7=120.53                H23-C8-C7=119.93               
H23-C8-C9=119.54               C8-C9-C4=120.30                H24-C9-C4=118.87               H24-C9-C8=120.82               
C11-C10-C2=122.46              C16-C10-C2=119.43              C16-C10-C11=118.11             

 selected dihedral angles (degree)
 ---------------------------------
N3-C2-C1-H17=126.20           N3-C2-C1-H18=  5.76           N3-C2-C1-H19=245.95           C10-C2-C1-H17=307.77          
C10-C2-C1-H18=187.33          C10-C2-C1-H19= 67.52          C4-N3-C2-C1=  5.28            C4-N3-C2-C10=183.72           
C5-C4-N3-C2= 68.45            C9-C4-N3-C2=241.75            C6-C5-C4-N3=173.61            C6-C5-C4-C9=  0.27            
H20-C5-C4-N3=354.63           H20-C5-C4-C9=181.30           C7-C6-C5-C4=  0.62            C7-C6-C5-H20=179.58           
H21-C6-C5-C4=180.15           H21-C6-C5-H20=359.11          C8-C7-C6-C5=359.34            C8-C7-C6-H21=179.81           
H22-C7-C6-C5=179.54           H22-C7-C6-H21=  0.00          C9-C8-C7-C6=359.80            C9-C8-C7-H22=179.60           
H23-C8-C7-C6=180.09           H23-C8-C7-H22=359.89          C8-C9-C4-N3=185.39            C8-C9-C4-C5=358.87            
H24-C9-C4-N3=  6.45           H24-C9-C4-C5=179.92           C4-C9-C8-C7=  1.10            C4-C9-C8-H23=180.81           
H24-C9-C8-C7=180.03           H24-C9-C8-H23=359.74          C11-C10-C2-C1=351.59          C11-C10-C2-N3=173.06          
C16-C10-C2-C1=171.92          C16-C10-C2-N3=353.39          
           -------------------------------------------------
          |                Final Singlepoint                |
           -------------------------------------------------

          ...................................................
          :                      SETUP                      :
          :.................................................:
          :  # basis functions                  79          :
          :  # atomic orbitals                  79          :
          :  # shells                           47          :
          :  # electrons                        80          :
          :  max. iterations                   250          :
          :  Hamiltonian                  GFN2-xTB          :
          :  restarted?                      false          :
          :  GBSA solvation                   true          :
          :  PC potential                    false          :
          :  electronic temp.          300.0000000     K    :
          :  accuracy                    0.2000000          :
          :  -> integral cutoff          0.3198970E+02      :
          :  -> integral neglect         0.2000000E-08      :
          :  -> SCF convergence          0.2000000E-06 Eh   :
          :  -> wf. convergence          0.2000000E-04 e    :
          :  Broyden damping             0.4000000          :
          :  net charge                          0          :
          :  unpaired electrons                  0          :
          ...................................................

 iter      E             dE          RMSdq      gap      omega  full diag
   1    -43.4729827 -0.434730E+02  0.570E-06    2.43       0.0  T
   2    -43.4729827 -0.355271E-13  0.327E-06    2.43    5495.7  T
   3    -43.4729827 -0.163425E-12  0.191E-06    2.43    9414.4  T

   *** convergence criteria satisfied after 3 iterations ***

         #    Occupation            Energy/Eh            Energy/eV
      -------------------------------------------------------------
         1        2.0000           -0.6498497             -17.6833
       ...           ...                  ...                  ...
        34        2.0000           -0.4174746             -11.3601
        35        2.0000           -0.4129795             -11.2377
        36        2.0000           -0.4065877             -11.0638
        37        2.0000           -0.4039913             -10.9932
        38        2.0000           -0.3951017             -10.7513
        39        2.0000           -0.3859564             -10.5024
        40        2.0000           -0.3524840              -9.5916 (HOMO)
        41                         -0.2632237              -7.1627 (LUMO)
        42                         -0.2210033              -6.0138
        43                         -0.2127716              -5.7898
        44                         -0.2055320              -5.5928
        45                         -0.1793115              -4.8793
       ...                                ...                  ...
        79                          0.7040513              19.1582
      -------------------------------------------------------------
                  HL-Gap            0.0892603 Eh            2.4289 eV
             Fermi-level           -0.3078539 Eh           -8.3771 eV

 SCC (total)                   0 d,  0 h,  0 min,  0.027 sec
 SCC setup                      ...        0 min,  0.001 sec (  3.487%)
 Dispersion                     ...        0 min,  0.000 sec (  1.190%)
 classical contributions        ...        0 min,  0.000 sec (  0.293%)
 integral evaluation            ...        0 min,  0.007 sec ( 25.608%)
 iterations                     ...        0 min,  0.005 sec ( 16.681%)
 molecular gradient             ...        0 min,  0.014 sec ( 51.763%)
 printout                       ...        0 min,  0.000 sec (  0.903%)

         :::::::::::::::::::::::::::::::::::::::::::::::::::::
         ::                     SUMMARY                     ::
         :::::::::::::::::::::::::::::::::::::::::::::::::::::
         :: total energy             -42.686281243337 Eh    ::
         :: total w/o Gsasa/hb       -42.667823529980 Eh    ::
         :: gradient norm              0.000028072694 Eh/a0 ::
         :: HOMO-LUMO gap              2.428897547168 eV    ::
         ::.................................................::
         :: SCC energy               -43.473138061454 Eh    ::
         :: -> isotropic ES            0.011337553558 Eh    ::
         :: -> anisotropic ES          0.006339668070 Eh    ::
         :: -> anisotropic XC          0.031002282276 Eh    ::
         :: -> dispersion             -0.029877166508 Eh    ::
         :: -> Gsolv                  -0.018834310861 Eh    ::
         ::    -> Gelec               -0.000376597504 Eh    ::
         ::    -> Gsasa               -0.020665856496 Eh    ::
         ::    -> Ghb                  0.000000000000 Eh    ::
         ::    -> Gshift               0.002208143139 Eh    ::
         :: repulsion energy           0.786856818117 Eh    ::
         :: add. restraining           0.000000000000 Eh    ::
         :: total charge               0.000000000000 e     ::
         :::::::::::::::::::::::::::::::::::::::::::::::::::::

           -------------------------------------------------
          |                Property Printout                |
           -------------------------------------------------

    * Orbital Energies and Occupations

         #    Occupation            Energy/Eh            Energy/eV
      -------------------------------------------------------------
         1        2.0000           -0.6498497             -17.6833
       ...           ...                  ...                  ...
        28        2.0000           -0.4648030             -12.6479
        29        2.0000           -0.4597432             -12.5102
        30        2.0000           -0.4574284             -12.4473
        31        2.0000           -0.4401273             -11.9765
        32        2.0000           -0.4305138             -11.7149
        33        2.0000           -0.4280793             -11.6486
        34        2.0000           -0.4174746             -11.3601
        35        2.0000           -0.4129795             -11.2377
        36        2.0000           -0.4065877             -11.0638
        37        2.0000           -0.4039913             -10.9932
        38        2.0000           -0.3951017             -10.7513
        39        2.0000           -0.3859564             -10.5024
        40        2.0000           -0.3524840              -9.5916 (HOMO)
        41                         -0.2632237              -7.1627 (LUMO)
        42                         -0.2210033              -6.0138
        43                         -0.2127716              -5.7898
        44                         -0.2055320              -5.5928
        45                         -0.1793115              -4.8793
        46                         -0.0831155              -2.2617
        47                         -0.0779436              -2.1210
        48                          0.0782726               2.1299
        49                          0.1055192               2.8713
        50                          0.1135073               3.0887
        51                          0.1326170               3.6087
       ...                                ...                  ...
        79                          0.7040513              19.1582
      -------------------------------------------------------------
                  HL-Gap            0.0892603 Eh            2.4289 eV
             Fermi-level           -0.3078539 Eh           -8.3771 eV

     #   Z          covCN         q      C6AA      α(0)
     1   6 C        3.755    -0.116    22.768     6.804
     2   6 C        2.898     0.112    25.538     8.286
     3   7 N        1.848    -0.217    26.566     7.639
     4   6 C        2.922     0.085    26.117     8.381
     5   6 C        2.922    -0.051    29.278     8.873
     6   6 C        2.918    -0.032    28.799     8.800
     7   6 C        2.919    -0.043    29.065     8.841
     8   6 C        2.919    -0.032    28.787     8.798
     9   6 C        2.924    -0.049    29.215     8.864
    10   6 C        2.982    -0.002    28.074     8.691
    11   6 C        2.921    -0.034    28.844     8.807
    12   6 C        2.923    -0.040    29.002     8.831
    13   6 C        2.966     0.023    27.500     8.602
    14   6 C        3.757    -0.111    22.673     6.789
    15   6 C        2.923    -0.038    28.948     8.823
    16   6 C        2.924    -0.028    28.693     8.784
    17   1 H        0.925     0.052     2.300     2.372
    18   1 H        0.925     0.043     2.408     2.427
    19   1 H        0.925     0.054     2.274     2.358
    20   1 H        0.925     0.022     2.702     2.570
    21   1 H        0.925     0.023     2.682     2.561
    22   1 H        0.926     0.022     2.708     2.573
    23   1 H        0.926     0.025     2.665     2.553
    24   1 H        0.926     0.028     2.613     2.528
    25   1 H        0.926     0.038     2.482     2.464
    26   1 H        0.925     0.033     2.543     2.494
    27   1 H        0.925     0.049     2.333     2.389
    28   1 H        0.925     0.045     2.383     2.414
    29   1 H        0.924     0.052     2.292     2.367
    30   1 H        0.926     0.036     2.505     2.475
    31   1 H        0.926     0.053     2.286     2.364

 Mol. C6AA /au·bohr⁶  :      11522.439678
 Mol. C8AA /au·bohr⁸  :     279790.362068
 Mol. α(0) /au        :        171.522514


Wiberg/Mayer (AO) data.
largest (>0.10) Wiberg bond orders for each atom

 ---------------------------------------------------------------------------
     #   Z sym  total        # sym  WBO       # sym  WBO       # sym  WBO
 ---------------------------------------------------------------------------
     1   6 C    3.996 --     2 C    1.006    18 H    0.982    17 H    0.970
                            19 H    0.964
     2   6 C    3.965 --     3 N    1.760    10 C    1.063     1 C    1.006
     3   7 N    3.225 --     2 C    1.760     4 C    1.140
     4   6 C    3.976 --     9 C    1.341     5 C    1.338     3 N    1.140
     5   6 C    3.984 --     6 C    1.457     4 C    1.338    20 H    0.971
                             8 C    0.103
     6   6 C    3.992 --     5 C    1.457     7 C    1.431    21 H    0.970
                             9 C    0.105
     7   6 C    3.989 --     6 C    1.431     8 C    1.424    22 H    0.972
     8   6 C    3.992 --     9 C    1.465     7 C    1.424    23 H    0.971
                             5 C    0.103
     9   6 C    3.986 --     8 C    1.465     4 C    1.341    24 H    0.971
                             6 C    0.105
    10   6 C    3.988 --    11 C    1.383    16 C    1.363     2 C    1.063
    11   6 C    3.986 --    12 C    1.455    10 C    1.383    25 H    0.967
                            15 C    0.102
    12   6 C    3.991 --    11 C    1.455    13 C    1.408    26 H    0.969
                            16 C    0.102
    13   6 C    3.984 --    12 C    1.408    15 C    1.390    14 C    1.029
    14   6 C    3.995 --    13 C    1.029    28 H    0.984    27 H    0.976
                            29 H    0.966
    15   6 C    3.992 --    16 C    1.477    13 C    1.390    30 H    0.969
                            11 C    0.102
    16   6 C    3.989 --    15 C    1.477    10 C    1.363    31 H    0.966
                            12 C    0.102
    17   1 H    0.997 --     1 C    0.970
    18   1 H    0.998 --     1 C    0.982
    19   1 H    0.997 --     1 C    0.964
    20   1 H    0.999 --     5 C    0.971
    21   1 H    0.999 --     6 C    0.970
    22   1 H    0.999 --     7 C    0.972
    23   1 H    0.998 --     8 C    0.971
    24   1 H    0.999 --     9 C    0.971
    25   1 H    0.998 --    11 C    0.967
    26   1 H    0.998 --    12 C    0.969
    27   1 H    0.996 --    14 C    0.976
    28   1 H    0.998 --    14 C    0.984
    29   1 H    0.995 --    14 C    0.966
    30   1 H    0.998 --    15 C    0.969
    31   1 H    0.997 --    16 C    0.966
 ---------------------------------------------------------------------------

Topologies differ in total number of bonds
Writing topology from bond orders to xtbtopo.mol

molecular dipole:
                 x           y           z       tot (Debye)
 q only:        1.163      -0.069      -0.317
   full:        1.079      -0.308      -0.496       3.118
molecular quadrupole (traceless):
                xx          xy          yy          xz          yz          zz
 q only:        2.197       1.976      -0.335       1.548       2.061      -1.861
  q+dip:        5.251       1.983       0.633       0.950       2.810      -5.884
   full:        2.848       2.074       0.165       1.637       1.690      -3.013

           -------------------------------------------------
          |                Geometry Summary                 |
           -------------------------------------------------

      molecular mass/u    :      209.2868530
   center of mass at/Å    :       -0.2177226       0.0448606      -0.0435398
  moments of inertia/u·Å² :        0.2750095E+03   0.2332353E+04   0.2467185E+04
rotational constants/cm⁻¹ :        0.6129837E-01   0.7227736E-02   0.6832739E-02

 * 29 selected distances

     #   Z          #   Z                                           value/Å
     2   6 C        3   7 N                                       1.2683512
     3   7 N        4   6 C                                       1.3728798
     4   6 C        5   6 C                                       1.3983971 (max)
     5   6 C        6   6 C                                       1.3811972
     6   6 C        7   6 C                                       1.3853299
     7   6 C        8   6 C                                       1.3865210
     4   6 C        9   6 C                                       1.3978875
     8   6 C        9   6 C                                       1.3801837
    10   6 C       11   6 C                                       1.3944384
    11   6 C       12   6 C                                       1.3827107
    12   6 C       13   6 C                                       1.3890576
    13   6 C       15   6 C                                       1.3928048
    10   6 C       16   6 C                                       1.3979604
    15   6 C       16   6 C                                       1.3780661
     1   6 C       17   1 H                                       1.0886495
     1   6 C       18   1 H                                       1.0886088
     1   6 C       19   1 H                                       1.0894801
     5   6 C       20   1 H                                       1.0813292
     6   6 C       21   1 H                                       1.0812902
     7   6 C       22   1 H                                       1.0802223
     8   6 C       23   1 H                                       1.0811207
     9   6 C       24   1 H                                       1.0804416
    11   6 C       25   1 H                                       1.0792910
    12   6 C       26   1 H                                       1.0813513
    14   6 C       27   1 H                                       1.0885902
    14   6 C       28   1 H                                       1.0874131
    14   6 C       29   1 H                                       1.0907073
    15   6 C       30   1 H                                       1.0811391
    16   6 C       31   1 H                                       1.0791107 (min)

 * 3 distinct bonds (by element types)

   Z      Z             #   av. dist./Å        max./Å        min./Å
   1 H    6 C          15     1.0839164     1.0907073     1.0791107
   6 C    6 C          12     1.3887129     1.3983971     1.3780661
   6 C    7 N           2     1.3206155     1.3728798     1.2683512


optimized geometry written to: xtbopt.xyz


           -------------------------------------------------
          | TOTAL ENERGY              -42.686281243337 Eh   |
          | GRADIENT NORM               0.000028072694 Eh/α |
          | HOMO-LUMO GAP               2.428897547168 eV   |
           -------------------------------------------------

------------------------------------------------------------------------
 * finished run on 2026/09/10 at 23:01:12.577     
Note: The following floating-point exceptions are signalling: IEEE_DIVIDE_BY_ZERO IEEE_UNDERFLOW_FLAG IEEE_DENORMAL
normal termination of xtb
------------------------------------------------------------------------
 total:
 * wall-time:     0 d,  0 h,  0 min,  0.492 sec
 *  cpu-time:     0 d,  0 h,  0 min,  0.031 sec
 * ratio c/w:     0.064 speedup
 SCF:
 * wall-time:     0 d,  0 h,  0 min,  0.036 sec
 *  cpu-time:     0 d,  0 h,  0 min,  0.000 sec
 * ratio c/w:     0.000 speedup
 ANC optimizer:
 * wall-time:     0 d,  0 h,  0 min,  0.403 sec
 *  cpu-time:     0 d,  0 h,  0 min,  0.016 sec
 * ratio c/w:     0.039 speedup

