64
Lattice="10.210621920333747 0.0 0.0 0.0 10.210621920333747 0.0 0.0 0.0 35.415" Properties=species:S:1:pos:R:3:tags:I:1:atom_map:I:1 evidence_kind=dry_unrelaxed_seed potential=undefined pbc="T T F"
Cu       1.27632774       1.27632774      15.00000000        4        1
Cu       3.82898322       1.27632774      15.00000000        4        2
Cu       6.38163870       1.27632774      15.00000000        4        3
Cu       8.93429418       1.27632774      15.00000000        4        4
Cu       1.27632774       3.82898322      15.00000000        4        5
Cu       3.82898322       3.82898322      15.00000000        4        6
Cu       6.38163870       3.82898322      15.00000000        4        7
Cu       8.93429418       3.82898322      15.00000000        4        8
Cu       1.27632774       6.38163870      15.00000000        4        9
Cu       3.82898322       6.38163870      15.00000000        4       10
Cu       6.38163870       6.38163870      15.00000000        4       11
Cu       8.93429418       6.38163870      15.00000000        4       12
Cu       1.27632774       8.93429418      15.00000000        4       13
Cu       3.82898322       8.93429418      15.00000000        4       14
Cu       6.38163870       8.93429418      15.00000000        4       15
Cu       8.93429418       8.93429418      15.00000000        4       16
Cu       0.00000000       0.00000000      16.80500000        3       17
Cu       2.55265548       0.00000000      16.80500000        3       18
Cu       5.10531096       0.00000000      16.80500000        3       19
Cu       7.65796644       0.00000000      16.80500000        3       20
Cu       0.00000000       2.55265548      16.80500000        3       21
Cu       2.55265548       2.55265548      16.80500000        3       22
Cu       5.10531096       2.55265548      16.80500000        3       23
Cu       7.65796644       2.55265548      16.80500000        3       24
Cu       0.00000000       5.10531096      16.80500000        3       25
Cu       2.55265548       5.10531096      16.80500000        3       26
Cu       5.10531096       5.10531096      16.80500000        3       27
Cu       7.65796644       5.10531096      16.80500000        3       28
Cu       0.00000000       7.65796644      16.80500000        3       29
Cu       2.55265548       7.65796644      16.80500000        3       30
Cu       5.10531096       7.65796644      16.80500000        3       31
Cu       7.65796644       7.65796644      16.80500000        3       32
Cu       1.27632774       1.27632774      18.61000000        2       33
Cu       3.82898322       1.27632774      18.61000000        2       34
Cu       6.38163870       1.27632774      18.61000000        2       35
Cu       8.93429418       1.27632774      18.61000000        2       36
Cu       1.27632774       3.82898322      18.61000000        2       37
Cu       3.82898322       3.82898322      18.61000000        2       38
Cu       6.38163870       3.82898322      18.61000000        2       39
Cu       8.93429418       3.82898322      18.61000000        2       40
Cu       1.27632774       6.38163870      18.61000000        2       41
Cu       3.82898322       6.38163870      18.61000000        2       42
Cu       6.38163870       6.38163870      18.61000000        2       43
Cu       8.93429418       6.38163870      18.61000000        2       44
Cu       1.27632774       8.93429418      18.61000000        2       45
Cu       3.82898322       8.93429418      18.61000000        2       46
Cu       6.38163870       8.93429418      18.61000000        2       47
Cu       8.93429418       8.93429418      18.61000000        2       48
Cu       0.00000000       0.00000000      20.41500000        1       49
Cu       2.55265548       0.00000000      20.41500000        1       50
Cu       5.10531096       0.00000000      20.41500000        1       51
Cu       7.65796644       0.00000000      20.41500000        1       52
Cu       0.00000000       2.55265548      20.41500000        1       53
Cu       2.55265548       2.55265548      20.41500000        1       54
Cu       5.10531096       2.55265548      20.41500000        1       55
Cu       7.65796644       2.55265548      20.41500000        1       56
Cu       0.00000000       5.10531096      20.41500000        1       57
Cu       2.55265548       5.10531096      20.41500000        1       58
Cu       5.10531096       5.10531096      20.41500000        1       59
Cu       7.65796644       5.10531096      20.41500000        1       60
Cu       0.00000000       7.65796644      20.41500000        1       61
Cu       2.55265548       7.65796644      20.41500000        1       62
Cu       5.10531096       7.65796644      20.41500000        1       63
Cu       7.65796644       7.65796644      20.41500000        1       64
