96
Lattice="12.505406830647294 0.0 0.0 0.0 10.210621920333747 0.0 0.0 0.0 38.10576980716" Properties=species:S:1:pos:R:3:atom_map:I:1 evidence_kind=dry_unrelaxed_seed potential=undefined pbc="T T F"
Cu       4.16846894       1.27632774      23.10576981        1
Cu       4.16846894       3.82898322      23.10576981        2
Cu       4.16846894       6.38163870      23.10576981        3
Cu       4.16846894       8.93429418      23.10576981        4
Cu      10.42117236       1.27632774      23.10576981        5
Cu      10.42117236       3.82898322      23.10576981        6
Cu      10.42117236       6.38163870      23.10576981        7
Cu      10.42117236       8.93429418      23.10576981        8
Cu       2.08423447      -0.00000000      22.36888164        9
Cu       2.08423447       2.55265548      22.36888164       10
Cu       2.08423447       5.10531096      22.36888164       11
Cu       2.08423447       7.65796644      22.36888164       12
Cu       8.33693789      -0.00000000      22.36888164       13
Cu       8.33693789       2.55265548      22.36888164       14
Cu       8.33693789       5.10531096      22.36888164       15
Cu       8.33693789       7.65796644      22.36888164       16
Cu      -0.00000000       1.27632774      21.63199348       17
Cu      -0.00000000       3.82898322      21.63199348       18
Cu      -0.00000000       6.38163870      21.63199348       19
Cu      -0.00000000       8.93429418      21.63199348       20
Cu       6.25270342       1.27632774      21.63199348       21
Cu       6.25270342       3.82898322      21.63199348       22
Cu       6.25270342       6.38163870      21.63199348       23
Cu       6.25270342       8.93429418      21.63199348       24
Cu       4.16846894      -0.00000000      20.89510531       25
Cu       4.16846894       2.55265548      20.89510531       26
Cu       4.16846894       5.10531096      20.89510531       27
Cu       4.16846894       7.65796644      20.89510531       28
Cu      10.42117236      -0.00000000      20.89510531       29
Cu      10.42117236       2.55265548      20.89510531       30
Cu      10.42117236       5.10531096      20.89510531       31
Cu      10.42117236       7.65796644      20.89510531       32
Cu       2.08423447       1.27632774      20.15821715       33
Cu       2.08423447       3.82898322      20.15821715       34
Cu       2.08423447       6.38163870      20.15821715       35
Cu       2.08423447       8.93429418      20.15821715       36
Cu       8.33693789       1.27632774      20.15821715       37
Cu       8.33693789       3.82898322      20.15821715       38
Cu       8.33693789       6.38163870      20.15821715       39
Cu       8.33693789       8.93429418      20.15821715       40
Cu       0.00000000       0.00000000      19.42132899       41
Cu       0.00000000       2.55265548      19.42132899       42
Cu       0.00000000       5.10531096      19.42132899       43
Cu       0.00000000       7.65796644      19.42132899       44
Cu       6.25270342       0.00000000      19.42132899       45
Cu       6.25270342       2.55265548      19.42132899       46
Cu       6.25270342       5.10531096      19.42132899       47
Cu       6.25270342       7.65796644      19.42132899       48
Cu       4.16846894       1.27632774      18.68444082       49
Cu       4.16846894       3.82898322      18.68444082       50
Cu       4.16846894       6.38163870      18.68444082       51
Cu       4.16846894       8.93429418      18.68444082       52
Cu      10.42117236       1.27632774      18.68444082       53
Cu      10.42117236       3.82898322      18.68444082       54
Cu      10.42117236       6.38163870      18.68444082       55
Cu      10.42117236       8.93429418      18.68444082       56
Cu       2.08423447      -0.00000000      17.94755266       57
Cu       2.08423447       2.55265548      17.94755266       58
Cu       2.08423447       5.10531096      17.94755266       59
Cu       2.08423447       7.65796644      17.94755266       60
Cu       8.33693789      -0.00000000      17.94755266       61
Cu       8.33693789       2.55265548      17.94755266       62
Cu       8.33693789       5.10531096      17.94755266       63
Cu       8.33693789       7.65796644      17.94755266       64
Cu      -0.00000000       1.27632774      17.21066449       65
Cu      -0.00000000       3.82898322      17.21066449       66
Cu      -0.00000000       6.38163870      17.21066449       67
Cu      -0.00000000       8.93429418      17.21066449       68
Cu       6.25270342       1.27632774      17.21066449       69
Cu       6.25270342       3.82898322      17.21066449       70
Cu       6.25270342       6.38163870      17.21066449       71
Cu       6.25270342       8.93429418      17.21066449       72
Cu       4.16846894      -0.00000000      16.47377633       73
Cu       4.16846894       2.55265548      16.47377633       74
Cu       4.16846894       5.10531096      16.47377633       75
Cu       4.16846894       7.65796644      16.47377633       76
Cu      10.42117236      -0.00000000      16.47377633       77
Cu      10.42117236       2.55265548      16.47377633       78
Cu      10.42117236       5.10531096      16.47377633       79
Cu      10.42117236       7.65796644      16.47377633       80
Cu       2.08423447       1.27632774      15.73688816       81
Cu       2.08423447       3.82898322      15.73688816       82
Cu       2.08423447       6.38163870      15.73688816       83
Cu       2.08423447       8.93429418      15.73688816       84
Cu       8.33693789       1.27632774      15.73688816       85
Cu       8.33693789       3.82898322      15.73688816       86
Cu       8.33693789       6.38163870      15.73688816       87
Cu       8.33693789       8.93429418      15.73688816       88
Cu       0.00000000       0.00000000      15.00000000       89
Cu       0.00000000       2.55265548      15.00000000       90
Cu       0.00000000       5.10531096      15.00000000       91
Cu       0.00000000       7.65796644      15.00000000       92
Cu       6.25270342       0.00000000      15.00000000       93
Cu       6.25270342       2.55265548      15.00000000       94
Cu       6.25270342       5.10531096      15.00000000       95
Cu       6.25270342       7.65796644      15.00000000       96
