      -----------------------------------------------------------      
     |                   =====================                   |     
     |                           x T B                           |     
     |                   =====================                   |     
     |                         S. Grimme                         |     
     |          Mulliken Center for Theoretical Chemistry        |     
     |                    University of Bonn                     |     
      -----------------------------------------------------------      

   * xtb version 6.7.1 (edcfbbe) compiled by 'VssAdministrator@runnervm171ch' on 2026-06-10

   xtb is free software: you can redistribute it and/or modify it under
   the terms of the GNU Lesser General Public License as published by
   the Free Software Foundation, either version 3 of the License, or
   (at your option) any later version.
   
   xtb is distributed in the hope that it will be useful,
   but WITHOUT ANY WARRANTY; without even the implied warranty of
   MERCHANTABILITY or FITNESS FOR A PARTICULAR PURPOSE.  See the
   GNU Lesser General Public License for more details.
   
   Cite this work as:
   * C. Bannwarth, E. Caldeweyher, S. Ehlert, A. Hansen, P. Pracht,
     J. Seibert, S. Spicher, S. Grimme, WIREs Comput. Mol. Sci., 2020, 11,
     e01493. DOI: 10.1002/wcms.1493
   
   for GFN2-xTB:
   * C. Bannwarth, S. Ehlert and S. Grimme., J. Chem. Theory Comput., 2019,
     15, 1652-1671. DOI: 10.1021/acs.jctc.8b01176
   for GFN1-xTB:
   * S. Grimme, C. Bannwarth, P. Shushkov, J. Chem. Theory Comput., 2017,
     13, 1989-2009. DOI: 10.1021/acs.jctc.7b00118
   for GFN0-xTB:
   * P. Pracht, E. Caldeweyher, S. Ehlert, S. Grimme, ChemRxiv, 2019, preprint.
     DOI: 10.26434/chemrxiv.8326202.v1
   for GFN-FF:
   * S. Spicher and S. Grimme, Angew. Chem. Int. Ed., 2020, 59, 15665-15673.
     DOI: 10.1002/anie.202004239
   
   for ALPB and GBSA implicit solvation:
   * S. Ehlert, M. Stahn, S. Spicher, S. Grimme, J. Chem. Theory Comput.,
     2021, 17, 4250-4261. DOI: 10.1021/acs.jctc.1c00471
   
   for ddCOSMO and CPCM-X implicit solvation:
   * M. Stahn, S. Ehlert, S. Grimme, J. Phys. Chem. A,
     2023, XX, XXXX-XXXX. DOI: 10.1021/acs.jpca.3c04382
   
   for DFT-D4:
   * E. Caldeweyher, C. Bannwarth and S. Grimme, J. Chem. Phys., 2017,
     147, 034112. DOI: 10.1063/1.4993215
   * E. Caldeweyher, S. Ehlert, A. Hansen, H. Neugebauer, S. Spicher,
     C. Bannwarth and S. Grimme, J. Chem. Phys., 2019, 150, 154122.
     DOI: 10.1063/1.5090222
   * E. Caldeweyher, J.-M. Mewes, S. Ehlert and S. Grimme, Phys. Chem. Chem. Phys.
     2020, 22, 8499-8512. DOI: 10.1039/D0CP00502A
   
   for sTDA-xTB:
   * S. Grimme and C. Bannwarth, J. Chem. Phys., 2016, 145, 054103.
     DOI: 10.1063/1.4959605
   
   in the mass-spec context:
   * V. Asgeirsson, C. Bauer and S. Grimme, Chem. Sci., 2017, 8, 4879.
     DOI: 10.1039/c7sc00601b
   * J. Koopman and S. Grimme, ACS Omega 2019, 4, 12, 15120-15133.
     DOI: 10.1021/acsomega.9b02011
   
   for metadynamics refer to:
   * S. Grimme, J. Chem. Theory Comput., 2019, 155, 2847-2862
     DOI: 10.1021/acs.jctc.9b00143
   
   for SPH calculations refer to:
   * S. Spicher and S. Grimme, J. Chem. Theory Comput., 2021, 17, 1701-1714
     DOI: 10.1021/acs.jctc.0c01306
   
   for ONIOM refer to:
   * C. Plett, A. Katbashev, S. Ehlert, S. Grimme, M. Bursch,
     Phys. Chem. Chem. Phys., 2023, 25, 17860-17868. DOI: 10.1039/D3CP02178E
   
   for DIPRO refer to:
   * J. Kohn, N. Gildemeister, S. Grimme, D. Fazzi, A. Hansen,
     J. Chem. Phys., 2023, just accepted.
   
   for PTB refer to:
   * S. Grimme, M. Mueller, A. Hansen, J. Chem. Phys., 2023, 158, 124111.
     DOI: 10.1063/5.0137838
   
   with help from (in alphabetical order)
   P. Atkinson, C. Bannwarth, F. Bohle, G. Brandenburg, E. Caldeweyher
   M. Checinski, S. Dohm, S. Ehlert, S. Ehrlich, I. Gerasimov, C. Hölzer
   A. Katbashev, J. Kohn, J. Koopman, C. Lavigne, S. Lehtola, F. März, M. Müller,
   F. Musil, H. Neugebauer, J. Pisarek, C. Plett, P. Pracht, F. Pultar,
   J. Seibert, P. Shushkov, S. Spicher, M. Stahn, M. Steiner, T. Strunk,
   J. Stückrath, T. Rose, and J. Unsleber
   
 * started run on 2026/09/10 at 23:04:07.300     
   ID    Z sym.   atoms
    1    6 C      1, 2, 4-19
    2    7 N      3
    3    1 H      20-34

           -------------------------------------------------
          |                Calculation Setup                |
           -------------------------------------------------

          program call               : C:\Users\HUIWEI\miniconda3\envs\phase2ff\Library\bin\xtb.exe xtbopt.xyz --gfn 2 --chrg 0 --uhf 0 --alpb ch2cl2 --acc 0.2 --hess --strict
          coordinate file            : xtbopt.xyz
          omp threads                :                     1


           -------------------------------------------------
          |                 G F N 2 - x T B                 |
           -------------------------------------------------

        Reference                      10.1021/acs.jctc.8b01176
      * Hamiltonian:
        H0-scaling (s, p, d)           1.850000    2.230000    2.230000
        zeta-weighting                 0.500000
      * Dispersion:
        s8                             2.700000
        a1                             0.520000
        a2                             5.000000
        s9                             5.000000
      * Repulsion:
        kExp                           1.500000    1.000000
        rExp                           1.000000
      * Coulomb:
        alpha                          2.000000
        third order                    shell-resolved
        anisotropic                    true
        a3                             3.000000
        a5                             4.000000
        cn-shift                       1.200000
        cn-exp                         4.000000
        max-rad                        5.000000

      * Solvation model:               ALPB
        Solvent                        ch2cl2
        Parameter file                 internal GFN2-xTB/ALPB
        Dielectric constant                8.9300E+00
        Reference state                gsolv [1 M gas/solution]
        Free energy shift                  4.1487E-03 Eh       2.6033E+00 kcal/mol
        Temperature                        2.9815E+02 K
        Density                            1.3300E+00 kg/L
        Solvent mass                       8.4930E+01 g/mol
        Interaction kernel             P16
        Born radius scaling (c1)           1.5691E+00
        Born radii integrator          GBOBC
        Born offset                        0.0000E+00 a0       0.0000E+00 AA
        H-bond correction              false
        Ion screening                  false
        Surface tension                    1.0000E-05 Eh       1.5569E+01 dyn/cm
        Grid points                               230 per atom
q/qsh data taken from xtbrestart
CAMM data taken from xtbrestart

          ...................................................
          :                      SETUP                      :
          :.................................................:
          :  # basis functions                  91          :
          :  # atomic orbitals                  91          :
          :  # shells                           53          :
          :  # electrons                        92          :
          :  max. iterations                   250          :
          :  Hamiltonian                  GFN2-xTB          :
          :  restarted?                       true          :
          :  GBSA solvation                   true          :
          :  PC potential                    false          :
          :  electronic temp.          300.0000000     K    :
          :  accuracy                    0.2000000          :
          :  -> integral cutoff          0.3198970E+02      :
          :  -> integral neglect         0.2000000E-08      :
          :  -> SCF convergence          0.2000000E-06 Eh   :
          :  -> wf. convergence          0.2000000E-04 e    :
          :  Broyden damping             0.4000000          :
          :  net charge                          0          :
          :  unpaired electrons                  0          :
          ...................................................

 iter      E             dE          RMSdq      gap      omega  full diag
   1    -50.0431650 -0.500432E+02  0.519E-07    2.31       0.0  T
   2    -50.0431650 -0.284217E-13  0.349E-07    2.31   49169.2  T
   3    -50.0431650  0.710543E-13  0.204E-07    2.31   84263.4  T

   *** convergence criteria satisfied after 3 iterations ***

         #    Occupation            Energy/Eh            Energy/eV
      -------------------------------------------------------------
         1        2.0000           -0.6565273             -17.8650
       ...           ...                  ...                  ...
        40        2.0000           -0.4191419             -11.4054
        41        2.0000           -0.4170991             -11.3498
        42        2.0000           -0.4061814             -11.0528
        43        2.0000           -0.3988787             -10.8540
        44        2.0000           -0.3972026             -10.8084
        45        2.0000           -0.3814869             -10.3808
        46        2.0000           -0.3562349              -9.6936 (HOMO)
        47                         -0.2713727              -7.3844 (LUMO)
        48                         -0.2513400              -6.8393
        49                         -0.2210302              -6.0145
        50                         -0.2160816              -5.8799
        51                         -0.1999972              -5.4422
       ...                                ...                  ...
        91                          0.7040346              19.1578
      -------------------------------------------------------------
                  HL-Gap            0.0848622 Eh            2.3092 eV
             Fermi-level           -0.3138038 Eh           -8.5390 eV

 SCC (total)                   0 d,  0 h,  0 min,  0.038 sec
 SCC setup                      ...        0 min,  0.002 sec (  4.368%)
 Dispersion                     ...        0 min,  0.001 sec (  1.481%)
 classical contributions        ...        0 min,  0.000 sec (  0.344%)
 integral evaluation            ...        0 min,  0.009 sec ( 23.961%)
 iterations                     ...        0 min,  0.006 sec ( 16.791%)
 molecular gradient             ...        0 min,  0.020 sec ( 52.058%)
 printout                       ...        0 min,  0.000 sec (  0.942%)

         :::::::::::::::::::::::::::::::::::::::::::::::::::::
         ::                     SUMMARY                     ::
         :::::::::::::::::::::::::::::::::::::::::::::::::::::
         :: total energy             -49.113582947776 Eh    ::
         :: total w/o Gsasa/hb       -49.091713021090 Eh    ::
         :: gradient norm              0.000032178164 Eh/a0 ::
         :: HOMO-LUMO gap              2.309217223118 eV    ::
         ::.................................................::
         :: SCC energy               -50.042666218054 Eh    ::
         :: -> isotropic ES            0.011339839980 Eh    ::
         :: -> anisotropic ES          0.006381397049 Eh    ::
         :: -> anisotropic XC          0.035308466419 Eh    ::
         :: -> dispersion             -0.037936910652 Eh    ::
         :: -> Gsolv                  -0.022890916265 Eh    ::
         ::    -> Gelec               -0.001020989580 Eh    ::
         ::    -> Gsasa               -0.026018624046 Eh    ::
         ::    -> Ghb                  0.000000000000 Eh    ::
         ::    -> Gshift               0.004148697361 Eh    ::
         :: repulsion energy           0.929083270278 Eh    ::
         :: add. restraining           0.000000000000 Eh    ::
         :: total charge              -0.000000000000 e     ::
         :::::::::::::::::::::::::::::::::::::::::::::::::::::

           ------------------------------------------------- 
          |                Numerical Hessian                |
           ------------------------------------------------- 
step length          :   0.00500
SCC accuracy         :   0.30000
Hessian scale factor :   1.00000
frozen atoms in %    :   0.00000    0
RMS gradient         :   0.00003
estimated CPU  time      0.02 min
estimated wall time      0.13 min

writing file <hessian>.

 projected vibrational frequencies (cm⁻¹)
eigval :       -0.00     0.00     0.00     0.00     0.00     0.00
eigval :       23.40    29.90    48.83    82.47    98.36   127.63
eigval :      151.56   164.43   182.59   233.26   278.20   342.68
eigval :      353.67   370.53   378.40   404.39   447.21   459.47
eigval :      478.43   498.61   513.36   560.91   577.00   590.56
eigval :      600.56   652.16   656.62   666.56   724.04   753.50
eigval :      756.31   799.87   820.73   831.73   860.08   866.54
eigval :      870.79   880.48   882.48   910.41   917.80   922.13
eigval :      925.34   928.11   928.57   977.82  1000.11  1027.72
eigval :     1076.35  1080.51  1103.38  1117.35  1145.56  1176.41
eigval :     1178.66  1180.50  1191.44  1205.85  1228.04  1252.96
eigval :     1261.58  1269.70  1280.45  1316.82  1329.70  1364.73
eigval :     1380.06  1398.63  1424.70  1433.72  1448.08  1454.76
eigval :     1463.48  1466.72  1500.07  1559.05  1568.71  1593.33
eigval :     1597.40  1608.11  1703.68  3006.59  3027.64  3057.00
eigval :     3059.36  3063.65  3065.62  3066.39  3068.79  3070.19
eigval :     3075.97  3077.10  3078.63  3086.23  3086.42  3090.50
           -------------------------------------------------
          |                Property Printout                |
           -------------------------------------------------

    * Orbital Energies and Occupations

         #    Occupation            Energy/Eh            Energy/eV
      -------------------------------------------------------------
         1        2.0000           -0.6565273             -17.8650
       ...           ...                  ...                  ...
        34        2.0000           -0.4553377             -12.3904
        35        2.0000           -0.4484542             -12.2031
        36        2.0000           -0.4404175             -11.9844
        37        2.0000           -0.4326375             -11.7727
        38        2.0000           -0.4290957             -11.6763
        39        2.0000           -0.4251492             -11.5689
        40        2.0000           -0.4191419             -11.4054
        41        2.0000           -0.4170991             -11.3498
        42        2.0000           -0.4061814             -11.0528
        43        2.0000           -0.3988787             -10.8540
        44        2.0000           -0.3972026             -10.8084
        45        2.0000           -0.3814869             -10.3808
        46        2.0000           -0.3562349              -9.6936 (HOMO)
        47                         -0.2713727              -7.3844 (LUMO)
        48                         -0.2513400              -6.8393
        49                         -0.2210302              -6.0145
        50                         -0.2160816              -5.8799
        51                         -0.1999972              -5.4422
        52                         -0.1875370              -5.1031
        53                         -0.1412222              -3.8429
        54                         -0.0819758              -2.2307
        55                         -0.0585996              -1.5946
        56                          0.0786419               2.1400
        57                          0.0988511               2.6899
       ...                                ...                  ...
        91                          0.7040346              19.1578
      -------------------------------------------------------------
                  HL-Gap            0.0848622 Eh            2.3092 eV
             Fermi-level           -0.3138038 Eh           -8.5390 eV

     #   Z          covCN         q      C6AA      α(0)
     1   6 C        3.763    -0.119    22.814     6.809
     2   6 C        2.899     0.116    25.450     8.271
     3   7 N        1.844    -0.226    26.791     7.671
     4   6 C        2.924     0.084    26.129     8.383
     5   6 C        2.924    -0.049    29.214     8.864
     6   6 C        2.919    -0.033    28.810     8.802
     7   6 C        2.919    -0.042    29.052     8.839
     8   6 C        2.919    -0.032    28.797     8.800
     9   6 C        2.922    -0.050    29.247     8.869
    10   6 C        2.969    -0.005    28.140     8.701
    11   6 C        2.918    -0.034    28.840     8.806
    12   6 C        2.916    -0.036    28.896     8.815
    13   6 C        2.987     0.013    27.706     8.634
    14   6 C        2.917    -0.035    28.878     8.812
    15   6 C        2.916    -0.029    28.728     8.789
    16   6 C        2.915    -0.029    28.734     8.790
    17   6 C        2.918    -0.034    28.848     8.808
    18   6 C        2.985     0.013    27.722     8.637
    19   6 C        2.924    -0.032    28.793     8.800
    20   1 H        0.925     0.067     2.120     2.277
    21   1 H        0.925     0.067     2.121     2.278
    22   1 H        0.925     0.058     2.217     2.328
    23   1 H        0.926     0.030     2.584     2.514
    24   1 H        0.926     0.028     2.622     2.532
    25   1 H        0.926     0.025     2.661     2.551
    26   1 H        0.926     0.025     2.655     2.548
    27   1 H        0.925     0.018     2.767     2.601
    28   1 H        0.926     0.038     2.473     2.459
    29   1 H        0.925     0.037     2.495     2.470
    30   1 H        0.926     0.035     2.515     2.480
    31   1 H        0.926     0.034     2.528     2.486
    32   1 H        0.926     0.034     2.536     2.491
    33   1 H        0.926     0.033     2.551     2.498
    34   1 H        0.926     0.031     2.570     2.507

 Mol. C6AA /au·bohr⁶  :      15391.198329
 Mol. C8AA /au·bohr⁸  :     382808.967858
 Mol. α(0) /au        :        199.918266


Wiberg/Mayer (AO) data.
largest (>0.10) Wiberg bond orders for each atom

 ---------------------------------------------------------------------------
     #   Z sym  total        # sym  WBO       # sym  WBO       # sym  WBO
 ---------------------------------------------------------------------------
     1   6 C    3.992 --     2 C    1.020    21 H    0.980    22 H    0.973
                            20 H    0.956
     2   6 C    3.963 --     3 N    1.776    10 C    1.024     1 C    1.020
     3   7 N    3.196 --     2 C    1.776     4 C    1.131
     4   6 C    3.977 --     5 C    1.345     9 C    1.341     3 N    1.131
     5   6 C    3.985 --     6 C    1.464     4 C    1.345    23 H    0.971
                             8 C    0.105
     6   6 C    3.992 --     5 C    1.464     7 C    1.425    24 H    0.971
                             9 C    0.103
     7   6 C    3.989 --     8 C    1.430     6 C    1.425    25 H    0.972
     8   6 C    3.992 --     9 C    1.459     7 C    1.430    26 H    0.970
                             5 C    0.105
     9   6 C    3.989 --     8 C    1.459     4 C    1.341    27 H    0.971
                             6 C    0.103
    10   6 C    3.988 --    19 C    1.495    11 C    1.274     2 C    1.024
    11   6 C    3.988 --    12 C    1.571    10 C    1.274    28 H    0.967
    12   6 C    3.991 --    11 C    1.571    13 C    1.273    29 H    0.967
                            19 C    0.110
    13   6 C    3.990 --    14 C    1.283    12 C    1.273    18 C    1.249
    14   6 C    3.991 --    15 C    1.555    13 C    1.283    30 H    0.968
                            17 C    0.118
    15   6 C    3.986 --    14 C    1.555    16 C    1.320    31 H    0.971
    16   6 C    3.992 --    17 C    1.559    15 C    1.320    32 H    0.971
    17   6 C    3.987 --    16 C    1.559    18 C    1.275    33 H    0.968
                            14 C    0.118
    18   6 C    3.990 --    19 C    1.289    17 C    1.275    13 C    1.249
    19   6 C    3.992 --    10 C    1.495    18 C    1.289    34 H    0.965
                            12 C    0.110
    20   1 H    0.993 --     1 C    0.956
    21   1 H    0.995 --     1 C    0.980
    22   1 H    0.995 --     1 C    0.973
    23   1 H    0.999 --     5 C    0.971
    24   1 H    0.998 --     6 C    0.971
    25   1 H    0.999 --     7 C    0.972
    26   1 H    0.999 --     8 C    0.970
    27   1 H    1.000 --     9 C    0.971
    28   1 H    0.998 --    11 C    0.967
    29   1 H    0.997 --    12 C    0.967
    30   1 H    0.998 --    14 C    0.968
    31   1 H    0.998 --    15 C    0.971
    32   1 H    0.998 --    16 C    0.971
    33   1 H    0.998 --    17 C    0.968
    34   1 H    0.999 --    19 C    0.965
 ---------------------------------------------------------------------------

Topologies differ in total number of bonds
Writing topology from bond orders to xtbtopo.mol

molecular dipole:
                 x           y           z       tot (Debye)
 q only:        0.769       0.203      -0.539
   full:        0.920      -0.049      -0.622       2.825
molecular quadrupole (traceless):
                xx          xy          yy          xz          yz          zz
 q only:       -5.555       0.246       4.175       0.067      -3.762       1.380
  q+dip:      -10.279       0.273       2.674      -1.506      -5.073       7.605
   full:       -6.929       2.040       2.161       0.380      -4.403       4.768

           -------------------------------------------------
          |               Frequency Printout                |
           -------------------------------------------------
 projected vibrational frequencies (cm⁻¹)
eigval :       -0.00     0.00     0.00     0.00     0.00     0.00
eigval :       23.40    29.90    48.83    82.47    98.36   127.63
eigval :      151.56   164.43   182.59   233.26   278.20   342.68
eigval :      353.67   370.53   378.40   404.39   447.21   459.47
eigval :      478.43   498.61   513.36   560.91   577.00   590.56
eigval :      600.56   652.16   656.62   666.56   724.04   753.50
eigval :      756.31   799.87   820.73   831.73   860.08   866.54
eigval :      870.79   880.48   882.48   910.41   917.80   922.13
eigval :      925.34   928.11   928.57   977.82  1000.11  1027.72
eigval :     1076.35  1080.51  1103.38  1117.35  1145.56  1176.41
eigval :     1178.66  1180.50  1191.44  1205.85  1228.04  1252.96
eigval :     1261.58  1269.70  1280.45  1316.82  1329.70  1364.73
eigval :     1380.06  1398.63  1424.70  1433.72  1448.08  1454.76
eigval :     1463.48  1466.72  1500.07  1559.05  1568.71  1593.33
eigval :     1597.40  1608.11  1703.68  3006.59  3027.64  3057.00
eigval :     3059.36  3063.65  3065.62  3066.39  3068.79  3070.19
eigval :     3075.97  3077.10  3078.63  3086.23  3086.42  3090.50
 reduced masses (amu)
   1: 10.98   2: 11.21   3: 10.84   4: 11.37   5: 11.11   6: 11.39   7: 10.19   8: 10.74
   9:  9.82  10: 10.33  11:  8.70  12:  7.16  13:  6.51  14:  9.48  15: 10.39  16:  9.85
  17:  9.67  18: 10.34  19: 10.01  20:  9.16  21: 10.19  22: 10.53  23:  8.91  24: 10.96
  25:  9.84  26: 11.23  27: 10.49  28: 10.58  29: 11.21  30: 11.20  31: 10.95  32: 10.12
  33: 10.94  34:  9.25  35: 11.26  36:  3.94  37:  5.23  38: 10.55  39: 10.02  40:  5.27
  41: 10.45  42:  3.34  43:  3.70  44:  3.90  45:  3.86  46:  3.54  47:  3.86  48:  4.00
  49:  2.85  50:  3.59  51: 10.09  52:  9.76  53:  5.32  54:  6.81  55:  6.86  56:  6.65
  57:  7.47  58:  4.14  59:  5.51  60:  1.97  61:  1.74  62:  1.37  63:  2.00  64:  5.83
  65:  6.07  66:  9.18  67:  4.74  68:  9.28  69:  4.65  70: 11.39  71:  7.26  72: 10.55
  73:  3.46  74:  9.76  75: 10.21  76:  9.01  77:  9.25  78:  2.45  79:  1.98  80:  8.32
  81: 10.61  82: 11.64  83: 11.42  84: 11.47  85: 11.50  86: 11.41  87: 12.74  88:  1.83
  89:  1.58  90:  1.74  91:  1.76  92:  1.77  93:  1.77  94:  1.78  95:  1.79  96:  1.85
  97:  1.85  98:  1.84  99:  1.84 100:  1.91 101:  1.91 102:  1.86
 IR intensities (km·mol⁻¹)
   1:  0.04   2:  0.02   3:  0.13   4:  0.05   5:  0.13   6:  0.04   7:  0.14   8:  0.03
Molecule has no symmetry elements
It seems to be the C1 point group
   9:  0.27  10:  0.59  11:  1.56  12:  0.13  13:  0.77  14:  0.74  15:  1.39  16:  0.50
  17:  1.08  18:  2.31  19:  0.92  20:  0.89  21:  0.62  22:  0.45  23:  1.82  24:  5.57
  25:  2.85  26:  0.02  27:  0.72  28:  1.22  29:  6.50  30:  0.40  31:  2.73  32:  3.21
  33:  4.66  34:  1.47  35:  0.04  36:  4.59  37: 31.57  38:  5.39  39: 49.61  40: 20.02
  41:  4.26  42:  1.31  43:  2.25  44:  0.62  45:  6.43  46:  0.29  47:  1.14  48:  0.05
  49:  0.05  50:  0.13  51:  3.09  52:  7.73  53:  9.60  54: 18.20  55:  1.58  56:  0.86
  57: 55.27  58:  2.69  59:  9.98  60:  0.84  61:  0.17  62:  0.19  63:  9.44  64: 49.46
  65:  0.57  66: 26.88  67:  1.33  68:100.56  69: 29.51  70:  3.43  71:  0.67  72:  8.67
  73: 21.00  74:  0.98  75:  1.26  76:  7.79  77:  8.71  78: 12.37  79:  9.15  80: 22.96
  81:  2.13  82:  1.41  83:  2.51  84: 81.35  85: 13.20  86:  0.24  87:310.37  88: 11.56
  89: 19.45  90: 22.42  91: 21.28  92: 13.04  93:  0.36  94: 20.88  95: 25.10  96:117.92
  97: 50.24  98:176.78  99: 59.29 100: 75.55 101:117.07 102: 42.42
 Raman intensities (Ä⁴*amu⁻¹)
   1:  0.00   2:  0.00   3:  0.00   4:  0.00   5:  0.00   6:  0.00   7:  0.00   8:  0.00
   9:  0.00  10:  0.00  11:  0.00  12:  0.00  13:  0.00  14:  0.00  15:  0.00  16:  0.00
  17:  0.00  18:  0.00  19:  0.00  20:  0.00  21:  0.00  22:  0.00  23:  0.00  24:  0.00
  25:  0.00  26:  0.00  27:  0.00  28:  0.00  29:  0.00  30:  0.00  31:  0.00  32:  0.00
  33:  0.00  34:  0.00  35:  0.00  36:  0.00  37:  0.00  38:  0.00  39:  0.00  40:  0.00
  41:  0.00  42:  0.00  43:  0.00  44:  0.00  45:  0.00  46:  0.00  47:  0.00  48:  0.00
  49:  0.00  50:  0.00  51:  0.00  52:  0.00  53:  0.00  54:  0.00  55:  0.00  56:  0.00
  57:  0.00  58:  0.00  59:  0.00  60:  0.00  61:  0.00  62:  0.00  63:  0.00  64:  0.00
  65:  0.00  66:  0.00  67:  0.00  68:  0.00  69:  0.00  70:  0.00  71:  0.00  72:  0.00
  73:  0.00  74:  0.00  75:  0.00  76:  0.00  77:  0.00  78:  0.00  79:  0.00  80:  0.00
  81:  0.00  82:  0.00  83:  0.00  84:  0.00  85:  0.00  86:  0.00  87:  0.00  88:  0.00
  89:  0.00  90:  0.00  91:  0.00  92:  0.00  93:  0.00  94:  0.00  95:  0.00  96:  0.00
  97:  0.00  98:  0.00  99:  0.00 100:  0.00 101:  0.00 102:  0.00
 output can be read by thermo (or use thermo option).
 writing <g98.out> molden fake output.
 recommended (thermochemical) frequency scaling factor: 1.0
           -------------------------------------------------
          |             Thermodynamic Functions             |
           -------------------------------------------------

c1  symmetry found (for desy threshold:  0.10E+00) used in thermo

          ...................................................
          :                      SETUP                      :
          :.................................................:
          :  # frequencies                          96      :
          :  # imaginary freq.                       0      :
          :  linear?                             false      :
          :  only rotor calc.                    false      :
          :  symmetry                               c1      :
          :  rotational number                       1      :
          :  scaling factor                  1.0000000      :
          :  rotor cutoff                   50.0000000 cm⁻¹ :
          :  imag. cutoff                  -20.0000000 cm⁻¹ :
          :.................................................:

    mode    ω/cm⁻¹     T·S(HO)/kcal·mol⁻¹    T·S(FR)/kcal·mol⁻¹   T·S(vib)
   ------------------------------------------------------------------------
       1     23.40    -1.88516 (  4.57%)    -1.28141 ( 95.43%)    -1.30903
       2     29.90    -1.73995 ( 11.34%)    -1.20873 ( 88.66%)    -1.26899
       3     48.83    -1.45022 ( 47.64%)    -1.06348 ( 52.36%)    -1.24773
       4     82.47    -1.14230 ( 88.10%)    -0.90828 ( 11.90%)    -1.11444
       5     98.36    -1.03954 ( 93.74%)    -0.85609 (  6.26%)    -1.02806
       6    127.63    -0.88892 ( 97.70%)    -0.77892 (  2.30%)    -0.88639
Note: The following floating-point exceptions are signalling: IEEE_DIVIDE_BY_ZERO IEEE_UNDERFLOW_FLAG IEEE_DENORMAL
normal termination of xtb
       7    151.56    -0.79086 ( 98.83%)    -0.72801 (  1.17%)    -0.79013
       8    164.43    -0.74486 ( 99.15%)    -0.70388 (  0.85%)    -0.74451
       9    182.59    -0.68626 ( 99.44%)    -0.67283 (  0.56%)    -0.68618
      10    233.26    -0.55270 ( 99.79%)    -0.60029 (  0.21%)    -0.55280
      11    278.20    -0.46055 ( 99.90%)    -0.54809 (  0.10%)    -0.46065
   ------------------------------------------------------------------------

   temp. (K)  partition function   enthalpy   heat capacity  entropy
                                   cal/mol     cal/K/mol   cal/K/mol   J/K/mol
 298.15  VIB  0.637E+06             8270.666     55.136     49.965
         ROT  0.459E+07              888.752      2.981     33.466
         INT  0.293E+13             9159.419     58.117     83.431
         TR   0.372E+28             1481.254      4.968     42.374
         TOT                       10640.6727    63.0848   125.8049   526.3679

       T/K    H(0)-H(T)+PV         H(T)/Eh          T*S/Eh         G(T)/Eh
   ------------------------------------------------------------------------
    298.15    0.169570E-01    0.285546E+00    0.597740E-01    0.225772E+00
   ------------------------------------------------------------------------

         :::::::::::::::::::::::::::::::::::::::::::::::::::::
         ::                  THERMODYNAMIC                  ::
         :::::::::::::::::::::::::::::::::::::::::::::::::::::
         :: total free energy         -48.887811118337 Eh   ::
         ::.................................................::
         :: total energy              -49.113582949513 Eh   ::
         :: zero point energy           0.268588824386 Eh   ::
         :: G(RRHO) w/o ZPVE           -0.042816993210 Eh   ::
         :: G(RRHO) contrib.            0.225771831176 Eh   ::
         :::::::::::::::::::::::::::::::::::::::::::::::::::::

           -------------------------------------------------
          | TOTAL ENERGY              -49.113582949513 Eh   |
          | TOTAL ENTHALPY            -48.828037133797 Eh   |
          | TOTAL FREE ENERGY         -48.887811118337 Eh   |
          | GRADIENT NORM               0.000032177628 Eh/α |
          | HOMO-LUMO GAP               2.309216914166 eV   |
           -------------------------------------------------

------------------------------------------------------------------------
 * finished run on 2026/09/10 at 23:04:15.232     
------------------------------------------------------------------------
 total:
 * wall-time:     0 d,  0 h,  0 min,  7.932 sec
 *  cpu-time:     0 d,  0 h,  0 min,  1.781 sec
 * ratio c/w:     0.225 speedup
 SCF:
 * wall-time:     0 d,  0 h,  0 min,  0.039 sec
 *  cpu-time:     0 d,  0 h,  0 min,  0.016 sec
 * ratio c/w:     0.404 speedup
 analytical hessian:
 * wall-time:     0 d,  0 h,  0 min,  7.846 sec
 *  cpu-time:     0 d,  0 h,  0 min,  1.766 sec
 * ratio c/w:     0.225 speedup

