      -----------------------------------------------------------      
     |                   =====================                   |     
     |                           x T B                           |     
     |                   =====================                   |     
     |                         S. Grimme                         |     
     |          Mulliken Center for Theoretical Chemistry        |     
     |                    University of Bonn                     |     
      -----------------------------------------------------------      

   * xtb version 6.7.1 (edcfbbe) compiled by 'VssAdministrator@runnervm171ch' on 2026-06-10

   xtb is free software: you can redistribute it and/or modify it under
   the terms of the GNU Lesser General Public License as published by
   the Free Software Foundation, either version 3 of the License, or
   (at your option) any later version.
   
   xtb is distributed in the hope that it will be useful,
   but WITHOUT ANY WARRANTY; without even the implied warranty of
   MERCHANTABILITY or FITNESS FOR A PARTICULAR PURPOSE.  See the
   GNU Lesser General Public License for more details.
   
   Cite this work as:
   * C. Bannwarth, E. Caldeweyher, S. Ehlert, A. Hansen, P. Pracht,
     J. Seibert, S. Spicher, S. Grimme, WIREs Comput. Mol. Sci., 2020, 11,
     e01493. DOI: 10.1002/wcms.1493
   
   for GFN2-xTB:
   * C. Bannwarth, S. Ehlert and S. Grimme., J. Chem. Theory Comput., 2019,
     15, 1652-1671. DOI: 10.1021/acs.jctc.8b01176
   for GFN1-xTB:
   * S. Grimme, C. Bannwarth, P. Shushkov, J. Chem. Theory Comput., 2017,
     13, 1989-2009. DOI: 10.1021/acs.jctc.7b00118
   for GFN0-xTB:
   * P. Pracht, E. Caldeweyher, S. Ehlert, S. Grimme, ChemRxiv, 2019, preprint.
     DOI: 10.26434/chemrxiv.8326202.v1
   for GFN-FF:
   * S. Spicher and S. Grimme, Angew. Chem. Int. Ed., 2020, 59, 15665-15673.
     DOI: 10.1002/anie.202004239
   
   for ALPB and GBSA implicit solvation:
   * S. Ehlert, M. Stahn, S. Spicher, S. Grimme, J. Chem. Theory Comput.,
     2021, 17, 4250-4261. DOI: 10.1021/acs.jctc.1c00471
   
   for ddCOSMO and CPCM-X implicit solvation:
   * M. Stahn, S. Ehlert, S. Grimme, J. Phys. Chem. A,
     2023, XX, XXXX-XXXX. DOI: 10.1021/acs.jpca.3c04382
   
   for DFT-D4:
   * E. Caldeweyher, C. Bannwarth and S. Grimme, J. Chem. Phys., 2017,
     147, 034112. DOI: 10.1063/1.4993215
   * E. Caldeweyher, S. Ehlert, A. Hansen, H. Neugebauer, S. Spicher,
     C. Bannwarth and S. Grimme, J. Chem. Phys., 2019, 150, 154122.
     DOI: 10.1063/1.5090222
   * E. Caldeweyher, J.-M. Mewes, S. Ehlert and S. Grimme, Phys. Chem. Chem. Phys.
     2020, 22, 8499-8512. DOI: 10.1039/D0CP00502A
   
   for sTDA-xTB:
   * S. Grimme and C. Bannwarth, J. Chem. Phys., 2016, 145, 054103.
     DOI: 10.1063/1.4959605
   
   in the mass-spec context:
   * V. Asgeirsson, C. Bauer and S. Grimme, Chem. Sci., 2017, 8, 4879.
     DOI: 10.1039/c7sc00601b
   * J. Koopman and S. Grimme, ACS Omega 2019, 4, 12, 15120-15133.
     DOI: 10.1021/acsomega.9b02011
   
   for metadynamics refer to:
   * S. Grimme, J. Chem. Theory Comput., 2019, 155, 2847-2862
     DOI: 10.1021/acs.jctc.9b00143
   
   for SPH calculations refer to:
   * S. Spicher and S. Grimme, J. Chem. Theory Comput., 2021, 17, 1701-1714
     DOI: 10.1021/acs.jctc.0c01306
   
   for ONIOM refer to:
   * C. Plett, A. Katbashev, S. Ehlert, S. Grimme, M. Bursch,
     Phys. Chem. Chem. Phys., 2023, 25, 17860-17868. DOI: 10.1039/D3CP02178E
   
   for DIPRO refer to:
   * J. Kohn, N. Gildemeister, S. Grimme, D. Fazzi, A. Hansen,
     J. Chem. Phys., 2023, just accepted.
   
   for PTB refer to:
   * S. Grimme, M. Mueller, A. Hansen, J. Chem. Phys., 2023, 158, 124111.
     DOI: 10.1063/5.0137838
   
   with help from (in alphabetical order)
   P. Atkinson, C. Bannwarth, F. Bohle, G. Brandenburg, E. Caldeweyher
   M. Checinski, S. Dohm, S. Ehlert, S. Ehrlich, I. Gerasimov, C. Hölzer
   A. Katbashev, J. Kohn, J. Koopman, C. Lavigne, S. Lehtola, F. März, M. Müller,
   F. Musil, H. Neugebauer, J. Pisarek, C. Plett, P. Pracht, F. Pultar,
   J. Seibert, P. Shushkov, S. Spicher, M. Stahn, M. Steiner, T. Strunk,
   J. Stückrath, T. Rose, and J. Unsleber
   
 * started run on 2026/09/10 at 23:04:05.061     
   ID    Z sym.   atoms
    1    6 C      1, 2, 4-19
    2    7 N      3
    3    1 H      20-34

           -------------------------------------------------
          |                Calculation Setup                |
           -------------------------------------------------

          program call               : C:\Users\HUIWEI\miniconda3\envs\phase2ff\Library\bin\xtb.exe input.xyz --gfn 2 --chrg 0 --uhf 0 --alpb ch2cl2 --acc 0.2 --opt vtight
          coordinate file            : input.xyz
          omp threads                :                     1


           -------------------------------------------------
          |                 G F N 2 - x T B                 |
           -------------------------------------------------

        Reference                      10.1021/acs.jctc.8b01176
      * Hamiltonian:
        H0-scaling (s, p, d)           1.850000    2.230000    2.230000
        zeta-weighting                 0.500000
      * Dispersion:
        s8                             2.700000
        a1                             0.520000
        a2                             5.000000
        s9                             5.000000
      * Repulsion:
        kExp                           1.500000    1.000000
        rExp                           1.000000
      * Coulomb:
        alpha                          2.000000
        third order                    shell-resolved
        anisotropic                    true
        a3                             3.000000
        a5                             4.000000
        cn-shift                       1.200000
        cn-exp                         4.000000
        max-rad                        5.000000

      * Solvation model:               ALPB
        Solvent                        ch2cl2
        Parameter file                 internal GFN2-xTB/ALPB
        Dielectric constant                8.9300E+00
        Reference state                gsolv [1 M gas/solution]
        Free energy shift                  4.1487E-03 Eh       2.6033E+00 kcal/mol
        Temperature                        2.9815E+02 K
        Density                            1.3300E+00 kg/L
        Solvent mass                       8.4930E+01 g/mol
        Interaction kernel             P16
        Born radius scaling (c1)           1.5691E+00
        Born radii integrator          GBOBC
        Born offset                        0.0000E+00 a0       0.0000E+00 AA
        H-bond correction              false
        Ion screening                  false
        Surface tension                    1.0000E-05 Eh       1.5569E+01 dyn/cm
        Grid points                               230 per atom

          ...................................................
          :                      SETUP                      :
          :.................................................:
          :  # basis functions                  91          :
          :  # atomic orbitals                  91          :
          :  # shells                           53          :
          :  # electrons                        92          :
          :  max. iterations                   250          :
          :  Hamiltonian                  GFN2-xTB          :
          :  restarted?                      false          :
          :  GBSA solvation                   true          :
          :  PC potential                    false          :
          :  electronic temp.          300.0000000     K    :
          :  accuracy                    0.2000000          :
          :  -> integral cutoff          0.3198970E+02      :
          :  -> integral neglect         0.2000000E-08      :
          :  -> SCF convergence          0.2000000E-06 Eh   :
          :  -> wf. convergence          0.2000000E-04 e    :
          :  Broyden damping             0.4000000          :
          :  net charge                          0          :
          :  unpaired electrons                  0          :
          ...................................................

 iter      E             dE          RMSdq      gap      omega  full diag
   1    -49.9573641 -0.499574E+02  0.413E+00    2.65       0.0  T
   2    -49.9797325 -0.223684E-01  0.245E+00    2.54       1.0  T
   3    -49.9683763  0.113561E-01  0.809E-01    2.48       1.0  T
   4    -49.9835397 -0.151634E-01  0.227E-01    2.40       1.0  T
   5    -49.9843982 -0.858434E-03  0.887E-02    2.40       1.0  T
   6    -49.9845946 -0.196386E-03  0.317E-02    2.40       1.0  T
   7    -49.9845992 -0.460420E-05  0.147E-02    2.41       1.2  T
   8    -49.9846012 -0.199918E-05  0.447E-03    2.41       3.8  T
   9    -49.9846016 -0.394137E-06  0.131E-03    2.41      13.1  T
  10    -49.9846016 -0.190050E-07  0.640E-04    2.41      26.8  T
  11    -49.9846016 -0.376569E-08  0.205E-04    2.41      83.8  T
  12    -49.9846016 -0.645699E-09  0.824E-05    2.41     208.2  T
  13    -49.9846016 -0.589679E-10  0.433E-05    2.41     396.4  T

   *** convergence criteria satisfied after 13 iterations ***

         #    Occupation            Energy/Eh            Energy/eV
      -------------------------------------------------------------
         1        2.0000           -0.6552377             -17.8299
       ...           ...                  ...                  ...
        40        2.0000           -0.4212517             -11.4628
        41        2.0000           -0.4149285             -11.2908
        42        2.0000           -0.4057432             -11.0408
        43        2.0000           -0.4011921             -10.9170
        44        2.0000           -0.3971051             -10.8058
        45        2.0000           -0.3777742             -10.2798
        46        2.0000           -0.3610257              -9.8240 (HOMO)
        47                         -0.2725849              -7.4174 (LUMO)
        48                         -0.2523286              -6.8662
        49                         -0.2245997              -6.1117
        50                         -0.2210268              -6.0144
        51                         -0.2087011              -5.6790
       ...                                ...                  ...
        91                          0.6896552              18.7665
      -------------------------------------------------------------
                  HL-Gap            0.0884408 Eh            2.4066 eV
             Fermi-level           -0.3168053 Eh           -8.6207 eV

 SCC (total)                   0 d,  0 h,  0 min,  0.075 sec
 SCC setup                      ...        0 min,  0.001 sec (  1.645%)
 Dispersion                     ...        0 min,  0.000 sec (  0.532%)
 classical contributions        ...        0 min,  0.000 sec (  0.141%)
 integral evaluation            ...        0 min,  0.009 sec ( 12.174%)
 iterations                     ...        0 min,  0.033 sec ( 44.406%)
 molecular gradient             ...        0 min,  0.030 sec ( 40.660%)
 printout                       ...        0 min,  0.000 sec (  0.412%)

         :::::::::::::::::::::::::::::::::::::::::::::::::::::
         ::                     SUMMARY                     ::
         :::::::::::::::::::::::::::::::::::::::::::::::::::::
         :: total energy             -49.104736967807 Eh    ::
         :: total w/o Gsasa/hb       -49.082205651117 Eh    ::
         :: gradient norm              0.092846025210 Eh/a0 ::
         :: HOMO-LUMO gap              2.406596807590 eV    ::
         ::.................................................::
         :: SCC energy               -49.983929729967 Eh    ::
         :: -> isotropic ES            0.011822804227 Eh    ::
         :: -> anisotropic ES          0.007171831070 Eh    ::
         :: -> anisotropic XC          0.037409769115 Eh    ::
         :: -> dispersion             -0.037583560648 Eh    ::
         :: -> Gsolv                  -0.023616200268 Eh    ::
         ::    -> Gelec               -0.001084883579 Eh    ::
         ::    -> Gsasa               -0.026680014050 Eh    ::
         ::    -> Ghb                  0.000000000000 Eh    ::
         ::    -> Gshift               0.004148697361 Eh    ::
         :: repulsion energy           0.879192762160 Eh    ::
         :: add. restraining           0.000000000000 Eh    ::
         :: total charge              -0.000000000000 e     ::
         :::::::::::::::::::::::::::::::::::::::::::::::::::::

      ----------------------------------------------------------- 
     |                   =====================                   |
     |                        A N C O P T                        |
     |                   =====================                   |
     |               Approximate Normal Coordinate               |
     |                Rational Function Optimizer                |
      ----------------------------------------------------------- 
      ----------------------------------------------------------- 
     |                   =====================                   |
     |                        A N C O P T                        |
     |                   =====================                   |
     |               Approximate Normal Coordinate               |
     |                Rational Function Optimizer                |
      ----------------------------------------------------------- 

          ...................................................
          :                      SETUP                      :
          :.................................................:
          :   optimization level         verytight          :
          :   max. optcycles                   680          :
          :   ANC micro-cycles                  20          :
          :   degrees of freedom                96          :
          :.................................................:
          :   RF solver                   davidson          :
          :   write xtbopt.log                true          :
          :   linear?                        false          :
          :   energy convergence         0.1000000E-06 Eh   :
          :   grad. convergence          0.2000000E-03 Eh/α :
          :   maxmium RF displ.          1.0000000          :
          :   Hlow (freq-cutoff)         0.1000000E-01      :
          :   Hmax (freq-cutoff)         5.0000000          :
          :   S6 in model hess.         20.0000000          :
          ...................................................

generating ANC from exact Hessian ...
Using Lindh-Hessian (1995)
 Shifting diagonal of input Hessian by    9.6202296273708611E-003
 Lowest  eigenvalues of input Hessian
    0.000000    0.000000    0.000000    0.000000    0.000000    0.000000
    0.010000    0.010235    0.010678    0.011676    0.012550    0.014677
    0.016142    0.016599    0.018839    0.020604    0.022029    0.024145
 Highest eigenvalues
    1.891694    1.919585    1.949736    2.007124    2.068141    2.095266


........................................................................
.............................. CYCLE    1 ..............................
........................................................................

 iter      E             dE          RMSdq      gap      omega  full diag
   1    -49.9846016 -0.499846E+02  0.129E-05    2.41       0.0  T
   2    -49.9846016 -0.181188E-11  0.883E-06    2.41    1942.5  T
   3    -49.9846016 -0.139977E-11  0.479E-06    2.41    3581.0  T
     SCC iter.                  ...        0 min,  0.006 sec
     gradient                   ...        0 min,  0.024 sec
 * total energy  :   -49.1047370 Eh     change       -0.9755752E-11 Eh
   gradient norm :     0.0928462 Eh/α   predicted     0.0000000E+00 (-100.00%)
   displ. norm   :     0.1773739 α      lambda       -0.8251444E-02
   maximum displ.:     0.0529868 α      in ANC's #23, #50, #8, ...

........................................................................
.............................. CYCLE    2 ..............................
........................................................................

 iter      E             dE          RMSdq      gap      omega  full diag
   1    -50.0278268 -0.500278E+02  0.136E-01    2.45       0.0  T
   2    -50.0278885 -0.617317E-04  0.844E-02    2.48       1.0  T
   3    -50.0278780  0.105208E-04  0.380E-02    2.49       1.0  T
   4    -50.0278990 -0.210224E-04  0.812E-03    2.49       2.1  T
   5    -50.0279004 -0.136234E-05  0.271E-03    2.49       6.3  T
   6    -50.0279005 -0.705988E-07  0.130E-03    2.49      13.2  T
   7    -50.0279005 -0.738266E-08  0.556E-04    2.49      30.9  T
   8    -50.0279005 -0.449104E-08  0.228E-04    2.49      75.3  T
   9    -50.0279005 -0.817899E-09  0.617E-05    2.49     278.0  T
  10    -50.0279005 -0.290683E-10  0.294E-05    2.49     582.5  T
     SCC iter.                  ...        0 min,  0.016 sec
     gradient                   ...        0 min,  0.020 sec
 * total energy  :   -49.1102046 Eh     change       -0.5467589E-02 Eh
   gradient norm :     0.0351633 Eh/α   predicted    -0.4256060E-02 ( -22.16%)
   displ. norm   :     0.1361754 α      lambda       -0.1717013E-02
   maximum displ.:     0.0609756 α      in ANC's #8, #6, #4, ...

........................................................................
.............................. CYCLE    3 ..............................
........................................................................

 iter      E             dE          RMSdq      gap      omega  full diag
   1    -50.0450306 -0.500450E+02  0.911E-02    2.50       0.0  T
   2    -50.0450518 -0.211632E-04  0.549E-02    2.52       1.0  T
   3    -50.0450458  0.598121E-05  0.272E-02    2.52       1.0  T
   4    -50.0450577 -0.118979E-04  0.409E-03    2.52       4.2  T
   5    -50.0450580 -0.351918E-06  0.154E-03    2.52      11.1  T
   6    -50.0450581 -0.282400E-07  0.697E-04    2.52      24.6  T
   7    -50.0450581 -0.931770E-09  0.261E-04    2.52      65.6  T
   8    -50.0450581 -0.100781E-08  0.107E-04    2.52     160.9  T
   9    -50.0450581 -0.189672E-09  0.350E-05    2.52     489.4  T
     SCC iter.                  ...        0 min,  0.016 sec
     gradient                   ...        0 min,  0.022 sec
 * total energy  :   -49.1111718 Eh     change       -0.9672887E-03 Eh
   gradient norm :     0.0090509 Eh/α   predicted    -0.8745640E-03 (  -9.59%)
   displ. norm   :     0.1119948 α      lambda       -0.2610059E-03
   maximum displ.:     0.0563927 α      in ANC's #4, #8, #6, ...

........................................................................
.............................. CYCLE    4 ..............................
........................................................................

 iter      E             dE          RMSdq      gap      omega  full diag
   1    -50.0444549 -0.500445E+02  0.538E-02    2.51       0.0  T
   2    -50.0444566 -0.167854E-05  0.315E-02    2.51       1.0  T
   3    -50.0444526  0.400918E-05  0.139E-02    2.51       1.2  T
   4    -50.0444577 -0.507416E-05  0.124E-03    2.51      13.9  T
   5    -50.0444577 -0.233444E-07  0.644E-04    2.51      26.6  T
   6    -50.0444577 -0.557042E-08  0.314E-04    2.51      54.6  T
   7    -50.0444577 -0.530221E-09  0.950E-05    2.51     180.5  T
   8    -50.0444577 -0.189601E-09  0.313E-05    2.51     548.3  T
     SCC iter.                  ...        0 min,  0.012 sec
     gradient                   ...        0 min,  0.027 sec
 * total energy  :   -49.1113769 Eh     change       -0.2050799E-03 Eh
   gradient norm :     0.0053230 Eh/α   predicted    -0.1321416E-03 ( -35.57%)
   displ. norm   :     0.2346783 α      lambda       -0.3202904E-03
   maximum displ.:     0.1312612 α      in ANC's #4, #8, #6, ...

........................................................................
.............................. CYCLE    5 ..............................
........................................................................

 iter      E             dE          RMSdq      gap      omega  full diag
   1    -50.0410644 -0.500411E+02  0.972E-02    2.48       0.0  T
   2    -50.0410674 -0.300328E-05  0.567E-02    2.48       1.0  T
   3    -50.0410575  0.994605E-05  0.200E-02    2.48       1.0  T
   4    -50.0410694 -0.118950E-04  0.199E-03    2.48       8.6  T
   5    -50.0410694 -0.402318E-07  0.112E-03    2.48      15.3  T
   6    -50.0410694 -0.149269E-07  0.495E-04    2.48      34.7  T
   7    -50.0410694 -0.184375E-08  0.135E-04    2.48     126.9  T
   8    -50.0410694 -0.330552E-09  0.536E-05    2.48     319.9  T
     SCC iter.                  ...        0 min,  0.014 sec
     gradient                   ...        0 min,  0.026 sec
 * total energy  :   -49.1115827 Eh     change       -0.2057279E-03 Eh
   gradient norm :     0.0056909 Eh/α   predicted    -0.1689672E-03 ( -17.87%)
   displ. norm   :     0.1709516 α      lambda       -0.1274601E-03
   maximum displ.:     0.1010199 α      in ANC's #4, #2, #10, ...

........................................................................
.............................. CYCLE    6 ..............................
........................................................................

 iter      E             dE          RMSdq      gap      omega  full diag
   1    -50.0399621 -0.500400E+02  0.611E-02    2.47       0.0  T
   2    -50.0399627 -0.577644E-06  0.356E-02    2.47       1.0  T
   3    -50.0399613  0.141070E-05  0.726E-03    2.47       2.4  T
   4    -50.0399630 -0.170998E-05  0.113E-03    2.47      15.1  T
   5    -50.0399630 -0.738842E-08  0.640E-04    2.47      26.8  T
   6    -50.0399630 -0.483063E-08  0.229E-04    2.47      74.9  T
   7    -50.0399630 -0.512436E-09  0.713E-05    2.47     240.5  T
   8    -50.0399630 -0.845048E-10  0.302E-05    2.47     567.2  T
     SCC iter.                  ...        0 min,  0.012 sec
     gradient                   ...        0 min,  0.018 sec
 * total energy  :   -49.1116882 Eh     change       -0.1055122E-03 Eh
   gradient norm :     0.0063625 Eh/α   predicted    -0.6559698E-04 ( -37.83%)
   displ. norm   :     0.2798182 α      lambda       -0.2220739E-03
   maximum displ.:     0.1593452 α      in ANC's #4, #2, #10, ...

........................................................................
.............................. CYCLE    7 ..............................
........................................................................

 iter      E             dE          RMSdq      gap      omega  full diag
   1    -50.0395504 -0.500396E+02  0.931E-02    2.45       0.0  T
   2    -50.0395517 -0.127673E-05  0.542E-02    2.44       1.0  T
   3    -50.0395499  0.174009E-05  0.813E-03    2.45       2.1  T
   4    -50.0395522 -0.226324E-05  0.188E-03    2.44       9.1  T
   5    -50.0395522 -0.267916E-07  0.981E-04    2.45      17.5  T
   6    -50.0395522 -0.103831E-07  0.326E-04    2.45      52.6  T
   7    -50.0395522 -0.151887E-08  0.102E-04    2.45     167.3  T
   8    -50.0395522 -0.151353E-09  0.455E-05    2.45     376.6  T
     SCC iter.                  ...        0 min,  0.013 sec
     gradient                   ...        0 min,  0.025 sec
 * total energy  :   -49.1118669 Eh     change       -0.1787346E-03 Eh
   gradient norm :     0.0055051 Eh/α   predicted    -0.1197314E-03 ( -33.01%)
   displ. norm   :     0.3609843 α      lambda       -0.2501370E-03
   maximum displ.:     0.2089148 α      in ANC's #2, #4, #10, ...

........................................................................
.............................. CYCLE    8 ..............................
........................................................................

 iter      E             dE          RMSdq      gap      omega  full diag
   1    -50.0396562 -0.500397E+02  0.116E-01    2.43       0.0  T
   2    -50.0396586 -0.232732E-05  0.674E-02    2.42       1.0  T
   3    -50.0396551  0.341377E-05  0.116E-02    2.42       1.5  T
   4    -50.0396595 -0.433999E-05  0.241E-03    2.42       7.1  T
   5    -50.0396595 -0.470579E-07  0.125E-03    2.42      13.7  T
   6    -50.0396595 -0.133356E-07  0.499E-04    2.42      34.3  T
   7    -50.0396595 -0.414716E-08  0.127E-04    2.42     134.7  T
   8    -50.0396595 -0.197396E-09  0.583E-05    2.42     293.9  T
     SCC iter.                  ...        0 min,  0.012 sec
     gradient                   ...        0 min,  0.021 sec
 * total energy  :   -49.1120519 Eh     change       -0.1849732E-03 Eh
   gradient norm :     0.0054732 Eh/α   predicted    -0.1413670E-03 ( -23.57%)
   displ. norm   :     0.2812992 α      lambda       -0.1825476E-03
   maximum displ.:     0.1862993 α      in ANC's #2, #4, #10, ...

........................................................................
.............................. CYCLE    9 ..............................
........................................................................

 iter      E             dE          RMSdq      gap      omega  full diag
   1    -50.0410268 -0.500410E+02  0.899E-02    2.42       0.0  T
   2    -50.0410284 -0.157176E-05  0.524E-02    2.41       1.0  T
   3    -50.0410257  0.269799E-05  0.104E-02    2.41       1.6  T
   4    -50.0410290 -0.332966E-05  0.179E-03    2.41       9.6  T
   5    -50.0410290 -0.266912E-07  0.941E-04    2.41      18.2  T
   6    -50.0410291 -0.742718E-08  0.424E-04    2.41      40.4  T
   7    -50.0410291 -0.270211E-08  0.927E-05    2.41     185.1  T
   8    -50.0410291 -0.107121E-09  0.432E-05    2.41     396.9  T
     SCC iter.                  ...        0 min,  0.014 sec
     gradient                   ...        0 min,  0.023 sec
 * total energy  :   -49.1121964 Eh     change       -0.1445615E-03 Eh
   gradient norm :     0.0048353 Eh/α   predicted    -0.9849778E-04 ( -31.86%)
   displ. norm   :     0.2755711 α      lambda       -0.1800048E-03
   maximum displ.:     0.2008248 α      in ANC's #2, #10, #4, ...

........................................................................
.............................. CYCLE   10 ..............................
........................................................................

 iter      E             dE          RMSdq      gap      omega  full diag
   1    -50.0424639 -0.500425E+02  0.879E-02    2.41       0.0  T
   2    -50.0424650 -0.112882E-05  0.513E-02    2.41       1.0  T
   3    -50.0424630  0.205999E-05  0.919E-03    2.41       1.9  T
   4    -50.0424655 -0.252898E-05  0.150E-03    2.41      11.4  T
   5    -50.0424655 -0.180639E-07  0.819E-04    2.41      20.9  T
   6    -50.0424655 -0.503081E-08  0.382E-04    2.41      44.9  T
   7    -50.0424655 -0.218667E-08  0.741E-05    2.41     231.3  T
   8    -50.0424655 -0.603322E-10  0.365E-05    2.41     470.0  T
     SCC iter.                  ...        0 min,  0.018 sec
     gradient                   ...        0 min,  0.020 sec
 * total energy  :   -49.1123451 Eh     change       -0.1486552E-03 Eh
   gradient norm :     0.0043478 Eh/α   predicted    -0.9683851E-04 ( -34.86%)
   displ. norm   :     0.2996830 α      lambda       -0.1897792E-03
   maximum displ.:     0.2300700 α      in ANC's #2, #10, #5, ...

........................................................................
.............................. CYCLE   11 ..............................
........................................................................

 iter      E             dE          RMSdq      gap      omega  full diag
   1    -50.0426611 -0.500427E+02  0.935E-02    2.40       0.0  T
   2    -50.0426619 -0.864943E-06  0.548E-02    2.40       1.0  T
   3    -50.0426601  0.176866E-05  0.836E-03    2.40       2.1  T
   4    -50.0426623 -0.217505E-05  0.133E-03    2.40      12.9  T
   5    -50.0426623 -0.122875E-07  0.756E-04    2.40      22.7  T
   6    -50.0426623 -0.304220E-08  0.352E-04    2.40      48.8  T
   7    -50.0426623 -0.204193E-08  0.646E-05    2.40     265.4  T
   8    -50.0426623 -0.487077E-10  0.327E-05    2.40     524.0  T
     SCC iter.                  ...        0 min,  0.013 sec
     gradient                   ...        0 min,  0.019 sec
 * total energy  :   -49.1125055 Eh     change       -0.1604379E-03 Eh
   gradient norm :     0.0047322 Eh/α   predicted    -0.1034136E-03 ( -35.54%)
   displ. norm   :     0.2957310 α      lambda       -0.2123041E-03
   maximum displ.:     0.2406164 α      in ANC's #2, #6, #5, ...

........................................................................
.............................. CYCLE   12 ..............................
........................................................................

 iter      E             dE          RMSdq      gap      omega  full diag
   1    -50.0434034 -0.500434E+02  0.967E-02    2.40       0.0  T
   2    -50.0434043 -0.874101E-06  0.568E-02    2.40       1.0  T
   3    -50.0434031  0.123021E-05  0.715E-03    2.40       2.4  T
   4    -50.0434046 -0.158595E-05  0.125E-03    2.40      13.7  T
   5    -50.0434046 -0.956627E-08  0.684E-04    2.40      25.1  T
   6    -50.0434047 -0.166727E-08  0.345E-04    2.40      49.7  T
   7    -50.0434047 -0.231459E-08  0.746E-05    2.40     230.0  T
   8    -50.0434047 -0.506191E-10  0.352E-05    2.40     486.9  T
     SCC iter.                  ...        0 min,  0.012 sec
     gradient                   ...        0 min,  0.028 sec
 * total energy  :   -49.1126802 Eh     change       -0.1746464E-03 Eh
   gradient norm :     0.0046551 Eh/α   predicted    -0.1154433E-03 ( -33.90%)
   displ. norm   :     0.3950756 α      lambda       -0.2444266E-03
   maximum displ.:     0.3141624 α      in ANC's #2, #10, #6, ...

........................................................................
.............................. CYCLE   13 ..............................
........................................................................

 iter      E             dE          RMSdq      gap      omega  full diag
   1    -50.0395742 -0.500396E+02  0.119E-01    2.40       0.0  T
   2    -50.0395768 -0.260142E-05  0.699E-02    2.39       1.0  T
   3    -50.0395751  0.171975E-05  0.873E-03    2.39       2.0  T
   4    -50.0395773 -0.225312E-05  0.267E-03    2.39       6.4  T
   5    -50.0395775 -0.138064E-06  0.112E-03    2.39      15.4  T
   6    -50.0395775  0.352544E-08  0.516E-04    2.39      33.2  T
   7    -50.0395775 -0.691174E-08  0.989E-05    2.39     173.4  T
   8    -50.0395775 -0.545199E-10  0.528E-05    2.39     325.0  T
     SCC iter.                  ...        0 min,  0.015 sec
     gradient                   ...        0 min,  0.017 sec
 * total energy  :   -49.1128277 Eh     change       -0.1475409E-03 Eh
   gradient norm :     0.0078951 Eh/α   predicted    -0.1412898E-03 (  -4.24%)
   displ. norm   :     0.2391182 α      lambda       -0.2396394E-03
   maximum displ.:     0.1999224 α      in ANC's #2, #6, #4, ...

........................................................................
.............................. CYCLE   14 ..............................
........................................................................

 iter      E             dE          RMSdq      gap      omega  full diag
   1    -50.0405663 -0.500406E+02  0.865E-02    2.40       0.0  T
   2    -50.0405678 -0.148248E-05  0.505E-02    2.40       1.0  T
   3    -50.0405674  0.463596E-06  0.531E-03    2.39       3.2  T
   4    -50.0405681 -0.756028E-06  0.182E-03    2.40       9.4  T
   5    -50.0405682 -0.563973E-07  0.818E-04    2.40      21.0  T
   6    -50.0405682 -0.753900E-09  0.310E-04    2.40      55.4  T
   7    -50.0405682 -0.242608E-08  0.867E-05    2.40     197.8  T
   8    -50.0405682 -0.393001E-10  0.327E-05    2.40     524.3  T
     SCC iter.                  ...        0 min,  0.012 sec
     gradient                   ...        0 min,  0.029 sec
 * total energy  :   -49.1129996 Eh     change       -0.1718751E-03 Eh
   gradient norm :     0.0040676 Eh/α   predicted    -0.1266758E-03 ( -26.30%)
   displ. norm   :     0.3302961 α      lambda       -0.1775569E-03
   maximum displ.:     0.2826947 α      in ANC's #2, #6, #8, ...

........................................................................
.............................. CYCLE   15 ..............................
........................................................................

 iter      E             dE          RMSdq      gap      omega  full diag
   1    -50.0397663 -0.500398E+02  0.108E-01    2.39       0.0  T
   2    -50.0397672 -0.963262E-06  0.635E-02    2.39       1.0  T
   3    -50.0397664  0.854358E-06  0.635E-03    2.39       2.7  T
   4    -50.0397677 -0.131534E-05  0.160E-03    2.39      10.7  T
   5    -50.0397677 -0.103395E-08  0.693E-04    2.39      24.8  T
   6    -50.0397677 -0.660512E-08  0.239E-04    2.39      71.8  T
   7    -50.0397677 -0.127128E-08  0.879E-05    2.39     195.2  T
   8    -50.0397677 -0.259064E-10  0.446E-05    2.39     384.2  T
     SCC iter.                  ...        0 min,  0.012 sec
     gradient                   ...        0 min,  0.024 sec
 * total energy  :   -49.1131401 Eh     change       -0.1405351E-03 Eh
   gradient norm :     0.0043651 Eh/α   predicted    -0.9846418E-04 ( -29.94%)
   displ. norm   :     0.3754667 α      lambda       -0.2069869E-03
   maximum displ.:     0.3269773 α      in ANC's #2, #8, #1, ...

........................................................................
.............................. CYCLE   16 ..............................
........................................................................

 iter      E             dE          RMSdq      gap      omega  full diag
   1    -50.0403050 -0.500403E+02  0.124E-01    2.39       0.0  T
   2    -50.0403061 -0.107816E-05  0.727E-02    2.39       1.0  T
   3    -50.0403052  0.874993E-06  0.650E-03    2.39       2.6  T
   4    -50.0403066 -0.139005E-05  0.167E-03    2.39      10.3  T
   5    -50.0403066 -0.311988E-08  0.806E-04    2.39      21.3  T
   6    -50.0403066 -0.755946E-08  0.291E-04    2.39      59.0  T
   7    -50.0403066 -0.164452E-08  0.100E-04    2.39     171.0  T
   8    -50.0403066 -0.616893E-10  0.508E-05    2.39     337.8  T
     SCC iter.                  ...        0 min,  0.019 sec
     gradient                   ...        0 min,  0.017 sec
 * total energy  :   -49.1132935 Eh     change       -0.1534057E-03 Eh
   gradient norm :     0.0042762 Eh/α   predicted    -0.1180891E-03 ( -23.02%)
   displ. norm   :     0.3734071 α      lambda       -0.1455667E-03
   maximum displ.:     0.3237321 α      in ANC's #2, #8, #1, ...

........................................................................
.............................. CYCLE   17 ..............................
........................................................................

 iter      E             dE          RMSdq      gap      omega  full diag
   1    -50.0397194 -0.500397E+02  0.117E-01    2.38       0.0  T
   2    -50.0397204 -0.949209E-06  0.688E-02    2.38       1.0  T
   3    -50.0397189  0.144154E-05  0.767E-03    2.38       2.2  T
   4    -50.0397209 -0.194477E-05  0.158E-03    2.38      10.8  T
   5    -50.0397209 -0.810442E-08  0.867E-04    2.38      19.8  T
   6    -50.0397209 -0.550363E-08  0.302E-04    2.38      56.7  T
   7    -50.0397209 -0.182629E-08  0.885E-05    2.38     193.8  T
   8    -50.0397209 -0.446150E-10  0.474E-05    2.38     361.6  T
     SCC iter.                  ...        0 min,  0.016 sec
     gradient                   ...        0 min,  0.025 sec
 * total energy  :   -49.1133890 Eh     change       -0.9548021E-04 Eh
   gradient norm :     0.0049220 Eh/α   predicted    -0.8293240E-04 ( -13.14%)
   displ. norm   :     0.2305587 α      lambda       -0.1481279E-03
   maximum displ.:     0.1736940 α      in ANC's #2, #5, #8, ...

........................................................................
.............................. CYCLE   18 ..............................
........................................................................

 iter      E             dE          RMSdq      gap      omega  full diag
   1    -50.0456033 -0.500456E+02  0.761E-02    2.37       0.0  T
   2    -50.0456055 -0.221506E-05  0.445E-02    2.37       1.0  T
   3    -50.0456046  0.927427E-06  0.671E-03    2.37       2.6  T
   4    -50.0456057 -0.108044E-05  0.250E-03    2.37       6.9  T
   5    -50.0456058 -0.170041E-06  0.813E-04    2.37      21.1  T
   6    -50.0456058 -0.162281E-09  0.429E-04    2.37      40.0  T
   7    -50.0456058 -0.263982E-08  0.102E-04    2.37     168.9  T
   8    -50.0456058 -0.818190E-10  0.430E-05    2.37     399.1  T
     SCC iter.                  ...        0 min,  0.015 sec
     gradient                   ...        0 min,  0.018 sec
 * total energy  :   -49.1134177 Eh     change       -0.2864135E-04 Eh
   gradient norm :     0.0053257 Eh/α   predicted    -0.7800315E-04 ( 172.34%)
   displ. norm   :     0.2088564 α      lambda       -0.1079988E-03
   maximum displ.:     0.1802819 α      in ANC's #2, #10, #1, ...

........................................................................
.............................. CYCLE   19 ..............................
........................................................................

 iter      E             dE          RMSdq      gap      omega  full diag
   1    -50.0417524 -0.500418E+02  0.652E-02    2.37       0.0  T
   2    -50.0417535 -0.117689E-05  0.381E-02    2.36       1.0  T
   3    -50.0417527  0.835080E-06  0.620E-03    2.37       2.8  T
   4    -50.0417537 -0.101862E-05  0.183E-03    2.36       9.4  T
   5    -50.0417538 -0.729575E-07  0.686E-04    2.36      25.0  T
   6    -50.0417538  0.577039E-09  0.379E-04    2.36      45.2  T
   7    -50.0417538 -0.226679E-08  0.647E-05    2.36     264.9  T
   8    -50.0417538 -0.610498E-10  0.314E-05    2.36     545.6  T
     SCC iter.                  ...        0 min,  0.012 sec
     gradient                   ...        0 min,  0.017 sec
 * total energy  :   -49.1134762 Eh     change       -0.5858966E-04 Eh
   gradient norm :     0.0029621 Eh/α   predicted    -0.5635545E-04 (  -3.81%)
   displ. norm   :     0.0368817 α      lambda       -0.2726896E-04
   maximum displ.:     0.0211108 α      in ANC's #8, #4, #11, ...

........................................................................
.............................. CYCLE   20 ..............................
........................................................................

 iter      E             dE          RMSdq      gap      omega  full diag
   1    -50.0422719 -0.500423E+02  0.224E-02    2.37       0.0  T
   2    -50.0422720 -0.513812E-07  0.131E-02    2.37       1.3  T
   3    -50.0422719  0.879362E-07  0.186E-03    2.37       9.2  T
   4    -50.0422720 -0.109441E-06  0.361E-04    2.37      47.5  T
   5    -50.0422720 -0.117768E-08  0.188E-04    2.37      91.4  T
   6    -50.0422720 -0.316298E-09  0.694E-05    2.37     247.2  T
     SCC iter.                  ...        0 min,  0.012 sec
     gradient                   ...        0 min,  0.018 sec
 * total energy  :   -49.1134960 Eh     change       -0.1971747E-04 Eh
   gradient norm :     0.0020785 Eh/α   predicted    -0.1365466E-04 ( -30.75%)
   displ. norm   :     0.1192670 α      lambda       -0.3543439E-04
   maximum displ.:     0.0891818 α      in ANC's #2, #4, #10, ...
 * RMSD in coord.:     0.6858962 α      energy gain  -0.8758992E-02 Eh

generating ANC from exact Hessian ...
Using Lindh-Hessian (1995)
 Shifting diagonal of input Hessian by    9.5405910149337445E-003
 Lowest  eigenvalues of input Hessian
    0.000000    0.000000    0.000000    0.000000    0.000000    0.000000
    0.010000    0.010258    0.010610    0.011698    0.013319    0.014742
    0.016307    0.017549    0.019729    0.022112    0.023044    0.025204
 Highest eigenvalues
    1.957014    1.992213    2.013194    2.034426    2.123355    2.225621


........................................................................
.............................. CYCLE   21 ..............................
........................................................................

 iter      E             dE          RMSdq      gap      omega  full diag
   1    -50.0423437 -0.500423E+02  0.455E-02    2.36       0.0  T
   2    -50.0423439 -0.230302E-06  0.265E-02    2.36       1.0  T
   3    -50.0423433  0.621010E-06  0.480E-03    2.36       3.6  T
   4    -50.0423441 -0.738650E-06  0.703E-04    2.36      24.4  T
   5    -50.0423441 -0.360208E-08  0.379E-04    2.36      45.2  T
   6    -50.0423441 -0.113464E-08  0.165E-04    2.36     103.8  T
   7    -50.0423441 -0.343114E-09  0.380E-05    2.36     451.1  T
     SCC iter.                  ...        0 min,  0.017 sec
     gradient                   ...        0 min,  0.027 sec
 * total energy  :   -49.1135171 Eh     change       -0.2116574E-04 Eh
   gradient norm :     0.0017639 Eh/α   predicted     0.0000000E+00 (-100.00%)
   displ. norm   :     0.0262965 α      lambda       -0.7547646E-05
   maximum displ.:     0.0181057 α      in ANC's #4, #3, #6, ...

........................................................................
.............................. CYCLE   22 ..............................
........................................................................

 iter      E             dE          RMSdq      gap      omega  full diag
   1    -50.0432764 -0.500433E+02  0.113E-02    2.36       0.0  T
   2    -50.0432765 -0.697580E-07  0.657E-03    2.36       2.6  T
   3    -50.0432764  0.584785E-07  0.172E-03    2.36      10.0  T
   4    -50.0432765 -0.710852E-07  0.417E-04    2.36      41.1  T
   5    -50.0432765 -0.348095E-08  0.150E-04    2.36     114.1  T
   6    -50.0432765 -0.768878E-10  0.893E-05    2.36     192.0  T
     SCC iter.                  ...        0 min,  0.015 sec
     gradient                   ...        0 min,  0.022 sec
 * total energy  :   -49.1135254 Eh     change       -0.8232637E-05 Eh
   gradient norm :     0.0005047 Eh/α   predicted    -0.4195822E-05 ( -49.03%)
   displ. norm   :     0.0426751 α      lambda       -0.5379014E-05
   maximum displ.:     0.0285946 α      in ANC's #4, #3, #2, ...

........................................................................
.............................. CYCLE   23 ..............................
........................................................................

 iter      E             dE          RMSdq      gap      omega  full diag
   1    -50.0434020 -0.500434E+02  0.153E-02    2.36       0.0  T
   2    -50.0434020 -0.678787E-07  0.892E-03    2.36       1.9  T
   3    -50.0434019  0.971288E-07  0.214E-03    2.36       8.0  T
   4    -50.0434021 -0.120656E-06  0.352E-04    2.36      48.8  T
   5    -50.0434021 -0.131600E-08  0.167E-04    2.36     102.4  T
   6    -50.0434021 -0.151900E-09  0.820E-05    2.36     209.2  T
     SCC iter.                  ...        0 min,  0.010 sec
     gradient                   ...        0 min,  0.020 sec
 * total energy  :   -49.1135317 Eh     change       -0.6305886E-05 Eh
   gradient norm :     0.0007620 Eh/α   predicted    -0.2696264E-05 ( -57.24%)
   displ. norm   :     0.0624371 α      lambda       -0.5788937E-05
   maximum displ.:     0.0373170 α      in ANC's #4, #3, #2, ...

........................................................................
.............................. CYCLE   24 ..............................
........................................................................

 iter      E             dE          RMSdq      gap      omega  full diag
   1    -50.0432766 -0.500433E+02  0.209E-02    2.36       0.0  T
   2    -50.0432767 -0.137729E-06  0.122E-02    2.36       1.4  T
   3    -50.0432765  0.209542E-06  0.311E-03    2.36       5.5  T
   4    -50.0432768 -0.260639E-06  0.459E-04    2.36      37.4  T
   5    -50.0432768 -0.207351E-08  0.202E-04    2.36      84.8  T
   6    -50.0432768 -0.100634E-09  0.933E-05    2.36     183.8  T
   7    -50.0432768 -0.188273E-09  0.197E-05    2.36     868.7  T
     SCC iter.                  ...        0 min,  0.011 sec
     gradient                   ...        0 min,  0.023 sec
 * total energy  :   -49.1135386 Eh     change       -0.6973965E-05 Eh
   gradient norm :     0.0009328 Eh/α   predicted    -0.2901438E-05 ( -58.40%)
   displ. norm   :     0.0932882 α      lambda       -0.6686837E-05
   maximum displ.:     0.0528299 α      in ANC's #3, #4, #2, ...

........................................................................
.............................. CYCLE   25 ..............................
........................................................................

 iter      E             dE          RMSdq      gap      omega  full diag
   1    -50.0431133 -0.500431E+02  0.297E-02    2.35       0.0  T
   2    -50.0431135 -0.252781E-06  0.173E-02    2.35       1.0  T
   3    -50.0431131  0.406585E-06  0.431E-03    2.35       4.0  T
   4    -50.0431136 -0.503517E-06  0.625E-04    2.35      27.4  T
   5    -50.0431136 -0.376853E-08  0.281E-04    2.35      61.0  T
   6    -50.0431136 -0.254900E-09  0.139E-04    2.35     123.8  T
   7    -50.0431136 -0.460354E-09  0.298E-05    2.35     575.8  T
     SCC iter.                  ...        0 min,  0.014 sec
     gradient                   ...        0 min,  0.027 sec
 * total energy  :   -49.1135458 Eh     change       -0.7211978E-05 Eh
   gradient norm :     0.0006798 Eh/α   predicted    -0.3368916E-05 ( -53.29%)
   displ. norm   :     0.0709283 α      lambda       -0.3774614E-05
   maximum displ.:     0.0439128 α      in ANC's #3, #4, #2, ...

........................................................................
.............................. CYCLE   26 ..............................
........................................................................

 iter      E             dE          RMSdq      gap      omega  full diag
   1    -50.0430499 -0.500430E+02  0.212E-02    2.35       0.0  T
   2    -50.0430500 -0.108887E-06  0.124E-02    2.35       1.4  T
   3    -50.0430498  0.228383E-06  0.314E-03    2.35       5.5  T
   4    -50.0430501 -0.275620E-06  0.401E-04    2.35      42.8  T
   5    -50.0430501 -0.169501E-08  0.205E-04    2.35      83.9  T
   6    -50.0430501 -0.377611E-09  0.102E-04    2.35     167.5  T
   7    -50.0430501 -0.164604E-09  0.229E-05    2.35     748.1  T
     SCC iter.                  ...        0 min,  0.011 sec
     gradient                   ...        0 min,  0.017 sec
 * total energy  :   -49.1135501 Eh     change       -0.4269102E-05 Eh
   gradient norm :     0.0003816 Eh/α   predicted    -0.1909862E-05 ( -55.26%)
   displ. norm   :     0.0518992 α      lambda       -0.2920391E-05
   maximum displ.:     0.0348852 α      in ANC's #3, #2, #1, ...

........................................................................
.............................. CYCLE   27 ..............................
........................................................................

 iter      E             dE          RMSdq      gap      omega  full diag
   1    -50.0431294 -0.500431E+02  0.151E-02    2.34       0.0  T
   2    -50.0431294 -0.333454E-07  0.886E-03    2.34       1.9  T
   3    -50.0431293  0.122280E-06  0.218E-03    2.34       7.9  T
   4    -50.0431294 -0.143245E-06  0.246E-04    2.34      69.8  T
   5    -50.0431294 -0.701469E-09  0.137E-04    2.34     125.5  T
   6    -50.0431294 -0.195314E-09  0.556E-05    2.34     308.7  T
     SCC iter.                  ...        0 min,  0.011 sec
     gradient                   ...        0 min,  0.019 sec
 * total energy  :   -49.1135537 Eh     change       -0.3605836E-05 Eh
   gradient norm :     0.0003615 Eh/α   predicted    -0.1462436E-05 ( -59.44%)
   displ. norm   :     0.0518169 α      lambda       -0.3085647E-05
   maximum displ.:     0.0355323 α      in ANC's #3, #2, #1, ...

........................................................................
.............................. CYCLE   28 ..............................
........................................................................

 iter      E             dE          RMSdq      gap      omega  full diag
   1    -50.0432078 -0.500432E+02  0.164E-02    2.34       0.0  T
   2    -50.0432078 -0.267417E-07  0.958E-03    2.34       1.8  T
   3    -50.0432077  0.123937E-06  0.211E-03    2.34       8.1  T
   4    -50.0432078 -0.144279E-06  0.252E-04    2.34      68.1  T
   5    -50.0432078 -0.469406E-09  0.143E-04    2.34     119.9  T
   6    -50.0432078 -0.220382E-09  0.431E-05    2.34     397.8  T
     SCC iter.                  ...        0 min,  0.009 sec
     gradient                   ...        0 min,  0.019 sec
 * total energy  :   -49.1135575 Eh     change       -0.3778666E-05 Eh
   gradient norm :     0.0004604 Eh/α   predicted    -0.1545811E-05 ( -59.09%)
   displ. norm   :     0.0563093 α      lambda       -0.2744834E-05
   maximum displ.:     0.0386190 α      in ANC's #3, #2, #1, ...

........................................................................
.............................. CYCLE   29 ..............................
........................................................................

 iter      E             dE          RMSdq      gap      omega  full diag
   1    -50.0431943 -0.500432E+02  0.183E-02    2.34       0.0  T
   2    -50.0431943 -0.278326E-07  0.107E-02    2.34       1.6  T
   3    -50.0431942  0.118475E-06  0.202E-03    2.34       8.5  T
   4    -50.0431944 -0.139143E-06  0.255E-04    2.34      67.3  T
   5    -50.0431944 -0.345061E-09  0.145E-04    2.34     118.5  T
   6    -50.0431944 -0.228106E-09  0.427E-05    2.34     401.5  T
     SCC iter.                  ...        0 min,  0.013 sec
     gradient                   ...        0 min,  0.018 sec
 * total energy  :   -49.1135609 Eh     change       -0.3358315E-05 Eh
   gradient norm :     0.0004030 Eh/α   predicted    -0.1375741E-05 ( -59.03%)
   displ. norm   :     0.0527298 α      lambda       -0.2223847E-05
   maximum displ.:     0.0359992 α      in ANC's #3, #2, #1, ...

........................................................................
.............................. CYCLE   30 ..............................
........................................................................

 iter      E             dE          RMSdq      gap      omega  full diag
   1    -50.0432029 -0.500432E+02  0.176E-02    2.34       0.0  T
   2    -50.0432029 -0.220023E-07  0.103E-02    2.34       1.7  T
   3    -50.0432028  0.861104E-07  0.169E-03    2.34      10.1  T
   4    -50.0432029 -0.101741E-06  0.215E-04    2.34      79.9  T
   5    -50.0432029 -0.258446E-09  0.123E-04    2.34     139.6  T
   6    -50.0432029 -0.138130E-09  0.428E-05    2.34     400.9  T
     SCC iter.                  ...        0 min,  0.010 sec
     gradient                   ...        0 min,  0.016 sec
 * total energy  :   -49.1135637 Eh     change       -0.2862932E-05 Eh
   gradient norm :     0.0002789 Eh/α   predicted    -0.1115435E-05 ( -61.04%)
   displ. norm   :     0.0602551 α      lambda       -0.2446514E-05
   maximum displ.:     0.0406547 α      in ANC's #3, #2, #1, ...

........................................................................
.............................. CYCLE   31 ..............................
........................................................................

 iter      E             dE          RMSdq      gap      omega  full diag
   1    -50.0431803 -0.500432E+02  0.206E-02    2.33       0.0  T
   2    -50.0431803 -0.230445E-07  0.121E-02    2.33       1.4  T
   3    -50.0431802  0.666089E-07  0.151E-03    2.33      11.4  T
   4    -50.0431803 -0.821324E-07  0.215E-04    2.33      79.9  T
   5    -50.0431803 -0.175383E-09  0.126E-04    2.33     136.3  T
   6    -50.0431803 -0.159794E-09  0.357E-05    2.33     480.3  T
     SCC iter.                  ...        0 min,  0.012 sec
     gradient                   ...        0 min,  0.017 sec
 * total energy  :   -49.1135669 Eh     change       -0.3143306E-05 Eh
   gradient norm :     0.0002243 Eh/α   predicted    -0.1226953E-05 ( -60.97%)
   displ. norm   :     0.0727684 α      lambda       -0.2658784E-05
   maximum displ.:     0.0487417 α      in ANC's #3, #2, #1, ...

........................................................................
.............................. CYCLE   32 ..............................
........................................................................

 iter      E             dE          RMSdq      gap      omega  full diag
   1    -50.0431413 -0.500431E+02  0.252E-02    2.33       0.0  T
   2    -50.0431414 -0.337056E-07  0.148E-02    2.33       1.2  T
   3    -50.0431413  0.779971E-07  0.165E-03    2.33      10.4  T
   4    -50.0431414 -0.997228E-07  0.267E-04    2.33      64.2  T
   5    -50.0431414 -0.835030E-10  0.149E-04    2.33     115.3  T
   6    -50.0431414 -0.285858E-09  0.397E-05    2.33     431.6  T
     SCC iter.                  ...        0 min,  0.013 sec
     gradient                   ...        0 min,  0.019 sec
 * total energy  :   -49.1135701 Eh     change       -0.3216981E-05 Eh
   gradient norm :     0.0002850 Eh/α   predicted    -0.1333674E-05 ( -58.54%)
   displ. norm   :     0.0747720 α      lambda       -0.2140891E-05
   maximum displ.:     0.0502491 α      in ANC's #3, #2, #1, ...

........................................................................
.............................. CYCLE   33 ..............................
........................................................................

 iter      E             dE          RMSdq      gap      omega  full diag
   1    -50.0431071 -0.500431E+02  0.257E-02    2.33       0.0  T
   2    -50.0431072 -0.382216E-07  0.151E-02    2.33       1.1  T
   3    -50.0431071  0.618223E-07  0.155E-03    2.33      11.1  T
   4    -50.0431072 -0.837599E-07  0.296E-04    2.33      58.0  T
   5    -50.0431072 -0.157144E-09  0.160E-04    2.33     107.5  T
   6    -50.0431072 -0.426780E-09  0.375E-05    2.33     457.4  T
     SCC iter.                  ...        0 min,  0.014 sec
     gradient                   ...        0 min,  0.027 sec
 * total energy  :   -49.1135725 Eh     change       -0.2439374E-05 Eh
   gradient norm :     0.0002992 Eh/α   predicted    -0.1073904E-05 ( -55.98%)
   displ. norm   :     0.0625868 α      lambda       -0.1409383E-05
   maximum displ.:     0.0424460 α      in ANC's #3, #2, #1, ...

........................................................................
.............................. CYCLE   34 ..............................
........................................................................

 iter      E             dE          RMSdq      gap      omega  full diag
   1    -50.0431085 -0.500431E+02  0.210E-02    2.33       0.0  T
   2    -50.0431085 -0.327523E-07  0.123E-02    2.33       1.4  T
   3    -50.0431085  0.515516E-07  0.143E-03    2.33      12.0  T
   4    -50.0431085 -0.691643E-07  0.283E-04    2.33      60.7  T
   5    -50.0431085 -0.202604E-09  0.147E-04    2.33     117.0  T
   6    -50.0431085 -0.368978E-09  0.385E-05    2.33     444.9  T
     SCC iter.                  ...        0 min,  0.010 sec
     gradient                   ...        0 min,  0.018 sec
 * total energy  :   -49.1135742 Eh     change       -0.1627869E-05 Eh
   gradient norm :     0.0002279 Eh/α   predicted    -0.7066329E-06 ( -56.59%)
   displ. norm   :     0.0604652 α      lambda       -0.1268748E-05
   maximum displ.:     0.0407442 α      in ANC's #3, #2, #1, ...

........................................................................
.............................. CYCLE   35 ..............................
........................................................................

 iter      E             dE          RMSdq      gap      omega  full diag
   1    -50.0431423 -0.500431E+02  0.196E-02    2.33       0.0  T
   2    -50.0431423 -0.403316E-07  0.114E-02    2.33       1.5  T
   3    -50.0431422  0.705048E-07  0.168E-03    2.33      10.2  T
   4    -50.0431423 -0.901119E-07  0.297E-04    2.33      57.7  T
   5    -50.0431423 -0.494019E-09  0.156E-04    2.33     110.0  T
   6    -50.0431423 -0.326878E-09  0.543E-05    2.33     316.0  T
     SCC iter.                  ...        0 min,  0.016 sec
     gradient                   ...        0 min,  0.020 sec
 * total energy  :   -49.1135757 Eh     change       -0.1555677E-05 Eh
   gradient norm :     0.0001608 Eh/α   predicted    -0.6401554E-06 ( -58.85%)
   displ. norm   :     0.0776253 α      lambda       -0.1616872E-05
   maximum displ.:     0.0519735 α      in ANC's #3, #2, #1, ...

........................................................................
.............................. CYCLE   36 ..............................
........................................................................

 iter      E             dE          RMSdq      gap      omega  full diag
   1    -50.0431563 -0.500432E+02  0.241E-02    2.32       0.0  T
   2    -50.0431564 -0.769339E-07  0.141E-02    2.32       1.2  T
   3    -50.0431562  0.146310E-06  0.245E-03    2.32       7.0  T
   4    -50.0431564 -0.182451E-06  0.389E-04    2.32      44.1  T
   5    -50.0431564 -0.101452E-08  0.206E-04    2.32      83.3  T
   6    -50.0431564 -0.491880E-09  0.819E-05    2.32     209.4  T
   7    -50.0431564 -0.111157E-09  0.224E-05    2.32     766.1  T
     SCC iter.                  ...        0 min,  0.014 sec
     gradient                   ...        0 min,  0.023 sec
 * total energy  :   -49.1135776 Eh     change       -0.1916432E-05 Eh
   gradient norm :     0.0002072 Eh/α   predicted    -0.8145623E-06 ( -57.50%)
   displ. norm   :     0.0802082 α      lambda       -0.1523775E-05
   maximum displ.:     0.0530945 α      in ANC's #3, #2, #1, ...

........................................................................
.............................. CYCLE   37 ..............................
........................................................................

 iter      E             dE          RMSdq      gap      omega  full diag
   1    -50.0431774 -0.500432E+02  0.242E-02    2.32       0.0  T
   2    -50.0431775 -0.849820E-07  0.141E-02    2.32       1.2  T
   3    -50.0431773  0.198593E-06  0.282E-03    2.32       6.1  T
   4    -50.0431776 -0.240641E-06  0.390E-04    2.32      43.9  T
   5    -50.0431776 -0.122412E-08  0.213E-04    2.32      80.6  T
   6    -50.0431776 -0.514405E-09  0.882E-05    2.32     194.5  T
   7    -50.0431776 -0.109559E-09  0.234E-05    2.32     731.6  T
     SCC iter.                  ...        0 min,  0.015 sec
     gradient                   ...        0 min,  0.025 sec
 * total energy  :   -49.1135794 Eh     change       -0.1735223E-05 Eh
   gradient norm :     0.0002587 Eh/α   predicted    -0.7649591E-06 ( -55.92%)
   displ. norm   :     0.0635209 α      lambda       -0.1091309E-05
   maximum displ.:     0.0411571 α      in ANC's #3, #2, #4, ...

........................................................................
.............................. CYCLE   38 ..............................
........................................................................

 iter      E             dE          RMSdq      gap      omega  full diag
   1    -50.0432060 -0.500432E+02  0.186E-02    2.32       0.0  T
   2    -50.0432060 -0.520103E-07  0.109E-02    2.32       1.6  T
   3    -50.0432059  0.130142E-06  0.230E-03    2.32       7.4  T
   4    -50.0432061 -0.156065E-06  0.291E-04    2.32      58.9  T
   5    -50.0432061 -0.740556E-09  0.161E-04    2.32     106.2  T
   6    -50.0432061 -0.272863E-09  0.728E-05    2.32     235.5  T
     SCC iter.                  ...        0 min,  0.013 sec
     gradient                   ...        0 min,  0.021 sec
 * total energy  :   -49.1135805 Eh     change       -0.1182068E-05 Eh
   gradient norm :     0.0002318 Eh/α   predicted    -0.5478902E-06 ( -53.65%)
   displ. norm   :     0.0403463 α      lambda       -0.7275424E-06
   maximum displ.:     0.0242329 α      in ANC's #3, #2, #4, ...

........................................................................
.............................. CYCLE   39 ..............................
........................................................................

 iter      E             dE          RMSdq      gap      omega  full diag
   1    -50.0432290 -0.500432E+02  0.114E-02    2.31       0.0  T
   2    -50.0432291 -0.173777E-07  0.671E-03    2.31       2.6  T
   3    -50.0432290  0.583693E-07  0.150E-03    2.31      11.4  T
   4    -50.0432291 -0.684482E-07  0.174E-04    2.31      98.5  T
   5    -50.0432291 -0.300027E-09  0.101E-04    2.31     169.5  T
     SCC iter.                  ...        0 min,  0.009 sec
     gradient                   ...        0 min,  0.019 sec
 * total energy  :   -49.1135814 Eh     change       -0.8259964E-06 Eh
   gradient norm :     0.0001481 Eh/α   predicted    -0.3655597E-06 ( -55.74%)
   displ. norm   :     0.0351653 α      lambda       -0.6986289E-06
   maximum displ.:     0.0172157 α      in ANC's #3, #8, #7, ...

........................................................................
.............................. CYCLE   40 ..............................
........................................................................

 iter      E             dE          RMSdq      gap      omega  full diag
   1    -50.0432217 -0.500432E+02  0.973E-03    2.31       0.0  T
   2    -50.0432217 -0.112880E-07  0.572E-03    2.31       3.0  T
   3    -50.0432217  0.298800E-07  0.109E-03    2.31      15.7  T
   4    -50.0432217 -0.360943E-07  0.166E-04    2.31     103.2  T
   5    -50.0432217 -0.613340E-10  0.985E-05    2.31     174.2  T
     SCC iter.                  ...        0 min,  0.010 sec
     gradient                   ...        0 min,  0.020 sec
 * total energy  :   -49.1135821 Eh     change       -0.7528534E-06 Eh
   gradient norm :     0.0001324 Eh/α   predicted    -0.3526378E-06 ( -53.16%)
   displ. norm   :     0.0264152 α      lambda       -0.4519452E-06
   maximum displ.:     0.0126729 α      in ANC's #8, #3, #5, ...

........................................................................
.............................. CYCLE   41 ..............................
........................................................................

 iter      E             dE          RMSdq      gap      omega  full diag
   1    -50.0431597 -0.500432E+02  0.710E-03    2.31       0.0  T
   2    -50.0431597 -0.634197E-08  0.416E-03    2.31       4.1  T
   3    -50.0431597  0.157107E-07  0.754E-04    2.31      22.8  T
   4    -50.0431598 -0.192727E-07  0.143E-04    2.31     120.3  T
   5    -50.0431598 -0.225526E-10  0.828E-05    2.31     207.1  T
     SCC iter.                  ...        0 min,  0.008 sec
     gradient                   ...        0 min,  0.021 sec
 * total energy  :   -49.1135826 Eh     change       -0.4601326E-06 Eh
   gradient norm :     0.0001536 Eh/α   predicted    -0.2305085E-06 ( -49.90%)
   displ. norm   :     0.0099963 α      lambda       -0.1920921E-06
   maximum displ.:     0.0061486 α      in ANC's #5, #1, #8, ...

........................................................................
.............................. CYCLE   42 ..............................
........................................................................

 iter      E             dE          RMSdq      gap      omega  full diag
   1    -50.0431591 -0.500432E+02  0.271E-03    2.31       0.0  T
   2    -50.0431591 -0.971255E-09  0.159E-03    2.31      10.8  T
   3    -50.0431591  0.105744E-08  0.208E-04    2.31      82.5  T
   4    -50.0431591 -0.148354E-08  0.490E-05    2.31     350.2  T
   5    -50.0431591 -0.143530E-11  0.220E-05    2.31     778.6  T
     SCC iter.                  ...        0 min,  0.009 sec
     gradient                   ...        0 min,  0.019 sec
 * total energy  :   -49.1135828 Eh     change       -0.2201929E-06 Eh
   gradient norm :     0.0001016 Eh/α   predicted    -0.9829999E-07 ( -55.36%)
   displ. norm   :     0.0087287 α      lambda       -0.1352814E-06
   maximum displ.:     0.0054124 α      in ANC's #5, #1, #8, ...
 * RMSD in coord.:     0.1737195 α      energy gain  -0.8684116E-04 Eh

generating ANC from exact Hessian ...
Using Lindh-Hessian (1995)
 Shifting diagonal of input Hessian by    9.5252429755939075E-003
 Lowest  eigenvalues of input Hessian
    0.000000    0.000000    0.000000    0.000000    0.000000    0.000000
    0.010000    0.010234    0.010589    0.011636    0.013355    0.014668
    0.016263    0.017643    0.019794    0.022073    0.022961    0.025187
 Highest eigenvalues
    1.956990    1.993367    2.012468    2.035121    2.124028    2.233141


........................................................................
.............................. CYCLE   43 ..............................
........................................................................

 iter      E             dE          RMSdq      gap      omega  full diag
   1    -50.0431649 -0.500432E+02  0.241E-03    2.31       0.0  T
   2    -50.0431649 -0.571504E-09  0.142E-03    2.31      12.1  T
   3    -50.0431649  0.890026E-09  0.182E-04    2.31      94.1  T
   4    -50.0431649 -0.117750E-08  0.357E-05    2.31     480.8  T
     SCC iter.                  ...        0 min,  0.006 sec
     gradient                   ...        0 min,  0.027 sec
 * total energy  :   -49.1135829 Eh     change       -0.1451652E-06 Eh
   gradient norm :     0.0000479 Eh/α   predicted     0.0000000E+00 (-100.00%)
   displ. norm   :     0.0000718 α      lambda        0.0000000E+00
   maximum displ.:     0.0000290 α      in ANC's #89, #82, #91, ...

........................................................................
.............................. CYCLE   44 ..............................
........................................................................

 iter      E             dE          RMSdq      gap      omega  full diag
   1    -50.0431650 -0.500432E+02  0.905E-05    2.31       0.0  T
   2    -50.0431650 -0.262190E-10  0.546E-05    2.31     313.9  T
   3    -50.0431650  0.411404E-11  0.299E-05    2.31     574.0  T
     SCC iter.                  ...        0 min,  0.009 sec
     gradient                   ...        0 min,  0.031 sec
 * total energy  :   -49.1135829 Eh     change       -0.1937160E-08 Eh
   gradient norm :     0.0000296 Eh/α   predicted    -0.1048474E-08 ( -45.88%)
   displ. norm   :     0.0000718 α      lambda        0.0000000E+00
   maximum displ.:     0.0000290 α      in ANC's #89, #82, #91, ...

   *** GEOMETRY OPTIMIZATION CONVERGED AFTER 44 ITERATIONS ***

------------------------------------------------------------------------
 total energy gain   :        -0.0088460 Eh       -5.5509 kcal/mol
 total RMSD          :         0.7954213 a0        0.4209 Å
 total power (kW/mol):        -0.5278436 (step)  -11.6407 (real)
------------------------------------------------------------------------

 ANCopt (total)                0 d,  0 h,  0 min,  1.995 sec
 optimizer setup                ...        0 min,  0.001 sec (  0.068%)
 model hessian                  ...        0 min,  0.026 sec (  1.297%)
 ANC generation                 ...        0 min,  0.005 sec (  0.239%)
 coordinate transformation      ...        0 min,  0.001 sec (  0.043%)
 single point calculation       ...        0 min,  1.939 sec ( 97.190%)
 optimization log               ...        0 min,  0.013 sec (  0.631%)
 hessian update                 ...        0 min,  0.001 sec (  0.063%)
 rational function              ...        0 min,  0.006 sec (  0.308%)

================
 final structure:
================
34
 xtb: 6.7.1 (edcfbbe)
C           -0.28643906955777        3.67817896936414       -1.07076827367730
C           -0.57264037821595        2.34244255243407       -0.45554967842407
N           -1.57441630120176        2.25084741735337        0.31508812896629
C           -2.08558417973709        1.10523183287643        0.88355203299765
C           -2.28932219863422        1.06527656030844        2.26563885403622
C           -2.89153963010007       -0.03087822288062        2.84965102655931
C           -3.32646229304917       -1.09212888009151        2.07090688574636
C           -3.15258602008103       -1.04767196925589        0.69710238264901
C           -2.53483654010413        0.03547087549338        0.10394052843948
C            0.36157871354269        1.23743992064386       -0.76722153708323
C            0.86853496329293        1.07502375707353       -2.07636805500064
C            1.71847122840250        0.04912248025570       -2.37280219723847
C            2.12550854650097       -0.86972409885064       -1.38168488873263
C            3.00215628651476       -1.93958613838354       -1.65654663928671
C            3.37276849697157       -2.80862867916827       -0.66811044403119
C            2.88399391859027       -2.64837940857114        0.63896130448890
C            2.03368462088012       -1.62084721044268        0.93759361649695
C            1.63220592509351       -0.70684502358996       -0.06030781065289
C            0.75062671236181        0.35555056366405        0.21431290182727
H           -0.56654634697967        3.66849613948491       -2.12347682506552
H           -0.87055017230144        4.44415521293864       -0.56837351931539
H            0.77415158146877        3.91176101483366       -1.00208874152389
H           -1.94897814609662        1.89538403624842        2.86806976663913
H           -3.02906719281684       -0.05577757077738        3.92171701656758
H           -3.80277659385891       -1.94523565761999        2.53154764777279
H           -3.49488557764136       -1.86808567676761        0.08168127872552
H           -2.40029803524046        0.07285676614652       -0.96851533002436
H            0.56114220069029        1.75928953762352       -2.85289493116072
H            2.09345776848588       -0.07363876181431       -3.37946137050597
H            3.37551790868680       -2.06055338368193       -2.66391951813971
H            4.04486429752103       -3.62654324899375       -0.88488277087022
H            3.18686490166087       -3.34611746294389        1.40647558824116
H            1.65113181133916       -1.49360547707544        1.94069557449498
H            0.39026879351420        0.47829544687548        1.22603799608586

 Bond Distances (Angstroems)
 ---------------------------
C1-C2=1.4982         C1-H20=1.0894        C1-H21=1.0864        C1-H22=1.0882        C2-C1=1.4982         C2-N3=1.2672         
C2-C10=1.4802        N3-C2=1.2672         N3-C4=1.3773         C4-N3=1.3773         C4-C5=1.3976         C4-C9=1.3979         
C5-C4=1.3976         C5-C6=1.3803         C5-H23=1.0807        C6-C5=1.3803         C6-C7=1.3863         C6-H24=1.0811        
C7-C6=1.3863         C7-C8=1.3855         C7-H25=1.0802        C8-C7=1.3855         C8-C9=1.3808         C8-H26=1.0812        
C9-C4=1.3979         C9-C8=1.3808         C9-H27=1.0815        C10-C2=1.4802        C10-C11=1.4132       C10-C19=1.3757       
C11-C10=1.4132       C11-C12=1.3648       C11-H28=1.0797       C12-C11=1.3648       C12-C13=1.4115       C12-H29=1.0812       
C13-C12=1.4115       C13-C14=1.4102       C13-C18=1.4198       C14-C13=1.4102       C14-C15=1.3673       C14-H30=1.0811       
C15-C14=1.3673       C15-C16=1.4046       C15-H31=1.0806       C16-C15=1.4046       C16-C17=1.3668       C16-H32=1.0806       
C17-C16=1.3668       C17-C18=1.4115       C17-H33=1.0811       C18-C13=1.4198       C18-C17=1.4115       C18-C19=1.4076       
C19-C10=1.3757       C19-C18=1.4076       C19-H34=1.0810       H20-C1=1.0894        H21-C1=1.0864        H22-C1=1.0882        
H23-C5=1.0807        H24-C6=1.0811        H25-C7=1.0802        H26-C8=1.0812        H27-C9=1.0815        H28-C11=1.0797       
H29-C12=1.0812       H30-C14=1.0811       H31-C15=1.0806       H32-C16=1.0806       H33-C17=1.0811       H34-C19=1.0810       
 C  H  Rav=1.0823 sigma=0.0029  Rmin=1.0797  Rmax=1.0894    15
 C  C  Rav=1.4031 sigma=0.0341  Rmin=1.3648  Rmax=1.4982    19
 N  C  Rav=1.3222 sigma=0.0550  Rmin=1.2672  Rmax=1.3773     2

 selected bond angles (degree)
 --------------------
H20-C1-C2=109.86               H21-C1-C2=109.63               H21-C1-H20=108.35              H22-C1-C2=110.59               
H22-C1-H20=108.27              H22-C1-H21=110.09              N3-C2-C1=117.72                C10-C2-C1=117.29               
C10-C2-N3=124.96               C4-N3-C2=127.20                C5-C4-N3=119.08                C9-C4-N3=121.71                
C9-C4-C5=118.87                C6-C5-C4=120.31                H23-C5-C4=118.91               H23-C5-C6=120.77               
C7-C6-C5=120.47                H24-C6-C5=119.56               H24-C6-C7=119.97               C8-C7-C6=119.54                
H25-C7-C6=120.22               H25-C7-C8=120.23               C9-C8-C7=120.48                H26-C8-C7=120.02               
H26-C8-C9=119.49               C8-C9-C4=120.30                H27-C9-C4=119.12               H27-C9-C8=120.58               
C11-C10-C2=120.48              C19-C10-C2=120.45              C19-C10-C11=119.07             

 selected dihedral angles (degree)
 ---------------------------------
N3-C2-C1-H20=254.27           N3-C2-C1-H21= 13.24           N3-C2-C1-H22=134.81           C10-C2-C1-H20= 75.90          
C10-C2-C1-H21=194.87          C10-C2-C1-H22=316.44          C4-N3-C2-C1=173.62            C4-N3-C2-C10=351.85           
C5-C4-N3-C2=127.61            C9-C4-N3-C2=300.86            C6-C5-C4-N3=175.19            C6-C5-C4-C9=  1.75            
H23-C5-C4-N3=353.90           H23-C5-C4-C9=180.46           C7-C6-C5-C4=358.65            C7-C6-C5-H23=179.97           
H24-C6-C5-C4=179.04           H24-C6-C5-H23=  0.36          C8-C7-C6-C5=  0.03            C8-C7-C6-H24=179.64           
H25-C7-C6-C5=180.38           H25-C7-C6-H24=  0.00          C9-C8-C7-C6=  0.87            C9-C8-C7-H25=180.52           
H26-C8-C7-C6=180.41           H26-C8-C7-H25=  0.06          C8-C9-C4-N3=185.88            C8-C9-C4-C5=359.14            
H27-C9-C4-N3=  5.30           H27-C9-C4-C5=178.56           C4-C9-C8-C7=359.55            C4-C9-C8-H26=180.01           
H27-C9-C8-C7=180.14           H27-C9-C8-H26=  0.59          C11-C10-C2-C1=319.12          C11-C10-C2-N3=140.88          
C19-C10-C2-C1=138.99          C19-C10-C2-N3=320.75          
           -------------------------------------------------
          |                Final Singlepoint                |
           -------------------------------------------------

          ...................................................
          :                      SETUP                      :
          :.................................................:
          :  # basis functions                  91          :
          :  # atomic orbitals                  91          :
          :  # shells                           53          :
          :  # electrons                        92          :
          :  max. iterations                   250          :
          :  Hamiltonian                  GFN2-xTB          :
          :  restarted?                      false          :
          :  GBSA solvation                   true          :
          :  PC potential                    false          :
          :  electronic temp.          300.0000000     K    :
          :  accuracy                    0.2000000          :
          :  -> integral cutoff          0.3198970E+02      :
          :  -> integral neglect         0.2000000E-08      :
          :  -> SCF convergence          0.2000000E-06 Eh   :
          :  -> wf. convergence          0.2000000E-04 e    :
          :  Broyden damping             0.4000000          :
          :  net charge                          0          :
          :  unpaired electrons                  0          :
          ...................................................

 iter      E             dE          RMSdq      gap      omega  full diag
   1    -50.0431650 -0.500432E+02  0.628E-06    2.31       0.0  T
   2    -50.0431650 -0.426326E-12  0.475E-06    2.31    3614.1  T
   3    -50.0431650 -0.824230E-12  0.112E-06    2.31   15342.0  T

   *** convergence criteria satisfied after 3 iterations ***

         #    Occupation            Energy/Eh            Energy/eV
      -------------------------------------------------------------
         1        2.0000           -0.6565273             -17.8650
       ...           ...                  ...                  ...
        40        2.0000           -0.4191419             -11.4054
        41        2.0000           -0.4170991             -11.3498
        42        2.0000           -0.4061814             -11.0528
        43        2.0000           -0.3988787             -10.8540
        44        2.0000           -0.3972026             -10.8084
        45        2.0000           -0.3814869             -10.3808
        46        2.0000           -0.3562349              -9.6936 (HOMO)
        47                         -0.2713727              -7.3844 (LUMO)
        48                         -0.2513400              -6.8393
        49                         -0.2210302              -6.0145
        50                         -0.2160816              -5.8799
        51                         -0.1999972              -5.4422
       ...                                ...                  ...
        91                          0.7040346              19.1578
      -------------------------------------------------------------
                  HL-Gap            0.0848622 Eh            2.3092 eV
             Fermi-level           -0.3138038 Eh           -8.5390 eV

 SCC (total)                   0 d,  0 h,  0 min,  0.033 sec
 SCC setup                      ...        0 min,  0.001 sec (  4.123%)
 Dispersion                     ...        0 min,  0.001 sec (  1.757%)
 classical contributions        ...        0 min,  0.000 sec (  0.302%)
 integral evaluation            ...        0 min,  0.006 sec ( 18.594%)
 iterations                     ...        0 min,  0.006 sec ( 17.330%)
 molecular gradient             ...        0 min,  0.019 sec ( 56.729%)
 printout                       ...        0 min,  0.000 sec (  1.077%)

         :::::::::::::::::::::::::::::::::::::::::::::::::::::
         ::                     SUMMARY                     ::
         :::::::::::::::::::::::::::::::::::::::::::::::::::::
         :: total energy             -49.113582947776 Eh    ::
         :: total w/o Gsasa/hb       -49.091713021091 Eh    ::
         :: gradient norm              0.000032179540 Eh/a0 ::
         :: HOMO-LUMO gap              2.309217325980 eV    ::
         ::.................................................::
         :: SCC energy               -50.042666218054 Eh    ::
         :: -> isotropic ES            0.011339839601 Eh    ::
         :: -> anisotropic ES          0.006381397303 Eh    ::
         :: -> anisotropic XC          0.035308466657 Eh    ::
         :: -> dispersion             -0.037936910561 Eh    ::
         :: -> Gsolv                  -0.022890916276 Eh    ::
         ::    -> Gelec               -0.001020989591 Eh    ::
         ::    -> Gsasa               -0.026018624046 Eh    ::
         ::    -> Ghb                  0.000000000000 Eh    ::
         ::    -> Gshift               0.004148697361 Eh    ::
         :: repulsion energy           0.929083270278 Eh    ::
         :: add. restraining           0.000000000000 Eh    ::
         :: total charge               0.000000000000 e     ::
         :::::::::::::::::::::::::::::::::::::::::::::::::::::

           -------------------------------------------------
          |                Property Printout                |
           -------------------------------------------------

    * Orbital Energies and Occupations

         #    Occupation            Energy/Eh            Energy/eV
      -------------------------------------------------------------
         1        2.0000           -0.6565273             -17.8650
       ...           ...                  ...                  ...
        34        2.0000           -0.4553377             -12.3904
        35        2.0000           -0.4484542             -12.2031
        36        2.0000           -0.4404175             -11.9844
        37        2.0000           -0.4326375             -11.7727
        38        2.0000           -0.4290957             -11.6763
        39        2.0000           -0.4251492             -11.5689
        40        2.0000           -0.4191419             -11.4054
        41        2.0000           -0.4170991             -11.3498
        42        2.0000           -0.4061814             -11.0528
        43        2.0000           -0.3988787             -10.8540
        44        2.0000           -0.3972026             -10.8084
        45        2.0000           -0.3814869             -10.3808
        46        2.0000           -0.3562349              -9.6936 (HOMO)
        47                         -0.2713727              -7.3844 (LUMO)
        48                         -0.2513400              -6.8393
        49                         -0.2210302              -6.0145
        50                         -0.2160816              -5.8799
        51                         -0.1999972              -5.4422
        52                         -0.1875370              -5.1031
        53                         -0.1412222              -3.8429
        54                         -0.0819758              -2.2307
        55                         -0.0585996              -1.5946
        56                          0.0786419               2.1400
        57                          0.0988511               2.6899
       ...                                ...                  ...
        91                          0.7040346              19.1578
      -------------------------------------------------------------
                  HL-Gap            0.0848622 Eh            2.3092 eV
             Fermi-level           -0.3138038 Eh           -8.5390 eV

     #   Z          covCN         q      C6AA      α(0)
     1   6 C        3.763    -0.119    22.814     6.809
     2   6 C        2.899     0.116    25.450     8.271
     3   7 N        1.844    -0.226    26.791     7.671
     4   6 C        2.924     0.084    26.129     8.383
     5   6 C        2.924    -0.049    29.214     8.864
     6   6 C        2.919    -0.033    28.810     8.802
     7   6 C        2.919    -0.042    29.052     8.839
     8   6 C        2.919    -0.032    28.797     8.800
     9   6 C        2.922    -0.050    29.247     8.869
    10   6 C        2.969    -0.005    28.140     8.701
    11   6 C        2.918    -0.034    28.840     8.806
    12   6 C        2.916    -0.036    28.896     8.815
    13   6 C        2.987     0.013    27.706     8.634
    14   6 C        2.917    -0.035    28.878     8.812
    15   6 C        2.916    -0.029    28.728     8.789
    16   6 C        2.915    -0.029    28.734     8.790
    17   6 C        2.918    -0.034    28.848     8.808
    18   6 C        2.985     0.013    27.722     8.637
    19   6 C        2.924    -0.032    28.793     8.800
    20   1 H        0.925     0.067     2.120     2.277
    21   1 H        0.925     0.067     2.121     2.278
    22   1 H        0.925     0.058     2.217     2.328
    23   1 H        0.926     0.030     2.584     2.514
    24   1 H        0.926     0.028     2.622     2.532
    25   1 H        0.926     0.025     2.661     2.551
    26   1 H        0.926     0.025     2.655     2.548
    27   1 H        0.925     0.018     2.767     2.601
    28   1 H        0.926     0.038     2.473     2.459
    29   1 H        0.925     0.037     2.495     2.470
    30   1 H        0.926     0.035     2.515     2.480
    31   1 H        0.926     0.034     2.528     2.486
    32   1 H        0.926     0.034     2.536     2.491
    33   1 H        0.926     0.033     2.551     2.498
    34   1 H        0.926     0.031     2.570     2.507

 Mol. C6AA /au·bohr⁶  :      15391.198307
 Mol. C8AA /au·bohr⁸  :     382808.967751
 Mol. α(0) /au        :        199.918266


Wiberg/Mayer (AO) data.
largest (>0.10) Wiberg bond orders for each atom

 ---------------------------------------------------------------------------
     #   Z sym  total        # sym  WBO       # sym  WBO       # sym  WBO
 ---------------------------------------------------------------------------
     1   6 C    3.992 --     2 C    1.020    21 H    0.980    22 H    0.973
                            20 H    0.956
     2   6 C    3.963 --     3 N    1.776    10 C    1.024     1 C    1.020
     3   7 N    3.196 --     2 C    1.776     4 C    1.131
     4   6 C    3.977 --     5 C    1.345     9 C    1.341     3 N    1.131
     5   6 C    3.985 --     6 C    1.464     4 C    1.345    23 H    0.971
                             8 C    0.105
     6   6 C    3.992 --     5 C    1.464     7 C    1.425    24 H    0.971
                             9 C    0.103
     7   6 C    3.989 --     8 C    1.430     6 C    1.425    25 H    0.972
     8   6 C    3.992 --     9 C    1.459     7 C    1.430    26 H    0.970
                             5 C    0.105
     9   6 C    3.989 --     8 C    1.459     4 C    1.341    27 H    0.971
                             6 C    0.103
    10   6 C    3.988 --    19 C    1.495    11 C    1.274     2 C    1.024
    11   6 C    3.988 --    12 C    1.571    10 C    1.274    28 H    0.967
    12   6 C    3.991 --    11 C    1.571    13 C    1.273    29 H    0.967
                            19 C    0.110
    13   6 C    3.990 --    14 C    1.283    12 C    1.273    18 C    1.249
    14   6 C    3.991 --    15 C    1.555    13 C    1.283    30 H    0.968
                            17 C    0.118
    15   6 C    3.986 --    14 C    1.555    16 C    1.320    31 H    0.971
    16   6 C    3.992 --    17 C    1.559    15 C    1.320    32 H    0.971
    17   6 C    3.987 --    16 C    1.559    18 C    1.275    33 H    0.968
                            14 C    0.118
    18   6 C    3.990 --    19 C    1.289    17 C    1.275    13 C    1.249
    19   6 C    3.992 --    10 C    1.495    18 C    1.289    34 H    0.965
                            12 C    0.110
    20   1 H    0.993 --     1 C    0.956
    21   1 H    0.995 --     1 C    0.980
    22   1 H    0.995 --     1 C    0.973
    23   1 H    0.999 --     5 C    0.971
    24   1 H    0.998 --     6 C    0.971
    25   1 H    0.999 --     7 C    0.972
    26   1 H    0.999 --     8 C    0.970
    27   1 H    1.000 --     9 C    0.971
    28   1 H    0.998 --    11 C    0.967
    29   1 H    0.997 --    12 C    0.967
    30   1 H    0.998 --    14 C    0.968
    31   1 H    0.998 --    15 C    0.971
    32   1 H    0.998 --    16 C    0.971
    33   1 H    0.998 --    17 C    0.968
    34   1 H    0.999 --    19 C    0.965
 ---------------------------------------------------------------------------

Topologies differ in total number of bonds
Writing topology from bond orders to xtbtopo.mol

molecular dipole:
                 x           y           z       tot (Debye)
 q only:        0.769       0.203      -0.539
   full:        0.920      -0.049      -0.622       2.825
molecular quadrupole (traceless):
                xx          xy          yy          xz          yz          zz
 q only:       -5.555       0.246       4.175       0.067      -3.762       1.380
  q+dip:      -10.279       0.273       2.674      -1.506      -5.073       7.605
   full:       -6.929       2.040       2.161       0.380      -4.403       4.768

           -------------------------------------------------
          |                Geometry Summary                 |
           -------------------------------------------------

      molecular mass/u    :      245.3190607
   center of mass at/Å    :       -0.0112085       0.0465950       0.0235264
  moments of inertia/u·Å² :        0.8852358E+03   0.1753418E+04   0.2330411E+04
rotational constants/cm⁻¹ :        0.1904310E-01   0.9614157E-02   0.7233760E-02

 * 33 selected distances

     #   Z          #   Z                                           value/Å
     2   6 C        3   7 N                                       1.2672125
     4   6 C        5   6 C                                       1.3975943
     5   6 C        6   6 C                                       1.3803230
     6   6 C        7   6 C                                       1.3863093
     7   6 C        8   6 C                                       1.3854777
     4   6 C        9   6 C                                       1.3978593
     8   6 C        9   6 C                                       1.3808165
    10   6 C       11   6 C                                       1.4132405
    11   6 C       12   6 C                                       1.3648218
    12   6 C       13   6 C                                       1.4114788
    13   6 C       14   6 C                                       1.4102005
    14   6 C       15   6 C                                       1.3673313
    15   6 C       16   6 C                                       1.4046414
    16   6 C       17   6 C                                       1.3667589
    13   6 C       18   6 C                                       1.4198292 (max)
    17   6 C       18   6 C                                       1.4115214
    10   6 C       19   6 C                                       1.3756807
    18   6 C       19   6 C                                       1.4075806
     1   6 C       20   1 H                                       1.0893803
     1   6 C       21   1 H                                       1.0864189
     1   6 C       22   1 H                                       1.0881775
     5   6 C       23   1 H                                       1.0806645
     6   6 C       24   1 H                                       1.0811381
     7   6 C       25   1 H                                       1.0802114
     8   6 C       26   1 H                                       1.0811989
     9   6 C       27   1 H                                       1.0815083
    11   6 C       28   1 H                                       1.0796778 (min)
    12   6 C       29   1 H                                       1.0812253
    14   6 C       30   1 H                                       1.0811255
    15   6 C       31   1 H                                       1.0805959
    16   6 C       32   1 H                                       1.0805774
    17   6 C       33   1 H                                       1.0810878
Note: The following floating-point exceptions are signalling: IEEE_DIVIDE_BY_ZERO IEEE_UNDERFLOW_FLAG IEEE_DENORMAL
normal termination of xtb
    19   6 C       34   1 H                                       1.0809773

 * 3 distinct bonds (by element types)

   Z      Z             #   av. dist./Å        max./Å        min./Å
   1 H    6 C          15     1.0822643     1.0893803     1.0796778
   6 C    6 C          17     1.3930274     1.4198292     1.3648218
   6 C    7 N           1     1.2672125     1.2672125     1.2672125


optimized geometry written to: xtbopt.xyz


           -------------------------------------------------
          | TOTAL ENERGY              -49.113582947776 Eh   |
          | GRADIENT NORM               0.000032179540 Eh/α |
          | HOMO-LUMO GAP               2.309217325980 eV   |
           -------------------------------------------------

------------------------------------------------------------------------
 * finished run on 2026/09/10 at 23:04:07.210     
------------------------------------------------------------------------
 total:
 * wall-time:     0 d,  0 h,  0 min,  2.149 sec
 *  cpu-time:     0 d,  0 h,  0 min,  0.562 sec
 * ratio c/w:     0.262 speedup
 SCF:
 * wall-time:     0 d,  0 h,  0 min,  0.075 sec
 *  cpu-time:     0 d,  0 h,  0 min,  0.016 sec
 * ratio c/w:     0.207 speedup
 ANC optimizer:
 * wall-time:     0 d,  0 h,  0 min,  2.036 sec
 *  cpu-time:     0 d,  0 h,  0 min,  0.531 sec
 * ratio c/w:     0.261 speedup

