 Entering Gaussian System
 *********************************************
 Gaussian 98:
 frequency output generated by the xtb code
 *********************************************
                         Standard orientation:
 --------------------------------------------------------------------
  Center     Atomic     Atomic              Coordinates (Angstroms)
  Number     Number      Type              X           Y           Z
 --------------------------------------------------------------------
    1          6             0       -1.114071   -3.023312   -0.259766
    2          6             0       -0.439929   -1.685972   -0.214775
    3          7             0        0.774315   -1.624332   -0.568635
    4          6             0        1.538001   -0.487161   -0.714458
    5          6             0        2.787618   -0.427407   -0.092162
    6          6             0        3.616868    0.656464   -0.299029
    7          6             0        3.232039    1.683888   -1.146688
    8          6             0        2.004595    1.619734   -1.786032
    9          6             0        1.158402    0.549800   -1.571225
   10          6             0       -1.240119   -0.542149    0.283441
   11          6             0       -2.558259   -0.354918   -0.127418
   12          6             0       -3.289138    0.724779    0.334134
   13          6             0       -2.721691    1.622891    1.223066
   14          6             0       -1.415982    1.437937    1.647351
   15          6             0       -0.678227    0.367313    1.177812
   16          1             0       -0.372907   -3.800305   -0.424573
   17          1             0       -1.651376   -3.209802    0.668251
   18          1             0       -1.832233   -3.050272   -1.078358
   19          1             0        3.081812   -1.232304    0.565840
   20          1             0        4.575022    0.698548    0.199813
   21          1             0        3.887302    2.526730   -1.311416
   22          1             0        1.700146    2.414235   -2.453094
   23          1             0        0.200920    0.495280   -2.071057
   24          1             0       -3.008793   -1.041793   -0.828855
   25          1             0       -4.307172    0.864891   -0.000143
   26          1             0       -3.295624    2.463461    1.585055
   27          1             0       -0.969004    2.131254    2.345007
   28          1             0        0.337477    0.222518    1.517168
 --------------------------------------------------------------------
     1 basis functions        1 primitive gaussians
     1 alpha electrons        1 beta electrons

 Harmonic frequencies (cm**-1), IR intensities (km*mol⁻¹),
 Raman scattering activities (A**4/amu), Raman depolarization ratios,
 reduced masses (AMU), force constants (mDyne/A) and normal coordinates:
                      1                      2                      3
                        a                      a                      a 
 Frequencies --    32.8539                51.8605                58.5873
 Red. masses --    10.0225                 9.9649                10.1144
 Frc consts  --     0.0000                 0.0000                 0.0000
 IR Inten    --     0.1683                 0.2821                 0.1599
 Raman Activ --     0.0000                 0.0000                 0.0000
 Depolar     --     0.0000                 0.0000                 0.0000
 Atom AN      X      Y      Z        X      Y      Z        X      Y      Z
   1   6    -0.00   0.09  -0.15     0.06   0.02   0.12    -0.01  -0.07  -0.02
   2   6    -0.03   0.10  -0.04     0.02   0.04   0.08    -0.00  -0.08  -0.01
   3   7    -0.02   0.12  -0.00     0.03   0.04   0.11    -0.02  -0.09  -0.09
   4   6     0.05   0.05   0.01     0.04   0.03   0.06    -0.04  -0.06  -0.03
   5   6     0.04  -0.02   0.04     0.21  -0.17  -0.27     0.00  -0.12  -0.10
   6   6     0.14  -0.10   0.01     0.26  -0.22  -0.34    -0.06  -0.04   0.04
   7   6     0.25  -0.11  -0.05     0.12  -0.06  -0.09    -0.16   0.09   0.26
   8   6     0.26  -0.03  -0.08    -0.07   0.15   0.24    -0.19   0.14   0.29
   9   6     0.16   0.05  -0.05    -0.10   0.19   0.31    -0.12   0.05   0.14
  10   6    -0.07   0.05  -0.01    -0.03   0.02   0.02     0.04  -0.06   0.01
  11   6    -0.18  -0.18   0.24     0.00  -0.00  -0.10    -0.03  -0.15   0.19
  12   6    -0.25  -0.25   0.30    -0.06  -0.02  -0.15     0.03  -0.07   0.09
  13   6    -0.22  -0.10   0.12    -0.16  -0.02  -0.09     0.17   0.13  -0.20
  14   6    -0.11   0.14  -0.13    -0.20   0.00   0.03     0.24   0.21  -0.35
  15   6    -0.03   0.21  -0.19    -0.13   0.03   0.08     0.16   0.11  -0.23
  16   1     0.02   0.03   0.03     0.02   0.01   0.04    -0.00  -0.03   0.03
  17   1    -0.08   0.04  -0.09     0.02   0.01   0.04    -0.04  -0.01  -0.02
  18   1     0.07   0.01  -0.11     0.01  -0.01   0.04     0.03  -0.03  -0.03
  19   1    -0.01  -0.00   0.02     0.09  -0.09  -0.14     0.02  -0.06  -0.07
  20   1     0.04  -0.05   0.01     0.12  -0.11  -0.18    -0.01  -0.02  -0.00
  21   1     0.09  -0.05  -0.02     0.04  -0.03  -0.04    -0.06   0.05   0.11
  22   1     0.10  -0.01  -0.04    -0.05   0.08   0.13    -0.07   0.07   0.13
  23   1     0.05   0.03  -0.02    -0.07   0.10   0.16    -0.04   0.03   0.05
  24   1    -0.06  -0.09   0.11     0.02  -0.00  -0.04    -0.04  -0.09   0.12
  25   1    -0.10  -0.13   0.14    -0.01  -0.01  -0.07    -0.01  -0.04   0.07
  26   1    -0.08  -0.05   0.05    -0.06  -0.01  -0.04     0.07   0.06  -0.09
  27   1    -0.02   0.08  -0.08    -0.08   0.00   0.02     0.10   0.10  -0.16
  28   1     0.01   0.11  -0.10    -0.04   0.01   0.04     0.06   0.05  -0.10
                      4                      5                      6
                        a                      a                      a 
 Frequencies --    90.4785               120.3686               135.1555
 Red. masses --     6.3354                 8.2319                 7.7277
 Frc consts  --     0.0000                 0.0000                 0.0000
 IR Inten    --     1.6164                 0.9013                 0.9553
 Raman Activ --     0.0000                 0.0000                 0.0000
 Depolar     --     0.0000                 0.0000                 0.0000
 Atom AN      X      Y      Z        X      Y      Z        X      Y      Z
   1   6    -0.12   0.07  -0.38    -0.11   0.15   0.31     0.09  -0.12   0.13
   2   6     0.01  -0.01   0.03     0.06   0.08  -0.03    -0.02  -0.05   0.10
   3   7     0.09  -0.06   0.26     0.06  -0.14  -0.10    -0.14   0.13  -0.24
   4   6     0.05  -0.04   0.21     0.08  -0.14  -0.18    -0.13   0.13  -0.16
   5   6     0.10   0.08   0.09     0.06  -0.13  -0.14    -0.17   0.00  -0.06
   6   6     0.03   0.10  -0.11    -0.05  -0.01   0.06    -0.05  -0.08   0.04
   7   6    -0.10   0.00  -0.16    -0.12   0.08   0.19     0.13  -0.03   0.03
   8   6    -0.16  -0.10  -0.03    -0.05   0.00   0.06     0.16   0.11  -0.05
   9   6    -0.08  -0.12   0.16     0.05  -0.12  -0.14     0.02   0.20  -0.14
  10   6     0.03  -0.00   0.02     0.13   0.19  -0.17    -0.02  -0.12   0.23
  11   6     0.03   0.01   0.01     0.12   0.11  -0.16     0.02  -0.11   0.11
  12   6     0.05   0.03  -0.02    -0.02  -0.06   0.01     0.07   0.02  -0.11
  13   6     0.05   0.03  -0.02    -0.14  -0.15   0.19     0.06   0.08  -0.16
  14   6     0.03  -0.00   0.02    -0.08  -0.02   0.09    -0.02  -0.02   0.06
  15   6     0.02  -0.02   0.05     0.06   0.16  -0.10    -0.05  -0.12   0.24
  16   1    -0.01  -0.02   0.19    -0.04  -0.02   0.36     0.08  -0.05   0.34
  17   1    -0.38   0.10  -0.29    -0.23   0.22   0.01    -0.24   0.08  -0.09
  18   1     0.26  -0.00  -0.37     0.14  -0.06  -0.05     0.27  -0.16  -0.17
  19   1     0.06   0.05   0.04     0.03  -0.05  -0.06    -0.09  -0.02  -0.02
  20   1     0.02   0.05  -0.06    -0.02   0.01   0.03    -0.02  -0.06   0.04
  21   1    -0.04   0.00  -0.09    -0.07   0.06   0.11     0.07  -0.03   0.02
  22   1    -0.08  -0.05  -0.02    -0.02   0.01   0.04     0.08   0.05  -0.01
  23   1    -0.04  -0.06   0.07     0.03  -0.05  -0.06     0.01   0.10  -0.06
  24   1     0.01  -0.00   0.01     0.06   0.04  -0.07     0.01  -0.05   0.05
  25   1     0.02   0.01  -0.01    -0.01  -0.04   0.01     0.03   0.02  -0.07
  26   1     0.02   0.01  -0.01    -0.08  -0.09   0.11     0.03   0.06  -0.10
  27   1     0.01  -0.00   0.01    -0.05  -0.02   0.05    -0.02   0.00   0.01
  28   1     0.00  -0.01   0.02     0.03   0.07  -0.04    -0.03  -0.05   0.10
                      7                      8                      9
                        a                      a                      a 
 Frequencies --   189.7567               235.6621               282.3431
 Red. masses --     9.6107                10.1509                 9.1337
 Frc consts  --     0.0000                 0.0000                 0.0000
 IR Inten    --     0.3070                 0.4969                 0.7097
 Raman Activ --     0.0000                 0.0000                 0.0000
 Depolar     --     0.0000                 0.0000                 0.0000
 Atom AN      X      Y      Z        X      Y      Z        X      Y      Z
   1   6     0.12  -0.15   0.24    -0.21   0.12   0.02     0.50  -0.23  -0.19
   2   6    -0.08  -0.04  -0.12     0.06  -0.02   0.00     0.02   0.00   0.07
   3   7    -0.01   0.06   0.13    -0.01  -0.06  -0.21    -0.02   0.02  -0.01
   4   6    -0.10   0.13   0.13    -0.15   0.09   0.06    -0.08  -0.01  -0.03
   5   6    -0.09   0.11   0.14    -0.25   0.10   0.22    -0.12  -0.12   0.03
   6   6     0.02  -0.00  -0.01    -0.09  -0.06   0.04    -0.10  -0.15   0.05
   7   6     0.11  -0.06  -0.12     0.09  -0.19  -0.20    -0.10  -0.17   0.03
   8   6     0.03   0.05   0.03    -0.04   0.03   0.03    -0.10  -0.08   0.00
   9   6    -0.08   0.16   0.16    -0.20   0.18   0.20    -0.14  -0.04  -0.02
  10   6    -0.15  -0.02  -0.33     0.26   0.06   0.05     0.06   0.09   0.05
  11   6    -0.17   0.10  -0.18     0.30  -0.06  -0.09     0.11   0.19  -0.07
  12   6    -0.03   0.09   0.09     0.12  -0.20  -0.08     0.02   0.12  -0.01
  13   6     0.14  -0.07   0.15    -0.03  -0.19   0.01    -0.13   0.03   0.19
  14   6     0.20  -0.16  -0.09     0.02   0.05  -0.04    -0.06   0.16   0.03
  15   6     0.04  -0.15  -0.32     0.20   0.16  -0.01     0.03   0.25  -0.06
  16   1     0.08  -0.04   0.23    -0.12  -0.01  -0.04     0.27   0.05  -0.06
  17   1    -0.04   0.06   0.05    -0.03   0.06   0.03     0.12  -0.20  -0.10
  18   1     0.10  -0.17   0.01    -0.10   0.09   0.03     0.20  -0.12  -0.10
  19   1    -0.04   0.04   0.06    -0.11   0.04   0.09    -0.06  -0.05   0.00
  20   1     0.01  -0.02  -0.02    -0.02  -0.03   0.01    -0.03  -0.04   0.01
  21   1     0.06  -0.05  -0.08     0.08  -0.12  -0.14    -0.02  -0.06   0.01
  22   1     0.02   0.01   0.00     0.00   0.01   0.01    -0.01  -0.01   0.00
  23   1    -0.03   0.07   0.06    -0.07   0.09   0.09    -0.04  -0.01   0.00
  24   1    -0.08   0.06  -0.06     0.13  -0.02  -0.05     0.05   0.06  -0.04
  25   1    -0.02   0.06   0.08     0.03  -0.10  -0.03     0.01   0.02  -0.02
  26   1     0.06  -0.03   0.11    -0.05  -0.10   0.02    -0.07  -0.04   0.10
  27   1     0.10  -0.08  -0.02    -0.03   0.04  -0.02    -0.02   0.05   0.01
  28   1     0.02  -0.08  -0.13     0.06   0.08   0.01     0.02   0.11  -0.03
                     10                     11                     12
                        a                      a                      a 
 Frequencies --   346.9544               367.0968               372.9970
 Red. masses --    10.5261                 8.8998                 9.0637
 Frc consts  --     0.0000                 0.0000                 0.0000
 IR Inten    --     3.2286                 0.6744                 0.9894
 Raman Activ --     0.0000                 0.0000                 0.0000
 Depolar     --     0.0000                 0.0000                 0.0000
 Atom AN      X      Y      Z        X      Y      Z        X      Y      Z
   1   6    -0.18  -0.09  -0.05    -0.04  -0.01  -0.01     0.01   0.04   0.00
   2   6    -0.09  -0.13   0.35    -0.03  -0.01   0.04     0.01   0.03  -0.01
   3   7    -0.11   0.13   0.38    -0.02   0.02   0.06     0.03   0.02   0.04
   4   6    -0.18   0.14   0.05    -0.03   0.02   0.01    -0.01   0.02   0.01
   5   6    -0.04  -0.01  -0.20    -0.04   0.04   0.03     0.17  -0.21  -0.32
   6   6     0.02  -0.03  -0.07     0.03  -0.03  -0.06    -0.18   0.17   0.32
   7   6     0.01   0.15   0.16     0.01   0.02   0.01    -0.02  -0.02   0.01
   8   6     0.14   0.04  -0.09    -0.01   0.04   0.05     0.16  -0.20  -0.32
   9   6     0.05   0.07  -0.17     0.03  -0.02  -0.06    -0.20   0.21   0.32
  10   6    -0.05  -0.11   0.16     0.00  -0.00   0.00     0.01   0.02  -0.03
  11   6     0.10   0.04  -0.21    -0.12  -0.23   0.29    -0.02  -0.05   0.05
  12   6     0.07  -0.05  -0.09     0.15   0.21  -0.33     0.02   0.01  -0.04
  13   6    -0.00  -0.24   0.15     0.01  -0.04   0.02     0.02  -0.01  -0.02
  14   6     0.14   0.05  -0.15    -0.10  -0.23   0.29    -0.01  -0.05   0.05
  15   6     0.11   0.03  -0.09     0.16   0.24  -0.35     0.03   0.03  -0.05
  16   1    -0.08  -0.03  -0.09    -0.01   0.00  -0.02    -0.00   0.01  -0.00
  17   1    -0.08  -0.11  -0.05    -0.00  -0.02   0.00     0.01   0.01   0.00
  18   1    -0.03   0.09  -0.04    -0.02   0.01   0.00    -0.00   0.01   0.00
  19   1    -0.00  -0.03  -0.10    -0.02   0.02   0.02     0.10  -0.13  -0.20
  20   1     0.01  -0.06  -0.03     0.02  -0.03  -0.04    -0.11   0.11   0.19
  21   1    -0.01   0.07   0.11     0.00   0.01   0.01    -0.00  -0.01   0.00
  22   1     0.07   0.00  -0.05    -0.01   0.02   0.03     0.12  -0.13  -0.21
  23   1     0.04   0.04  -0.10     0.02  -0.01  -0.04    -0.11   0.12   0.19
  24   1     0.07   0.05  -0.12    -0.08  -0.15   0.19    -0.02  -0.03   0.04
  25   1     0.03   0.01  -0.04     0.09   0.14  -0.20     0.01   0.01  -0.02
  26   1    -0.03  -0.12   0.11    -0.00  -0.02   0.02     0.01   0.00  -0.01
  27   1     0.05   0.05  -0.09    -0.08  -0.14   0.19    -0.01  -0.03   0.04
  28   1     0.04   0.01  -0.05     0.09   0.15  -0.21     0.01   0.01  -0.03
                     13                     14                     15
                        a                      a                      a 
 Frequencies --   399.4738               460.7028               486.6363
 Red. masses --    10.9535                10.9641                10.0570
 Frc consts  --     0.0000                 0.0000                 0.0000
 IR Inten    --     1.1988                 3.2972                 1.0415
 Raman Activ --     0.0000                 0.0000                 0.0000
 Depolar     --     0.0000                 0.0000                 0.0000
 Atom AN      X      Y      Z        X      Y      Z        X      Y      Z
   1   6    -0.14  -0.30   0.01    -0.04  -0.04  -0.04     0.10   0.28   0.03
   2   6    -0.04  -0.27   0.04     0.24  -0.18   0.21     0.10   0.18   0.24
   3   7    -0.12  -0.20  -0.32     0.31  -0.29   0.30     0.01   0.16  -0.04
   4   6     0.12  -0.20  -0.02    -0.05  -0.07  -0.33     0.24  -0.11  -0.28
   5   6     0.13   0.10  -0.00    -0.18   0.09  -0.14     0.08  -0.08   0.05
   6   6     0.02   0.24   0.01    -0.07   0.02   0.10    -0.06   0.03   0.17
   7   6     0.17   0.16  -0.15     0.17  -0.06  -0.09     0.00  -0.22  -0.17
   8   6     0.08   0.04   0.04     0.04   0.12   0.11    -0.15   0.07   0.10
   9   6     0.15   0.00   0.20    -0.09   0.12  -0.12    -0.03  -0.03  -0.05
  10   6    -0.06  -0.20   0.18     0.07  -0.01  -0.20    -0.25  -0.13   0.20
  11   6     0.01   0.13   0.01    -0.02   0.05   0.04    -0.18  -0.08  -0.08
  12   6     0.02   0.18  -0.04    -0.02   0.05   0.13    -0.01   0.06  -0.14
  13   6    -0.17   0.05   0.22    -0.05   0.21  -0.01     0.05  -0.21   0.11
  14   6    -0.07   0.12  -0.08    -0.11  -0.03   0.04     0.14   0.01  -0.11
  15   6    -0.07   0.09  -0.08    -0.13  -0.02  -0.06    -0.02  -0.09  -0.03
  16   1    -0.06  -0.10   0.02    -0.09  -0.07  -0.08     0.00   0.07  -0.03
  17   1    -0.06  -0.07  -0.00    -0.06  -0.06  -0.05    -0.01   0.03  -0.02
  18   1    -0.03  -0.08  -0.01     0.01   0.16  -0.04     0.05   0.17  -0.02
  19   1     0.09   0.07   0.03    -0.11   0.03  -0.00    -0.04   0.02   0.09
  20   1    -0.02   0.09   0.05    -0.06  -0.01   0.10    -0.06   0.09   0.12
  21   1     0.05   0.04  -0.07     0.07  -0.04  -0.04     0.01  -0.07  -0.06
  22   1    -0.03  -0.01   0.02     0.01   0.08   0.09    -0.08   0.08   0.12
  23   1     0.02   0.03   0.09    -0.04   0.12  -0.02    -0.06   0.01   0.09
  24   1    -0.00   0.08  -0.03    -0.06   0.02   0.04    -0.03   0.02  -0.07
  25   1     0.03   0.07  -0.07    -0.02  -0.02   0.06     0.02   0.11  -0.08
  26   1    -0.07  -0.02   0.11    -0.00   0.07  -0.02     0.02  -0.07   0.06
  27   1     0.02   0.05  -0.06    -0.01  -0.05   0.05     0.07   0.05  -0.10
  28   1    -0.00   0.08  -0.05    -0.05  -0.01   0.02     0.02  -0.03  -0.09
                     16                     17                     18
                        a                      a                      a 
 Frequencies --   518.7861               574.7453               588.0786
 Red. masses --    10.4278                10.6258                11.1872
 Frc consts  --     0.0000                 0.0000                 0.0000
 IR Inten    --     1.4718                 1.2216                 0.7592
 Raman Activ --     0.0000                 0.0000                 0.0000
 Depolar     --     0.0000                 0.0000                 0.0000
 Atom AN      X      Y      Z        X      Y      Z        X      Y      Z
   1   6    -0.02   0.09   0.04     0.04   0.03   0.03    -0.02  -0.04   0.01
   2   6     0.33  -0.13  -0.04     0.12  -0.05   0.44     0.04  -0.06   0.02
   3   7     0.29   0.07  -0.20    -0.10  -0.02  -0.26     0.05   0.08   0.09
   4   6     0.00   0.28   0.15     0.05  -0.04   0.12     0.11   0.01   0.05
   5   6     0.03  -0.01   0.12     0.00  -0.16   0.17     0.04  -0.27   0.15
   6   6     0.12  -0.15  -0.03    -0.18  -0.08  -0.14    -0.27  -0.10  -0.05
   7   6    -0.20  -0.09   0.18    -0.10   0.10  -0.00    -0.10  -0.02  -0.09
   8   6    -0.04  -0.08  -0.15     0.02   0.14  -0.17    -0.05   0.30  -0.17
   9   6    -0.14   0.05  -0.05     0.21   0.06   0.15     0.24   0.10   0.02
  10   6    -0.02  -0.29   0.04    -0.07   0.07  -0.17     0.13  -0.00   0.05
  11   6    -0.01   0.01   0.08    -0.08  -0.10  -0.24     0.09   0.26   0.20
  12   6     0.09   0.15   0.01     0.11  -0.13   0.13    -0.30   0.12  -0.01
  13   6    -0.14   0.12   0.19     0.15   0.09  -0.08    -0.13   0.01  -0.08
  14   6    -0.07   0.04  -0.12     0.02   0.05   0.22    -0.09  -0.28  -0.22
  15   6    -0.19  -0.08  -0.10    -0.17   0.09  -0.14     0.28  -0.11   0.00
  16   1    -0.13  -0.10   0.02    -0.01   0.00  -0.07    -0.03  -0.04  -0.00
  17   1    -0.03   0.14   0.02    -0.05  -0.10  -0.05    -0.02  -0.00  -0.00
  18   1    -0.02   0.12   0.02     0.06   0.16  -0.04    -0.01   0.02  -0.00
  19   1    -0.01  -0.08  -0.05     0.06  -0.04   0.03     0.02  -0.06   0.06
  20   1     0.09  -0.06  -0.11    -0.03  -0.01  -0.09    -0.07   0.03  -0.03
  21   1    -0.06  -0.03   0.04     0.02  -0.00   0.04     0.04  -0.05   0.04
  22   1     0.07  -0.05  -0.11    -0.02  -0.00  -0.09    -0.04   0.08  -0.04
  23   1    -0.01  -0.07  -0.06     0.06  -0.03   0.03     0.05  -0.01   0.04
  24   1    -0.05   0.07  -0.01    -0.08  -0.04  -0.02     0.05   0.05   0.06
  25   1     0.05   0.06  -0.07    -0.00  -0.05   0.13    -0.08  -0.02  -0.03
  26   1    -0.04   0.03   0.06    -0.00   0.00  -0.04     0.05   0.04   0.04
  27   1     0.06   0.01  -0.08     0.01  -0.05   0.13    -0.06  -0.07  -0.05
  28   1    -0.04   0.03  -0.04    -0.06  -0.05  -0.02     0.07   0.01   0.04
                     19                     20                     21
                        a                      a                      a 
 Frequencies --   595.3574               611.9352               664.1277
 Red. masses --    11.0017                11.0902                 9.3936
 Frc consts  --     0.0000                 0.0000                 0.0000
 IR Inten    --     1.5311                 8.6501                 0.2103
 Raman Activ --     0.0000                 0.0000                 0.0000
 Depolar     --     0.0000                 0.0000                 0.0000
 Atom AN      X      Y      Z        X      Y      Z        X      Y      Z
   1   6     0.10   0.12   0.03     0.16   0.25  -0.01     0.06   0.08   0.01
   2   6     0.10   0.02   0.36     0.04   0.16  -0.10     0.06   0.00   0.08
   3   7    -0.08  -0.11  -0.29     0.13  -0.39   0.07    -0.01  -0.06  -0.13
   4   6    -0.08  -0.02  -0.01    -0.14  -0.19   0.02    -0.24   0.17   0.38
   5   6    -0.05   0.23  -0.04    -0.25   0.01   0.04     0.05  -0.10  -0.23
   6   6     0.23   0.05  -0.04    -0.22  -0.08  -0.24    -0.18   0.17   0.22
   7   6     0.04   0.08   0.13     0.04   0.26   0.07     0.16  -0.07  -0.21
   8   6     0.07  -0.28   0.07     0.16   0.02  -0.09    -0.11   0.11   0.30
   9   6    -0.18  -0.07   0.08     0.11   0.06   0.20     0.13  -0.18  -0.15
  10   6    -0.00   0.10   0.02    -0.05   0.03   0.02     0.04   0.06  -0.11
  11   6    -0.07   0.21   0.04    -0.12  -0.11   0.11    -0.03  -0.03   0.06
  12   6    -0.34   0.07  -0.01     0.02   0.10  -0.16     0.02   0.06  -0.07
  13   6     0.00  -0.05  -0.13    -0.04  -0.15   0.15    -0.03  -0.03   0.06
  14   6    -0.01  -0.26  -0.11     0.09   0.10  -0.12     0.02   0.03  -0.10
  15   6     0.24  -0.07  -0.04    -0.05  -0.10   0.14    -0.03  -0.06   0.04
  16   1     0.03   0.04  -0.06     0.08   0.11   0.00     0.01   0.02  -0.01
  17   1    -0.03  -0.07  -0.05     0.06   0.06   0.00     0.00   0.00  -0.01
  18   1     0.08   0.15  -0.04     0.05   0.03  -0.00     0.03   0.05  -0.01
  19   1     0.00   0.04  -0.05    -0.01   0.01  -0.01     0.11  -0.12  -0.22
  20   1     0.08  -0.05  -0.04    -0.05  -0.11  -0.09     0.00  -0.04  -0.04
  21   1    -0.04   0.05  -0.02     0.06   0.04   0.04     0.11  -0.10  -0.19
  22   1     0.05  -0.10  -0.02     0.02  -0.06  -0.09     0.01  -0.05  -0.03
  23   1    -0.03  -0.00  -0.02     0.06   0.04  -0.01     0.13  -0.14  -0.20
  24   1     0.00   0.02   0.04    -0.01  -0.01  -0.00    -0.03  -0.04   0.06
  25   1    -0.11  -0.00   0.03     0.03   0.09  -0.10    -0.01  -0.00   0.01
  26   1     0.08   0.01   0.03    -0.01  -0.04   0.04    -0.02  -0.04   0.06
  27   1    -0.05  -0.07   0.00     0.05   0.08  -0.10     0.00  -0.02   0.00
  28   1     0.06  -0.04   0.01     0.00  -0.02  -0.00    -0.03  -0.05   0.06
                     22                     23                     24
                        a                      a                      a 
 Frequencies --   675.0732               723.3216               758.0283
 Red. masses --     8.5445                 9.5529                 5.0970
 Frc consts  --     0.0000                 0.0000                 0.0000
 IR Inten    --     7.1707                18.5712                11.7486
 Raman Activ --     0.0000                 0.0000                 0.0000
 Depolar     --     0.0000                 0.0000                 0.0000
 Atom AN      X      Y      Z        X      Y      Z        X      Y      Z
   1   6     0.08   0.15  -0.01    -0.10  -0.24  -0.02     0.02   0.08  -0.02
   2   6     0.02   0.07  -0.12     0.07  -0.09  -0.06    -0.02   0.04  -0.13
   3   7     0.07  -0.10   0.04     0.19  -0.21  -0.01     0.06  -0.03   0.09
   4   6    -0.10  -0.01   0.09     0.09   0.06  -0.06     0.07  -0.08  -0.13
   5   6    -0.07  -0.02  -0.07     0.06   0.03   0.10    -0.05   0.03   0.05
   6   6    -0.12   0.03   0.01     0.09   0.01   0.12    -0.04   0.01   0.02
   7   6     0.07   0.05  -0.05    -0.11  -0.09   0.06    -0.02   0.04   0.05
   8   6     0.01   0.01   0.09    -0.07   0.18  -0.07    -0.01   0.03   0.03
   9   6     0.05  -0.05   0.00    -0.05   0.13  -0.04    -0.03   0.04   0.05
  10   6    -0.14  -0.27   0.34    -0.11   0.18   0.06    -0.13  -0.23   0.31
  11   6     0.06   0.11  -0.17    -0.24   0.02  -0.06     0.05   0.10  -0.16
  12   6    -0.09  -0.17   0.25    -0.30   0.01  -0.09     0.02   0.04  -0.06
  13   6     0.06   0.13  -0.14     0.15  -0.24  -0.08     0.07   0.10  -0.15
  14   6    -0.11  -0.19   0.23     0.14   0.18   0.23     0.03   0.05  -0.05
  15   6     0.05   0.11  -0.20     0.09   0.15   0.18     0.05   0.10  -0.13
  16   1     0.02   0.03   0.03    -0.06  -0.10  -0.00     0.00   0.01   0.03
  17   1     0.03   0.09   0.01    -0.03  -0.04  -0.00     0.04   0.08   0.02
  18   1     0.01   0.00   0.01    -0.04  -0.06   0.00    -0.02  -0.04   0.02
  19   1     0.02  -0.03  -0.07     0.06  -0.10  -0.12     0.04  -0.05  -0.09
  20   1    -0.02  -0.05  -0.02     0.11  -0.03  -0.12     0.05  -0.07  -0.10
  21   1     0.05  -0.02  -0.05     0.07  -0.13  -0.13     0.08  -0.09  -0.13
  22   1     0.00  -0.04  -0.02     0.10  -0.01  -0.14     0.06  -0.06  -0.10
  23   1     0.04  -0.03  -0.06     0.05  -0.07  -0.13     0.05  -0.05  -0.09
  24   1     0.10   0.17  -0.24     0.01   0.00  -0.06    -0.09  -0.15   0.20
  25   1     0.04   0.06  -0.08    -0.07   0.13  -0.02    -0.12  -0.19   0.27
  26   1     0.09   0.16  -0.21     0.07  -0.02  -0.09    -0.13  -0.23   0.31
  27   1     0.04   0.05  -0.08    -0.02   0.15   0.00    -0.11  -0.19   0.26
  28   1     0.09   0.17  -0.23     0.06   0.04  -0.05    -0.08  -0.14   0.18
                     25                     26                     27
                        a                      a                      a 
 Frequencies --   765.8313               834.5383               866.7637
 Red. masses --     6.6266                10.5348                 3.3168
 Frc consts  --     0.0000                 0.0000                 0.0000
 IR Inten    --    31.7851                27.0346                 1.9362
 Raman Activ --     0.0000                 0.0000                 0.0000
 Depolar     --     0.0000                 0.0000                 0.0000
 Atom AN      X      Y      Z        X      Y      Z        X      Y      Z
   1   6    -0.03   0.01   0.03     0.02  -0.15  -0.03    -0.00   0.00   0.00
   2   6    -0.15   0.07   0.10     0.18  -0.11  -0.06    -0.00   0.00   0.01
   3   7    -0.17   0.11   0.09     0.10   0.49   0.01     0.00  -0.01  -0.01
   4   6     0.17  -0.17  -0.28     0.10  -0.03  -0.13    -0.01  -0.01   0.01
   5   6    -0.01   0.07   0.14    -0.12  -0.08  -0.03     0.11  -0.11  -0.20
   6   6     0.03   0.06   0.09    -0.33  -0.02  -0.15     0.10  -0.09  -0.13
   7   6    -0.09   0.05   0.12     0.12   0.24   0.02     0.01  -0.03  -0.02
   8   6    -0.06   0.06   0.05     0.07  -0.29   0.25    -0.08   0.10   0.12
   9   6    -0.07   0.09   0.11    -0.03  -0.13   0.12    -0.12   0.15   0.20
  10   6     0.09   0.03  -0.14     0.04   0.03  -0.07    -0.00  -0.00   0.01
  11   6     0.11  -0.06   0.09    -0.04   0.02   0.02     0.00   0.01  -0.01
  12   6     0.18  -0.04   0.08    -0.12   0.02  -0.04     0.00   0.00  -0.00
  13   6    -0.11   0.09   0.10     0.04  -0.09  -0.01     0.00  -0.00  -0.00
  14   6    -0.09  -0.13  -0.10     0.05   0.09   0.09    -0.00  -0.01   0.00
  15   6    -0.05  -0.11  -0.03     0.00   0.04   0.05    -0.01  -0.00   0.00
  16   1     0.06   0.07  -0.02    -0.17  -0.21   0.01     0.00   0.01  -0.00
  17   1    -0.02  -0.09  -0.02    -0.02   0.11   0.01    -0.00  -0.00  -0.00
  18   1     0.02  -0.01  -0.02    -0.04   0.08   0.02     0.00  -0.00  -0.00
  19   1     0.10  -0.10  -0.16    -0.03   0.01   0.03    -0.19   0.24   0.38
  20   1     0.14  -0.11  -0.21    -0.08  -0.11  -0.05    -0.15   0.18   0.29
  21   1     0.15  -0.19  -0.31     0.09  -0.01  -0.13    -0.02   0.02   0.04
  22   1     0.13  -0.13  -0.22    -0.04  -0.16   0.00     0.16  -0.16  -0.27
  23   1     0.10  -0.12  -0.18     0.02  -0.05  -0.01     0.23  -0.26  -0.41
  24   1     0.05   0.05  -0.05    -0.01   0.00   0.00    -0.01  -0.01   0.01
  25   1     0.09  -0.00  -0.10    -0.03   0.04  -0.01    -0.00  -0.01   0.01
  26   1     0.02   0.10  -0.09     0.03   0.00  -0.04     0.00  -0.00   0.00
  27   1     0.06  -0.00  -0.12    -0.01   0.06   0.01     0.00   0.01  -0.01
  28   1     0.01   0.03  -0.05     0.01   0.02   0.00     0.00   0.01  -0.01
                     28                     29                     30
                        a                      a                      a 
 Frequencies --   873.1477               881.8998               901.9055
 Red. masses --     3.3242                 3.9056                 3.6298
 Frc consts  --     0.0000                 0.0000                 0.0000
 IR Inten    --     1.4557                 2.3296                 0.2672
 Raman Activ --     0.0000                 0.0000                 0.0000
 Depolar     --     0.0000                 0.0000                 0.0000
 Atom AN      X      Y      Z        X      Y      Z        X      Y      Z
   1   6     0.00  -0.01  -0.00     0.01   0.03   0.00     0.00   0.03  -0.01
   2   6    -0.00   0.00   0.00     0.00  -0.01   0.00    -0.00  -0.00  -0.01
   3   7     0.01   0.01  -0.00    -0.00  -0.07  -0.02     0.01  -0.02   0.00
   4   6     0.01  -0.00  -0.01    -0.06   0.04   0.09    -0.00  -0.00  -0.00
   5   6    -0.00   0.00   0.00     0.11  -0.11  -0.21    -0.00   0.00  -0.01
   6   6     0.00  -0.00  -0.01     0.03   0.00   0.02     0.01  -0.00   0.00
   7   6     0.00  -0.01  -0.01    -0.16   0.13   0.27    -0.01  -0.00   0.01
   8   6    -0.00  -0.00   0.00    -0.03   0.05   0.01    -0.00   0.01  -0.01
   9   6    -0.00   0.01   0.01     0.11  -0.10  -0.18     0.01  -0.00  -0.01
  10   6     0.00  -0.01  -0.01     0.00  -0.00  -0.00    -0.02  -0.05   0.06
  11   6    -0.10  -0.15   0.21    -0.01  -0.01   0.01     0.08   0.14  -0.19
  12   6    -0.08  -0.10   0.14    -0.01  -0.00   0.00    -0.04  -0.06   0.08
  13   6     0.01   0.02  -0.03     0.01   0.01  -0.01    -0.10  -0.17   0.23
  14   6     0.08   0.13  -0.15     0.00   0.01  -0.01     0.00   0.01  -0.00
  15   6     0.07   0.13  -0.16    -0.00  -0.00   0.00     0.07   0.14  -0.19
  16   1     0.00  -0.00   0.00     0.01   0.02   0.00     0.00   0.01   0.00
  17   1    -0.01  -0.00  -0.00     0.01   0.00   0.00     0.02   0.02   0.01
  18   1    -0.00   0.00   0.00     0.00  -0.00  -0.00    -0.00  -0.01   0.00
  19   1     0.00  -0.00  -0.00    -0.20   0.24   0.37    -0.01   0.01   0.01
  20   1    -0.01   0.01   0.01     0.04  -0.03  -0.05    -0.00   0.00   0.01
  21   1    -0.01   0.01   0.01     0.22  -0.26  -0.41     0.01  -0.01  -0.02
  22   1     0.00  -0.00  -0.00     0.07  -0.06  -0.12     0.00   0.01  -0.00
  23   1     0.01  -0.02  -0.02    -0.18   0.21   0.33    -0.00   0.01   0.01
  24   1     0.18   0.29  -0.41     0.01   0.02  -0.02    -0.16  -0.25   0.35
  25   1     0.11   0.20  -0.28    -0.00   0.00  -0.00     0.08   0.14  -0.20
  26   1    -0.02  -0.03   0.04    -0.01  -0.01   0.02     0.16   0.27  -0.37
  27   1    -0.15  -0.24   0.34    -0.01  -0.01   0.02     0.02   0.03  -0.04
  28   1    -0.14  -0.24   0.32     0.00   0.00  -0.01    -0.16  -0.28   0.37
                     31                     32                     33
                        a                      a                      a 
 Frequencies --   921.4713               924.8532               927.1344
 Red. masses --     3.9615                 2.8662                 4.1500
 Frc consts  --     0.0000                 0.0000                 0.0000
 IR Inten    --     0.1576                 0.0336                 0.7868
 Raman Activ --     0.0000                 0.0000                 0.0000
 Depolar     --     0.0000                 0.0000                 0.0000
 Atom AN      X      Y      Z        X      Y      Z        X      Y      Z
   1   6     0.00   0.01  -0.00    -0.00   0.00  -0.00     0.01   0.00  -0.00
   2   6    -0.00  -0.00   0.00    -0.00   0.00   0.00    -0.00  -0.00  -0.00
   3   7     0.00  -0.01  -0.01     0.00  -0.00  -0.00     0.00  -0.00   0.00
   4   6    -0.02  -0.01   0.02    -0.03   0.04   0.06     0.00  -0.01  -0.01
   5   6     0.09  -0.08  -0.17    -0.04   0.05   0.07     0.00  -0.00  -0.02
   6   6    -0.08   0.11   0.20     0.12  -0.13  -0.21    -0.01   0.01   0.03
   7   6    -0.04   0.01   0.05    -0.10   0.11   0.17     0.00  -0.02  -0.01
   8   6     0.14  -0.14  -0.27     0.06  -0.07  -0.11    -0.00   0.01   0.00
   9   6    -0.08   0.11   0.17    -0.00   0.00   0.01     0.01   0.00   0.01
  10   6    -0.00  -0.00   0.00     0.00  -0.00  -0.00     0.00  -0.02   0.01
  11   6     0.00   0.01  -0.00    -0.01  -0.01   0.02    -0.07  -0.12   0.17
  12   6    -0.01  -0.00   0.01     0.01   0.02  -0.02     0.09   0.17  -0.24
  13   6     0.00  -0.00  -0.01     0.00   0.00  -0.00    -0.02  -0.05   0.06
  14   6     0.00   0.00  -0.00    -0.01  -0.02   0.02    -0.08  -0.13   0.20
  15   6    -0.01  -0.00   0.00     0.01   0.01  -0.02     0.08   0.15  -0.20
  16   1     0.00   0.00   0.00     0.00   0.00   0.00     0.00  -0.00   0.00
  17   1     0.00   0.00   0.00     0.00  -0.00   0.00    -0.00   0.01  -0.00
  18   1     0.00  -0.00   0.00    -0.00  -0.00   0.00    -0.00  -0.00   0.00
  19   1    -0.12   0.15   0.23     0.11  -0.14  -0.23    -0.02   0.02   0.03
  20   1     0.17  -0.18  -0.29    -0.25   0.29   0.45     0.03  -0.03  -0.05
  21   1     0.05  -0.06  -0.09     0.20  -0.23  -0.37    -0.02   0.02   0.03
  22   1    -0.25   0.29   0.45    -0.16   0.18   0.29     0.01  -0.01  -0.02
  23   1     0.16  -0.18  -0.28     0.07  -0.08  -0.11    -0.00   0.00   0.01
  24   1    -0.00  -0.00   0.01     0.01   0.02  -0.03     0.12   0.19  -0.26
  25   1     0.00   0.01  -0.01    -0.01  -0.02   0.03    -0.17  -0.28   0.39
  26   1    -0.00  -0.01   0.01    -0.00  -0.00   0.00     0.05   0.08  -0.11
  27   1    -0.00  -0.00   0.01     0.02   0.03  -0.04     0.13   0.21  -0.29
  28   1     0.00   0.01  -0.01    -0.01  -0.02   0.03    -0.14  -0.23   0.31
                     34                     35                     36
                        a                      a                      a 
 Frequencies --   931.7057               972.5899               979.8817
 Red. masses --     3.0721                10.8822                 9.8971
 Frc consts  --     0.0000                 0.0000                 0.0000
 IR Inten    --     0.0158                 8.6920                 3.6264
 Raman Activ --     0.0000                 0.0000                 0.0000
 Depolar     --     0.0000                 0.0000                 0.0000
 Atom AN      X      Y      Z        X      Y      Z        X      Y      Z
   1   6     0.01   0.01  -0.00    -0.14  -0.09  -0.03    -0.14   0.08   0.01
   2   6    -0.00  -0.00  -0.00     0.05   0.10   0.06    -0.02   0.02   0.06
   3   7    -0.00  -0.01   0.00     0.13  -0.08  -0.05     0.02  -0.09  -0.02
   4   6    -0.01  -0.00   0.00     0.07   0.12   0.01     0.06   0.09   0.00
   5   6    -0.00   0.00   0.00     0.12  -0.19   0.16     0.19  -0.26   0.25
   6   6     0.01  -0.00  -0.00    -0.13   0.01  -0.07    -0.11   0.02  -0.07
   7   6    -0.00   0.00   0.00     0.13   0.17  -0.03     0.17   0.22  -0.04
   8   6     0.00   0.00  -0.01     0.06  -0.08   0.07     0.07  -0.07   0.07
   9   6    -0.00   0.00   0.00    -0.25   0.03  -0.16    -0.34   0.06  -0.23
  10   6    -0.02  -0.04   0.06    -0.11   0.14   0.09     0.07  -0.10  -0.03
  11   6    -0.00  -0.00  -0.00    -0.24  -0.24  -0.27     0.17   0.17   0.19
  12   6     0.06   0.10  -0.13     0.17   0.00   0.07    -0.12  -0.00  -0.05
  13   6    -0.09  -0.15   0.21    -0.16   0.24   0.11     0.13  -0.17  -0.07
  14   6     0.08   0.14  -0.20    -0.10  -0.13  -0.13     0.07   0.06   0.07
  15   6    -0.03  -0.05   0.07     0.37   0.00   0.14    -0.31  -0.01  -0.14
  16   1    -0.00  -0.00   0.00     0.04   0.04   0.02     0.15   0.20   0.01
  17   1    -0.00   0.01  -0.00     0.01  -0.07   0.01     0.02  -0.13   0.00
  18   1     0.00   0.00   0.00    -0.04  -0.15   0.00    -0.00  -0.15  -0.02
  19   1     0.00  -0.00  -0.01     0.04  -0.03   0.07     0.09  -0.04   0.09
  20   1    -0.00   0.01   0.01    -0.02   0.03  -0.03    -0.01   0.06  -0.05
  21   1     0.00  -0.00  -0.01     0.04   0.04  -0.00     0.05   0.06  -0.01
  22   1    -0.00   0.01   0.01     0.04   0.01   0.04     0.07   0.02   0.04
  23   1     0.00  -0.00  -0.01    -0.06   0.03  -0.05    -0.09   0.06  -0.08
  24   1     0.04   0.06  -0.09    -0.09  -0.05  -0.08     0.09   0.02   0.05
  25   1    -0.13  -0.22   0.31     0.04   0.04   0.06    -0.03  -0.04  -0.03
  26   1     0.18   0.30  -0.41    -0.03   0.08   0.03     0.04  -0.04  -0.02
  27   1    -0.17  -0.29   0.40    -0.06  -0.01  -0.03     0.07  -0.02   0.02
  28   1     0.09   0.16  -0.20     0.09   0.01   0.08    -0.08  -0.03  -0.06
                     37                     38                     39
                        a                      a                      a 
 Frequencies --   999.9671              1026.6801              1079.7411
 Red. masses --     5.3967                 7.0320                 6.6159
 Frc consts  --     0.0000                 0.0000                 0.0000
 IR Inten    --     9.4887                18.2508                 0.5830
 Raman Activ --     0.0000                 0.0000                 0.0000
 Depolar     --     0.0000                 0.0000                 0.0000
 Atom AN      X      Y      Z        X      Y      Z        X      Y      Z
   1   6     0.18  -0.06   0.36     0.36   0.10  -0.22    -0.01  -0.01   0.00
   2   6    -0.16   0.02  -0.36    -0.10  -0.20   0.10     0.02   0.02  -0.00
   3   7    -0.06  -0.06   0.03    -0.27  -0.08   0.06     0.01   0.02  -0.00
   4   6    -0.03   0.01   0.02    -0.10  -0.15   0.02     0.00   0.01  -0.01
   5   6     0.09  -0.11   0.10     0.12  -0.14   0.15    -0.09  -0.14   0.03
   6   6     0.02   0.02  -0.00     0.09   0.04   0.03     0.28  -0.10   0.21
   7   6     0.05   0.08  -0.02     0.08   0.10  -0.02     0.26   0.36  -0.08
   8   6     0.02  -0.01   0.01    -0.00   0.09  -0.05    -0.20   0.17  -0.22
   9   6    -0.11   0.02  -0.07    -0.20   0.05  -0.14    -0.08  -0.12   0.03
  10   6    -0.04  -0.03   0.02     0.01   0.03  -0.07    -0.00   0.01   0.01
  11   6     0.01   0.01   0.00    -0.00  -0.01   0.01    -0.00   0.01   0.00
  12   6     0.05  -0.01   0.00     0.01  -0.01   0.01     0.01   0.00   0.01
  13   6    -0.03  -0.01  -0.01    -0.02   0.01  -0.01     0.01  -0.02  -0.01
  14   6    -0.01   0.03   0.01     0.00   0.02   0.03    -0.01  -0.01  -0.01
  15   6     0.07   0.02   0.03     0.05   0.00   0.03    -0.01   0.01  -0.00
  16   1    -0.12  -0.11  -0.20    -0.19  -0.27   0.09     0.00   0.00  -0.00
  17   1    -0.24  -0.26  -0.13     0.12   0.50   0.07    -0.00  -0.01  -0.00
  18   1     0.22   0.56  -0.09    -0.08   0.11   0.10    -0.00  -0.01  -0.00
  19   1     0.04  -0.01   0.04     0.11  -0.01   0.05    -0.33  -0.20  -0.04
  20   1     0.01   0.05  -0.02     0.04   0.07  -0.02     0.03  -0.26   0.18
  21   1     0.00   0.03  -0.02     0.02   0.03  -0.01     0.06   0.12  -0.04
  22   1     0.02   0.01   0.01     0.06   0.06  -0.01    -0.32  -0.10  -0.12
  23   1    -0.03   0.04  -0.03    -0.04   0.07  -0.08    -0.08  -0.27   0.13
  24   1    -0.04   0.02   0.02    -0.02   0.02  -0.01    -0.00   0.00   0.00
  25   1     0.01  -0.02  -0.00     0.01  -0.00  -0.01     0.00   0.01   0.01
  26   1    -0.04  -0.02  -0.02    -0.02  -0.00  -0.02     0.01  -0.00   0.00
  27   1    -0.03   0.03   0.01    -0.02   0.03  -0.00    -0.01  -0.00  -0.00
  28   1     0.01  -0.01   0.02     0.02   0.00   0.00    -0.01   0.01   0.01
                     40                     41                     42
                        a                      a                      a 
 Frequencies --  1082.8766              1105.0350              1116.7807
 Red. masses --     8.2810                 7.4955                 4.1191
 Frc consts  --     0.0000                 0.0000                 0.0000
 IR Inten    --     3.9586                45.0325                 2.7714
 Raman Activ --     0.0000                 0.0000                 0.0000
 Depolar     --     0.0000                 0.0000                 0.0000
 Atom AN      X      Y      Z        X      Y      Z        X      Y      Z
   1   6    -0.01   0.10   0.03    -0.05   0.31   0.06    -0.01   0.05   0.03
   2   6    -0.02  -0.11  -0.02    -0.03  -0.41  -0.05    -0.01  -0.07  -0.02
   3   7    -0.03   0.04   0.01    -0.06   0.12   0.04    -0.02   0.06  -0.02
   4   6    -0.01  -0.02  -0.01    -0.05  -0.04  -0.05     0.10  -0.09   0.09
   5   6     0.00  -0.01   0.01     0.01  -0.05   0.04     0.01   0.21  -0.11
   6   6     0.03  -0.00   0.02     0.05   0.01   0.03    -0.13  -0.03  -0.05
   7   6     0.01   0.02  -0.01    -0.03   0.01  -0.03     0.16  -0.06   0.12
   8   6    -0.01   0.01  -0.01    -0.00  -0.02   0.02    -0.06   0.15  -0.13
   9   6     0.00  -0.00   0.01     0.05   0.02   0.02    -0.22  -0.10  -0.06
  10   6     0.07  -0.11  -0.06     0.20  -0.31  -0.17     0.02  -0.06  -0.05
  11   6     0.04  -0.16  -0.10    -0.12  -0.04  -0.08    -0.02   0.02   0.01
  12   6    -0.35  -0.04  -0.18    -0.04   0.07   0.03     0.01   0.01   0.01
  13   6    -0.25   0.35   0.15     0.01  -0.05  -0.04    -0.02  -0.01  -0.02
  14   6     0.26   0.19   0.25    -0.03   0.12   0.08     0.01   0.04   0.03
  15   6     0.16  -0.12  -0.01     0.19   0.01   0.10     0.06  -0.02   0.01
  16   1     0.05   0.08  -0.02     0.20   0.28  -0.00     0.04   0.05  -0.01
  17   1     0.00  -0.03  -0.00     0.03  -0.06   0.01    -0.01  -0.03  -0.00
  18   1     0.02   0.00  -0.01     0.05  -0.04  -0.03     0.02   0.01  -0.01
  19   1    -0.01  -0.01  -0.00    -0.03  -0.04  -0.00     0.36   0.24   0.03
  20   1     0.01  -0.01   0.01     0.03   0.05  -0.02    -0.10  -0.27   0.12
  21   1    -0.00   0.01  -0.01    -0.06   0.03  -0.06     0.29  -0.16   0.26
  22   1    -0.02  -0.01  -0.01    -0.04  -0.03  -0.01     0.17   0.15  -0.00
  23   1     0.00  -0.00  -0.00     0.03   0.07  -0.04    -0.14  -0.37   0.16
  24   1     0.18  -0.16  -0.03    -0.27   0.14  -0.02    -0.08   0.05   0.00
  25   1    -0.09  -0.22  -0.20    -0.03   0.16   0.10     0.00  -0.00  -0.00
  26   1    -0.08   0.10   0.04    -0.05  -0.03  -0.05    -0.05  -0.02  -0.04
  27   1     0.29  -0.07   0.07    -0.22   0.17   0.03    -0.05   0.05   0.01
  28   1     0.07  -0.20  -0.13     0.05   0.16   0.12     0.02  -0.02  -0.01
                     43                     44                     45
                        a                      a                      a 
 Frequencies --  1126.3650              1180.0259              1180.9159
 Red. masses --     4.4493                 1.4015                 1.2817
 Frc consts  --     0.0000                 0.0000                 0.0000
 IR Inten    --     5.5920                 0.1318                 0.0674
 Raman Activ --     0.0000                 0.0000                 0.0000
 Depolar     --     0.0000                 0.0000                 0.0000
 Atom AN      X      Y      Z        X      Y      Z        X      Y      Z
   1   6     0.03   0.04   0.04    -0.01  -0.01   0.00     0.00   0.00   0.00
   2   6    -0.02  -0.06  -0.06     0.02   0.01  -0.00     0.00  -0.00  -0.00
   3   7    -0.05   0.04   0.02     0.02   0.01   0.00     0.00   0.00   0.00
   4   6    -0.03  -0.07   0.01     0.03  -0.04   0.04    -0.00  -0.01   0.00
   5   6     0.01   0.01   0.00    -0.05  -0.07   0.02    -0.00  -0.00   0.00
   6   6     0.01   0.00   0.01     0.01  -0.05   0.03     0.00   0.00   0.00
   7   6     0.02  -0.00   0.01    -0.06   0.04  -0.06     0.00   0.00   0.00
   8   6    -0.01   0.04  -0.03     0.02   0.02   0.00    -0.00   0.00  -0.00
   9   6    -0.04  -0.01  -0.02     0.05   0.08  -0.02    -0.00  -0.00  -0.00
  10   6     0.19  -0.02   0.04    -0.00   0.00   0.00     0.06   0.02   0.04
  11   6    -0.01  -0.24  -0.17    -0.00   0.00   0.00    -0.04   0.05   0.02
  12   6    -0.20   0.05  -0.05     0.00  -0.00   0.00    -0.01   0.03   0.02
  13   6     0.15   0.06   0.11    -0.00  -0.00  -0.00    -0.06  -0.03  -0.04
  14   6    -0.07  -0.10  -0.10    -0.00  -0.00  -0.00     0.03  -0.02  -0.01
  15   6    -0.19   0.13   0.02    -0.00  -0.00  -0.00     0.03  -0.05  -0.02
  16   1    -0.01   0.01  -0.03    -0.00  -0.00  -0.00    -0.01  -0.00  -0.01
  17   1    -0.02  -0.01  -0.01    -0.00  -0.01  -0.00    -0.00  -0.00  -0.00
  18   1     0.03   0.05  -0.01    -0.00  -0.01  -0.00     0.00   0.00  -0.00
  19   1     0.08   0.04   0.01     0.17   0.08   0.04     0.00   0.00   0.00
  20   1    -0.00  -0.02   0.01    -0.09  -0.42   0.22     0.00   0.00  -0.00
  21   1     0.03  -0.01   0.03    -0.49   0.29  -0.45     0.00   0.00   0.00
  22   1     0.03   0.03  -0.00     0.34   0.19   0.07     0.00   0.00   0.00
  23   1    -0.01  -0.01   0.00    -0.01  -0.08   0.05    -0.00   0.00  -0.00
  24   1     0.24  -0.23  -0.05    -0.00   0.00   0.00     0.13  -0.08   0.00
  25   1    -0.08   0.25   0.14     0.00  -0.00  -0.00    -0.03   0.39   0.26
  26   1     0.38   0.14   0.27    -0.00  -0.00  -0.00    -0.54  -0.20  -0.38
  27   1     0.16  -0.14  -0.04    -0.00   0.00  -0.00     0.41  -0.26  -0.01
  28   1    -0.09   0.36   0.24     0.00  -0.01  -0.00    -0.01   0.14   0.10
                     46                     47                     48
                        a                      a                      a 
 Frequencies --  1189.9182              1201.6870              1256.3930
 Red. masses --     1.9752                 1.8388                 9.7683
 Frc consts  --     0.0000                 0.0000                 0.0000
 IR Inten    --     4.3946                 3.1489                18.3290
 Raman Activ --     0.0000                 0.0000                 0.0000
 Depolar     --     0.0000                 0.0000                 0.0000
 Atom AN      X      Y      Z        X      Y      Z        X      Y      Z
   1   6    -0.03  -0.02   0.01    -0.01  -0.05  -0.01    -0.06  -0.19  -0.01
   2   6     0.06   0.05  -0.01     0.00   0.10   0.02     0.14   0.54   0.07
   3   7     0.05   0.06  -0.01     0.01  -0.00  -0.01     0.04   0.13  -0.02
   4   6    -0.09  -0.08   0.01    -0.01  -0.02   0.01    -0.21  -0.32   0.10
   5   6     0.08   0.02   0.04     0.00  -0.00   0.00    -0.09  -0.08   0.01
   6   6     0.05  -0.10   0.09     0.01  -0.01   0.01     0.12   0.04   0.04
   7   6    -0.01  -0.02   0.01     0.00  -0.00   0.00     0.04   0.04  -0.00
   8   6    -0.12  -0.01  -0.05    -0.01   0.00  -0.01    -0.04   0.09  -0.08
   9   6     0.01   0.09  -0.05    -0.00   0.01  -0.01    -0.06  -0.08   0.01
  10   6    -0.01   0.02   0.02     0.03  -0.03  -0.01     0.24  -0.28  -0.08
  11   6     0.00   0.01   0.00    -0.11   0.06  -0.01     0.06  -0.07  -0.04
  12   6     0.01   0.01   0.01    -0.02  -0.09  -0.07    -0.12   0.03  -0.04
  13   6    -0.00   0.00  -0.00     0.03  -0.04  -0.02    -0.03   0.03   0.01
  14   6    -0.01  -0.00  -0.01     0.10  -0.04   0.01     0.03   0.08   0.07
  15   6    -0.00  -0.01  -0.01     0.00   0.10   0.08     0.03  -0.09  -0.05
  16   1    -0.00  -0.00  -0.00    -0.00  -0.02   0.02    -0.09  -0.13   0.02
  17   1    -0.01  -0.03  -0.00     0.00  -0.00   0.00    -0.03  -0.09  -0.01
  18   1    -0.00  -0.02  -0.00    -0.01  -0.00   0.01    -0.04  -0.06   0.01
  19   1     0.42   0.21   0.08     0.03   0.02   0.01     0.02  -0.01   0.01
  20   1    -0.05  -0.32   0.17    -0.00  -0.02   0.01     0.07   0.15  -0.06
  21   1     0.03  -0.02   0.03     0.00  -0.00   0.00     0.02   0.01   0.01
  22   1    -0.45  -0.24  -0.10    -0.03  -0.01  -0.01     0.15   0.12   0.01
  23   1     0.09   0.45  -0.23     0.01   0.04  -0.02    -0.00   0.10  -0.05
  24   1     0.03  -0.01   0.00    -0.44   0.28   0.01    -0.15   0.07  -0.00
  25   1     0.00   0.02   0.02     0.03  -0.38  -0.26    -0.05   0.15   0.09
  26   1    -0.01  -0.00  -0.01     0.01  -0.01   0.00    -0.02   0.01  -0.00
  27   1    -0.03   0.02  -0.00     0.38  -0.23  -0.00    -0.11   0.10   0.02
  28   1     0.00  -0.06  -0.04    -0.03   0.39   0.28     0.01  -0.02  -0.01
                     49                     50                     51
                        a                      a                      a 
 Frequencies --  1269.5675              1280.5811              1283.6535
 Red. masses --     8.9321                 4.9318                 3.4982
 Frc consts  --     0.0000                 0.0000                 0.0000
 IR Inten    --    87.9183                32.8173                 2.0454
 Raman Activ --     0.0000                 0.0000                 0.0000
 Depolar     --     0.0000                 0.0000                 0.0000
 Atom AN      X      Y      Z        X      Y      Z        X      Y      Z
   1   6    -0.07   0.08   0.04     0.03  -0.06  -0.03    -0.00   0.00   0.00
   2   6     0.22  -0.25  -0.11    -0.08   0.16   0.06     0.03   0.09   0.04
   3   7     0.16   0.26  -0.01    -0.04  -0.14   0.03     0.02  -0.00  -0.01
   4   6    -0.39  -0.29  -0.05    -0.12   0.29  -0.23    -0.04  -0.01  -0.02
   5   6    -0.12  -0.13   0.02    -0.04  -0.06   0.01    -0.02  -0.02   0.00
   6   6     0.14  -0.05   0.11    -0.04  -0.13   0.06     0.01  -0.01   0.01
   7   6     0.06   0.04   0.01     0.05  -0.05   0.06     0.01   0.00   0.00
   8   6     0.03   0.12  -0.06     0.16  -0.00   0.09     0.01   0.01  -0.00
   9   6    -0.02  -0.08   0.03     0.08   0.12  -0.03    -0.00  -0.01   0.00
  10   6    -0.15   0.25   0.12     0.09  -0.12  -0.04    -0.22  -0.14  -0.18
  11   6    -0.08   0.07   0.02     0.06  -0.05  -0.01    -0.11   0.10   0.02
  12   6     0.10  -0.03   0.02    -0.05   0.01  -0.02     0.02   0.10   0.08
  13   6     0.03  -0.03  -0.01    -0.03   0.01  -0.01     0.12   0.05   0.09
  14   6    -0.05  -0.06  -0.07     0.02   0.03   0.03     0.13  -0.03   0.04
  15   6    -0.04   0.06   0.02     0.01  -0.01  -0.00     0.06  -0.14  -0.08
  16   1     0.05   0.09  -0.02    -0.03  -0.05   0.02    -0.04  -0.03  -0.01
  17   1     0.01  -0.09  -0.00     0.00   0.04   0.00    -0.01  -0.03  -0.01
  18   1     0.03  -0.06  -0.03    -0.02   0.02   0.02    -0.00  -0.03   0.00
  19   1     0.24   0.09   0.05     0.33   0.17   0.07     0.05   0.02   0.01
  20   1     0.11   0.31  -0.13     0.05   0.22  -0.11     0.01   0.04  -0.02
  21   1    -0.05   0.05  -0.06    -0.15   0.08  -0.13    -0.01   0.01  -0.01
  22   1     0.04   0.05  -0.01    -0.31  -0.20  -0.05    -0.01  -0.01  -0.00
  23   1    -0.03  -0.10   0.05    -0.07  -0.41   0.22    -0.01  -0.03   0.01
  24   1     0.07  -0.03   0.00    -0.08   0.04   0.00     0.40  -0.25   0.00
  25   1     0.04  -0.11  -0.07    -0.02   0.09   0.05     0.03  -0.27  -0.18
  26   1     0.00  -0.01  -0.01     0.02   0.01   0.02    -0.19  -0.07  -0.13
  27   1     0.08  -0.08  -0.02    -0.01   0.02   0.01    -0.29   0.19   0.02
  28   1    -0.01  -0.09  -0.06     0.00  -0.00  -0.00    -0.03   0.41   0.30
                     52                     53                     54
                        a                      a                      a 
 Frequencies --  1314.2124              1317.7849              1381.3050
 Red. masses --    11.8250                11.5662                 3.4044
 Frc consts  --     0.0000                 0.0000                 0.0000
 IR Inten    --     1.4035                 2.1412                16.4602
 Raman Activ --     0.0000                 0.0000                 0.0000
 Depolar     --     0.0000                 0.0000                 0.0000
 Atom AN      X      Y      Z        X      Y      Z        X      Y      Z
   1   6     0.01  -0.01   0.01     0.01  -0.01  -0.01     0.23   0.39   0.03
   2   6    -0.02  -0.02  -0.01    -0.02   0.03   0.01    -0.03  -0.06  -0.00
   3   7    -0.02  -0.01   0.01    -0.00  -0.01   0.01    -0.01  -0.01   0.00
   4   6     0.12  -0.04   0.09    -0.26   0.16  -0.24     0.01   0.01  -0.00
   5   6    -0.13  -0.06  -0.03     0.34   0.17   0.08     0.02   0.01   0.01
   6   6     0.01   0.11  -0.06    -0.05  -0.27   0.13    -0.01   0.01  -0.01
   7   6     0.11  -0.07   0.11    -0.28   0.17  -0.26    -0.01  -0.01   0.00
   8   6    -0.10  -0.06  -0.02     0.26   0.14   0.06     0.01  -0.01   0.01
   9   6     0.03   0.16  -0.08    -0.06  -0.34   0.19     0.01   0.03  -0.01
  10   6     0.32   0.12   0.21     0.14   0.03   0.08     0.00   0.00  -0.01
  11   6    -0.33   0.19   0.00    -0.13   0.08   0.00    -0.01   0.02   0.01
  12   6     0.02  -0.29  -0.20     0.00  -0.12  -0.09     0.02  -0.02  -0.01
  13   6     0.30   0.12   0.21     0.12   0.05   0.09    -0.01  -0.01  -0.01
  14   6    -0.30   0.18   0.01    -0.12   0.08   0.01    -0.02   0.02   0.01
  15   6     0.02  -0.31  -0.22     0.01  -0.13  -0.09     0.01   0.00   0.01
  16   1     0.00  -0.00  -0.01    -0.01  -0.01   0.00    -0.36  -0.31  -0.03
  17   1    -0.00   0.01   0.00     0.00   0.01  -0.00    -0.22  -0.42  -0.23
  18   1     0.01   0.02  -0.00    -0.01  -0.00   0.00    -0.15  -0.47   0.17
  19   1     0.01   0.00  -0.00    -0.02  -0.01   0.00    -0.02  -0.01  -0.00
  20   1     0.00   0.04  -0.02    -0.02  -0.10   0.05    -0.01  -0.02   0.01
  21   1    -0.03   0.02  -0.03     0.07  -0.04   0.06    -0.00  -0.00   0.00
  22   1    -0.06  -0.03  -0.01     0.10   0.05   0.02    -0.02  -0.01  -0.00
  23   1    -0.01  -0.04   0.02     0.01   0.03  -0.01    -0.00  -0.02   0.01
  24   1     0.00   0.00  -0.01    -0.01   0.01  -0.00    -0.02   0.02   0.00
  25   1     0.00  -0.04  -0.03    -0.00  -0.01  -0.01     0.00   0.01   0.01
  26   1    -0.03  -0.01  -0.02    -0.01  -0.00  -0.01     0.02   0.01   0.01
  27   1    -0.04   0.02   0.00    -0.02   0.01   0.00     0.03  -0.02   0.00
  28   1    -0.00   0.00  -0.00     0.00   0.00   0.00     0.01  -0.01  -0.01
                     55                     56                     57
                        a                      a                      a 
 Frequencies --  1426.9759              1434.2240              1455.0540
 Red. masses --     8.7583                 9.0122                 2.1587
 Frc consts  --     0.0000                 0.0000                 0.0000
 IR Inten    --     2.8825                 5.6318                 8.4467
 Raman Activ --     0.0000                 0.0000                 0.0000
 Depolar     --     0.0000                 0.0000                 0.0000
 Atom AN      X      Y      Z        X      Y      Z        X      Y      Z
   1   6     0.03   0.00   0.02     0.00  -0.00  -0.01     0.16  -0.15   0.05
   2   6    -0.02  -0.04  -0.04     0.01   0.01  -0.00    -0.04  -0.00   0.03
   3   7    -0.03   0.01   0.02     0.02  -0.04   0.03     0.07   0.00  -0.02
   4   6     0.02  -0.03   0.03    -0.24   0.16  -0.22     0.05   0.06  -0.01
   5   6     0.04   0.05  -0.01    -0.09  -0.28   0.12    -0.08  -0.02  -0.03
   6   6    -0.04  -0.02  -0.01     0.25   0.29  -0.04     0.02  -0.07   0.05
   7   6     0.01  -0.03   0.02    -0.17   0.11  -0.16     0.04   0.05  -0.01
   8   6     0.06   0.04   0.01    -0.23  -0.32   0.07    -0.08  -0.02  -0.04
   9   6    -0.03   0.01  -0.02     0.27   0.17   0.04     0.01  -0.07   0.05
  10   6     0.30   0.14   0.21     0.04   0.01   0.03    -0.02   0.00  -0.01
  11   6     0.02  -0.24  -0.16     0.00  -0.03  -0.02     0.01   0.01   0.01
  12   6    -0.22   0.27   0.10    -0.03   0.04   0.01     0.01  -0.02  -0.01
  13   6     0.24   0.09   0.17     0.04   0.01   0.02    -0.02   0.01  -0.00
  14   6     0.16  -0.29  -0.14     0.01  -0.04  -0.02     0.01   0.01   0.01
  15   6    -0.25   0.15   0.00    -0.03   0.02   0.00     0.01  -0.02  -0.01
  16   1    -0.01   0.00  -0.05    -0.00  -0.01   0.02     0.24   0.25  -0.25
  17   1    -0.05   0.02  -0.03     0.00  -0.00  -0.00    -0.56   0.30  -0.26
  18   1    -0.01  -0.03   0.02    -0.01  -0.00   0.01    -0.35  -0.04   0.32
  19   1    -0.04  -0.01  -0.01     0.14   0.01   0.07     0.06   0.04   0.01
  20   1    -0.01   0.00  -0.01     0.02  -0.18   0.12     0.02   0.06  -0.03
  21   1    -0.03   0.01  -0.03     0.24  -0.14   0.22     0.01   0.02  -0.00
  22   1    -0.05  -0.02  -0.01     0.20   0.06   0.08     0.06   0.04   0.01
  23   1    -0.01  -0.01   0.00     0.05  -0.11   0.09     0.02   0.07  -0.03
  24   1    -0.15   0.02  -0.05    -0.02   0.00  -0.01     0.00  -0.00   0.01
  25   1    -0.05  -0.17  -0.14    -0.01  -0.02  -0.02     0.00   0.02   0.01
  26   1    -0.29  -0.11  -0.20    -0.04  -0.02  -0.03     0.01   0.01   0.01
  27   1    -0.21   0.07  -0.04    -0.03   0.01  -0.01    -0.00   0.01   0.00
  28   1    -0.06  -0.10  -0.10    -0.01  -0.02  -0.01    -0.00   0.02   0.01
                     58                     59                     60
                        a                      a                      a 
 Frequencies --  1462.9394              1466.1504              1469.7405
 Red. masses --     3.9490                 6.3704                 8.6466
 Frc consts  --     0.0000                 0.0000                 0.0000
 IR Inten    --     4.8135                18.4108                15.1405
 Raman Activ --     0.0000                 0.0000                 0.0000
 Depolar     --     0.0000                 0.0000                 0.0000
 Atom AN      X      Y      Z        X      Y      Z        X      Y      Z
   1   6    -0.03  -0.04   0.18    -0.03   0.06   0.10     0.01   0.02  -0.04
   2   6     0.03   0.08   0.04    -0.05  -0.05   0.01    -0.07   0.06   0.02
   3   7    -0.01   0.02   0.00    -0.04  -0.07   0.02    -0.05  -0.05   0.01
   4   6    -0.11  -0.12   0.02     0.21   0.25  -0.05     0.15   0.17  -0.03
   5   6     0.11   0.02   0.05    -0.22  -0.04  -0.09    -0.14  -0.02  -0.07
   6   6    -0.01   0.11  -0.07     0.02  -0.19   0.13     0.00  -0.14   0.09
   7   6    -0.07  -0.07   0.00     0.12   0.14  -0.02     0.09   0.09  -0.01
   8   6     0.12   0.02   0.05    -0.22  -0.05  -0.09    -0.15  -0.03  -0.06
   9   6    -0.01   0.11  -0.07     0.03  -0.19   0.14     0.02  -0.13   0.09
  10   6     0.08  -0.14  -0.07    -0.05   0.11   0.05     0.20  -0.26  -0.11
  11   6    -0.13   0.05  -0.02     0.12  -0.04   0.02    -0.25   0.04  -0.08
  12   6     0.05   0.09   0.09    -0.04  -0.08  -0.08     0.05   0.23   0.19
  13   6     0.02  -0.09  -0.06    -0.04   0.07   0.03     0.14  -0.16  -0.06
  14   6    -0.13   0.06  -0.01     0.12  -0.04   0.02    -0.28   0.07  -0.07
  15   6     0.05   0.08   0.08    -0.04  -0.08  -0.08     0.07   0.20   0.18
  16   1    -0.11   0.02  -0.58    -0.16  -0.07  -0.31    -0.01  -0.04   0.13
  17   1    -0.06   0.32   0.05     0.12   0.12   0.10     0.05  -0.07   0.01
  18   1     0.25  -0.31  -0.19     0.26  -0.21  -0.21    -0.03   0.07   0.02
  19   1    -0.08  -0.06  -0.01     0.16   0.11   0.02     0.10   0.07   0.01
  20   1    -0.03  -0.09   0.04     0.06   0.16  -0.07     0.04   0.11  -0.05
  21   1    -0.01  -0.03   0.01     0.03   0.04  -0.01     0.01   0.03  -0.01
  22   1    -0.08  -0.06  -0.01     0.15   0.10   0.02     0.10   0.07   0.01
  23   1    -0.03  -0.09   0.05     0.06   0.17  -0.08     0.04   0.12  -0.06
  24   1     0.07  -0.05  -0.01    -0.10   0.08   0.00     0.17  -0.15  -0.03
  25   1     0.02  -0.08  -0.04    -0.02   0.07   0.04     0.04  -0.19  -0.12
  26   1     0.04  -0.02   0.00    -0.02   0.02   0.00     0.02  -0.06  -0.03
  27   1     0.09  -0.06  -0.01    -0.08   0.06   0.01     0.16  -0.13  -0.03
  28   1     0.03  -0.08  -0.05    -0.02   0.08   0.05     0.05  -0.20  -0.14
                     61                     62                     63
                        a                      a                      a 
 Frequencies --  1569.1293              1578.5534              1592.2740
 Red. masses --    11.4252                11.4456                11.4649
 Frc consts  --     0.0000                 0.0000                 0.0000
 IR Inten    --     2.5535                 1.2823                39.1137
 Raman Activ --     0.0000                 0.0000                 0.0000
 Depolar     --     0.0000                 0.0000                 0.0000
 Atom AN      X      Y      Z        X      Y      Z        X      Y      Z
   1   6     0.00   0.00   0.01    -0.01   0.00   0.00    -0.00  -0.00  -0.00
   2   6    -0.00  -0.01  -0.00     0.01   0.01   0.02     0.07  -0.02  -0.03
   3   7    -0.02   0.01  -0.01     0.02   0.00  -0.01    -0.07  -0.02   0.03
   4   6     0.29  -0.18   0.27     0.03  -0.02   0.03     0.11   0.12  -0.01
   5   6    -0.25   0.01  -0.14    -0.04  -0.02  -0.01    -0.23  -0.20  -0.01
   6   6     0.13  -0.25   0.22     0.02   0.01   0.01     0.13   0.26  -0.09
   7   6    -0.38   0.25  -0.36    -0.04   0.01  -0.03    -0.10  -0.10   0.01
   8   6     0.24  -0.07   0.18     0.05   0.02   0.02     0.26   0.19   0.02
   9   6    -0.06   0.27  -0.20    -0.02   0.00  -0.01    -0.13  -0.24   0.08
  10   6     0.03   0.01   0.02    -0.36  -0.13  -0.23    -0.08   0.15   0.08
  11   6    -0.02   0.00  -0.01     0.31  -0.05   0.09     0.22  -0.22  -0.06
  12   6     0.01   0.02   0.02    -0.18  -0.17  -0.20    -0.08   0.29   0.18
  13   6    -0.04  -0.02  -0.03     0.45   0.17   0.31     0.06  -0.13  -0.07
  14   6     0.02   0.00   0.01    -0.31   0.00  -0.13    -0.24   0.23   0.06
  15   6    -0.01  -0.02  -0.02     0.13   0.20   0.20     0.10  -0.29  -0.17
  16   1     0.00   0.00   0.00     0.00   0.01  -0.02     0.01   0.01  -0.00
  17   1    -0.00  -0.01  -0.00    -0.00   0.01   0.00    -0.01  -0.01  -0.01
  18   1     0.00   0.01   0.00     0.01  -0.02  -0.01    -0.01  -0.01   0.01
  19   1     0.05   0.06  -0.01     0.01   0.00   0.00     0.06   0.02   0.03
  20   1     0.06   0.06  -0.00     0.00  -0.00   0.00     0.00  -0.06   0.04
  21   1     0.11  -0.06   0.09     0.01  -0.01   0.01    -0.02  -0.03   0.01
  22   1    -0.02  -0.06   0.03    -0.01  -0.01  -0.00    -0.07  -0.03  -0.02
  23   1    -0.05  -0.08   0.03    -0.01  -0.00  -0.00    -0.01   0.05  -0.04
  24   1     0.01  -0.01  -0.00    -0.06   0.07   0.02    -0.07   0.02  -0.02
  25   1     0.00  -0.00  -0.00    -0.06   0.05   0.01    -0.01  -0.07  -0.05
  26   1     0.01   0.00   0.01    -0.11  -0.04  -0.08     0.03  -0.03  -0.01
  27   1     0.00   0.00   0.00     0.02  -0.06  -0.04     0.08  -0.03   0.01
  28   1    -0.00   0.01   0.00     0.04  -0.07  -0.04     0.01   0.06   0.05
                     64                     65                     66
                        a                      a                      a 
 Frequencies --  1594.5912              1708.5834              3007.2419
 Red. masses --    11.4691                12.7371                 1.8527
 Frc consts  --     0.0000                 0.0000                 0.0000
 IR Inten    --    31.0075               253.0042                11.3495
 Raman Activ --     0.0000                 0.0000                 0.0000
 Depolar     --     0.0000                 0.0000                 0.0000
 Atom AN      X      Y      Z        X      Y      Z        X      Y      Z
   1   6     0.01   0.01   0.00    -0.04  -0.03   0.01     0.13  -0.02   0.24
   2   6     0.00   0.00  -0.00     0.69   0.05  -0.20     0.01   0.00   0.00
   3   7    -0.03  -0.01   0.01    -0.62  -0.12   0.18    -0.00  -0.00   0.00
   4   6     0.13   0.12  -0.01     0.04   0.07  -0.02     0.00   0.00  -0.00
   5   6    -0.27  -0.22  -0.01     0.05   0.04  -0.00    -0.00   0.00  -0.00
   6   6     0.14   0.29  -0.10    -0.03  -0.05   0.02    -0.00   0.00   0.00
   7   6    -0.12  -0.11   0.00     0.02   0.02  -0.00     0.00   0.00  -0.00
   8   6     0.29   0.21   0.02    -0.04  -0.03  -0.00    -0.00   0.00  -0.00
   9   6    -0.15  -0.26   0.08     0.02   0.04  -0.01    -0.00  -0.00  -0.00
  10   6     0.11  -0.13  -0.05    -0.03   0.00   0.00     0.00  -0.00   0.00
  11   6    -0.23   0.20   0.05    -0.03   0.03   0.01    -0.00  -0.01  -0.01
  12   6     0.09  -0.25  -0.14     0.01  -0.03  -0.02     0.00   0.00   0.00
  13   6    -0.09   0.11   0.04    -0.00   0.01   0.01     0.00  -0.00  -0.00
  14   6     0.24  -0.21  -0.05     0.01  -0.02  -0.01    -0.00  -0.00  -0.00
  15   6    -0.10   0.25   0.14     0.00   0.03   0.02    -0.00   0.00  -0.00
  16   1    -0.00  -0.00   0.00     0.05   0.05  -0.01    -0.02   0.04   0.04
  17   1    -0.00  -0.00  -0.00    -0.05  -0.04  -0.03     0.16   0.04  -0.21
  18   1    -0.00  -0.00   0.00    -0.03  -0.03   0.03    -0.61  -0.02  -0.69
  19   1     0.07   0.02   0.03    -0.01  -0.00  -0.01     0.00  -0.00   0.00
  20   1     0.01  -0.07   0.05    -0.00   0.01  -0.01    -0.00  -0.00  -0.00
  21   1    -0.02  -0.04   0.01     0.00   0.00  -0.00    -0.00  -0.00   0.00
  22   1    -0.08  -0.03  -0.02     0.01  -0.00   0.00     0.00  -0.00   0.00
  23   1    -0.01   0.05  -0.04     0.01  -0.01   0.00     0.00   0.00   0.00
  24   1     0.06  -0.03   0.01     0.01  -0.00   0.00     0.01   0.02   0.02
  25   1     0.01   0.05   0.04     0.00   0.00   0.00    -0.00   0.00  -0.00
  26   1    -0.02   0.03   0.01    -0.00   0.00   0.00    -0.00   0.00   0.00
  27   1    -0.07   0.03  -0.01     0.00  -0.00  -0.00     0.00   0.00   0.00
  28   1    -0.01  -0.05  -0.05     0.00  -0.01   0.00     0.00  -0.00   0.00
                     67                     68                     69
                        a                      a                      a 
 Frequencies --  3025.6655              3057.8581              3059.8705
 Red. masses --     1.5533                 1.7435                 1.7596
 Frc consts  --     0.0000                 0.0000                 0.0000
 IR Inten    --    18.1993                17.1915                17.3363
 Raman Activ --     0.0000                 0.0000                 0.0000
 Depolar     --     0.0000                 0.0000                 0.0000
 Atom AN      X      Y      Z        X      Y      Z        X      Y      Z
   1   6     0.15   0.05  -0.15     0.18  -0.18  -0.06     0.01  -0.01  -0.00
   2   6     0.01   0.00  -0.00     0.01  -0.01  -0.00     0.00   0.00  -0.00
   3   7    -0.00   0.00   0.00    -0.00   0.00   0.00     0.00  -0.00   0.00
   4   6     0.00  -0.00   0.00     0.00   0.00   0.00    -0.01  -0.00  -0.00
   5   6     0.00  -0.00   0.00    -0.00   0.00  -0.00    -0.00   0.01  -0.00
   6   6     0.00  -0.00   0.00     0.00  -0.00   0.00    -0.01   0.00  -0.01
   7   6     0.00   0.00  -0.00    -0.00  -0.00   0.00     0.03   0.04  -0.01
   8   6    -0.00   0.00  -0.00    -0.00   0.01  -0.00     0.05  -0.14   0.12
   9   6     0.00   0.00  -0.00     0.01   0.00   0.00    -0.15  -0.01  -0.08
  10   6     0.00  -0.00   0.00    -0.00   0.00   0.00    -0.00  -0.00   0.00
  11   6    -0.00  -0.01  -0.00    -0.00  -0.00  -0.00    -0.00  -0.00  -0.00
  12   6     0.00  -0.00   0.00     0.00  -0.00   0.00    -0.00   0.00  -0.00
  13   6     0.00  -0.00  -0.00     0.00  -0.00  -0.00     0.00   0.00   0.00
  14   6     0.00  -0.00  -0.00    -0.00  -0.00  -0.00     0.00   0.00   0.00
  15   6    -0.00   0.00   0.00    -0.00   0.00  -0.00    -0.00   0.00  -0.00
  16   1     0.06  -0.04  -0.03    -0.66   0.68   0.14    -0.03   0.03   0.01
  17   1    -0.45  -0.15   0.80    -0.01  -0.03   0.06    -0.00  -0.00   0.00
  18   1    -0.16   0.00  -0.24     0.05  -0.02   0.02     0.00  -0.00   0.00
  19   1    -0.00   0.00  -0.00     0.00  -0.01   0.01     0.01  -0.02   0.01
  20   1    -0.00  -0.00  -0.00    -0.01  -0.00  -0.00     0.03   0.00   0.02
  21   1    -0.00  -0.00   0.00     0.01   0.01  -0.00    -0.13  -0.16   0.03
  22   1     0.00  -0.00   0.00     0.01  -0.02   0.02    -0.20   0.52  -0.44
  23   1    -0.00  -0.00  -0.00    -0.02  -0.00  -0.01     0.55   0.03   0.29
  24   1     0.01   0.02   0.02     0.00   0.01   0.01     0.00   0.01   0.01
  25   1    -0.01   0.00  -0.00    -0.01   0.00  -0.00     0.01  -0.00   0.00
  26   1    -0.00   0.00   0.00    -0.00   0.00   0.00    -0.00   0.00   0.00
  27   1     0.00   0.00   0.00     0.00   0.00   0.00    -0.01  -0.01  -0.01
  28   1     0.00  -0.00   0.00     0.01  -0.00   0.00     0.01  -0.00   0.00
                     70                     71                     72
                        a                      a                      a 
 Frequencies --  3064.6816              3070.2753              3070.8688
 Red. masses --     1.7678                 1.7499                 1.8525
 Frc consts  --     0.0000                 0.0000                 0.0000
 IR Inten    --     8.7728                 7.4507                99.9165
 Raman Activ --     0.0000                 0.0000                 0.0000
 Depolar     --     0.0000                 0.0000                 0.0000
 Atom AN      X      Y      Z        X      Y      Z        X      Y      Z
   1   6    -0.00   0.00   0.00    -0.00   0.00  -0.00    -0.00   0.00   0.00
   2   6    -0.00   0.00   0.00    -0.00  -0.00   0.00     0.00  -0.00   0.00
   3   7     0.00   0.00   0.00    -0.00  -0.00  -0.00    -0.00  -0.00   0.00
   4   6    -0.00   0.00  -0.00     0.00   0.00  -0.00     0.00   0.01  -0.00
   5   6    -0.02   0.06  -0.05     0.00  -0.00   0.00    -0.01   0.02  -0.02
   6   6     0.20   0.01   0.10     0.01   0.00   0.00     0.07   0.00   0.04
   7   6    -0.06  -0.08   0.02     0.00   0.01  -0.00     0.06   0.07  -0.02
   8   6    -0.00   0.00  -0.00     0.00  -0.01   0.01     0.04  -0.11   0.09
   9   6    -0.05  -0.00  -0.02     0.01   0.00   0.01     0.17   0.01   0.09
  10   6     0.00  -0.00  -0.00     0.00  -0.00  -0.00    -0.00   0.00   0.00
  11   6    -0.00  -0.00  -0.00    -0.03  -0.05  -0.05     0.00   0.01   0.01
  12   6     0.00  -0.00   0.00     0.18  -0.02   0.06    -0.01   0.00  -0.00
  13   6     0.00  -0.00  -0.00    -0.07   0.10   0.04     0.00  -0.01  -0.00
  14   6     0.00   0.00   0.00    -0.04  -0.06  -0.06    -0.00  -0.00  -0.00
  15   6    -0.00   0.00  -0.00     0.03  -0.00   0.01     0.00  -0.00   0.00
  16   1     0.01  -0.01  -0.00     0.00  -0.00  -0.00     0.00  -0.00  -0.00
  17   1     0.00   0.00  -0.00     0.00   0.00  -0.01     0.00   0.00   0.00
  18   1     0.00   0.00   0.00     0.01   0.00   0.01    -0.00  -0.00  -0.00
  19   1     0.08  -0.23   0.19    -0.00   0.00  -0.00     0.04  -0.09   0.08
  20   1    -0.72  -0.03  -0.38    -0.02  -0.00  -0.01    -0.24  -0.01  -0.12
  21   1     0.22   0.29  -0.06    -0.02  -0.02   0.00    -0.21  -0.27   0.05
  22   1     0.01  -0.01   0.01    -0.01   0.03  -0.03    -0.14   0.37  -0.31
  23   1     0.16   0.01   0.09    -0.04  -0.00  -0.02    -0.60  -0.03  -0.32
  24   1     0.00   0.00   0.00     0.12   0.18   0.19    -0.02  -0.03  -0.03
  25   1    -0.00   0.00  -0.00    -0.65   0.09  -0.21     0.05  -0.01   0.02
  26   1    -0.00   0.00   0.00     0.26  -0.39  -0.17    -0.02   0.02   0.01
  27   1    -0.00  -0.00  -0.00     0.14   0.21   0.21     0.00   0.00   0.00
  28   1     0.00  -0.00   0.00    -0.11   0.02  -0.04    -0.01   0.00  -0.00
                     73                     74                     75
                        a                      a                      a 
 Frequencies --  3073.2401              3079.3786              3081.1230
 Red. masses --     1.7817                 1.8523                 1.8306
 Frc consts  --     0.0000                 0.0000                 0.0000
 IR Inten    --     6.0793               121.4987                42.5821
 Raman Activ --     0.0000                 0.0000                 0.0000
 Depolar     --     0.0000                 0.0000                 0.0000
 Atom AN      X      Y      Z        X      Y      Z        X      Y      Z
   1   6     0.00  -0.00   0.00    -0.00   0.00   0.00    -0.00   0.00  -0.00
   2   6     0.00   0.00  -0.00    -0.00  -0.00  -0.00     0.00  -0.00  -0.00
   3   7    -0.00  -0.00   0.00     0.00  -0.00   0.00    -0.00  -0.00   0.00
   4   6    -0.00  -0.00  -0.00     0.00   0.00  -0.00     0.00   0.00  -0.00
   5   6     0.00  -0.01   0.01    -0.06   0.15  -0.12    -0.01   0.02  -0.02
   6   6     0.00  -0.00   0.00    -0.02  -0.00  -0.01     0.00   0.00   0.00
   7   6    -0.00  -0.00   0.00     0.09   0.11  -0.02     0.02   0.03  -0.01
   8   6    -0.00   0.00  -0.00    -0.03   0.07  -0.06    -0.01   0.01  -0.01
   9   6    -0.01  -0.00  -0.00    -0.04  -0.00  -0.02    -0.01  -0.00  -0.00
  10   6     0.00   0.00   0.00    -0.00   0.00   0.00     0.01  -0.01  -0.00
  11   6     0.03   0.05   0.05     0.01   0.01   0.01    -0.06  -0.09  -0.09
  12   6    -0.11   0.02  -0.03    -0.01   0.00  -0.00     0.02  -0.00   0.01
  13   6    -0.03   0.04   0.01    -0.01   0.02   0.01     0.09  -0.13  -0.05
  14   6    -0.08  -0.12  -0.12    -0.01  -0.01  -0.01    -0.00  -0.01  -0.01
  15   6     0.12  -0.02   0.04    -0.03   0.00  -0.01     0.15  -0.02   0.05
  16   1    -0.00   0.00   0.00     0.01  -0.01  -0.00     0.00  -0.00  -0.00
  17   1    -0.00  -0.00   0.01    -0.00  -0.00   0.00     0.00   0.00  -0.01
  18   1    -0.01  -0.00  -0.01    -0.00   0.00  -0.00     0.01   0.00   0.01
  19   1    -0.01   0.03  -0.03     0.20  -0.54   0.44     0.02  -0.07   0.05
  20   1    -0.00  -0.00  -0.00     0.07   0.00   0.04    -0.01  -0.00  -0.01
  21   1     0.01   0.01  -0.00    -0.31  -0.40   0.08    -0.08  -0.10   0.02
  22   1     0.00  -0.00   0.00     0.08  -0.22   0.18     0.02  -0.05   0.04
  23   1     0.03   0.00   0.02     0.12   0.01   0.06     0.03   0.00   0.02
  24   1    -0.12  -0.18  -0.19    -0.03  -0.04  -0.04     0.21   0.31   0.32
  25   1     0.38  -0.05   0.12     0.04  -0.01   0.01    -0.09   0.01  -0.03
  26   1     0.09  -0.13  -0.06     0.05  -0.08  -0.03    -0.30   0.44   0.19
  27   1     0.28   0.43   0.43     0.02   0.03   0.03     0.01   0.02   0.02
  28   1    -0.43   0.06  -0.14     0.10  -0.01   0.04    -0.53   0.07  -0.18
                     76                     77                     78
                        a                      a                      a 
 Frequencies --  3085.2336              3086.7838              3091.1052
 Red. masses --     1.8739                 1.9090                 1.9211
 Frc consts  --     0.0000                 0.0000                 0.0000
 IR Inten    --   143.9608                31.8426                34.4562
 Raman Activ --     0.0000                 0.0000                 0.0000
 Depolar     --     0.0000                 0.0000                 0.0000
 Atom AN      X      Y      Z        X      Y      Z        X      Y      Z
   1   6    -0.01   0.00  -0.00     0.00   0.00   0.00     0.00   0.00   0.00
   2   6    -0.00  -0.00  -0.00     0.00   0.00  -0.00    -0.00   0.00   0.00
   3   7     0.00  -0.00   0.00    -0.00  -0.00   0.00     0.00   0.00  -0.00
   4   6     0.00   0.00  -0.00     0.00   0.01  -0.00    -0.00  -0.00   0.00
   5   6    -0.01   0.02  -0.01    -0.04   0.11  -0.09    -0.00   0.00  -0.00
   6   6    -0.02  -0.00  -0.01    -0.11  -0.00  -0.06    -0.00  -0.00  -0.00
   7   6    -0.03  -0.04   0.01    -0.10  -0.13   0.03    -0.00  -0.01   0.00
   8   6     0.01  -0.02   0.01     0.02  -0.06   0.05     0.00  -0.00   0.00
   9   6     0.02   0.00   0.01     0.04   0.00   0.02     0.00   0.00  -0.00
  10   6     0.00  -0.00  -0.00     0.00  -0.00  -0.00    -0.00   0.00   0.00
  11   6    -0.07  -0.11  -0.12     0.01   0.02   0.02     0.04   0.07   0.07
  12   6    -0.10   0.01  -0.03     0.02  -0.00   0.01     0.11  -0.01   0.04
  13   6     0.00  -0.00   0.00     0.00  -0.00  -0.00     0.09  -0.13  -0.06
  14   6    -0.05  -0.07  -0.07     0.01   0.02   0.02    -0.06  -0.09  -0.09
  15   6    -0.13   0.02  -0.04     0.05  -0.01   0.01    -0.10   0.01  -0.03
  16   1     0.01  -0.01  -0.00     0.00  -0.00  -0.00     0.00  -0.00  -0.00
  17   1     0.00   0.00  -0.01    -0.00  -0.00   0.00    -0.00  -0.00   0.00
  18   1     0.02   0.00   0.02    -0.00  -0.00  -0.00    -0.01   0.00  -0.01
  19   1     0.02  -0.06   0.05     0.14  -0.39   0.32     0.00  -0.00   0.00
  20   1     0.08   0.00   0.04     0.37   0.02   0.19     0.01   0.00   0.01
  21   1     0.09   0.12  -0.02     0.35   0.45  -0.09     0.02   0.02  -0.00
  22   1    -0.02   0.06  -0.05    -0.08   0.19  -0.16    -0.00   0.01  -0.01
  23   1    -0.05  -0.00  -0.03    -0.14  -0.01  -0.07    -0.00   0.00  -0.00
  24   1     0.26   0.39   0.40    -0.04  -0.06  -0.07    -0.14  -0.22  -0.22
  25   1     0.33  -0.05   0.11    -0.07   0.01  -0.02    -0.36   0.05  -0.12
  26   1    -0.00   0.00   0.00    -0.01   0.01   0.00    -0.30   0.44   0.19
  27   1     0.16   0.24   0.25    -0.03  -0.05  -0.05     0.19   0.30   0.30
  28   1     0.44  -0.06   0.15    -0.16   0.02  -0.05     0.33  -0.05   0.11
