28
MMFF starting geometry; not quantum validated
C -1.1439380175 -3.0544896580 -0.1507085890
C -0.4138169691 -1.7320485262 -0.2112152204
N 0.7880576481 -1.7369334413 -0.7083481285
C 1.5168222370 -0.5487417925 -0.8545705577
C 2.6308525979 -0.3215036825 -0.0428139870
C 3.3869568275 0.8439265438 -0.1842612410
C 3.0403487416 1.7842078813 -1.1534401551
C 1.9459222747 1.5543207422 -1.9860541855
C 1.1932629835 0.3868485161 -1.8419132536
C -1.1544337120 -0.5536613578 0.3003467981
C -2.3506252187 -0.1767688752 -0.3172485784
C -3.0607918605 0.9206238064 0.1702035320
C -2.5786092629 1.6313935957 1.2708029843
C -1.3870477986 1.2474146108 1.8885748062
C -0.6728531480 0.1505370978 1.4064715626
H -0.4865808701 -3.8119380575 0.2868810543
H -2.0497997546 -2.9890563648 0.4579777859
H -1.4140733914 -3.3616360781 -1.1652346874
H 2.9078891740 -1.0620295091 0.7020225254
H 4.2483455486 1.0123133508 0.4560624025
H 3.6292674979 2.6905267621 -1.2673129718
H 1.6811723916 2.2784799305 -2.7514866113
H 0.3511135950 0.2025902564 -2.5021347348
H -2.7252496640 -0.7226515383 -1.1788270375
H -3.9883367282 1.2250021151 -0.3082306898
H -3.1319649486 2.4883284185 1.6476945326
H -1.0139381626 1.8040471994 2.7445614194
H 0.2520479892 -0.1491019456 1.8914591758
