      -----------------------------------------------------------      
     |                   =====================                   |     
     |                           x T B                           |     
     |                   =====================                   |     
     |                         S. Grimme                         |     
     |          Mulliken Center for Theoretical Chemistry        |     
     |                    University of Bonn                     |     
      -----------------------------------------------------------      

   * xtb version 6.7.1 (edcfbbe) compiled by 'VssAdministrator@runnervm171ch' on 2026-06-10

   xtb is free software: you can redistribute it and/or modify it under
   the terms of the GNU Lesser General Public License as published by
   the Free Software Foundation, either version 3 of the License, or
   (at your option) any later version.
   
   xtb is distributed in the hope that it will be useful,
   but WITHOUT ANY WARRANTY; without even the implied warranty of
   MERCHANTABILITY or FITNESS FOR A PARTICULAR PURPOSE.  See the
   GNU Lesser General Public License for more details.
   
   Cite this work as:
   * C. Bannwarth, E. Caldeweyher, S. Ehlert, A. Hansen, P. Pracht,
     J. Seibert, S. Spicher, S. Grimme, WIREs Comput. Mol. Sci., 2020, 11,
     e01493. DOI: 10.1002/wcms.1493
   
   for GFN2-xTB:
   * C. Bannwarth, S. Ehlert and S. Grimme., J. Chem. Theory Comput., 2019,
     15, 1652-1671. DOI: 10.1021/acs.jctc.8b01176
   for GFN1-xTB:
   * S. Grimme, C. Bannwarth, P. Shushkov, J. Chem. Theory Comput., 2017,
     13, 1989-2009. DOI: 10.1021/acs.jctc.7b00118
   for GFN0-xTB:
   * P. Pracht, E. Caldeweyher, S. Ehlert, S. Grimme, ChemRxiv, 2019, preprint.
     DOI: 10.26434/chemrxiv.8326202.v1
   for GFN-FF:
   * S. Spicher and S. Grimme, Angew. Chem. Int. Ed., 2020, 59, 15665-15673.
     DOI: 10.1002/anie.202004239
   
   for ALPB and GBSA implicit solvation:
   * S. Ehlert, M. Stahn, S. Spicher, S. Grimme, J. Chem. Theory Comput.,
     2021, 17, 4250-4261. DOI: 10.1021/acs.jctc.1c00471
   
   for ddCOSMO and CPCM-X implicit solvation:
   * M. Stahn, S. Ehlert, S. Grimme, J. Phys. Chem. A,
     2023, XX, XXXX-XXXX. DOI: 10.1021/acs.jpca.3c04382
   
   for DFT-D4:
   * E. Caldeweyher, C. Bannwarth and S. Grimme, J. Chem. Phys., 2017,
     147, 034112. DOI: 10.1063/1.4993215
   * E. Caldeweyher, S. Ehlert, A. Hansen, H. Neugebauer, S. Spicher,
     C. Bannwarth and S. Grimme, J. Chem. Phys., 2019, 150, 154122.
     DOI: 10.1063/1.5090222
   * E. Caldeweyher, J.-M. Mewes, S. Ehlert and S. Grimme, Phys. Chem. Chem. Phys.
     2020, 22, 8499-8512. DOI: 10.1039/D0CP00502A
   
   for sTDA-xTB:
   * S. Grimme and C. Bannwarth, J. Chem. Phys., 2016, 145, 054103.
     DOI: 10.1063/1.4959605
   
   in the mass-spec context:
   * V. Asgeirsson, C. Bauer and S. Grimme, Chem. Sci., 2017, 8, 4879.
     DOI: 10.1039/c7sc00601b
   * J. Koopman and S. Grimme, ACS Omega 2019, 4, 12, 15120-15133.
     DOI: 10.1021/acsomega.9b02011
   
   for metadynamics refer to:
   * S. Grimme, J. Chem. Theory Comput., 2019, 155, 2847-2862
     DOI: 10.1021/acs.jctc.9b00143
   
   for SPH calculations refer to:
   * S. Spicher and S. Grimme, J. Chem. Theory Comput., 2021, 17, 1701-1714
     DOI: 10.1021/acs.jctc.0c01306
   
   for ONIOM refer to:
   * C. Plett, A. Katbashev, S. Ehlert, S. Grimme, M. Bursch,
     Phys. Chem. Chem. Phys., 2023, 25, 17860-17868. DOI: 10.1039/D3CP02178E
   
   for DIPRO refer to:
   * J. Kohn, N. Gildemeister, S. Grimme, D. Fazzi, A. Hansen,
     J. Chem. Phys., 2023, just accepted.
   
   for PTB refer to:
   * S. Grimme, M. Mueller, A. Hansen, J. Chem. Phys., 2023, 158, 124111.
     DOI: 10.1063/5.0137838
   
   with help from (in alphabetical order)
   P. Atkinson, C. Bannwarth, F. Bohle, G. Brandenburg, E. Caldeweyher
   M. Checinski, S. Dohm, S. Ehlert, S. Ehrlich, I. Gerasimov, C. Hölzer
   A. Katbashev, J. Kohn, J. Koopman, C. Lavigne, S. Lehtola, F. März, M. Müller,
   F. Musil, H. Neugebauer, J. Pisarek, C. Plett, P. Pracht, F. Pultar,
   J. Seibert, P. Shushkov, S. Spicher, M. Stahn, M. Steiner, T. Strunk,
   J. Stückrath, T. Rose, and J. Unsleber
   
 * started run on 2026/09/10 at 22:57:06.760     
   ID    Z sym.   atoms
    1    6 C      1, 2, 4-15
    2    7 N      3
    3    1 H      16-28

           -------------------------------------------------
          |                Calculation Setup                |
           -------------------------------------------------

          program call               : C:\Users\HUIWEI\miniconda3\envs\phase2ff\Library\bin\xtb.exe input.xyz --gfn 2 --chrg 0 --uhf 0 --alpb toluene --acc 0.2 --opt vtight
          coordinate file            : input.xyz
          omp threads                :                     1


           -------------------------------------------------
          |                 G F N 2 - x T B                 |
           -------------------------------------------------

        Reference                      10.1021/acs.jctc.8b01176
      * Hamiltonian:
        H0-scaling (s, p, d)           1.850000    2.230000    2.230000
        zeta-weighting                 0.500000
      * Dispersion:
        s8                             2.700000
        a1                             0.520000
        a2                             5.000000
        s9                             5.000000
      * Repulsion:
        kExp                           1.500000    1.000000
        rExp                           1.000000
      * Coulomb:
        alpha                          2.000000
        third order                    shell-resolved
        anisotropic                    true
        a3                             3.000000
        a5                             4.000000
        cn-shift                       1.200000
        cn-exp                         4.000000
        max-rad                        5.000000

      * Solvation model:               ALPB
        Solvent                        toluene
        Parameter file                 internal GFN2-xTB/ALPB
        Dielectric constant                7.0000E+00
        Reference state                gsolv [1 M gas/solution]
        Free energy shift                  2.2081E-03 Eh       1.3856E+00 kcal/mol
        Temperature                        2.9815E+02 K
        Density                            8.6700E-01 kg/L
        Solvent mass                       7.8110E+01 g/mol
        Interaction kernel             P16
        Born radius scaling (c1)           1.7172E+00
        Born radii integrator          GBOBC
        Born offset                        0.0000E+00 a0       0.0000E+00 AA
        H-bond correction              false
        Ion screening                  false
        Surface tension                    1.0000E-05 Eh       1.5569E+01 dyn/cm
        Grid points                               230 per atom

          ...................................................
          :                      SETUP                      :
          :.................................................:
          :  # basis functions                  73          :
          :  # atomic orbitals                  73          :
          :  # shells                           43          :
          :  # electrons                        74          :
          :  max. iterations                   250          :
          :  Hamiltonian                  GFN2-xTB          :
          :  restarted?                      false          :
          :  GBSA solvation                   true          :
          :  PC potential                    false          :
          :  electronic temp.          300.0000000     K    :
          :  accuracy                    0.2000000          :
          :  -> integral cutoff          0.3198970E+02      :
          :  -> integral neglect         0.2000000E-08      :
          :  -> SCF convergence          0.2000000E-06 Eh   :
          :  -> wf. convergence          0.2000000E-04 e    :
          :  Broyden damping             0.4000000          :
          :  net charge                          0          :
          :  unpaired electrons                  0          :
          ...................................................

 iter      E             dE          RMSdq      gap      omega  full diag
   1    -40.1707927 -0.401708E+02  0.378E+00    3.22       0.0  T
   2    -40.1950736 -0.242809E-01  0.223E+00    3.03       1.0  T
   3    -40.1878128  0.726076E-02  0.782E-01    2.78       1.0  T
   4    -40.1976489 -0.983609E-02  0.283E-01    2.80       1.0  T
   5    -40.1991660 -0.151713E-02  0.496E-02    2.78       1.0  T
   6    -40.1991882 -0.221953E-04  0.323E-02    2.79       1.0  T
   7    -40.1991981 -0.988655E-05  0.117E-02    2.79       1.6  T
   8    -40.1992000 -0.191760E-05  0.337E-03    2.79       5.6  T
   9    -40.1992002 -0.173257E-06  0.118E-03    2.79      16.1  T
  10    -40.1992002 -0.604381E-08  0.465E-04    2.79      40.6  T
  11    -40.1992002 -0.130061E-08  0.187E-04    2.79     100.9  T
  12    -40.1992002 -0.432777E-09  0.694E-05    2.79     272.3  T

   *** convergence criteria satisfied after 12 iterations ***

         #    Occupation            Energy/Eh            Energy/eV
      -------------------------------------------------------------
         1        2.0000           -0.6522074             -17.7475
       ...           ...                  ...                  ...
        31        2.0000           -0.4274359             -11.6311
        32        2.0000           -0.4143321             -11.2745
        33        2.0000           -0.4089852             -11.1291
        34        2.0000           -0.4055714             -11.0362
        35        2.0000           -0.3985304             -10.8446
        36        2.0000           -0.3948848             -10.7454
        37        2.0000           -0.3591633              -9.7733 (HOMO)
        38                         -0.2565944              -6.9823 (LUMO)
        39                         -0.2316617              -6.3038
        40                         -0.2212039              -6.0193
        41                         -0.2186712              -5.9503
        42                         -0.2046042              -5.5676
       ...                                ...                  ...
        73                          0.6518693              17.7383
      -------------------------------------------------------------
                  HL-Gap            0.1025689 Eh            2.7910 eV
             Fermi-level           -0.3078789 Eh           -8.3778 eV

 SCC (total)                   0 d,  0 h,  0 min,  0.028 sec
 SCC setup                      ...        0 min,  0.001 sec (  3.275%)
 Dispersion                     ...        0 min,  0.000 sec (  1.049%)
 classical contributions        ...        0 min,  0.000 sec (  0.225%)
 integral evaluation            ...        0 min,  0.004 sec ( 13.630%)
 iterations                     ...        0 min,  0.012 sec ( 43.052%)
 molecular gradient             ...        0 min,  0.011 sec ( 37.927%)
 printout                       ...        0 min,  0.000 sec (  0.785%)

         :::::::::::::::::::::::::::::::::::::::::::::::::::::
         ::                     SUMMARY                     ::
         :::::::::::::::::::::::::::::::::::::::::::::::::::::
         :: total energy             -39.506167629758 Eh    ::
         :: total w/o Gsasa/hb       -39.488665485647 Eh    ::
         :: gradient norm              0.064500405948 Eh/a0 ::
         :: HOMO-LUMO gap              2.791041118910 eV    ::
         ::.................................................::
         :: SCC energy               -40.198750062260 Eh    ::
         :: -> isotropic ES            0.010844841849 Eh    ::
         :: -> anisotropic ES          0.006349101755 Eh    ::
         :: -> anisotropic XC          0.032355372511 Eh    ::
         :: -> dispersion             -0.028537000344 Eh    ::
         :: -> Gsolv                  -0.017937330646 Eh    ::
         ::    -> Gelec               -0.000435186535 Eh    ::
         ::    -> Gsasa               -0.019710287250 Eh    ::
         ::    -> Ghb                  0.000000000000 Eh    ::
         ::    -> Gshift               0.002208143139 Eh    ::
         :: repulsion energy           0.692582432502 Eh    ::
         :: add. restraining           0.000000000000 Eh    ::
         :: total charge              -0.000000000000 e     ::
         :::::::::::::::::::::::::::::::::::::::::::::::::::::

      ----------------------------------------------------------- 
     |                   =====================                   |
     |                        A N C O P T                        |
     |                   =====================                   |
     |               Approximate Normal Coordinate               |
     |                Rational Function Optimizer                |
      ----------------------------------------------------------- 
      ----------------------------------------------------------- 
     |                   =====================                   |
     |                        A N C O P T                        |
     |                   =====================                   |
     |               Approximate Normal Coordinate               |
     |                Rational Function Optimizer                |
      ----------------------------------------------------------- 

          ...................................................
          :                      SETUP                      :
          :.................................................:
          :   optimization level         verytight          :
          :   max. optcycles                   560          :
          :   ANC micro-cycles                  20          :
          :   degrees of freedom                78          :
          :.................................................:
          :   RF solver                   davidson          :
          :   write xtbopt.log                true          :
          :   linear?                        false          :
          :   energy convergence         0.1000000E-06 Eh   :
          :   grad. convergence          0.2000000E-03 Eh/α :
          :   maxmium RF displ.          1.0000000          :
          :   Hlow (freq-cutoff)         0.1000000E-01      :
          :   Hmax (freq-cutoff)         5.0000000          :
          :   S6 in model hess.         20.0000000          :
          ...................................................

generating ANC from exact Hessian ...
Using Lindh-Hessian (1995)
 Shifting diagonal of input Hessian by    9.2998983020285975E-003
 Lowest  eigenvalues of input Hessian
    0.000000    0.000000    0.000000    0.000000    0.000000    0.000000
    0.010000    0.010064    0.010693    0.012252    0.013124    0.015846
    0.017974    0.020498    0.022169    0.023529    0.023938    0.027829
 Highest eigenvalues
    1.844213    1.866869    1.939418    1.947481    1.973887    2.076180


........................................................................
.............................. CYCLE    1 ..............................
........................................................................

 iter      E             dE          RMSdq      gap      omega  full diag
   1    -40.1992002 -0.401992E+02  0.412E-05    2.79       0.0  T
   2    -40.1992002 -0.737543E-11  0.259E-05    2.79     730.0  T
   3    -40.1992002 -0.436984E-11  0.175E-05    2.79    1081.0  T
     SCC iter.                  ...        0 min,  0.004 sec
     gradient                   ...        0 min,  0.010 sec
 * total energy  :   -39.5061676 Eh     change       -0.2329159E-10 Eh
   gradient norm :     0.0645004 Eh/α   predicted     0.0000000E+00 (-100.00%)
   displ. norm   :     0.1860919 α      lambda       -0.5888177E-02
   maximum displ.:     0.0782560 α      in ANC's #43, #7, #19, ...

........................................................................
.............................. CYCLE    2 ..............................
........................................................................

 iter      E             dE          RMSdq      gap      omega  full diag
   1    -40.2398538 -0.402399E+02  0.144E-01    2.88       0.0  T
   2    -40.2399056 -0.517735E-04  0.870E-02    2.88       1.0  T
   3    -40.2398947  0.108812E-04  0.396E-02    2.88       1.0  T
   4    -40.2399123 -0.175342E-04  0.889E-03    2.89       2.1  T
   5    -40.2399139 -0.159210E-05  0.283E-03    2.89       6.7  T
   6    -40.2399139 -0.411380E-07  0.138E-03    2.89      13.7  T
   7    -40.2399139 -0.148297E-07  0.515E-04    2.89      36.7  T
   8    -40.2399139 -0.158688E-08  0.189E-04    2.89      99.8  T
   9    -40.2399139 -0.860418E-09  0.562E-05    2.89     336.1  T
     SCC iter.                  ...        0 min,  0.010 sec
     gradient                   ...        0 min,  0.011 sec
 * total energy  :   -39.5099088 Eh     change       -0.3741124E-02 Eh
   gradient norm :     0.0206582 Eh/α   predicted    -0.3046710E-02 ( -18.56%)
   displ. norm   :     0.1407957 α      lambda       -0.9201032E-03
   maximum displ.:     0.0757375 α      in ANC's #4, #7, #5, ...

........................................................................
.............................. CYCLE    3 ..............................
........................................................................

 iter      E             dE          RMSdq      gap      omega  full diag
   1    -40.2533987 -0.402534E+02  0.905E-02    2.88       0.0  T
   2    -40.2534139 -0.152262E-04  0.543E-02    2.89       1.0  T
   3    -40.2534068  0.712439E-05  0.277E-02    2.89       1.0  T
   4    -40.2534186 -0.117678E-04  0.440E-03    2.89       4.3  T
   5    -40.2534190 -0.393063E-06  0.154E-03    2.89      12.2  T
   6    -40.2534190 -0.229120E-07  0.760E-04    2.89      24.9  T
   7    -40.2534190 -0.221539E-08  0.247E-04    2.89      76.5  T
   8    -40.2534190 -0.615636E-09  0.957E-05    2.89     197.5  T
   9    -40.2534190 -0.140155E-09  0.315E-05    2.89     599.5  T
     SCC iter.                  ...        0 min,  0.009 sec
     gradient                   ...        0 min,  0.012 sec
 * total energy  :   -39.5104713 Eh     change       -0.5625298E-03 Eh
   gradient norm :     0.0077252 Eh/α   predicted    -0.4697884E-03 ( -16.49%)
   displ. norm   :     0.1459745 α      lambda       -0.2811028E-03
   maximum displ.:     0.0968383 α      in ANC's #4, #7, #5, ...

........................................................................
.............................. CYCLE    4 ..............................
........................................................................

 iter      E             dE          RMSdq      gap      omega  full diag
   1    -40.2547479 -0.402547E+02  0.778E-02    2.86       0.0  T
   2    -40.2547513 -0.341040E-05  0.460E-02    2.86       1.0  T
   3    -40.2547432  0.806034E-05  0.212E-02    2.86       1.0  T
   4    -40.2547535 -0.102889E-04  0.194E-03    2.86       9.8  T
   5    -40.2547536 -0.543894E-07  0.900E-04    2.86      21.0  T
   6    -40.2547536 -0.637911E-08  0.457E-04    2.86      41.4  T
   7    -40.2547536 -0.102964E-08  0.984E-05    2.86     192.1  T
   8    -40.2547536 -0.157911E-09  0.441E-05    2.86     428.8  T
     SCC iter.                  ...        0 min,  0.008 sec
     gradient                   ...        0 min,  0.011 sec
 * total energy  :   -39.5106941 Eh     change       -0.2227712E-03 Eh
   gradient norm :     0.0053950 Eh/α   predicted    -0.1435476E-03 ( -35.56%)
   displ. norm   :     0.2909966 α      lambda       -0.3732273E-03
   maximum displ.:     0.2035626 α      in ANC's #4, #1, #5, ...

........................................................................
.............................. CYCLE    5 ..............................
........................................................................

 iter      E             dE          RMSdq      gap      omega  full diag
   1    -40.2522383 -0.402522E+02  0.140E-01    2.79       0.0  T
   2    -40.2522434 -0.511876E-05  0.823E-02    2.80       1.0  T
   3    -40.2522248  0.185758E-04  0.293E-02    2.79       1.0  T
   4    -40.2522470 -0.221295E-04  0.273E-03    2.80       6.9  T
   5    -40.2522470 -0.617300E-07  0.141E-03    2.80      13.4  T
   6    -40.2522470 -0.139782E-07  0.644E-04    2.80      29.3  T
   7    -40.2522470 -0.342086E-08  0.135E-04    2.80     140.1  T
   8    -40.2522470 -0.213653E-09  0.687E-05    2.80     275.1  T
     SCC iter.                  ...        0 min,  0.008 sec
     gradient                   ...        0 min,  0.011 sec
 * total energy  :   -39.5109525 Eh     change       -0.2584461E-03 Eh
   gradient norm :     0.0056178 Eh/α   predicted    -0.2024178E-03 ( -21.68%)
   displ. norm   :     0.2123736 α      lambda       -0.1784182E-03
   maximum displ.:     0.1473739 α      in ANC's #4, #1, #9, ...

........................................................................
.............................. CYCLE    6 ..............................
........................................................................

 iter      E             dE          RMSdq      gap      omega  full diag
   1    -40.2502337 -0.402502E+02  0.961E-02    2.76       0.0  T
   2    -40.2502346 -0.903099E-06  0.562E-02    2.76       1.0  T
   3    -40.2502334  0.120003E-05  0.785E-03    2.76       2.4  T
   4    -40.2502350 -0.157482E-05  0.150E-03    2.76      12.6  T
   5    -40.2502350 -0.101130E-07  0.723E-04    2.76      26.1  T
   6    -40.2502350 -0.255616E-08  0.298E-04    2.76      63.4  T
   7    -40.2502350 -0.160349E-08  0.700E-05    2.76     269.9  T
   8    -40.2502350 -0.294946E-10  0.371E-05    2.76     508.8  T
     SCC iter.                  ...        0 min,  0.010 sec
     gradient                   ...        0 min,  0.011 sec
 * total energy  :   -39.5111005 Eh     change       -0.1479721E-03 Eh
   gradient norm :     0.0067057 Eh/α   predicted    -0.9324201E-04 ( -36.99%)
   displ. norm   :     0.2773022 α      lambda       -0.2474661E-03
   maximum displ.:     0.1831284 α      in ANC's #4, #1, #9, ...

........................................................................
.............................. CYCLE    7 ..............................
........................................................................

 iter      E             dE          RMSdq      gap      omega  full diag
   1    -40.2485642 -0.402486E+02  0.122E-01    2.73       0.0  T
   2    -40.2485660 -0.175847E-05  0.716E-02    2.73       1.0  T
   3    -40.2485638  0.217744E-05  0.100E-02    2.73       1.9  T
   4    -40.2485666 -0.278094E-05  0.194E-03    2.73       9.7  T
   5    -40.2485666 -0.314645E-07  0.929E-04    2.73      20.3  T
   6    -40.2485666 -0.176629E-08  0.390E-04    2.73      48.4  T
   7    -40.2485666 -0.239038E-08  0.985E-05    2.73     191.9  T
   8    -40.2485666 -0.572982E-10  0.497E-05    2.73     380.6  T
     SCC iter.                  ...        0 min,  0.008 sec
     gradient                   ...        0 min,  0.011 sec
 * total energy  :   -39.5113033 Eh     change       -0.2028545E-03 Eh
   gradient norm :     0.0060391 Eh/α   predicted    -0.1332485E-03 ( -34.31%)
   displ. norm   :     0.3845376 α      lambda       -0.3006979E-03
   maximum displ.:     0.2447674 α      in ANC's #4, #1, #9, ...

........................................................................
.............................. CYCLE    8 ..............................
........................................................................

 iter      E             dE          RMSdq      gap      omega  full diag
   1    -40.2471613 -0.402472E+02  0.165E-01    2.69       0.0  T
   2    -40.2471652 -0.391503E-05  0.970E-02    2.69       1.0  T
   3    -40.2471579  0.737499E-05  0.181E-02    2.69       1.0  T
   4    -40.2471668 -0.889494E-05  0.260E-03    2.69       7.3  T
   5    -40.2471668 -0.608521E-07  0.128E-03    2.69      14.8  T
   6    -40.2471668 -0.136226E-08  0.574E-04    2.69      32.9  T
   7    -40.2471668 -0.512856E-08  0.130E-04    2.69     145.2  T
   8    -40.2471668 -0.102943E-09  0.693E-05    2.69     272.8  T
     SCC iter.                  ...        0 min,  0.009 sec
     gradient                   ...        0 min,  0.011 sec
 * total energy  :   -39.5115259 Eh     change       -0.2225844E-03 Eh
   gradient norm :     0.0060320 Eh/α   predicted    -0.1725833E-03 ( -22.46%)
   displ. norm   :     0.3059465 α      lambda       -0.2327065E-03
   maximum displ.:     0.1972646 α      in ANC's #1, #4, #9, ...

........................................................................
.............................. CYCLE    9 ..............................
........................................................................

 iter      E             dE          RMSdq      gap      omega  full diag
   1    -40.2479993 -0.402480E+02  0.129E-01    2.67       0.0  T
   2    -40.2480020 -0.268438E-05  0.756E-02    2.67       1.0  T
   3    -40.2479960  0.595836E-05  0.161E-02    2.67       1.2  T
   4    -40.2480031 -0.705481E-05  0.191E-03    2.67       9.9  T
   5    -40.2480031 -0.372903E-07  0.916E-04    2.67      20.6  T
   6    -40.2480031 -0.466919E-09  0.442E-04    2.67      42.8  T
   7    -40.2480031 -0.272502E-08  0.100E-04    2.67     188.9  T
   8    -40.2480031 -0.697824E-10  0.508E-05    2.67     372.1  T
     SCC iter.                  ...        0 min,  0.008 sec
     gradient                   ...        0 min,  0.012 sec
 * total energy  :   -39.5117132 Eh     change       -0.1872717E-03 Eh
   gradient norm :     0.0055395 Eh/α   predicted    -0.1272459E-03 ( -32.05%)
   displ. norm   :     0.3382468 α      lambda       -0.2927350E-03
   maximum displ.:     0.2345492 α      in ANC's #1, #4, #5, ...

........................................................................
.............................. CYCLE   10 ..............................
........................................................................

 iter      E             dE          RMSdq      gap      omega  full diag
   1    -40.2505800 -0.402506E+02  0.138E-01    2.65       0.0  T
   2    -40.2505824 -0.234472E-05  0.809E-02    2.65       1.0  T
   3    -40.2505774  0.500261E-05  0.147E-02    2.65       1.3  T
   4    -40.2505833 -0.594667E-05  0.180E-03    2.65      10.5  T
   5    -40.2505834 -0.286230E-07  0.892E-04    2.65      21.2  T
   6    -40.2505834  0.268216E-09  0.380E-04    2.65      49.7  T
   7    -40.2505834 -0.229080E-08  0.879E-05    2.65     215.0  T
   8    -40.2505834 -0.480469E-10  0.416E-05    2.65     454.3  T
     SCC iter.                  ...        0 min,  0.009 sec
     gradient                   ...        0 min,  0.010 sec
 * total energy  :   -39.5119508 Eh     change       -0.2375794E-03 Eh
   gradient norm :     0.0050936 Eh/α   predicted    -0.1631139E-03 ( -31.34%)
   displ. norm   :     0.4398856 α      lambda       -0.3163799E-03
   maximum displ.:     0.3134874 α      in ANC's #1, #4, #6, ...

........................................................................
.............................. CYCLE   11 ..............................
........................................................................

 iter      E             dE          RMSdq      gap      omega  full diag
   1    -40.2501284 -0.402501E+02  0.177E-01    2.62       0.0  T
   2    -40.2501303 -0.189654E-05  0.104E-01    2.62       1.0  T
   3    -40.2501259  0.443156E-05  0.135E-02    2.61       1.4  T
   4    -40.2501313 -0.542262E-05  0.210E-03    2.62       9.0  T
   5    -40.2501313 -0.155658E-07  0.115E-03    2.62      16.5  T
   6    -40.2501313  0.504926E-09  0.444E-04    2.62      42.6  T
   7    -40.2501313 -0.410156E-08  0.956E-05    2.62     197.6  T
   8    -40.2501313 -0.467182E-10  0.488E-05    2.62     386.9  T
     SCC iter.                  ...        0 min,  0.008 sec
     gradient                   ...        0 min,  0.012 sec
 * total energy  :   -39.5121941 Eh     change       -0.2433321E-03 Eh
   gradient norm :     0.0067790 Eh/α   predicted    -0.1888005E-03 ( -22.41%)
   displ. norm   :     0.3532610 α      lambda       -0.3378391E-03
   maximum displ.:     0.2717300 α      in ANC's #1, #5, #6, ...

........................................................................
.............................. CYCLE   12 ..............................
........................................................................

 iter      E             dE          RMSdq      gap      omega  full diag
   1    -40.2541880 -0.402542E+02  0.149E-01    2.60       0.0  T
   2    -40.2541909 -0.287217E-05  0.870E-02    2.61       1.0  T
   3    -40.2541875  0.338325E-05  0.118E-02    2.60       1.6  T
   4    -40.2541916 -0.406901E-05  0.260E-03    2.61       7.3  T
   5    -40.2541917 -0.121254E-06  0.116E-03    2.61      16.3  T
   6    -40.2541917 -0.310365E-10  0.487E-04    2.61      38.8  T
   7    -40.2541917 -0.335236E-08  0.133E-04    2.61     142.4  T
   8    -40.2541917 -0.109566E-09  0.472E-05    2.61     400.7  T
     SCC iter.                  ...        0 min,  0.009 sec
     gradient                   ...        0 min,  0.013 sec
 * total energy  :   -39.5123723 Eh     change       -0.1781571E-03 Eh
   gradient norm :     0.0060186 Eh/α   predicted    -0.1900014E-03 (   6.65%)
   displ. norm   :     0.3649129 α      lambda       -0.2326997E-03
   maximum displ.:     0.2817123 α      in ANC's #1, #6, #4, ...

........................................................................
.............................. CYCLE   13 ..............................
........................................................................

 iter      E             dE          RMSdq      gap      omega  full diag
   1    -40.2497446 -0.402497E+02  0.148E-01    2.57       0.0  T
   2    -40.2497474 -0.282168E-05  0.869E-02    2.58       1.0  T
   3    -40.2497449  0.255056E-05  0.105E-02    2.57       1.8  T
   4    -40.2497479 -0.307142E-05  0.310E-03    2.58       6.1  T
   5    -40.2497481 -0.178458E-06  0.116E-03    2.58      16.3  T
   6    -40.2497481  0.192700E-08  0.373E-04    2.58      50.7  T
   7    -40.2497481 -0.280853E-08  0.868E-05    2.58     217.7  T
   8    -40.2497481 -0.753317E-10  0.379E-05    2.58     498.7  T
     SCC iter.                  ...        0 min,  0.007 sec
     gradient                   ...        0 min,  0.010 sec
 * total energy  :   -39.5124990 Eh     change       -0.1267200E-03 Eh
   gradient norm :     0.0060789 Eh/α   predicted    -0.1318452E-03 (   4.04%)
   displ. norm   :     0.0943602 α      lambda       -0.1269939E-03
   maximum displ.:     0.0706544 α      in ANC's #1, #4, #5, ...

........................................................................
.............................. CYCLE   14 ..............................
........................................................................

 iter      E             dE          RMSdq      gap      omega  full diag
   1    -40.2510146 -0.402510E+02  0.338E-02    2.58       0.0  T
   2    -40.2510148 -0.198474E-06  0.199E-02    2.58       1.0  T
   3    -40.2510146  0.236303E-06  0.336E-03    2.57       5.6  T
   4    -40.2510149 -0.305577E-06  0.715E-04    2.58      26.4  T
   5    -40.2510149 -0.354022E-08  0.372E-04    2.58      50.8  T
   6    -40.2510149 -0.465327E-09  0.169E-04    2.58     111.7  T
   7    -40.2510149 -0.441823E-09  0.436E-05    2.58     433.7  T
     SCC iter.                  ...        0 min,  0.009 sec
     gradient                   ...        0 min,  0.011 sec
 * total energy  :   -39.5126030 Eh     change       -0.1040487E-03 Eh
   gradient norm :     0.0036556 Eh/α   predicted    -0.6406986E-04 ( -38.42%)
   displ. norm   :     0.2901630 α      lambda       -0.2178774E-03
   maximum displ.:     0.2400876 α      in ANC's #1, #4, #6, ...

........................................................................
.............................. CYCLE   15 ..............................
........................................................................

 iter      E             dE          RMSdq      gap      omega  full diag
   1    -40.2511827 -0.402512E+02  0.108E-01    2.57       0.0  T
   2    -40.2511835 -0.791142E-06  0.635E-02    2.57       1.0  T
   3    -40.2511820  0.145242E-05  0.789E-03    2.57       2.4  T
   4    -40.2511839 -0.186558E-05  0.152E-03    2.57      12.5  T
   5    -40.2511839 -0.456328E-08  0.801E-04    2.57      23.6  T
   6    -40.2511839 -0.585553E-08  0.278E-04    2.57      68.0  T
   7    -40.2511839 -0.123467E-08  0.778E-05    2.57     242.8  T
   8    -40.2511839 -0.211742E-10  0.372E-05    2.57     507.7  T
     SCC iter.                  ...        0 min,  0.009 sec
     gradient                   ...        0 min,  0.010 sec
 * total energy  :   -39.5127562 Eh     change       -0.1531657E-03 Eh
   gradient norm :     0.0038524 Eh/α   predicted    -0.1181188E-03 ( -22.88%)
   displ. norm   :     0.2658704 α      lambda       -0.1103675E-03
   maximum displ.:     0.2208313 α      in ANC's #1, #6, #4, ...

........................................................................
.............................. CYCLE   16 ..............................
........................................................................

 iter      E             dE          RMSdq      gap      omega  full diag
   1    -40.2504036 -0.402504E+02  0.962E-02    2.57       0.0  T
   2    -40.2504041 -0.505791E-06  0.565E-02    2.57       1.0  T
   3    -40.2504032  0.928600E-06  0.637E-03    2.57       3.0  T
   4    -40.2504044 -0.121245E-05  0.123E-03    2.57      15.3  T
   5    -40.2504044  0.114027E-08  0.645E-04    2.57      29.3  T
   6    -40.2504044 -0.542796E-08  0.159E-04    2.57     118.6  T
   7    -40.2504044 -0.350489E-09  0.633E-05    2.57     298.6  T
     SCC iter.                  ...        0 min,  0.007 sec
     gradient                   ...        0 min,  0.010 sec
 * total energy  :   -39.5128373 Eh     change       -0.8107878E-04 Eh
   gradient norm :     0.0047392 Eh/α   predicted    -0.5909036E-04 ( -27.12%)
   displ. norm   :     0.2525318 α      lambda       -0.9020357E-04
   maximum displ.:     0.2078438 α      in ANC's #1, #4, #6, ...

........................................................................
.............................. CYCLE   17 ..............................
........................................................................

 iter      E             dE          RMSdq      gap      omega  full diag
   1    -40.2504851 -0.402505E+02  0.899E-02    2.57       0.0  T
   2    -40.2504858 -0.704848E-06  0.527E-02    2.57       1.0  T
   3    -40.2504845  0.125729E-05  0.755E-03    2.57       2.5  T
   4    -40.2504861 -0.157740E-05  0.124E-03    2.57      15.3  T
   5    -40.2504861 -0.487432E-08  0.685E-04    2.57      27.6  T
   6    -40.2504861 -0.158023E-08  0.276E-04    2.57      68.6  T
   7    -40.2504861 -0.135368E-08  0.722E-05    2.57     261.7  T
   8    -40.2504861 -0.251390E-10  0.401E-05    2.57     471.7  T
     SCC iter.                  ...        0 min,  0.008 sec
     gradient                   ...        0 min,  0.010 sec
 * total energy  :   -39.5128956 Eh     change       -0.5833917E-04 Eh
   gradient norm :     0.0032442 Eh/α   predicted    -0.4798127E-04 ( -17.75%)
   displ. norm   :     0.1125876 α      lambda       -0.3595549E-04
   maximum displ.:     0.0890054 α      in ANC's #1, #6, #5, ...

........................................................................
.............................. CYCLE   18 ..............................
........................................................................

 iter      E             dE          RMSdq      gap      omega  full diag
   1    -40.2517185 -0.402517E+02  0.394E-02    2.57       0.0  T
   2    -40.2517186 -0.152098E-06  0.231E-02    2.57       1.0  T
   3    -40.2517183  0.299284E-06  0.372E-03    2.57       5.1  T
   4    -40.2517187 -0.368194E-06  0.567E-04    2.57      33.3  T
   5    -40.2517187 -0.126882E-08  0.306E-04    2.57      61.7  T
   6    -40.2517187 -0.145249E-09  0.117E-04    2.57     161.8  T
   7    -40.2517187 -0.271513E-09  0.328E-05    2.57     575.7  T
     SCC iter.                  ...        0 min,  0.009 sec
     gradient                   ...        0 min,  0.010 sec
 * total energy  :   -39.5129193 Eh     change       -0.2372312E-04 Eh
   gradient norm :     0.0018229 Eh/α   predicted    -0.1820886E-04 ( -23.24%)
   displ. norm   :     0.1058233 α      lambda       -0.1705359E-04
   maximum displ.:     0.0837633 α      in ANC's #1, #6, #3, ...

........................................................................
.............................. CYCLE   19 ..............................
........................................................................

 iter      E             dE          RMSdq      gap      omega  full diag
   1    -40.2523603 -0.402524E+02  0.456E-02    2.57       0.0  T
   2    -40.2523605 -0.197809E-06  0.268E-02    2.57       1.0  T
   3    -40.2523601  0.345484E-06  0.393E-03    2.57       4.8  T
   4    -40.2523605 -0.420769E-06  0.595E-04    2.57      31.8  T
   5    -40.2523605 -0.280811E-08  0.312E-04    2.57      60.5  T
   6    -40.2523605 -0.134065E-09  0.129E-04    2.57     146.6  T
   7    -40.2523605 -0.260258E-09  0.332E-05    2.57     569.1  T
     SCC iter.                  ...        0 min,  0.008 sec
     gradient                   ...        0 min,  0.011 sec
 * total energy  :   -39.5129308 Eh     change       -0.1143615E-04 Eh
   gradient norm :     0.0017842 Eh/α   predicted    -0.8572799E-05 ( -25.04%)
   displ. norm   :     0.0441347 α      lambda       -0.7091490E-05
   maximum displ.:     0.0252914 α      in ANC's #1, #4, #6, ...

........................................................................
.............................. CYCLE   20 ..............................
........................................................................

 iter      E             dE          RMSdq      gap      omega  full diag
   1    -40.2520767 -0.402521E+02  0.188E-02    2.56       0.0  T
   2    -40.2520768 -0.546995E-07  0.111E-02    2.56       1.7  T
   3    -40.2520767  0.477643E-07  0.155E-03    2.56      12.2  T
   4    -40.2520768 -0.607345E-07  0.401E-04    2.56      47.1  T
   5    -40.2520768 -0.228221E-08  0.173E-04    2.56     109.2  T
   6    -40.2520768 -0.390870E-10  0.754E-05    2.56     250.7  T
     SCC iter.                  ...        0 min,  0.007 sec
     gradient                   ...        0 min,  0.011 sec
 * total energy  :   -39.5129361 Eh     change       -0.5309598E-05 Eh
   gradient norm :     0.0017851 Eh/α   predicted    -0.3550108E-05 ( -33.14%)
   displ. norm   :     0.0419676 α      lambda       -0.7847941E-05
   maximum displ.:     0.0349189 α      in ANC's #4, #1, #3, ...
 * RMSD in coord.:     0.7008013 α      energy gain  -0.6768443E-02 Eh

generating ANC from exact Hessian ...
Using Lindh-Hessian (1995)
 Shifting diagonal of input Hessian by    9.1313402619067237E-003
 Lowest  eigenvalues of input Hessian
    0.000000    0.000000    0.000000    0.000000    0.000000    0.000000
    0.010000    0.010063    0.010555    0.012292    0.014181    0.016061
    0.018701    0.021180    0.024527    0.024756    0.025611    0.029936
 Highest eigenvalues
    1.897767    1.969197    2.004414    2.008799    2.049453    2.233067


........................................................................
.............................. CYCLE   21 ..............................
........................................................................

 iter      E             dE          RMSdq      gap      omega  full diag
   1    -40.2526430 -0.402526E+02  0.158E-02    2.56       0.0  T
   2    -40.2526431 -0.108251E-06  0.920E-03    2.56       2.1  T
   3    -40.2526430  0.104000E-06  0.257E-03    2.56       7.4  T
   4    -40.2526431 -0.129855E-06  0.447E-04    2.56      42.3  T
   5    -40.2526431 -0.302861E-08  0.201E-04    2.56      94.2  T
   6    -40.2526431 -0.370122E-10  0.104E-04    2.56     181.1  T
   7    -40.2526431 -0.181835E-09  0.249E-05    2.56     758.6  T
     SCC iter.                  ...        0 min,  0.008 sec
     gradient                   ...        0 min,  0.012 sec
 * total energy  :   -39.5129412 Eh     change       -0.5118323E-05 Eh
   gradient norm :     0.0012622 Eh/α   predicted     0.0000000E+00 (-100.00%)
   displ. norm   :     0.0186206 α      lambda       -0.5323024E-05
   maximum displ.:     0.0090958 α      in ANC's #4, #7, #6, ...

........................................................................
.............................. CYCLE   22 ..............................
........................................................................

 iter      E             dE          RMSdq      gap      omega  full diag
   1    -40.2523460 -0.402523E+02  0.101E-02    2.56       0.0  T
   2    -40.2523460 -0.214934E-07  0.598E-03    2.56       3.2  T
   3    -40.2523460  0.352410E-07  0.123E-03    2.56      15.4  T
   4    -40.2523460 -0.433889E-07  0.210E-04    2.56      90.0  T
   5    -40.2523460 -0.335234E-09  0.110E-04    2.56     171.9  T
   6    -40.2523460 -0.588543E-10  0.403E-05    2.56     468.6  T
     SCC iter.                  ...        0 min,  0.009 sec
     gradient                   ...        0 min,  0.013 sec
 * total energy  :   -39.5129459 Eh     change       -0.4754862E-05 Eh
   gradient norm :     0.0003641 Eh/α   predicted    -0.2666471E-05 ( -43.92%)
   displ. norm   :     0.0247438 α      lambda       -0.2627854E-05
   maximum displ.:     0.0134407 α      in ANC's #7, #6, #4, ...

........................................................................
.............................. CYCLE   23 ..............................
........................................................................

 iter      E             dE          RMSdq      gap      omega  full diag
   1    -40.2523265 -0.402523E+02  0.934E-03    2.56       0.0  T
   2    -40.2523265 -0.207321E-07  0.549E-03    2.56       3.4  T
   3    -40.2523265  0.448338E-07  0.144E-03    2.56      13.1  T
   4    -40.2523265 -0.541390E-07  0.186E-04    2.56     101.8  T
   5    -40.2523265 -0.195620E-09  0.937E-05    2.56     201.8  T
     SCC iter.                  ...        0 min,  0.008 sec
     gradient                   ...        0 min,  0.010 sec
 * total energy  :   -39.5129490 Eh     change       -0.3016579E-05 Eh
   gradient norm :     0.0005422 Eh/α   predicted    -0.1316788E-05 ( -56.35%)
   displ. norm   :     0.0616705 α      lambda       -0.4784114E-05
   maximum displ.:     0.0341839 α      in ANC's #7, #6, #4, ...

........................................................................
.............................. CYCLE   24 ..............................
........................................................................

 iter      E             dE          RMSdq      gap      omega  full diag
   1    -40.2523626 -0.402524E+02  0.202E-02    2.56       0.0  T
   2    -40.2523627 -0.928838E-07  0.119E-02    2.56       1.6  T
   3    -40.2523625  0.195128E-06  0.307E-03    2.56       6.2  T
   4    -40.2523627 -0.234389E-06  0.393E-04    2.56      48.1  T
   5    -40.2523627 -0.101186E-08  0.198E-04    2.56      95.4  T
   6    -40.2523627 -0.954685E-10  0.824E-05    2.56     229.3  T
     SCC iter.                  ...        0 min,  0.007 sec
     gradient                   ...        0 min,  0.011 sec
 * total energy  :   -39.5129538 Eh     change       -0.4864751E-05 Eh
   gradient norm :     0.0008270 Eh/α   predicted    -0.2401746E-05 ( -50.63%)
   displ. norm   :     0.0535004 α      lambda       -0.2983040E-05
   maximum displ.:     0.0304491 α      in ANC's #7, #6, #5, ...

........................................................................
.............................. CYCLE   25 ..............................
........................................................................

 iter      E             dE          RMSdq      gap      omega  full diag
   1    -40.2524001 -0.402524E+02  0.165E-02    2.56       0.0  T
   2    -40.2524002 -0.459002E-07  0.976E-03    2.56       1.9  T
   3    -40.2524001  0.100884E-06  0.223E-03    2.56       8.5  T
   4    -40.2524002 -0.120108E-06  0.300E-04    2.56      63.0  T
   5    -40.2524002 -0.653515E-09  0.155E-04    2.56     122.0  T
   6    -40.2524002 -0.500862E-10  0.690E-05    2.56     274.0  T
     SCC iter.                  ...        0 min,  0.007 sec
     gradient                   ...        0 min,  0.012 sec
 * total energy  :   -39.5129571 Eh     change       -0.3247992E-05 Eh
   gradient norm :     0.0006044 Eh/α   predicted    -0.1531383E-05 ( -52.85%)
   displ. norm   :     0.0458126 α      lambda       -0.2313762E-05
   maximum displ.:     0.0268846 α      in ANC's #7, #6, #5, ...

........................................................................
.............................. CYCLE   26 ..............................
........................................................................

 iter      E             dE          RMSdq      gap      omega  full diag
   1    -40.2525240 -0.402525E+02  0.134E-02    2.56       0.0  T
   2    -40.2525240 -0.179092E-07  0.791E-03    2.56       2.4  T
   3    -40.2525240  0.383324E-07  0.138E-03    2.56      13.7  T
   4    -40.2525241 -0.465645E-07  0.242E-04    2.56      78.2  T
   5    -40.2525241 -0.261331E-09  0.121E-04    2.56     155.7  T
   6    -40.2525241 -0.446505E-10  0.499E-05    2.56     379.0  T
     SCC iter.                  ...        0 min,  0.007 sec
     gradient                   ...        0 min,  0.011 sec
 * total energy  :   -39.5129596 Eh     change       -0.2499324E-05 Eh
   gradient norm :     0.0002817 Eh/α   predicted    -0.1165558E-05 ( -53.37%)
   displ. norm   :     0.0472966 α      lambda       -0.1705439E-05
   maximum displ.:     0.0284950 α      in ANC's #7, #6, #3, ...

........................................................................
.............................. CYCLE   27 ..............................
........................................................................

 iter      E             dE          RMSdq      gap      omega  full diag
   1    -40.2525180 -0.402525E+02  0.136E-02    2.56       0.0  T
   2    -40.2525180 -0.987915E-08  0.803E-03    2.56       2.4  T
   3    -40.2525180  0.331698E-08  0.625E-04    2.56      30.2  T
   4    -40.2525180 -0.791864E-08  0.243E-04    2.56      77.6  T
   5    -40.2525180 -0.101785E-09  0.645E-05    2.56     292.9  T
   6    -40.2525180 -0.974509E-10  0.212E-05    2.56     889.9  T
     SCC iter.                  ...        0 min,  0.008 sec
     gradient                   ...        0 min,  0.014 sec
 * total energy  :   -39.5129614 Eh     change       -0.1788388E-05 Eh
   gradient norm :     0.0003001 Eh/α   predicted    -0.8544981E-06 ( -52.22%)
   displ. norm   :     0.0311061 α      lambda       -0.9097039E-06
   maximum displ.:     0.0188111 α      in ANC's #7, #4, #6, ...

........................................................................
.............................. CYCLE   28 ..............................
........................................................................

 iter      E             dE          RMSdq      gap      omega  full diag
   1    -40.2525496 -0.402525E+02  0.978E-03    2.56       0.0  T
   2    -40.2525496 -0.561539E-08  0.578E-03    2.56       3.3  T
   3    -40.2525496 -0.878792E-09  0.306E-04    2.56      61.8  T
   4    -40.2525496 -0.114427E-08  0.157E-04    2.56     120.4  T
   5    -40.2525496 -0.134399E-09  0.532E-05    2.56     355.3  T
     SCC iter.                  ...        0 min,  0.006 sec
     gradient                   ...        0 min,  0.020 sec
 * total energy  :   -39.5129624 Eh     change       -0.1047641E-05 Eh
   gradient norm :     0.0002453 Eh/α   predicted    -0.4565911E-06 ( -56.42%)
   displ. norm   :     0.0267874 α      lambda       -0.6247644E-06
   maximum displ.:     0.0167565 α      in ANC's #7, #6, #4, ...

........................................................................
.............................. CYCLE   29 ..............................
........................................................................

 iter      E             dE          RMSdq      gap      omega  full diag
   1    -40.2525152 -0.402525E+02  0.844E-03    2.56       0.0  T
   2    -40.2525152 -0.389652E-08  0.499E-03    2.56       3.8  T
   3    -40.2525152  0.345420E-08  0.477E-04    2.56      39.6  T
   4    -40.2525152 -0.513069E-08  0.130E-04    2.56     145.1  T
   5    -40.2525152 -0.503704E-10  0.607E-05    2.56     311.1  T
     SCC iter.                  ...        0 min,  0.006 sec
     gradient                   ...        0 min,  0.011 sec
 * total energy  :   -39.5129631 Eh     change       -0.7061509E-06 Eh
   gradient norm :     0.0001587 Eh/α   predicted    -0.3132026E-06 ( -55.65%)
   displ. norm   :     0.0134607 α      lambda       -0.4002894E-06
   maximum displ.:     0.0104227 α      in ANC's #4, #6, #7, ...

........................................................................
.............................. CYCLE   30 ..............................
........................................................................

 iter      E             dE          RMSdq      gap      omega  full diag
   1    -40.2525725 -0.402526E+02  0.598E-03    2.56       0.0  T
   2    -40.2525725 -0.482365E-08  0.351E-03    2.56       5.4  T
   3    -40.2525725  0.108302E-07  0.720E-04    2.56      26.3  T
   4    -40.2525725 -0.128906E-07  0.922E-05    2.56     204.9  T
   5    -40.2525725 -0.744365E-10  0.472E-05    2.56     400.7  T
     SCC iter.                  ...        0 min,  0.007 sec
     gradient                   ...        0 min,  0.014 sec
 * total energy  :   -39.5129636 Eh     change       -0.4349588E-06 Eh
   gradient norm :     0.0001534 Eh/α   predicted    -0.2078467E-06 ( -52.21%)
   displ. norm   :     0.0117764 α      lambda       -0.2303325E-06
   maximum displ.:     0.0076878 α      in ANC's #4, #6, #7, ...

........................................................................
.............................. CYCLE   31 ..............................
........................................................................

 iter      E             dE          RMSdq      gap      omega  full diag
   1    -40.2525369 -0.402525E+02  0.476E-03    2.57       0.0  T
   2    -40.2525369 -0.225486E-08  0.279E-03    2.57       6.8  T
   3    -40.2525369  0.420989E-08  0.457E-04    2.57      41.4  T
   4    -40.2525369 -0.520422E-08  0.732E-05    2.57     258.0  T
   5    -40.2525369 -0.232276E-10  0.392E-05    2.57     481.6  T
     SCC iter.                  ...        0 min,  0.006 sec
     gradient                   ...        0 min,  0.011 sec
 * total energy  :   -39.5129638 Eh     change       -0.2660304E-06 Eh
   gradient norm :     0.0001011 Eh/α   predicted    -0.1187420E-06 ( -55.37%)
   displ. norm   :     0.0107718 α      lambda       -0.1585438E-06
   maximum displ.:     0.0069410 α      in ANC's #4, #3, #6, ...

........................................................................
.............................. CYCLE   32 ..............................
........................................................................

 iter      E             dE          RMSdq      gap      omega  full diag
   1    -40.2525333 -0.402525E+02  0.442E-03    2.57       0.0  T
   2    -40.2525333 -0.146120E-08  0.259E-03    2.57       7.3  T
   3    -40.2525333  0.367584E-08  0.416E-04    2.57      45.4  T
   4    -40.2525333 -0.448517E-08  0.583E-05    2.57     324.2  T
   5    -40.2525333 -0.463274E-11  0.319E-05    2.57     592.8  T
     SCC iter.                  ...        0 min,  0.005 sec
     gradient                   ...        0 min,  0.011 sec
 * total energy  :   -39.5129640 Eh     change       -0.1933368E-06 Eh
   gradient norm :     0.0000925 Eh/α   predicted    -0.7969856E-07 ( -58.78%)
   displ. norm   :     0.0127070 α      lambda       -0.1560261E-06
   maximum displ.:     0.0076239 α      in ANC's #4, #3, #6, ...

........................................................................
.............................. CYCLE   33 ..............................
........................................................................

 iter      E             dE          RMSdq      gap      omega  full diag
   1    -40.2525392 -0.402525E+02  0.517E-03    2.57       0.0  T
   2    -40.2525392 -0.153295E-08  0.304E-03    2.57       6.2  T
   3    -40.2525392  0.356754E-08  0.405E-04    2.57      46.7  T
   4    -40.2525392 -0.444992E-08  0.639E-05    2.57     295.9  T
   5    -40.2525392 -0.326850E-11  0.349E-05    2.57     541.7  T
     SCC iter.                  ...        0 min,  0.006 sec
     gradient                   ...        0 min,  0.011 sec
 * total energy  :   -39.5129642 Eh     change       -0.1878828E-06 Eh
   gradient norm :     0.0000765 Eh/α   predicted    -0.8087891E-07 ( -56.95%)
   displ. norm   :     0.0119903 α      lambda       -0.1155849E-06
   maximum displ.:     0.0068808 α      in ANC's #3, #4, #5, ...

........................................................................
.............................. CYCLE   34 ..............................
........................................................................

 iter      E             dE          RMSdq      gap      omega  full diag
   1    -40.2525541 -0.402526E+02  0.481E-03    2.57       0.0  T
   2    -40.2525541 -0.118908E-08  0.282E-03    2.57       6.7  T
   3    -40.2525541  0.295277E-08  0.365E-04    2.57      51.8  T
   4    -40.2525541 -0.366747E-08  0.541E-05    2.57     349.3  T
   5    -40.2525541 -0.210321E-11  0.302E-05    2.57     624.9  T
     SCC iter.                  ...        0 min,  0.006 sec
     gradient                   ...        0 min,  0.010 sec
 * total energy  :   -39.5129643 Eh     change       -0.1393794E-06 Eh
   gradient norm :     0.0000578 Eh/α   predicted    -0.6013361E-07 ( -56.86%)
   displ. norm   :     0.0095069 α      lambda       -0.7045755E-07
   maximum displ.:     0.0058535 α      in ANC's #3, #2, #4, ...

........................................................................
.............................. CYCLE   35 ..............................
........................................................................

 iter      E             dE          RMSdq      gap      omega  full diag
   1    -40.2525649 -0.402526E+02  0.380E-03    2.57       0.0  T
   2    -40.2525649 -0.648008E-09  0.223E-03    2.57       8.5  T
   3    -40.2525649  0.158048E-08  0.263E-04    2.57      71.9  T
   4    -40.2525649 -0.199654E-08  0.432E-05    2.57     437.9  T
   5    -40.2525649  0.135714E-11  0.229E-05    2.57     823.5  T
     SCC iter.                  ...        0 min,  0.007 sec
     gradient                   ...        0 min,  0.010 sec
 * total energy  :   -39.5129644 Eh     change       -0.9998060E-07 Eh
   gradient norm :     0.0000427 Eh/α   predicted    -0.3881181E-07 ( -61.18%)
   displ. norm   :     0.0067160 α      lambda       -0.4901339E-07
   maximum displ.:     0.0042934 α      in ANC's #3, #2, #1, ...

   *** GEOMETRY OPTIMIZATION CONVERGED AFTER 35 ITERATIONS ***

------------------------------------------------------------------------
 total energy gain   :        -0.0067968 Eh       -4.2651 kcal/mol
 total RMSD          :         0.7053044 a0        0.3732 Å
 total power (kW/mol):        -0.5098577 (step)  -19.4746 (real)
------------------------------------------------------------------------

 ANCopt (total)                0 d,  0 h,  0 min,  0.916 sec
 optimizer setup                ...        0 min,  0.001 sec (  0.076%)
 model hessian                  ...        0 min,  0.014 sec (  1.496%)
 ANC generation                 ...        0 min,  0.001 sec (  0.160%)
 coordinate transformation      ...        0 min,  0.000 sec (  0.051%)
 single point calculation       ...        0 min,  0.872 sec ( 95.150%)
 optimization log               ...        0 min,  0.021 sec (  2.282%)
 hessian update                 ...        0 min,  0.001 sec (  0.085%)
 rational function              ...        0 min,  0.004 sec (  0.473%)

================
 final structure:
================
28
 xtb: 6.7.1 (edcfbbe)
C           -1.11405409875372       -3.02331725908086       -0.25977501944408
C           -0.43991976711022       -1.68597392403111       -0.21477902452445
N            0.77432513764796       -1.62432684211341       -0.56863519448676
C            1.53800540580571       -0.48715135190400       -0.71445388959791
C            2.78762016874650       -0.42739188001824       -0.09215315258183
C            3.61686488718397        0.65648341744784       -0.29901489948623
C            3.23203416767202        1.68390632955284       -1.14667340573413
C            2.00459263329720        1.61974771350109       -1.78602167356131
C            1.15840404196514        0.54980857692182       -1.57121944088169
C           -1.24011683204363       -0.54215563731576        0.28343559552681
C           -2.55825664447166       -0.35493151694626       -0.12742755551946
C           -3.28914276161056        0.72476097142706        0.33412422560635
C           -2.72170370795284        1.62287446665692        1.22305873466158
C           -1.41599532704500        1.43792650665092        1.64734878397388
C           -0.67823287505062        0.36730708650880        1.17781005165704
H           -0.37288591385531       -3.80030613549626       -0.42458075336351
H           -1.65136159737135       -3.20981167090346        0.66823932260872
H           -1.83221273617522       -3.05027988910067       -1.07836914073673
H            3.08181605504830       -1.23228905835726        0.56584862001340
H            4.57501711243794        0.69857140216348        0.19983059797563
H            3.88729276787248        2.52675226561784       -1.31139748452362
H            1.70014134084272        2.41424824923924       -2.45308318377054
H            0.20092422983979        0.49528500322825       -2.07105495689073
H           -3.00878420851937       -1.04180742436384       -0.82886675929534
H           -4.30717650969672        0.86486794105864       -0.00015695534963
H           -3.29564217920595        2.46344068396103        1.58504787242291
H           -0.96902316699319        2.13124461840176        2.34500759994748
H            0.33747037729548        0.22251735729471        1.51716903565480

 Bond Distances (Angstroems)
 ---------------------------
C1-C2=1.4983         C1-H16=1.0864        C1-H17=1.0884        C1-H18=1.0893        C2-C1=1.4983         C2-N3=1.2663         
C2-C10=1.4822        N3-C2=1.2663         N3-C4=1.3775         C4-N3=1.3775         C4-C5=1.3973         C4-C9=1.3977         
C5-C4=1.3973         C5-C6=1.3803         C5-H19=1.0805        C6-C5=1.3803         C6-C7=1.3864         C6-H20=1.0811        
C7-C6=1.3864         C7-C8=1.3855         C7-H21=1.0802        C8-C7=1.3855         C8-C9=1.3809         C8-H22=1.0812        
C9-C4=1.3977         C9-C8=1.3809         C9-H23=1.0815        C10-C2=1.4822        C10-C11=1.3933       C10-C15=1.3938       
C11-C10=1.3933       C11-C12=1.3831       C11-H24=1.0802       C12-C11=1.3831       C12-C13=1.3852       C12-H25=1.0806       
C13-C12=1.3852       C13-C14=1.3853       C13-H26=1.0803       C14-C13=1.3853       C14-C15=1.3824       C14-H27=1.0804       
C15-C10=1.3938       C15-C14=1.3824       C15-H28=1.0806       H16-C1=1.0864        H17-C1=1.0884        H18-C1=1.0893        
H19-C5=1.0805        H20-C6=1.0811        H21-C7=1.0802        H22-C8=1.0812        H23-C9=1.0815        H24-C11=1.0802       
H25-C12=1.0806       H26-C13=1.0803       H27-C14=1.0804       H28-C15=1.0806       
 C  H  Rav=1.0824 sigma=0.0032  Rmin=1.0802  Rmax=1.0893    13
 C  C  Rav=1.4023 sigma=0.0365  Rmin=1.3803  Rmax=1.4983    14
 N  C  Rav=1.3219 sigma=0.0556  Rmin=1.2663  Rmax=1.3775     2

 selected bond angles (degree)
 --------------------
H16-C1-C2=109.63               H17-C1-C2=110.45               H17-C1-H16=110.10              H18-C1-C2=109.96               
H18-C1-H16=108.55              H18-C1-H17=108.12              N3-C2-C1=117.81                C10-C2-C1=117.13               
C10-C2-N3=125.03               C4-N3-C2=126.97                C5-C4-N3=118.94                C9-C4-N3=121.79                
C9-C4-C5=118.96                C6-C5-C4=120.27                H19-C5-C4=118.87               H19-C5-C6=120.84               
C7-C6-C5=120.45                H20-C6-C5=119.60               H20-C6-C7=119.95               C8-C7-C6=119.59                
H21-C7-C6=120.20               H21-C7-C8=120.21               C9-C8-C7=120.46                H22-C8-C7=120.01               
H22-C8-C9=119.52               C8-C9-C4=120.25                H23-C9-C4=119.10               H23-C9-C8=120.64               
C11-C10-C2=121.02              C15-C10-C2=120.11              C15-C10-C11=118.88             

 selected dihedral angles (degree)
 ---------------------------------
N3-C2-C1-H16= 10.73           N3-C2-C1-H17=132.23           N3-C2-C1-H18=251.47           C10-C2-C1-H16=192.60          
C10-C2-C1-H17=314.09          C10-C2-C1-H18= 73.34          C4-N3-C2-C1=173.76            C4-N3-C2-C10=351.74           
C5-C4-N3-C2=129.44            C9-C4-N3-C2=302.99            C6-C5-C4-N3=175.26            C6-C5-C4-C9=  1.52            
H19-C5-C4-N3=354.05           H19-C5-C4-C9=180.32           C7-C6-C5-C4=358.68            C7-C6-C5-H19=179.90           
H20-C6-C5-C4=179.07           H20-C6-C5-H19=  0.30          C8-C7-C6-C5=  0.15            C8-C7-C6-H20=179.76           
H21-C7-C6-C5=180.46           H21-C7-C6-H20=  0.06          C9-C8-C7-C6=  0.81            C9-C8-C7-H21=180.50           
H22-C8-C7-C6=180.37           H22-C8-C7-H21=  0.06          C8-C9-C4-N3=185.88            C8-C9-C4-C5=359.43            
H23-C9-C4-N3=  5.11           H23-C9-C4-C5=178.66           C4-C9-C8-C7=359.41            C4-C9-C8-H22=179.85           
H23-C9-C8-C7=180.19           H23-C9-C8-H22=  0.63          C11-C10-C2-C1=316.10          C11-C10-C2-N3=138.11          
C15-C10-C2-C1=136.05          C15-C10-C2-N3=318.07          
           -------------------------------------------------
          |                Final Singlepoint                |
           -------------------------------------------------

          ...................................................
          :                      SETUP                      :
          :.................................................:
          :  # basis functions                  73          :
          :  # atomic orbitals                  73          :
          :  # shells                           43          :
          :  # electrons                        74          :
          :  max. iterations                   250          :
          :  Hamiltonian                  GFN2-xTB          :
          :  restarted?                      false          :
          :  GBSA solvation                   true          :
          :  PC potential                    false          :
          :  electronic temp.          300.0000000     K    :
          :  accuracy                    0.2000000          :
          :  -> integral cutoff          0.3198970E+02      :
          :  -> integral neglect         0.2000000E-08      :
          :  -> SCF convergence          0.2000000E-06 Eh   :
          :  -> wf. convergence          0.2000000E-04 e    :
          :  Broyden damping             0.4000000          :
          :  net charge                          0          :
          :  unpaired electrons                  0          :
          ...................................................

 iter      E             dE          RMSdq      gap      omega  full diag
   1    -40.2525649 -0.402526E+02  0.443E-06    2.57       0.0  T
   2    -40.2525649 -0.177636E-12  0.278E-06    2.57    6793.1  T
   3    -40.2525649  0.142109E-13  0.152E-06    2.57   12457.7  T

   *** convergence criteria satisfied after 3 iterations ***

         #    Occupation            Energy/Eh            Energy/eV
      -------------------------------------------------------------
         1        2.0000           -0.6549668             -17.8226
       ...           ...                  ...                  ...
        31        2.0000           -0.4272101             -11.6250
        32        2.0000           -0.4174795             -11.3602
        33        2.0000           -0.4104442             -11.1688
        34        2.0000           -0.4077533             -11.0955
        35        2.0000           -0.3970909             -10.8054
        36        2.0000           -0.3927938             -10.6885
        37        2.0000           -0.3548907              -9.6571 (HOMO)
        38                         -0.2604186              -7.0864 (LUMO)
        39                         -0.2282184              -6.2101
        40                         -0.2153851              -5.8609
        41                         -0.2138743              -5.8198
        42                         -0.1869852              -5.0881
       ...                                ...                  ...
        73                          0.6977056              18.9855
      -------------------------------------------------------------
                  HL-Gap            0.0944721 Eh            2.5707 eV
             Fermi-level           -0.3076546 Eh           -8.3717 eV

 SCC (total)                   0 d,  0 h,  0 min,  0.019 sec
 SCC setup                      ...        0 min,  0.001 sec (  3.618%)
 Dispersion                     ...        0 min,  0.000 sec (  1.955%)
 classical contributions        ...        0 min,  0.000 sec (  0.338%)
 integral evaluation            ...        0 min,  0.004 sec ( 19.744%)
 iterations                     ...        0 min,  0.004 sec ( 22.017%)
 molecular gradient             ...        0 min,  0.010 sec ( 51.134%)
 printout                       ...        0 min,  0.000 sec (  1.123%)

         :::::::::::::::::::::::::::::::::::::::::::::::::::::
         ::                     SUMMARY                     ::
         :::::::::::::::::::::::::::::::::::::::::::::::::::::
         :: total energy             -39.512964438800 Eh    ::
         :: total w/o Gsasa/hb       -39.495806024761 Eh    ::
         :: gradient norm              0.000044424323 Eh/a0 ::
         :: HOMO-LUMO gap              2.570716045078 eV    ::
         ::.................................................::
         :: SCC energy               -40.252238701810 Eh    ::
         :: -> isotropic ES            0.010372083709 Eh    ::
         :: -> anisotropic ES          0.005675991872 Eh    ::
         :: -> anisotropic XC          0.030359955434 Eh    ::
         :: -> dispersion             -0.028779154914 Eh    ::
         :: -> Gsolv                  -0.017551931844 Eh    ::
         ::    -> Gelec               -0.000393517805 Eh    ::
         ::    -> Gsasa               -0.019366557178 Eh    ::
         ::    -> Ghb                  0.000000000000 Eh    ::
         ::    -> Gshift               0.002208143139 Eh    ::
         :: repulsion energy           0.739274263010 Eh    ::
         :: add. restraining           0.000000000000 Eh    ::
         :: total charge               0.000000000000 e     ::
         :::::::::::::::::::::::::::::::::::::::::::::::::::::

           -------------------------------------------------
          |                Property Printout                |
           -------------------------------------------------

    * Orbital Energies and Occupations

         #    Occupation            Energy/Eh            Energy/eV
      -------------------------------------------------------------
         1        2.0000           -0.6549668             -17.8226
       ...           ...                  ...                  ...
        25        2.0000           -0.4708489             -12.8125
        26        2.0000           -0.4653988             -12.6641
        27        2.0000           -0.4637209             -12.6185
        28        2.0000           -0.4431831             -12.0596
        29        2.0000           -0.4395192             -11.9599
        30        2.0000           -0.4279362             -11.6447
        31        2.0000           -0.4272101             -11.6250
        32        2.0000           -0.4174795             -11.3602
        33        2.0000           -0.4104442             -11.1688
        34        2.0000           -0.4077533             -11.0955
        35        2.0000           -0.3970909             -10.8054
        36        2.0000           -0.3927938             -10.6885
        37        2.0000           -0.3548907              -9.6571 (HOMO)
        38                         -0.2604186              -7.0864 (LUMO)
        39                         -0.2282184              -6.2101
        40                         -0.2153851              -5.8609
        41                         -0.2138743              -5.8198
        42                         -0.1869852              -5.0881
        43                         -0.0947340              -2.5778
        44                         -0.0785016              -2.1361
        45                          0.0801276               2.1804
        46                          0.1028866               2.7997
        47                          0.1185175               3.2250
        48                          0.1317170               3.5842
       ...                                ...                  ...
        73                          0.6977056              18.9855
      -------------------------------------------------------------
                  HL-Gap            0.0944721 Eh            2.5707 eV
             Fermi-level           -0.3076546 Eh           -8.3717 eV

     #   Z          covCN         q      C6AA      α(0)
     1   6 C        3.763    -0.118    22.805     6.807
     2   6 C        2.899     0.115    25.467     8.274
     3   7 N        1.844    -0.219    26.625     7.647
     4   6 C        2.925     0.085    26.110     8.380
     5   6 C        2.925    -0.047    29.178     8.858
     6   6 C        2.919    -0.032    28.787     8.798
     7   6 C        2.919    -0.041    29.019     8.834
     8   6 C        2.919    -0.031    28.777     8.797
     9   6 C        2.922    -0.049    29.220     8.865
    10   6 C        2.973    -0.002    28.066     8.690
    11   6 C        2.923    -0.031    28.765     8.795
    12   6 C        2.918    -0.029    28.720     8.788
    13   6 C        2.920    -0.027    28.687     8.783
    14   6 C        2.918    -0.028    28.700     8.785
    15   6 C        2.924    -0.025    28.637     8.776
    16   1 H        0.925     0.067     2.121     2.277
    17   1 H        0.925     0.056     2.242     2.342
    18   1 H        0.925     0.064     2.155     2.296
    19   1 H        0.926     0.031     2.568     2.506
    20   1 H        0.926     0.027     2.635     2.539
    21   1 H        0.926     0.024     2.674     2.557
    22   1 H        0.926     0.024     2.667     2.554
    23   1 H        0.925     0.019     2.755     2.596
    24   1 H        0.926     0.035     2.513     2.479
    25   1 H        0.926     0.034     2.524     2.485
    26   1 H        0.926     0.034     2.529     2.487
    27   1 H        0.926     0.033     2.543     2.494
    28   1 H        0.926     0.031     2.567     2.506

 Mol. C6AA /au·bohr⁶  :       9915.147103
 Mol. C8AA /au·bohr⁸  :     243044.503651
 Mol. α(0) /au        :        159.993475


Wiberg/Mayer (AO) data.
largest (>0.10) Wiberg bond orders for each atom

 ---------------------------------------------------------------------------
     #   Z sym  total        # sym  WBO       # sym  WBO       # sym  WBO
 ---------------------------------------------------------------------------
     1   6 C    3.993 --     2 C    1.019    16 H    0.981    17 H    0.972
                            18 H    0.957
     2   6 C    3.966 --     3 N    1.783    10 C    1.019     1 C    1.019
     3   7 N    3.204 --     2 C    1.783     4 C    1.130
     4   6 C    3.978 --     5 C    1.346     9 C    1.342     3 N    1.130
     5   6 C    3.985 --     6 C    1.464     4 C    1.346    19 H    0.971
                             8 C    0.105
     6   6 C    3.992 --     5 C    1.464     7 C    1.425    20 H    0.971
                             9 C    0.103
     7   6 C    3.989 --     8 C    1.431     6 C    1.425    21 H    0.972
     8   6 C    3.992 --     9 C    1.458     7 C    1.431    22 H    0.970
                             5 C    0.105
     9   6 C    3.989 --     8 C    1.458     4 C    1.342    23 H    0.970
                             6 C    0.103
    10   6 C    3.989 --    11 C    1.390    15 C    1.389     2 C    1.019
                            13 C    0.106
    11   6 C    3.988 --    12 C    1.450    10 C    1.390    24 H    0.968
                            14 C    0.109
    12   6 C    3.992 --    11 C    1.450    13 C    1.435    25 H    0.970
                            15 C    0.109
    13   6 C    3.991 --    12 C    1.435    14 C    1.435    26 H    0.971
                            10 C    0.106
    14   6 C    3.992 --    15 C    1.451    13 C    1.435    27 H    0.970
                            11 C    0.109
    15   6 C    3.992 --    14 C    1.451    10 C    1.389    28 H    0.968
                            12 C    0.109
    16   1 H    0.995 --     1 C    0.981
    17   1 H    0.996 --     1 C    0.972
    18   1 H    0.994 --     1 C    0.957
    19   1 H    0.999 --     5 C    0.971
    20   1 H    0.998 --     6 C    0.971
    21   1 H    0.999 --     7 C    0.972
    22   1 H    0.999 --     8 C    0.970
    23   1 H    1.000 --     9 C    0.970
    24   1 H    0.999 --    11 C    0.968
    25   1 H    0.998 --    12 C    0.970
    26   1 H    0.998 --    13 C    0.971
    27   1 H    0.999 --    14 C    0.970
    28   1 H    0.999 --    15 C    0.968
 ---------------------------------------------------------------------------

Topologies differ in total number of bonds
Writing topology from bond orders to xtbtopo.mol

molecular dipole:
                 x           y           z       tot (Debye)
 q only:       -0.786      -0.261       0.248
   full:       -0.970       0.005       0.310       2.588
molecular quadrupole (traceless):
                xx          xy          yy          xz          yz          zz
 q only:        0.101       2.373       2.447       1.879       0.679      -2.548
  q+dip:        3.034       3.401       1.327       5.551       0.316      -4.362
Note: The following floating-point exceptions are signalling: IEEE_DIVIDE_BY_ZERO IEEE_UNDERFLOW_FLAG IEEE_DENORMAL
normal termination of xtb
   full:        1.158       3.553       0.793       3.607      -0.168      -1.951

           -------------------------------------------------
          |                Geometry Summary                 |
           -------------------------------------------------

      molecular mass/u    :      195.2602356
   center of mass at/Å    :        0.1011410       0.0125606      -0.1425112
  moments of inertia/u·Å² :        0.5024192E+03   0.1121302E+04   0.1400656E+04
rotational constants/cm⁻¹ :        0.3355292E-01   0.1503398E-01   0.1203553E-01

 * 26 selected distances

     #   Z          #   Z                                           value/Å
     2   6 C        3   7 N                                       1.2662565
     4   6 C        5   6 C                                       1.3972712
     5   6 C        6   6 C                                       1.3802987
     6   6 C        7   6 C                                       1.3864407
     7   6 C        8   6 C                                       1.3854586
     4   6 C        9   6 C                                       1.3976518 (max)
     8   6 C        9   6 C                                       1.3809219
    10   6 C       11   6 C                                       1.3933249
    11   6 C       12   6 C                                       1.3830983
    12   6 C       13   6 C                                       1.3852075
    13   6 C       14   6 C                                       1.3853168
    10   6 C       15   6 C                                       1.3938228
    14   6 C       15   6 C                                       1.3823843
     1   6 C       16   1 H                                       1.0863715
     1   6 C       17   1 H                                       1.0884348
     1   6 C       18   1 H                                       1.0893004
     5   6 C       19   1 H                                       1.0804523
     6   6 C       20   1 H                                       1.0810523
     7   6 C       21   1 H                                       1.0802256
     8   6 C       22   1 H                                       1.0811535
     9   6 C       23   1 H                                       1.0814694
    11   6 C       24   1 H                                       1.0801809 (min)
    12   6 C       25   1 H                                       1.0806326
    13   6 C       26   1 H                                       1.0802746
    14   6 C       27   1 H                                       1.0803713
    15   6 C       28   1 H                                       1.0806396

 * 3 distinct bonds (by element types)

   Z      Z             #   av. dist./Å        max./Å        min./Å
   1 H    6 C          13     1.0823507     1.0893004     1.0801809
   6 C    6 C          12     1.3875998     1.3976518     1.3802987
   6 C    7 N           1     1.2662565     1.2662565     1.2662565


optimized geometry written to: xtbopt.xyz


           -------------------------------------------------
          | TOTAL ENERGY              -39.512964438800 Eh   |
          | GRADIENT NORM               0.000044424323 Eh/α |
          | HOMO-LUMO GAP               2.570716045078 eV   |
           -------------------------------------------------

------------------------------------------------------------------------
 * finished run on 2026/09/10 at 22:57:07.766     
------------------------------------------------------------------------
 total:
 * wall-time:     0 d,  0 h,  0 min,  1.005 sec
 *  cpu-time:     0 d,  0 h,  0 min,  0.188 sec
 * ratio c/w:     0.186 speedup
 SCF:
 * wall-time:     0 d,  0 h,  0 min,  0.028 sec
 *  cpu-time:     0 d,  0 h,  0 min,  0.016 sec
 * ratio c/w:     0.549 speedup
 ANC optimizer:
 * wall-time:     0 d,  0 h,  0 min,  0.941 sec
 *  cpu-time:     0 d,  0 h,  0 min,  0.172 sec
 * ratio c/w:     0.183 speedup

