28
 energy: -39.512964438800 gnorm: 0.000044424323 xtb: 6.7.1 (edcfbbe)
C           -1.11405409875372       -3.02331725908086       -0.25977501944408
C           -0.43991976711022       -1.68597392403111       -0.21477902452445
N            0.77432513764796       -1.62432684211341       -0.56863519448676
C            1.53800540580571       -0.48715135190400       -0.71445388959791
C            2.78762016874650       -0.42739188001824       -0.09215315258183
C            3.61686488718397        0.65648341744784       -0.29901489948623
C            3.23203416767202        1.68390632955284       -1.14667340573413
C            2.00459263329720        1.61974771350109       -1.78602167356131
C            1.15840404196514        0.54980857692182       -1.57121944088169
C           -1.24011683204363       -0.54215563731576        0.28343559552681
C           -2.55825664447166       -0.35493151694626       -0.12742755551946
C           -3.28914276161056        0.72476097142706        0.33412422560635
C           -2.72170370795284        1.62287446665692        1.22305873466158
C           -1.41599532704500        1.43792650665092        1.64734878397388
C           -0.67823287505062        0.36730708650880        1.17781005165704
H           -0.37288591385531       -3.80030613549626       -0.42458075336351
H           -1.65136159737135       -3.20981167090346        0.66823932260872
H           -1.83221273617522       -3.05027988910067       -1.07836914073673
H            3.08181605504830       -1.23228905835726        0.56584862001340
H            4.57501711243794        0.69857140216348        0.19983059797563
H            3.88729276787248        2.52675226561784       -1.31139748452362
H            1.70014134084272        2.41424824923924       -2.45308318377054
H            0.20092422983979        0.49528500322825       -2.07105495689073
H           -3.00878420851937       -1.04180742436384       -0.82886675929534
H           -4.30717650969672        0.86486794105864       -0.00015695534963
H           -3.29564217920595        2.46344068396103        1.58504787242291
H           -0.96902316699319        2.13124461840176        2.34500759994748
H            0.33747037729548        0.22251735729471        1.51716903565480
