 Entering Gaussian System
 *********************************************
 Gaussian 98:
 frequency output generated by the xtb code
 *********************************************
                         Standard orientation:
 --------------------------------------------------------------------
  Center     Atomic     Atomic              Coordinates (Angstroms)
  Number     Number      Type              X           Y           Z
 --------------------------------------------------------------------
    1          6             0       -0.624404   -1.061351   -2.969300
    2          6             0        0.121765   -0.483920   -1.807027
    3          7             0        1.375553   -0.627866   -1.748869
    4          6             0        2.183021   -0.154934   -0.729788
    5          6             0        3.261988    0.666257   -1.061302
    6          6             0        4.135962    1.095164   -0.082514
    7          6             0        3.965772    0.695575    1.233922
    8          6             0        2.909275   -0.136549    1.565179
    9          6             0        2.018463   -0.557389    0.596480
   10          6             0       -0.677516    0.321062   -0.841973
   11          6             0       -0.579936    1.689966   -0.873390
   12          6             0       -1.334160    2.485108    0.000779
   13          6             0       -2.176706    1.904322    0.906211
   14          6             0       -2.285837    0.500105    0.989497
   15          6             0       -3.126874   -0.123904    1.935665
   16          6             0       -3.197989   -1.485905    2.020909
   17          6             0       -2.422871   -2.287034    1.167987
   18          6             0       -1.603888   -1.714596    0.234749
   19          6             0       -1.521368   -0.310183    0.108547
   20          1             0       -0.942479   -0.247900   -3.622106
   21          1             0       -1.519096   -1.582804   -2.635295
   22          1             0        0.018384   -1.735242   -3.529084
   23          1             0        3.389132    0.971644   -2.089727
   24          1             0        4.960501    1.741708   -0.348295
   25          1             0        4.655512    1.027904    1.996037
   26          1             0        2.772298   -0.456162    2.588847
   27          1             0        1.196787   -1.210164    0.855648
   28          1             0        0.080592    2.161928   -1.587746
   29          1             0       -1.242543    3.560186   -0.053194
   30          1             0       -2.765728    2.511380    1.579248
   31          1             0       -3.709940    0.499956    2.598818
   32          1             0       -3.842718   -1.955678    2.749662
   33          1             0       -2.475389   -3.362683    1.257089
   34          1             0       -0.995563   -2.338003   -0.405663
 --------------------------------------------------------------------
     1 basis functions        1 primitive gaussians
     1 alpha electrons        1 beta electrons

 Harmonic frequencies (cm**-1), IR intensities (km*mol⁻¹),
 Raman scattering activities (A**4/amu), Raman depolarization ratios,
 reduced masses (AMU), force constants (mDyne/A) and normal coordinates:
                      1                      2                      3
                        a                      a                      a 
 Frequencies --    21.8699                34.2079                45.1786
 Red. masses --    10.6577                10.4548                10.0524
 Frc consts  --     0.0000                 0.0000                 0.0000
 IR Inten    --     0.0867                 0.0185                 0.3729
 Raman Activ --     0.0000                 0.0000                 0.0000
 Depolar     --     0.0000                 0.0000                 0.0000
 Atom AN      X      Y      Z        X      Y      Z        X      Y      Z
   1   6    -0.01  -0.06   0.15    -0.01  -0.13  -0.00     0.00  -0.04   0.10
   2   6     0.02  -0.03   0.12     0.01  -0.12  -0.02     0.02   0.00   0.07
   3   7     0.04   0.02   0.04     0.02  -0.11  -0.04     0.02   0.04   0.04
   4   6     0.09   0.05  -0.02    -0.03  -0.03  -0.04     0.06   0.02   0.01
   5   6     0.16  -0.08  -0.14    -0.18   0.19   0.00    -0.12   0.27   0.04
   6   6     0.22  -0.05  -0.21    -0.27   0.31   0.02    -0.06   0.19   0.02
   7   6     0.22   0.10  -0.16    -0.20   0.22   0.00     0.19  -0.13  -0.05
   8   6     0.15   0.24  -0.04    -0.04   0.00  -0.04     0.36  -0.36  -0.08
   9   6     0.09   0.21   0.03     0.05  -0.12  -0.06     0.29  -0.27  -0.05
  10   6     0.03  -0.04   0.14     0.07  -0.10   0.00     0.01   0.00   0.06
  11   6     0.11  -0.04   0.21     0.24  -0.11   0.08    -0.04   0.00   0.00
  12   6     0.07  -0.04   0.18     0.35  -0.06   0.13    -0.12   0.02  -0.08
  13   6    -0.06  -0.04   0.06     0.29  -0.01   0.11    -0.17   0.04  -0.12
  14   6    -0.13  -0.04  -0.01     0.12   0.00   0.04    -0.12   0.04  -0.06
  15   6    -0.26  -0.04  -0.12     0.05   0.06   0.01    -0.18   0.05  -0.10
  16   6    -0.32  -0.04  -0.17    -0.12   0.07  -0.05    -0.13   0.05  -0.03
  17   6    -0.24  -0.04  -0.10    -0.21   0.01  -0.09    -0.02   0.04   0.08
  18   6    -0.11  -0.04   0.01    -0.14  -0.04  -0.07     0.03   0.02   0.12
  19   6    -0.07  -0.04   0.04     0.01  -0.05  -0.01    -0.02   0.02   0.04
  20   1     0.01  -0.02   0.03     0.02  -0.04  -0.01    -0.02  -0.02   0.03
  21   1    -0.01  -0.00   0.05    -0.02  -0.01   0.00     0.02  -0.03   0.04
  22   1    -0.01  -0.03   0.05    -0.01  -0.06   0.01     0.01   0.00   0.02
  23   1     0.05  -0.06  -0.05    -0.07   0.08   0.00    -0.09   0.15   0.03
  24   1     0.08  -0.05  -0.09    -0.11   0.14   0.02    -0.06   0.11   0.01
  25   1     0.08   0.04  -0.06    -0.08   0.09   0.01     0.07  -0.06  -0.02
  26   1     0.04   0.10  -0.00     0.01  -0.02  -0.01     0.16  -0.17  -0.04
  27   1     0.01   0.09   0.03     0.05  -0.08  -0.03     0.12  -0.13  -0.03
  28   1     0.06  -0.01   0.08     0.08  -0.04   0.03    -0.00  -0.00   0.00
  29   1     0.04  -0.01   0.07     0.14  -0.02   0.06    -0.04   0.01  -0.04
  30   1    -0.03  -0.01   0.01     0.11   0.01   0.05    -0.07   0.01  -0.06
  31   1    -0.09  -0.01  -0.05     0.04   0.03   0.01    -0.08   0.02  -0.05
  32   1    -0.12  -0.01  -0.08    -0.05   0.03  -0.02    -0.05   0.02  -0.02
  33   1    -0.08  -0.01  -0.04    -0.10   0.00  -0.04     0.00   0.01   0.04
  34   1    -0.01  -0.01   0.02    -0.06  -0.02  -0.02     0.03   0.00   0.06
                      4                      5                      6
                        a                      a                      a 
 Frequencies --    97.2480                99.3092               119.9454
 Red. masses --     9.8571                10.0265                 4.9475
 Frc consts  --     0.0000                 0.0000                 0.0000
 IR Inten    --     0.8545                 1.9344                 0.3071
 Raman Activ --     0.0000                 0.0000                 0.0000
 Depolar     --     0.0000                 0.0000                 0.0000
 Atom AN      X      Y      Z        X      Y      Z        X      Y      Z
   1   6     0.21  -0.19  -0.09    -0.02   0.15  -0.03    -0.13  -0.30   0.23
   2   6    -0.03  -0.03  -0.02    -0.04   0.01   0.05    -0.03   0.00   0.02
   3   7    -0.02   0.14   0.12    -0.10  -0.35   0.27    -0.02   0.08  -0.07
   4   6    -0.04   0.17   0.10    -0.05  -0.25   0.18    -0.02   0.11  -0.08
   5   6    -0.02   0.14   0.07    -0.17  -0.17  -0.01     0.02   0.09   0.01
   6   6     0.12  -0.01   0.01    -0.12   0.04  -0.16     0.01  -0.03   0.07
   7   6     0.23  -0.12  -0.01     0.06   0.17  -0.10    -0.04  -0.12   0.04
   8   6     0.17  -0.02   0.04     0.19   0.08   0.10    -0.10  -0.07  -0.05
   9   6     0.03   0.13   0.10     0.13  -0.13   0.24    -0.09   0.05  -0.10
  10   6    -0.17  -0.04  -0.13    -0.01   0.13  -0.03     0.03   0.08  -0.01
  11   6    -0.17  -0.04  -0.15    -0.07   0.13  -0.03     0.06   0.08   0.06
  12   6    -0.07  -0.03  -0.08    -0.08   0.08   0.01     0.03   0.05   0.07
  13   6     0.09  -0.02   0.08    -0.03   0.03   0.04    -0.03   0.02  -0.00
  14   6     0.05  -0.01   0.07     0.02   0.02   0.00    -0.02   0.02  -0.04
  15   6     0.18   0.02   0.20     0.05  -0.06  -0.02    -0.02  -0.03  -0.07
  16   6     0.03   0.02   0.11     0.08  -0.07  -0.11     0.07  -0.04  -0.06
  17   6    -0.25  -0.00  -0.12     0.07  -0.00  -0.18     0.15   0.00  -0.03
  18   6    -0.31  -0.03  -0.19     0.05   0.07  -0.14     0.12   0.05  -0.03
  19   6    -0.14  -0.03  -0.09     0.03   0.08  -0.04     0.02   0.05  -0.03
  20   1     0.16  -0.09  -0.11     0.18   0.06  -0.08     0.31  -0.16  -0.20
  21   1     0.01   0.01  -0.07    -0.12   0.21  -0.05    -0.24   0.28   0.09
  22   1     0.08  -0.12   0.07    -0.07  -0.09   0.08    -0.17  -0.42   0.32
  23   1    -0.02   0.06   0.02    -0.09  -0.08  -0.02     0.02   0.05   0.01
  24   1     0.04  -0.02  -0.01    -0.07   0.03  -0.09     0.02  -0.02   0.04
  25   1     0.10  -0.08  -0.02     0.02   0.10  -0.06    -0.01  -0.06   0.02
  26   1     0.07  -0.02   0.01     0.10   0.05   0.04    -0.05  -0.04  -0.02
  27   1    -0.00   0.06   0.04     0.06  -0.05   0.11    -0.04   0.02  -0.05
  28   1    -0.06  -0.02  -0.06    -0.03   0.05  -0.01     0.03   0.03   0.03
  29   1    -0.02  -0.01  -0.03    -0.04   0.02   0.01     0.02   0.01   0.04
  30   1     0.07  -0.00   0.06    -0.01  -0.00   0.02    -0.02   0.00  -0.00
  31   1     0.11   0.01   0.11     0.01  -0.03   0.01    -0.02  -0.02  -0.03
  32   1     0.04   0.01   0.06     0.03  -0.04  -0.04     0.02  -0.02  -0.02
  33   1    -0.11  -0.00  -0.07     0.02  -0.00  -0.08     0.07   0.00  -0.00
  34   1    -0.14  -0.02  -0.10     0.01   0.04  -0.06     0.05   0.03  -0.00
                      7                      8                      9
                        a                      a                      a 
 Frequencies --   147.1315               154.5202               179.6305
 Red. masses --     8.1022                10.0101                 8.9017
 Frc consts  --     0.0000                 0.0000                 0.0000
 IR Inten    --     0.4154                 0.1778                 0.8416
 Raman Activ --     0.0000                 0.0000                 0.0000
 Depolar     --     0.0000                 0.0000                 0.0000
 Atom AN      X      Y      Z        X      Y      Z        X      Y      Z
   1   6    -0.05  -0.35   0.12     0.09  -0.01  -0.16     0.13   0.20  -0.30
   2   6    -0.10  -0.00  -0.03    -0.06  -0.01  -0.06    -0.03  -0.01  -0.10
   3   7    -0.12  -0.03   0.12    -0.08  -0.00   0.09    -0.04   0.05   0.01
   4   6    -0.15   0.08   0.09    -0.11   0.04   0.09    -0.11   0.06   0.06
   5   6    -0.15   0.06   0.04    -0.13   0.04   0.02    -0.11   0.06   0.02
   6   6    -0.03  -0.05  -0.03    -0.03  -0.01  -0.05    -0.01  -0.02  -0.04
   7   6     0.09  -0.12  -0.03     0.09  -0.06  -0.05     0.07  -0.08  -0.04
   8   6     0.02  -0.01   0.04     0.06   0.01   0.03     0.01   0.02   0.02
   9   6    -0.10   0.10   0.10    -0.06   0.07   0.10    -0.09   0.10   0.07
  10   6    -0.07   0.12  -0.12    -0.10  -0.01  -0.10    -0.07  -0.11  -0.05
  11   6    -0.09   0.12  -0.10     0.25  -0.03   0.21    -0.13  -0.11  -0.16
  12   6     0.09   0.07   0.10     0.25  -0.02   0.20     0.12  -0.07   0.01
  13   6     0.17   0.04   0.15    -0.10  -0.00  -0.11     0.21  -0.04   0.12
  14   6     0.08   0.03   0.02    -0.24   0.00  -0.23     0.07  -0.03   0.05
  15   6    -0.02  -0.04  -0.12    -0.11   0.01  -0.11    -0.19   0.03  -0.13
  16   6    -0.04  -0.05  -0.24     0.22   0.01   0.19    -0.22   0.04  -0.08
  17   6     0.15   0.01  -0.12     0.23   0.01   0.20     0.07  -0.01   0.23
  18   6     0.22   0.08  -0.01    -0.10  -0.00  -0.09     0.18  -0.07   0.28
  19   6     0.08   0.08  -0.02    -0.24  -0.01  -0.22     0.10  -0.08   0.12
  20   1    -0.28  -0.15   0.11     0.01   0.00  -0.03     0.23   0.09  -0.15
  21   1     0.14  -0.33   0.10     0.04  -0.04  -0.08    -0.08   0.20  -0.16
  22   1     0.09   0.07  -0.06     0.06   0.04  -0.05     0.00  -0.05   0.00
  23   1    -0.06   0.03   0.01    -0.06   0.01   0.00    -0.05   0.02   0.01
  24   1    -0.00  -0.03  -0.02    -0.01  -0.01  -0.03     0.00  -0.02  -0.02
  25   1     0.06  -0.07  -0.03     0.05  -0.04  -0.03     0.05  -0.05  -0.03
  26   1     0.02  -0.01   0.01     0.04   0.00   0.01     0.02   0.01   0.01
  27   1    -0.04   0.04   0.05    -0.02   0.03   0.05    -0.03   0.04   0.03
  28   1    -0.06   0.04  -0.06     0.15  -0.01   0.13    -0.08  -0.04  -0.10
  29   1     0.04   0.02   0.06     0.15  -0.01   0.12     0.06  -0.02   0.01
  30   1     0.08   0.00   0.08    -0.04   0.00  -0.04     0.10  -0.00   0.06
  31   1    -0.03  -0.03  -0.04    -0.04   0.00  -0.04    -0.10   0.02  -0.10
  32   1    -0.05  -0.03  -0.11     0.13   0.00   0.12    -0.13   0.02  -0.07
  33   1     0.07   0.00  -0.04     0.14   0.00   0.12     0.04  -0.00   0.10
  34   1     0.11   0.04   0.03    -0.03  -0.00  -0.03     0.07  -0.03   0.11
                     10                     11                     12
                        a                      a                      a 
 Frequencies --   217.7754               267.4230               333.4555
 Red. masses --     9.7820                 9.3925                10.7491
 Frc consts  --     0.0000                 0.0000                 0.0000
 IR Inten    --     0.5431                 0.2750                 3.0059
 Raman Activ --     0.0000                 0.0000                 0.0000
 Depolar     --     0.0000                 0.0000                 0.0000
 Atom AN      X      Y      Z        X      Y      Z        X      Y      Z
   1   6    -0.28   0.20   0.11     0.43  -0.15  -0.20     0.16   0.08   0.13
   2   6     0.00  -0.08   0.05     0.02   0.01  -0.01     0.22  -0.12   0.16
   3   7     0.00  -0.07   0.02     0.00  -0.05  -0.01     0.21  -0.39   0.00
   4   6    -0.15   0.12   0.09    -0.07  -0.02  -0.01     0.15  -0.08  -0.10
   5   6    -0.22   0.20   0.07    -0.14   0.02  -0.09    -0.07   0.20  -0.07
   6   6    -0.03  -0.00  -0.01    -0.10  -0.03  -0.12    -0.06   0.07  -0.02
   7   6     0.17  -0.20  -0.05    -0.07  -0.11  -0.14     0.04  -0.24  -0.10
   8   6    -0.00   0.05   0.05    -0.11  -0.03  -0.06    -0.17   0.04  -0.05
   9   6    -0.18   0.24   0.12    -0.15   0.01  -0.03    -0.13   0.13  -0.09
  10   6     0.16  -0.08   0.12     0.11   0.04   0.09     0.17   0.02   0.09
  11   6     0.23  -0.10   0.03     0.16   0.05   0.26    -0.15   0.05  -0.07
  12   6     0.03  -0.05  -0.21    -0.12   0.04   0.05    -0.12   0.01   0.03
  13   6    -0.03  -0.03  -0.25    -0.26   0.05  -0.07     0.09   0.01   0.22
  14   6     0.11  -0.03  -0.02     0.05   0.04   0.14    -0.06   0.01  -0.00
  15   6     0.16  -0.01   0.03     0.09   0.00   0.15    -0.18  -0.00  -0.11
  16   6     0.04  -0.01  -0.04    -0.06   0.00  -0.03     0.07  -0.00   0.10
  17   6    -0.08  -0.05  -0.12    -0.09   0.04  -0.09     0.07   0.05   0.06
  18   6     0.04  -0.08  -0.02     0.12   0.08   0.12    -0.17   0.07  -0.15
  19   6     0.13  -0.08   0.06     0.15   0.07   0.17    -0.03   0.06  -0.04
  20   1    -0.08   0.11   0.09     0.15  -0.08  -0.11     0.06   0.07   0.09
  21   1    -0.09   0.09   0.06     0.12  -0.10  -0.14     0.04   0.01   0.00
  22   1    -0.15   0.05  -0.04     0.24  -0.01   0.03     0.04   0.05  -0.00
  23   1    -0.09   0.08   0.02    -0.06   0.00  -0.03    -0.04   0.10  -0.01
  24   1    -0.00  -0.02  -0.02    -0.03  -0.01  -0.03    -0.03   0.05   0.03
  25   1     0.12  -0.14  -0.04    -0.00  -0.05  -0.05     0.05  -0.14  -0.03
  26   1     0.01   0.01   0.02    -0.02  -0.00  -0.01    -0.08   0.04  -0.01
  27   1    -0.07   0.10   0.06    -0.05   0.01  -0.01    -0.07   0.07  -0.05
  28   1     0.09  -0.05   0.02     0.07   0.03   0.10    -0.08   0.04  -0.04
  29   1    -0.03  -0.01  -0.10    -0.07   0.01  -0.02    -0.04   0.00   0.00
  30   1    -0.06   0.00  -0.13    -0.16   0.01  -0.09     0.08  -0.00   0.12
  31   1     0.06  -0.00   0.02     0.04  -0.00   0.06    -0.09  -0.00  -0.07
  32   1     0.01   0.01  -0.01    -0.04  -0.01  -0.04     0.06  -0.01   0.05
  33   1    -0.07  -0.02  -0.06    -0.07   0.01  -0.07     0.06   0.01   0.03
  34   1     0.01  -0.03  -0.01     0.05   0.03   0.04    -0.09   0.02  -0.08
                     13                     14                     15
                        a                      a                      a 
 Frequencies --   361.1866               371.6662               390.6031
 Red. masses --    10.2252                 9.0786                10.5637
 Frc consts  --     0.0000                 0.0000                 0.0000
 IR Inten    --     0.5165                 0.7385                 2.8661
 Raman Activ --     0.0000                 0.0000                 0.0000
 Depolar     --     0.0000                 0.0000                 0.0000
 Atom AN      X      Y      Z        X      Y      Z        X      Y      Z
   1   6     0.07   0.04  -0.00     0.02   0.01   0.04    -0.14  -0.02  -0.19
   2   6    -0.12  -0.23   0.25     0.03   0.03   0.01    -0.01  -0.20  -0.12
   3   7    -0.08   0.12   0.05     0.03   0.04  -0.01    -0.00  -0.36  -0.04
   4   6    -0.01   0.08  -0.02    -0.01   0.01   0.02     0.13  -0.08  -0.17
   5   6     0.06  -0.02  -0.04     0.22  -0.35  -0.08     0.13   0.07   0.05
   6   6     0.01  -0.00  -0.00    -0.26   0.33   0.04     0.01   0.12   0.18
   7   6    -0.06   0.03  -0.00    -0.03  -0.01  -0.03     0.16  -0.05   0.15
   8   6    -0.00  -0.06  -0.03     0.22  -0.35  -0.07     0.05   0.05   0.00
   9   6     0.00  -0.01  -0.05    -0.28   0.33   0.09     0.07   0.19  -0.09
  10   6    -0.09  -0.14   0.17     0.03   0.01   0.02    -0.11  -0.04  -0.20
  11   6     0.09  -0.19  -0.11    -0.00   0.01   0.00    -0.05  -0.04  -0.00
  12   6     0.14  -0.06  -0.21    -0.02   0.01  -0.01     0.05  -0.08   0.15
  13   6     0.09   0.21  -0.03     0.03  -0.02   0.01    -0.18   0.04   0.01
  14   6    -0.17   0.21   0.21     0.03  -0.02  -0.01    -0.18   0.04  -0.01
  15   6    -0.13  -0.10   0.08    -0.00   0.01  -0.03     0.12  -0.02   0.23
  16   6     0.12  -0.16  -0.12     0.00   0.01   0.01    -0.10  -0.02  -0.05
  17   6     0.17  -0.09  -0.15     0.00  -0.00   0.02    -0.06   0.07  -0.09
  18   6     0.01   0.18  -0.07    -0.02  -0.02  -0.01     0.19   0.15   0.18
  19   6    -0.19   0.18   0.21     0.01  -0.02  -0.01    -0.12   0.12  -0.06
  20   1     0.08   0.08   0.05     0.00  -0.00   0.01    -0.02   0.04  -0.01
  21   1    -0.01  -0.01  -0.12     0.01   0.00   0.02    -0.06   0.02  -0.06
  22   1     0.06   0.06  -0.02     0.01  -0.00   0.02    -0.08  -0.01  -0.10
  23   1     0.03  -0.02  -0.01     0.13  -0.22  -0.05     0.08   0.07   0.03
  24   1     0.01  -0.01   0.01    -0.15   0.20   0.04    -0.03   0.08   0.06
  25   1    -0.03   0.02   0.01    -0.00  -0.01  -0.01     0.05  -0.05   0.05
  26   1     0.01  -0.04  -0.01     0.16  -0.21  -0.04    -0.03   0.00  -0.01
  27   1     0.00  -0.01  -0.03    -0.15   0.19   0.05    -0.01   0.10  -0.01
  28   1     0.04  -0.11  -0.05    -0.00   0.00  -0.00     0.00   0.02   0.03
  29   1     0.07  -0.02  -0.11    -0.01   0.00  -0.01     0.08  -0.03   0.09
  30   1     0.07   0.14  -0.04     0.01  -0.01   0.01    -0.04   0.03   0.00
  31   1    -0.08  -0.11   0.05    -0.01   0.01  -0.02     0.11  -0.01   0.14
  32   1     0.05  -0.09  -0.05     0.00   0.01   0.00    -0.03  -0.03  -0.03
  33   1     0.08  -0.03  -0.07     0.00  -0.00   0.01    -0.01   0.02  -0.05
  34   1     0.03   0.13  -0.07    -0.01  -0.01  -0.00     0.13   0.06   0.11
                     16                     17                     18
                        a                      a                      a 
 Frequencies --   420.7195               434.1875               455.9579
 Red. masses --     9.9382                 9.6307                11.1600
 Frc consts  --     0.0000                 0.0000                 0.0000
 IR Inten    --     1.2179                 0.3653                 2.9969
 Raman Activ --     0.0000                 0.0000                 0.0000
 Depolar     --     0.0000                 0.0000                 0.0000
 Atom AN      X      Y      Z        X      Y      Z        X      Y      Z
   1   6    -0.16  -0.13  -0.23     0.06   0.07   0.10     0.03   0.04  -0.03
   2   6    -0.09  -0.08  -0.22     0.04   0.03   0.09    -0.23  -0.13   0.22
   3   7    -0.08  -0.09  -0.13     0.03   0.00   0.08    -0.27  -0.26   0.34
   4   6    -0.05  -0.03  -0.07     0.05  -0.00   0.02     0.02   0.22  -0.14
   5   6     0.02  -0.02   0.11     0.00   0.03  -0.05     0.15   0.10  -0.12
   6   6     0.03   0.01   0.12    -0.01   0.00  -0.04     0.06  -0.04   0.07
   7   6     0.13   0.06   0.14    -0.05  -0.04  -0.06    -0.08   0.04   0.09
   8   6     0.11   0.06   0.02    -0.05  -0.01  -0.01    -0.01  -0.09  -0.05
   9   6     0.08   0.08  -0.00    -0.02  -0.03  -0.01     0.09   0.11  -0.18
  10   6     0.07  -0.03  -0.04    -0.11   0.02  -0.07    -0.16   0.06   0.03
  11   6     0.17  -0.02   0.19     0.18   0.01   0.15    -0.05   0.07   0.10
  12   6    -0.21  -0.04  -0.10    -0.20   0.03  -0.21     0.01   0.17   0.06
  13   6    -0.01   0.02   0.12     0.15  -0.02   0.08    -0.01   0.01  -0.09
  14   6     0.26   0.02   0.30     0.11  -0.02   0.06     0.20  -0.01  -0.06
  15   6    -0.17  -0.00  -0.09     0.20  -0.00   0.16     0.10   0.09  -0.15
  16   6    -0.03  -0.00   0.00    -0.28  -0.00  -0.24     0.07   0.10  -0.07
  17   6     0.18   0.07   0.13     0.18  -0.01   0.19     0.01  -0.09   0.04
  18   6    -0.21   0.09  -0.20     0.01  -0.03   0.02     0.00  -0.21  -0.05
  19   6     0.10   0.08   0.08    -0.37  -0.03  -0.34     0.09  -0.17   0.04
  20   1    -0.06  -0.05  -0.07     0.02   0.03   0.04     0.07   0.08   0.04
  21   1    -0.04  -0.04  -0.05     0.01   0.03   0.03    -0.02  -0.03  -0.15
  22   1    -0.05  -0.04  -0.07     0.01   0.02   0.02     0.07   0.07  -0.01
  23   1     0.04   0.01   0.04    -0.02   0.01  -0.02     0.11   0.04  -0.02
  24   1    -0.00   0.01   0.01    -0.00   0.01   0.00     0.05  -0.03   0.05
  25   1     0.04   0.02   0.04    -0.01  -0.01  -0.02    -0.04   0.02   0.04
  26   1     0.01  -0.00  -0.00    -0.01   0.01   0.00    -0.02  -0.08  -0.03
  27   1     0.03   0.03   0.03    -0.02  -0.00  -0.02     0.02   0.01  -0.10
  28   1     0.05   0.02   0.08     0.16  -0.01   0.14    -0.01  -0.01   0.02
  29   1    -0.16  -0.01  -0.13    -0.12   0.01  -0.11    -0.01   0.05   0.02
  30   1    -0.07   0.01  -0.03     0.07  -0.01   0.06    -0.06  -0.04  -0.03
  31   1    -0.16  -0.00  -0.12     0.12   0.00   0.09    -0.00   0.04  -0.08
  32   1    -0.06  -0.01  -0.05    -0.16   0.00  -0.14    -0.01   0.06  -0.03
  33   1     0.09   0.02   0.05     0.16   0.00   0.16    -0.05  -0.02   0.04
  34   1    -0.15   0.02  -0.14     0.08  -0.01   0.08    -0.04  -0.07  -0.04
                     19                     20                     21
                        a                      a                      a 
 Frequencies --   485.3725               489.3143               530.6214
 Red. masses --    11.1466                10.5689                10.8309
 Frc consts  --     0.0000                 0.0000                 0.0000
 IR Inten    --     0.4425                 1.5403                 1.3059
 Raman Activ --     0.0000                 0.0000                 0.0000
 Depolar     --     0.0000                 0.0000                 0.0000
 Atom AN      X      Y      Z        X      Y      Z        X      Y      Z
   1   6    -0.04  -0.02  -0.02     0.02  -0.03  -0.01    -0.02  -0.03  -0.08
   2   6     0.07  -0.25   0.03    -0.08   0.14  -0.01     0.12  -0.01  -0.15
   3   7     0.12   0.11  -0.11    -0.07   0.12  -0.16     0.12  -0.21  -0.09
   4   6    -0.10   0.08   0.08     0.16  -0.36  -0.10    -0.17   0.18   0.03
   5   6    -0.05  -0.02   0.04    -0.01  -0.08   0.07    -0.07   0.05   0.05
   6   6     0.04  -0.05  -0.04    -0.11   0.14   0.08     0.09  -0.12  -0.01
   7   6    -0.05   0.08  -0.02     0.22  -0.16   0.02    -0.08   0.17   0.06
   8   6     0.04  -0.04  -0.01    -0.05   0.19   0.03     0.10  -0.10  -0.04
   9   6    -0.05  -0.04   0.06     0.04  -0.01   0.01    -0.04   0.07   0.00
  10   6     0.06  -0.26   0.07    -0.14  -0.08   0.13     0.16  -0.01   0.04
  11   6    -0.22  -0.25   0.23    -0.13  -0.07   0.13    -0.02   0.04   0.09
  12   6    -0.19  -0.09   0.15     0.02   0.23  -0.01    -0.08   0.23  -0.06
  13   6    -0.13   0.08   0.24     0.01   0.25  -0.02     0.06   0.29   0.12
  14   6     0.00   0.09  -0.12     0.06   0.18  -0.05    -0.06   0.20  -0.14
  15   6     0.09   0.27  -0.07     0.12   0.03  -0.14     0.13  -0.17  -0.17
  16   6     0.17   0.29  -0.20     0.12   0.01  -0.14     0.01  -0.20   0.04
  17   6     0.09   0.14  -0.14    -0.00  -0.26   0.01    -0.15  -0.32   0.07
  18   6     0.16  -0.05  -0.13    -0.04  -0.19   0.03    -0.13   0.01   0.25
  19   6    -0.05  -0.07  -0.04    -0.09  -0.13   0.10    -0.07   0.04  -0.03
  20   1     0.02   0.05   0.05    -0.01  -0.06  -0.06    -0.02  -0.02  -0.03
  21   1    -0.03   0.02  -0.03     0.02  -0.03   0.01     0.00   0.01   0.02
  22   1    -0.05  -0.00  -0.06     0.05  -0.02   0.06    -0.04  -0.03  -0.04
  23   1    -0.01  -0.05  -0.00    -0.06   0.07   0.04     0.04  -0.06  -0.00
  24   1     0.03  -0.05  -0.03    -0.11   0.14   0.02     0.08  -0.12  -0.03
  25   1    -0.01   0.02  -0.01     0.07  -0.06   0.00    -0.02   0.04   0.02
  26   1     0.05  -0.04  -0.01    -0.09   0.15   0.03     0.09  -0.12  -0.03
  27   1     0.02  -0.05   0.02    -0.04   0.08   0.05     0.04  -0.05  -0.00
  28   1    -0.07  -0.04   0.08    -0.02  -0.07   0.02    -0.00   0.01   0.03
  29   1    -0.01  -0.03  -0.01     0.05   0.06  -0.04     0.00   0.06  -0.07
  30   1    -0.03  -0.02   0.11    -0.01   0.05   0.00     0.05   0.08   0.07
  31   1     0.05   0.07   0.00     0.02  -0.03  -0.02     0.06  -0.08   0.00
  32   1     0.06   0.08  -0.05     0.01   0.05  -0.02     0.01   0.02   0.07
  33   1    -0.01   0.05   0.02    -0.02  -0.07   0.03    -0.00  -0.09   0.00
  34   1     0.08   0.00  -0.02     0.01  -0.02  -0.01     0.01   0.02   0.09
                     22                     23                     24
                        a                      a                      a 
 Frequencies --   540.0702               579.3679               590.5707
 Red. masses --    10.2631                10.7911                10.9355
 Frc consts  --     0.0000                 0.0000                 0.0000
 IR Inten    --     1.8048                 2.1179                 1.4383
 Raman Activ --     0.0000                 0.0000                 0.0000
 Depolar     --     0.0000                 0.0000                 0.0000
 Atom AN      X      Y      Z        X      Y      Z        X      Y      Z
   1   6    -0.03   0.03   0.06    -0.08  -0.01  -0.08     0.07   0.03   0.06
   2   6     0.20  -0.00  -0.10     0.06   0.16  -0.19     0.03   0.13  -0.02
   3   7     0.20   0.00   0.14     0.02   0.03   0.25     0.01  -0.05  -0.20
   4   6     0.11   0.07   0.13     0.19   0.10   0.03    -0.06   0.03  -0.15
   5   6     0.06   0.06  -0.08     0.09   0.07  -0.35    -0.16   0.02  -0.23
   6   6     0.05   0.05  -0.10    -0.19  -0.06  -0.07    -0.30  -0.31   0.02
   7   6    -0.13  -0.05  -0.14    -0.14  -0.17  -0.05    -0.03   0.05   0.19
   8   6    -0.08  -0.06   0.03    -0.07  -0.06   0.34     0.13  -0.06   0.30
   9   6    -0.07  -0.07   0.07     0.20   0.07   0.06     0.25   0.26  -0.00
  10   6    -0.17  -0.09  -0.24    -0.11  -0.09  -0.13     0.15  -0.02   0.19
  11   6    -0.16  -0.10  -0.04     0.11  -0.13   0.14    -0.12  -0.02  -0.10
  12   6     0.19  -0.00   0.20    -0.13  -0.07  -0.13     0.12  -0.02   0.08
  13   6    -0.29   0.17  -0.14     0.09   0.05   0.15    -0.08  -0.01  -0.10
  14   6     0.22   0.12   0.19    -0.02   0.05   0.02    -0.06  -0.00   0.01
  15   6     0.13  -0.05   0.00    -0.13   0.02  -0.10     0.07   0.03   0.15
  16   6    -0.08  -0.06  -0.11     0.16   0.01   0.09    -0.11   0.03  -0.14
  17   6     0.13  -0.10   0.15    -0.13  -0.01  -0.14     0.14   0.02   0.09
  18   6    -0.20   0.04  -0.06     0.12   0.02   0.11    -0.10  -0.04  -0.14
  19   6     0.06   0.04   0.08    -0.01   0.00   0.03    -0.04  -0.03   0.02
  20   1    -0.05   0.02   0.05    -0.08  -0.05  -0.05     0.00  -0.04  -0.03
  21   1    -0.00   0.06   0.11     0.00   0.02   0.09     0.04  -0.01   0.03
  22   1    -0.11  -0.03  -0.05    -0.07  -0.05  -0.03     0.06   0.00   0.07
  23   1    -0.02  -0.02  -0.04     0.02   0.04  -0.09     0.03   0.02  -0.05
  24   1     0.03   0.01   0.01    -0.05   0.01   0.07    -0.06  -0.12   0.00
  25   1    -0.04  -0.02  -0.04     0.00   0.00  -0.07     0.06   0.07  -0.03
  26   1     0.02  -0.00   0.02    -0.04   0.01   0.10     0.01  -0.09   0.06
  27   1    -0.03  -0.03  -0.03     0.01   0.04  -0.06     0.09   0.04  -0.01
  28   1    -0.06  -0.02  -0.01     0.06  -0.04   0.07    -0.07  -0.01  -0.07
  29   1     0.13  -0.01   0.06    -0.05  -0.02  -0.09     0.05  -0.01   0.04
  30   1    -0.16   0.06  -0.11     0.04   0.03   0.05    -0.02   0.01  -0.04
  31   1    -0.05  -0.03  -0.05    -0.05  -0.00  -0.03     0.04   0.00   0.07
  32   1    -0.12   0.01  -0.10     0.08   0.00   0.06    -0.04  -0.01  -0.06
  33   1     0.04  -0.03   0.02    -0.07  -0.00  -0.07     0.07   0.01   0.08
  34   1    -0.12   0.02  -0.09     0.05   0.02   0.03    -0.01  -0.00  -0.03
                     25                     26                     27
                        a                      a                      a 
 Frequencies --   605.8142               645.1249               667.9596
 Red. masses --    10.8718                10.7784                 9.3102
 Frc consts  --     0.0000                 0.0000                 0.0000
 IR Inten    --     1.0281                 2.3695                 0.2804
 Raman Activ --     0.0000                 0.0000                 0.0000
 Depolar     --     0.0000                 0.0000                 0.0000
 Atom AN      X      Y      Z        X      Y      Z        X      Y      Z
   1   6    -0.06  -0.07  -0.05     0.14   0.08   0.22    -0.11  -0.08  -0.16
   2   6    -0.08  -0.48   0.22     0.07  -0.08   0.16    -0.08  -0.07  -0.01
   3   7     0.03   0.34  -0.10     0.10   0.02  -0.25    -0.05   0.13   0.09
   4   6     0.02   0.02   0.01     0.02  -0.20  -0.11     0.33  -0.32   0.00
   5   6     0.02  -0.09  -0.14    -0.21   0.06   0.05    -0.04   0.24  -0.01
   6   6    -0.20  -0.01  -0.02    -0.03  -0.24   0.00     0.26  -0.17  -0.10
   7   6     0.04  -0.13  -0.01    -0.03   0.17   0.12    -0.21   0.14  -0.05
   8   6    -0.04   0.06   0.21     0.15  -0.10  -0.03     0.14  -0.29   0.03
   9   6     0.15  -0.04   0.06    -0.05   0.17  -0.00    -0.16   0.14   0.13
  10   6     0.11   0.08  -0.09    -0.37   0.03  -0.31     0.12   0.02   0.11
  11   6     0.02   0.14  -0.03     0.04   0.02   0.04     0.01   0.04  -0.00
  12   6    -0.05   0.05   0.07    -0.02   0.02  -0.02    -0.01   0.03   0.00
  13   6    -0.05  -0.00   0.04    -0.01  -0.01  -0.02     0.03  -0.02   0.01
  14   6     0.10  -0.01  -0.13     0.20  -0.01   0.17    -0.08  -0.01  -0.09
  15   6     0.17  -0.14  -0.17    -0.10  -0.00  -0.10     0.04  -0.01   0.02
  16   6    -0.09  -0.10   0.08     0.14   0.00   0.13    -0.06  -0.00  -0.04
  17   6    -0.06  -0.02   0.09    -0.11   0.00  -0.10     0.03   0.01   0.04
  18   6    -0.10   0.14   0.12     0.14  -0.00   0.12    -0.05   0.00  -0.04
  19   6     0.10   0.11  -0.12    -0.06  -0.00  -0.06     0.05   0.00   0.04
  20   1     0.09   0.12   0.11     0.06   0.07   0.10    -0.02  -0.02  -0.04
  21   1    -0.07  -0.01  -0.15     0.02   0.04   0.03    -0.03  -0.03  -0.06
  22   1    -0.03   0.03  -0.10     0.02   0.04   0.03    -0.03  -0.02  -0.05
  23   1    -0.02   0.00  -0.03    -0.06   0.05   0.02    -0.15   0.23   0.03
  24   1    -0.08   0.04   0.02    -0.02  -0.07  -0.04    -0.01   0.08   0.04
  25   1     0.04   0.00  -0.04    -0.01   0.08   0.02    -0.17   0.18   0.02
  26   1    -0.04   0.06   0.07     0.02  -0.05  -0.02    -0.02   0.07   0.05
  27   1     0.02   0.01   0.01    -0.02   0.07   0.04    -0.17   0.21   0.05
  28   1    -0.01   0.08   0.00     0.11  -0.00   0.10    -0.04   0.01  -0.04
  29   1    -0.03   0.02   0.04     0.02   0.01   0.03    -0.03   0.01  -0.01
  30   1    -0.02  -0.04   0.03    -0.01  -0.01  -0.01     0.00  -0.01   0.00
  31   1     0.07  -0.00  -0.07    -0.12   0.00  -0.11     0.05   0.00   0.04
  32   1    -0.05   0.02   0.04    -0.01  -0.00  -0.01     0.01   0.00   0.01
  33   1     0.02  -0.01  -0.02    -0.11  -0.00  -0.10     0.04   0.00   0.03
  34   1    -0.05   0.02   0.04    -0.02  -0.01  -0.01     0.01  -0.00   0.01
                     28                     29                     30
                        a                      a                      a 
 Frequencies --   686.2624               725.3777               756.6034
 Red. masses --    10.8144                 9.8992                 5.3339
 Frc consts  --     0.0000                 0.0000                 0.0000
 IR Inten    --     2.8505                 0.1354                29.8411
 Raman Activ --     0.0000                 0.0000                 0.0000
 Depolar     --     0.0000                 0.0000                 0.0000
 Atom AN      X      Y      Z        X      Y      Z        X      Y      Z
   1   6    -0.08  -0.12  -0.17     0.03   0.02   0.06    -0.06  -0.01  -0.05
   2   6     0.11  -0.24  -0.04     0.03  -0.00   0.01    -0.11   0.04   0.06
   3   7     0.21  -0.00  -0.15     0.03   0.01  -0.02    -0.08   0.05  -0.06
   4   6     0.03   0.06   0.08    -0.01  -0.02  -0.02     0.25  -0.29  -0.03
   5   6     0.03   0.03  -0.03    -0.03  -0.01   0.01    -0.03   0.20   0.01
   6   6     0.01   0.06  -0.04    -0.03  -0.02   0.01     0.04   0.16  -0.01
   7   6    -0.06  -0.03  -0.07     0.01   0.02   0.02    -0.16   0.11  -0.04
   8   6    -0.03  -0.00   0.13     0.00   0.02  -0.02    -0.08   0.05   0.14
   9   6     0.00  -0.03   0.10    -0.00   0.02  -0.01    -0.10   0.11   0.11
  10   6    -0.07   0.11   0.02    -0.22   0.02  -0.21    -0.02   0.01   0.07
  11   6    -0.02   0.24   0.03     0.11  -0.00   0.09    -0.00  -0.01  -0.02
  12   6     0.03   0.43  -0.02    -0.17  -0.01  -0.15    -0.00  -0.07   0.00
  13   6     0.11   0.01  -0.14     0.07   0.00   0.08    -0.01  -0.06  -0.01
  14   6    -0.11  -0.06   0.14    -0.37   0.01  -0.31     0.04  -0.02  -0.03
  15   6    -0.26   0.08   0.29     0.16   0.01   0.15     0.07  -0.01  -0.07
  16   6     0.01   0.02   0.00    -0.09   0.00  -0.09     0.02   0.01   0.00
  17   6     0.02  -0.04  -0.04     0.16  -0.01   0.14    -0.00   0.02   0.00
  18   6     0.13  -0.29  -0.11    -0.09  -0.02  -0.08    -0.01   0.08   0.04
  19   6    -0.07  -0.15   0.05     0.39   0.00   0.34    -0.03   0.03  -0.01
  20   1    -0.00   0.04   0.03     0.00   0.02   0.03    -0.01  -0.04  -0.06
  21   1    -0.05   0.00  -0.05     0.01   0.01   0.02    -0.01  -0.04  -0.05
  22   1    -0.10  -0.03  -0.13    -0.01   0.00  -0.00     0.04   0.01   0.04
  23   1     0.03  -0.06  -0.03     0.01  -0.02  -0.00     0.16  -0.21  -0.06
  24   1     0.05  -0.03   0.01    -0.00  -0.02  -0.01     0.23  -0.24  -0.03
  25   1     0.03  -0.05  -0.04     0.02  -0.02  -0.00     0.24  -0.37  -0.09
  26   1     0.06  -0.03   0.04     0.01  -0.02  -0.01     0.22  -0.26  -0.01
  27   1     0.03  -0.06  -0.00     0.02  -0.02  -0.01     0.16  -0.23  -0.05
  28   1     0.03   0.03   0.01     0.12  -0.00   0.10     0.01  -0.01   0.00
  29   1    -0.02   0.13   0.04     0.12  -0.01   0.10     0.00  -0.02   0.02
  30   1     0.03  -0.01  -0.02     0.18   0.00   0.16     0.01  -0.02   0.01
  31   1    -0.10  -0.01   0.09    -0.03  -0.00  -0.02     0.01   0.01  -0.05
  32   1     0.02  -0.07  -0.03    -0.09   0.00  -0.09    -0.02   0.02  -0.01
  33   1    -0.06  -0.01   0.04    -0.10  -0.01  -0.09    -0.01   0.00  -0.03
  34   1     0.02  -0.09  -0.04    -0.16  -0.02  -0.14    -0.02   0.03  -0.01
                     31                     32                     33
                        a                      a                      a 
 Frequencies --   760.0419               778.5242               814.2696
 Red. masses --     4.6276                10.8858                 3.9040
 Frc consts  --     0.0000                 0.0000                 0.0000
 IR Inten    --     3.1031                 0.0170                39.1309
 Raman Activ --     0.0000                 0.0000                 0.0000
 Depolar     --     0.0000                 0.0000                 0.0000
 Atom AN      X      Y      Z        X      Y      Z        X      Y      Z
   1   6    -0.06  -0.03  -0.07     0.01   0.01   0.01    -0.02   0.00  -0.02
   2   6    -0.03   0.04  -0.02     0.00   0.03  -0.02    -0.02   0.01   0.01
   3   7    -0.03  -0.03   0.01    -0.02  -0.01   0.04    -0.01  -0.04  -0.05
   4   6    -0.02   0.05   0.02     0.00  -0.01  -0.01    -0.02   0.03   0.01
   5   6     0.04  -0.00  -0.01    -0.00  -0.00  -0.00     0.02   0.01   0.00
   6   6     0.05   0.02  -0.01    -0.01  -0.01   0.01     0.04   0.03  -0.01
   7   6    -0.01  -0.03  -0.03     0.01   0.01   0.01    -0.02  -0.02  -0.03
   8   6     0.00  -0.03   0.03    -0.00   0.01  -0.03    -0.00  -0.02   0.05
   9   6     0.01  -0.02   0.02    -0.00   0.01  -0.02     0.01  -0.01   0.02
  10   6     0.21  -0.01   0.20    -0.06  -0.20   0.07     0.01   0.00   0.05
  11   6    -0.10   0.01  -0.10    -0.25  -0.23   0.27    -0.11   0.01  -0.10
  12   6    -0.05  -0.02  -0.04     0.05   0.37  -0.05    -0.14  -0.01  -0.12
  13   6    -0.13  -0.01  -0.11     0.14   0.03  -0.16    -0.16  -0.02  -0.16
  14   6     0.05  -0.00   0.03     0.07  -0.08  -0.10     0.19  -0.01   0.16
  15   6     0.12   0.00   0.08     0.05  -0.22  -0.04    -0.09  -0.00  -0.11
  16   6     0.13   0.01   0.11    -0.23  -0.20   0.26    -0.07   0.00  -0.06
  17   6     0.06  -0.00   0.05     0.05   0.42  -0.05    -0.09   0.00  -0.08
  18   6     0.13   0.02   0.13     0.10   0.15  -0.12    -0.09   0.01  -0.06
  19   6    -0.21   0.01  -0.17     0.06  -0.04  -0.04     0.10   0.01   0.10
  20   1    -0.02  -0.04  -0.05    -0.01  -0.01  -0.01    -0.00  -0.02  -0.03
  21   1    -0.01  -0.04  -0.04     0.01   0.00   0.02     0.00  -0.01  -0.01
  22   1     0.02  -0.00   0.02     0.00  -0.00   0.01     0.02   0.00   0.02
  23   1    -0.02   0.04   0.00     0.00   0.00   0.00     0.00   0.00  -0.00
  24   1    -0.01   0.05   0.02    -0.00  -0.00  -0.00     0.01   0.02   0.01
  25   1    -0.05   0.05   0.01     0.00  -0.00   0.00    -0.02   0.02  -0.00
  26   1    -0.02   0.04   0.02    -0.00  -0.00  -0.01     0.00   0.02   0.02
  27   1    -0.03   0.03   0.01     0.01  -0.00  -0.00    -0.01   0.01   0.01
  28   1     0.15  -0.01   0.13    -0.03  -0.16   0.04     0.30  -0.02   0.27
  29   1     0.18  -0.01   0.16     0.08   0.09  -0.07     0.32  -0.02   0.30
  30   1     0.22  -0.01   0.20     0.02  -0.05  -0.01     0.28  -0.02   0.25
  31   1    -0.27   0.00  -0.24     0.03   0.00  -0.05     0.14   0.00   0.11
  32   1    -0.29   0.00  -0.26    -0.05  -0.12   0.04     0.21   0.01   0.19
  33   1    -0.25  -0.01  -0.23     0.07   0.11  -0.10     0.23   0.01   0.20
  34   1    -0.19  -0.00  -0.17     0.00  -0.00  -0.01     0.14   0.02   0.12
                     34                     35                     36
                        a                      a                      a 
 Frequencies --   828.1539               851.3083               868.4719
 Red. masses --    10.6842                10.4346                 3.3112
 Frc consts  --     0.0000                 0.0000                 0.0000
 IR Inten    --    26.3030                 1.7412                 2.2249
 Raman Activ --     0.0000                 0.0000                 0.0000
 Depolar     --     0.0000                 0.0000                 0.0000
 Atom AN      X      Y      Z        X      Y      Z        X      Y      Z
   1   6    -0.01   0.05   0.08     0.00  -0.05  -0.10    -0.00   0.01   0.01
   2   6    -0.09   0.07   0.06     0.11  -0.03  -0.05    -0.01   0.01   0.00
   3   7    -0.03  -0.27  -0.45     0.11   0.04   0.12     0.00  -0.01  -0.01
   4   6    -0.13   0.15   0.01     0.03   0.00   0.03    -0.02   0.01  -0.01
   5   6     0.11   0.06   0.04    -0.03  -0.04  -0.02     0.15  -0.20  -0.04
   6   6     0.26   0.18  -0.08    -0.10  -0.09   0.02     0.13  -0.14  -0.04
   7   6    -0.10  -0.14  -0.19     0.06   0.03   0.07     0.00  -0.01  -0.02
   8   6    -0.00  -0.11   0.35     0.01   0.04  -0.13    -0.11   0.15   0.06
   9   6     0.06  -0.06   0.16    -0.03   0.02  -0.05    -0.15   0.20   0.06
  10   6    -0.19   0.01   0.02    -0.09  -0.03   0.11    -0.00   0.00  -0.01
  11   6    -0.01  -0.03   0.06    -0.12  -0.01   0.13     0.00   0.00  -0.01
  12   6     0.02  -0.01   0.02    -0.01   0.15   0.02     0.00  -0.01  -0.00
  13   6     0.11  -0.15  -0.03     0.20  -0.41  -0.24    -0.01   0.02   0.01
  14   6    -0.01  -0.05  -0.05     0.00  -0.14   0.00     0.00   0.01   0.00
  15   6     0.07   0.01  -0.07     0.02   0.11  -0.02    -0.01  -0.00  -0.01
  16   6     0.04   0.03  -0.05     0.18   0.12  -0.20    -0.01  -0.00  -0.00
  17   6     0.02  -0.00   0.00     0.01  -0.17  -0.02     0.01   0.01   0.01
  18   6    -0.06   0.14   0.07    -0.21   0.33   0.21     0.02  -0.01   0.00
  19   6    -0.03   0.04   0.08    -0.10   0.13   0.14    -0.00  -0.01  -0.01
  20   1     0.03  -0.03  -0.04    -0.04  -0.00   0.00     0.00  -0.00  -0.00
  21   1     0.00  -0.05  -0.08     0.01   0.03   0.06    -0.00  -0.00  -0.01
  22   1     0.12   0.05   0.12    -0.09  -0.05  -0.09     0.01   0.00   0.01
  23   1     0.02  -0.01  -0.00    -0.03   0.02   0.00    -0.27   0.40   0.09
  24   1     0.05   0.12   0.07    -0.05  -0.01  -0.02    -0.21   0.31   0.07
  25   1    -0.14   0.13  -0.02     0.02   0.00   0.02    -0.02   0.02  -0.00
  26   1     0.02   0.09   0.14    -0.02  -0.02  -0.05     0.22  -0.29  -0.05
  27   1    -0.02   0.03   0.04     0.02  -0.03  -0.02     0.29  -0.41  -0.10
  28   1    -0.04  -0.04  -0.03    -0.01  -0.05   0.02     0.01   0.00   0.01
  29   1    -0.08   0.00  -0.02    -0.09   0.05   0.09     0.00  -0.00  -0.01
  30   1    -0.07  -0.06  -0.08     0.02  -0.19  -0.02    -0.01   0.01  -0.01
  31   1     0.03   0.01  -0.02    -0.01   0.02  -0.01     0.02  -0.00   0.02
  32   1     0.01   0.04  -0.00     0.03   0.08  -0.04     0.01  -0.00   0.01
  33   1     0.00  -0.00  -0.04     0.04  -0.05  -0.04    -0.01   0.00  -0.00
  34   1    -0.02   0.07  -0.02     0.00   0.20   0.01    -0.03  -0.01  -0.02
                     37                     38                     39
                        a                      a                      a 
 Frequencies --   880.0798               884.4900               894.0534
 Red. masses --     3.6972                 3.8967                 4.0317
 Frc consts  --     0.0000                 0.0000                 0.0000
 IR Inten    --     0.3711                 2.2779                 0.1897
 Raman Activ --     0.0000                 0.0000                 0.0000
 Depolar     --     0.0000                 0.0000                 0.0000
 Atom AN      X      Y      Z        X      Y      Z        X      Y      Z
   1   6    -0.02  -0.02  -0.01     0.01   0.01   0.03    -0.01  -0.00  -0.03
   2   6     0.01   0.02   0.00     0.00   0.00  -0.01     0.00  -0.00   0.01
   3   7     0.01   0.01   0.03    -0.00  -0.05  -0.05    -0.00   0.01   0.02
   4   6     0.02  -0.01   0.01    -0.07   0.08   0.01     0.00   0.00   0.00
   5   6    -0.03   0.03  -0.00     0.14  -0.20  -0.02     0.00  -0.00  -0.01
   6   6    -0.03  -0.01   0.01     0.02   0.03  -0.00    -0.01  -0.01   0.00
   7   6     0.04  -0.02   0.01    -0.21   0.26   0.03     0.00   0.00   0.01
   8   6     0.02  -0.01  -0.03    -0.02   0.01   0.04    -0.00   0.00  -0.01
   9   6    -0.02   0.01  -0.00     0.15  -0.19  -0.03    -0.00  -0.00  -0.00
  10   6     0.03  -0.00   0.03     0.00  -0.01  -0.00     0.04   0.00   0.05
  11   6    -0.10   0.00  -0.09    -0.02  -0.01   0.00    -0.26   0.02  -0.25
  12   6     0.02  -0.00   0.02    -0.00   0.01   0.00     0.01  -0.01   0.01
  13   6     0.04  -0.00   0.04     0.02  -0.02  -0.01     0.22  -0.00   0.22
  14   6     0.04  -0.00   0.04     0.00  -0.01   0.01    -0.08   0.01  -0.07
  15   6    -0.20   0.00  -0.18    -0.03   0.01  -0.02     0.07  -0.00   0.05
  16   6    -0.11  -0.00  -0.12    -0.01   0.00  -0.02     0.04   0.00   0.05
  17   6     0.18   0.01   0.16     0.03  -0.01   0.02    -0.02   0.00  -0.02
  18   6     0.15   0.01   0.14     0.01   0.02   0.02    -0.07  -0.01  -0.07
  19   6    -0.05  -0.00  -0.04    -0.00   0.01   0.00     0.05   0.00   0.04
  20   1    -0.01  -0.01  -0.00     0.01   0.00   0.01    -0.01  -0.01  -0.02
  21   1    -0.01  -0.01  -0.02     0.00  -0.00  -0.01     0.00  -0.00   0.00
  22   1     0.00   0.00  -0.00     0.02   0.01   0.01    -0.00  -0.01   0.00
  23   1     0.05  -0.07  -0.02    -0.26   0.37   0.08    -0.00   0.00  -0.00
  24   1     0.00  -0.01  -0.01     0.06  -0.07  -0.01    -0.00   0.00   0.00
  25   1    -0.03   0.05   0.01     0.30  -0.43  -0.10     0.00  -0.00   0.00
  26   1    -0.03   0.04   0.00     0.07  -0.09  -0.01    -0.00  -0.00  -0.00
  27   1     0.01  -0.02  -0.01    -0.26   0.36   0.09     0.00  -0.00   0.00
  28   1     0.17  -0.01   0.15     0.02  -0.00   0.02     0.46  -0.03   0.40
  29   1    -0.02   0.00  -0.02     0.00   0.00   0.00     0.01  -0.00   0.01
  30   1    -0.09   0.00  -0.08    -0.01  -0.01  -0.01    -0.40   0.01  -0.35
  31   1     0.40  -0.00   0.36     0.05   0.00   0.05    -0.11   0.00  -0.10
  32   1     0.16  -0.00   0.13     0.02   0.00   0.01    -0.08   0.00  -0.07
  33   1    -0.26  -0.01  -0.24    -0.04  -0.00  -0.04     0.02   0.00   0.02
  34   1    -0.35  -0.02  -0.30    -0.04   0.01  -0.03     0.14   0.01   0.12
                     40                     41                     42
                        a                      a                      a 
 Frequencies --   918.0817               922.0220               924.4534
 Red. masses --     3.6618                 4.0042                 3.5207
 Frc consts  --     0.0000                 0.0000                 0.0000
 IR Inten    --     0.0204                 0.1827                 0.2652
 Raman Activ --     0.0000                 0.0000                 0.0000
 Depolar     --     0.0000                 0.0000                 0.0000
 Atom AN      X      Y      Z        X      Y      Z        X      Y      Z
   1   6     0.01   0.01  -0.00    -0.00  -0.00  -0.01     0.02   0.01  -0.00
   2   6    -0.01  -0.01  -0.00     0.00  -0.00   0.00    -0.01  -0.01  -0.00
   3   7    -0.01   0.00  -0.00     0.00   0.01   0.01    -0.01  -0.00  -0.01
   4   6     0.00  -0.01  -0.00     0.02   0.00   0.01     0.01  -0.02  -0.01
   5   6    -0.01   0.01   0.01    -0.13   0.18   0.02     0.02  -0.03  -0.00
   6   6     0.01  -0.01  -0.00     0.16  -0.25  -0.04    -0.05   0.08   0.01
   7   6     0.00  -0.01  -0.01     0.01   0.01   0.02     0.04  -0.06  -0.02
   8   6    -0.02   0.02   0.01    -0.16   0.23   0.02    -0.02   0.03   0.01
   9   6     0.01  -0.01  -0.00     0.12  -0.18  -0.04     0.00   0.01   0.00
  10   6     0.01  -0.00   0.00    -0.00   0.00   0.00    -0.04   0.00  -0.02
  11   6     0.08  -0.00   0.07    -0.01   0.00  -0.01    -0.08   0.01  -0.08
  12   6    -0.16   0.01  -0.14     0.03  -0.00   0.03     0.21  -0.01   0.19
  13   6     0.06  -0.00   0.05    -0.02  -0.00  -0.02    -0.14   0.01  -0.12
  14   6     0.03  -0.00   0.03    -0.00   0.00  -0.00    -0.02   0.00  -0.02
  15   6    -0.18   0.00  -0.16     0.00  -0.00  -0.00    -0.09  -0.00  -0.09
  16   6     0.20   0.00   0.19    -0.01  -0.00  -0.00     0.10  -0.00   0.10
  17   6     0.07  -0.01   0.06     0.01   0.00   0.01     0.05   0.00   0.05
  18   6    -0.13  -0.00  -0.12    -0.01  -0.00  -0.01    -0.11  -0.01  -0.11
  19   6     0.00   0.00  -0.00     0.00   0.00   0.01     0.07   0.00   0.07
  20   1     0.00   0.00  -0.00    -0.00   0.00  -0.00    -0.00   0.00   0.00
  21   1     0.01   0.01   0.02    -0.00   0.00   0.00     0.01   0.01   0.02
  22   1    -0.00  -0.00  -0.00    -0.00  -0.00  -0.00    -0.01  -0.01  -0.00
  23   1     0.01  -0.02  -0.00     0.20  -0.29  -0.07    -0.06   0.09   0.02
  24   1    -0.01   0.02   0.00    -0.28   0.39   0.09     0.12  -0.16  -0.03
  25   1    -0.02   0.02   0.00     0.00  -0.00   0.01    -0.09   0.12   0.02
  26   1     0.03  -0.04  -0.01     0.27  -0.38  -0.09     0.06  -0.09  -0.02
  27   1    -0.01   0.02   0.01    -0.20   0.28   0.07    -0.02   0.03   0.01
  28   1    -0.15   0.01  -0.13     0.03  -0.00   0.03     0.19  -0.01   0.16
  29   1     0.29  -0.01   0.26    -0.07   0.00  -0.06    -0.41   0.02  -0.36
  30   1    -0.13   0.00  -0.11     0.04  -0.00   0.04     0.27  -0.01   0.25
  31   1     0.31   0.00   0.27    -0.00   0.00  -0.01     0.16   0.00   0.13
  32   1    -0.37  -0.00  -0.33     0.01   0.00   0.01    -0.19   0.00  -0.17
  33   1    -0.11  -0.00  -0.10    -0.02   0.00  -0.02    -0.09  -0.00  -0.08
  34   1     0.22   0.02   0.19     0.02   0.00   0.02     0.20   0.01   0.17
                     43                     44                     45
                        a                      a                      a 
 Frequencies --   924.8390               932.6857               969.1548
 Red. masses --     2.8848                 3.1661                10.9292
 Frc consts  --     0.0000                 0.0000                 0.0000
 IR Inten    --     0.0993                 0.0394                20.8710
 Raman Activ --     0.0000                 0.0000                 0.0000
 Depolar     --     0.0000                 0.0000                 0.0000
 Atom AN      X      Y      Z        X      Y      Z        X      Y      Z
   1   6     0.01   0.00   0.00    -0.02  -0.02   0.01     0.11   0.02   0.21
   2   6    -0.00  -0.00  -0.00     0.01   0.02  -0.00    -0.10  -0.02  -0.15
   3   7    -0.00  -0.01  -0.01     0.01  -0.00   0.00    -0.21   0.09   0.09
   4   6    -0.05   0.06   0.01     0.01   0.00   0.01    -0.06  -0.11  -0.12
   5   6    -0.02   0.03   0.01    -0.00   0.01  -0.01    -0.07  -0.06   0.22
   6   6     0.12  -0.15  -0.04    -0.01  -0.01   0.00     0.12   0.09  -0.04
   7   6    -0.13   0.18   0.04     0.01   0.00   0.01    -0.12  -0.07  -0.14
   8   6     0.13  -0.18  -0.03    -0.01   0.02  -0.00    -0.04  -0.04   0.13
   9   6    -0.03   0.05   0.01     0.00  -0.02  -0.00     0.17   0.16  -0.09
  10   6    -0.01   0.00  -0.01    -0.00  -0.00  -0.00     0.31  -0.12  -0.25
  11   6    -0.02   0.00  -0.02    -0.03  -0.01  -0.01    -0.14  -0.12   0.11
  12   6     0.06  -0.00   0.06     0.03  -0.00   0.02     0.01   0.12  -0.01
  13   6    -0.04   0.00  -0.04     0.01  -0.00   0.00     0.05   0.01  -0.05
  14   6    -0.01   0.00  -0.01    -0.07   0.00  -0.06    -0.00  -0.05  -0.01
  15   6    -0.04  -0.00  -0.03    -0.04  -0.00  -0.04    -0.21   0.12   0.24
  16   6     0.05  -0.00   0.05     0.14   0.00   0.12     0.07   0.01  -0.08
  17   6     0.01  -0.00   0.01    -0.23  -0.00  -0.21     0.00  -0.20   0.00
  18   6    -0.04  -0.00  -0.03     0.15   0.01   0.14    -0.08   0.08   0.09
  19   6     0.03  -0.00   0.02     0.05  -0.00   0.04     0.18   0.06  -0.21
  20   1     0.00   0.00   0.00     0.00   0.00   0.01     0.09   0.10   0.14
  21   1     0.00   0.00   0.00    -0.01  -0.01  -0.03    -0.01   0.04  -0.00
  22   1     0.00   0.00   0.00     0.01   0.01   0.00     0.03   0.05   0.01
  23   1     0.11  -0.16  -0.03     0.00  -0.00  -0.00     0.00  -0.06   0.05
  24   1    -0.25   0.36   0.08    -0.00  -0.01  -0.00     0.02   0.02  -0.03
  25   1     0.27  -0.37  -0.08    -0.00   0.01   0.00    -0.04  -0.02  -0.03
  26   1    -0.28   0.39   0.09     0.02  -0.03  -0.01    -0.02  -0.04   0.02
  27   1     0.14  -0.19  -0.05    -0.03   0.03  -0.00     0.05   0.03  -0.04
  28   1     0.05  -0.00   0.05     0.04  -0.01   0.04    -0.02   0.03   0.09
  29   1    -0.12   0.01  -0.11    -0.05   0.00  -0.05     0.07   0.02  -0.07
  30   1     0.09  -0.00   0.08    -0.00   0.00  -0.00     0.01  -0.01  -0.00
  31   1     0.07   0.00   0.06     0.15  -0.00   0.13    -0.08  -0.01   0.09
  32   1    -0.09  -0.00  -0.08    -0.29  -0.01  -0.26     0.04  -0.06  -0.04
  33   1    -0.01  -0.00  -0.01     0.46   0.01   0.40     0.02  -0.06  -0.01
  34   1     0.06   0.00   0.05    -0.36  -0.03  -0.31    -0.04  -0.01   0.03
                     46                     47                     48
                        a                      a                      a 
 Frequencies --   982.4443              1009.8099              1023.8458
 Red. masses --     9.4825                 5.1536                 7.1401
 Frc consts  --     0.0000                 0.0000                 0.0000
 IR Inten    --     1.7321                 8.9087                19.5707
 Raman Activ --     0.0000                 0.0000                 0.0000
 Depolar     --     0.0000                 0.0000                 0.0000
 Atom AN      X      Y      Z        X      Y      Z        X      Y      Z
   1   6     0.14  -0.05  -0.14    -0.03   0.38  -0.16     0.42   0.04   0.02
   2   6     0.06  -0.03   0.02    -0.04  -0.32   0.22    -0.16  -0.14  -0.12
   3   7     0.03   0.03   0.08     0.03   0.03   0.01    -0.28  -0.01  -0.09
   4   6    -0.06  -0.04  -0.07    -0.01   0.01   0.02    -0.11  -0.05  -0.11
   5   6    -0.13  -0.16   0.39    -0.01  -0.01   0.02     0.09   0.11  -0.23
   6   6     0.08   0.07  -0.06     0.01   0.00  -0.00     0.09   0.06   0.01
   7   6    -0.19  -0.09  -0.21    -0.02  -0.01  -0.01     0.08   0.04   0.10
   8   6    -0.05  -0.05   0.09    -0.00  -0.00  -0.02     0.01  -0.01   0.08
   9   6     0.31   0.26  -0.20     0.05   0.03  -0.03    -0.17  -0.14   0.12
  10   6    -0.14   0.06   0.19     0.04  -0.04  -0.11     0.05  -0.01   0.07
  11   6     0.08   0.08  -0.09     0.01  -0.00   0.01     0.02   0.02  -0.04
  12   6    -0.02  -0.05   0.01    -0.00   0.07   0.02    -0.02   0.03   0.01
  13   6    -0.02  -0.02   0.03    -0.01   0.01   0.01    -0.01  -0.00   0.01
  14   6    -0.01   0.03   0.01     0.01  -0.02  -0.01    -0.01  -0.00   0.00
  15   6     0.13  -0.07  -0.14    -0.06   0.03   0.07     0.02  -0.01  -0.01
  16   6    -0.03  -0.00   0.03     0.02   0.00  -0.03     0.02   0.00  -0.02
  17   6    -0.01   0.13  -0.01    -0.00  -0.04  -0.01    -0.00   0.03  -0.00
  18   6     0.06  -0.04  -0.04    -0.01   0.01   0.03     0.01   0.00   0.02
  19   6    -0.13  -0.04   0.13     0.07   0.03  -0.08    -0.02  -0.00   0.00
  20   1    -0.08  -0.00   0.04    -0.29  -0.34  -0.42    -0.08   0.05   0.15
  21   1     0.05   0.10   0.20     0.19  -0.04   0.31     0.13   0.23   0.42
  22   1    -0.19  -0.11  -0.17     0.09  -0.09   0.29    -0.25  -0.15  -0.20
  23   1    -0.08  -0.08   0.09    -0.02  -0.01   0.00     0.09   0.06  -0.05
  24   1    -0.01   0.02  -0.09    -0.00   0.00  -0.00     0.05   0.02   0.08
  25   1    -0.06  -0.02  -0.05    -0.01  -0.01   0.01     0.02   0.00   0.04
  26   1    -0.07  -0.06  -0.00    -0.02  -0.01  -0.01     0.06   0.03   0.05
  27   1     0.06   0.08  -0.11     0.01   0.02  -0.01    -0.03  -0.04   0.11
  28   1     0.03  -0.02  -0.04    -0.01   0.01  -0.00     0.03  -0.01  -0.00
  29   1    -0.05  -0.01   0.07     0.00   0.02  -0.01    -0.01   0.01   0.03
  30   1    -0.01  -0.00   0.00    -0.02  -0.02   0.02    -0.01  -0.02   0.01
  31   1     0.05   0.00  -0.05    -0.02  -0.01   0.03    -0.00  -0.02   0.00
  32   1    -0.02   0.04   0.02     0.02  -0.03  -0.02     0.01  -0.00  -0.01
  33   1     0.00   0.04   0.02     0.02  -0.01   0.00     0.01   0.01   0.01
  34   1    -0.02  -0.01  -0.04    -0.06  -0.05   0.01    -0.06  -0.04  -0.01
                     49                     50                     51
                        a                      a                      a 
 Frequencies --  1080.3576              1080.8831              1111.5606
 Red. masses --     6.6102                 7.0937                 6.6689
 Frc consts  --     0.0000                 0.0000                 0.0000
 IR Inten    --     0.2823                 0.4635                 4.4610
 Raman Activ --     0.0000                 0.0000                 0.0000
 Depolar     --     0.0000                 0.0000                 0.0000
 Atom AN      X      Y      Z        X      Y      Z        X      Y      Z
   1   6    -0.03  -0.01   0.00     0.03  -0.00  -0.04    -0.02   0.04   0.12
   2   6     0.02   0.01  -0.00    -0.00  -0.00   0.05    -0.00  -0.03  -0.16
   3   7     0.02   0.01   0.02    -0.00  -0.00  -0.01    -0.02   0.02   0.04
   4   6     0.00  -0.01   0.02    -0.01  -0.00  -0.00    -0.01  -0.02   0.02
   5   6    -0.09  -0.04  -0.13    -0.02  -0.01  -0.05    -0.00   0.00  -0.03
   6   6     0.22   0.20  -0.20     0.07   0.06  -0.06     0.02   0.02  -0.01
   7   6     0.26   0.12   0.32     0.07   0.03   0.09    -0.01  -0.01   0.02
   8   6    -0.14  -0.15   0.25    -0.04  -0.04   0.07    -0.00   0.01  -0.02
   9   6    -0.09  -0.04  -0.11    -0.02  -0.01  -0.03     0.03   0.02   0.00
  10   6     0.00  -0.00  -0.01    -0.02   0.03   0.02     0.01  -0.15  -0.01
  11   6     0.01  -0.00  -0.01    -0.07   0.00   0.08     0.30  -0.07  -0.33
  12   6    -0.00   0.02   0.00     0.01  -0.09  -0.01    -0.06   0.32   0.08
  13   6    -0.01   0.01   0.01     0.03  -0.02  -0.04    -0.19   0.05   0.21
  14   6    -0.02  -0.01   0.02     0.06   0.04  -0.07     0.03  -0.10  -0.04
  15   6     0.02  -0.05  -0.02    -0.06   0.19   0.07    -0.02   0.07   0.03
  16   6     0.08   0.00  -0.09    -0.29  -0.00   0.31    -0.04   0.01   0.05
  17   6    -0.03   0.11   0.03     0.10  -0.40  -0.11     0.03  -0.06  -0.03
  18   6    -0.05   0.01   0.04     0.16  -0.04  -0.16     0.01   0.06  -0.01
  19   6     0.00  -0.03  -0.00    -0.00   0.11   0.00    -0.06  -0.07   0.07
  20   1     0.01   0.00  -0.00    -0.04  -0.02  -0.01     0.04   0.01   0.01
  21   1    -0.01  -0.01  -0.03     0.02   0.02   0.05    -0.01  -0.02  -0.04
  22   1     0.02   0.01   0.01    -0.04  -0.03  -0.03     0.08   0.05   0.07
  23   1    -0.30  -0.18  -0.12    -0.09  -0.05  -0.04    -0.04  -0.02  -0.02
  24   1    -0.01   0.05  -0.30     0.00   0.02  -0.08     0.02   0.00   0.02
  25   1     0.07   0.03   0.11     0.02   0.00   0.04    -0.03  -0.03   0.04
  26   1    -0.28  -0.21  -0.01    -0.08  -0.06  -0.00    -0.03  -0.02  -0.02
  27   1    -0.10  -0.01  -0.27    -0.02  -0.00  -0.05     0.02   0.00   0.04
  28   1     0.01  -0.01  -0.01    -0.04   0.06   0.05     0.18  -0.32  -0.22
  29   1    -0.00   0.01   0.00     0.02  -0.03  -0.03    -0.09   0.11   0.11
  30   1    -0.01  -0.01   0.01     0.03   0.05  -0.04    -0.21  -0.32   0.23
  31   1    -0.03  -0.10   0.03     0.12   0.34  -0.12     0.03   0.10  -0.03
  32   1     0.04  -0.04  -0.04    -0.13   0.15   0.15    -0.01  -0.00   0.01
  33   1    -0.04   0.04   0.04     0.14  -0.13  -0.15     0.06  -0.02  -0.06
  34   1    -0.03  -0.07   0.07     0.14   0.25  -0.21     0.05   0.14  -0.07
                     52                     53                     54
                        a                      a                      a 
 Frequencies --  1117.7082              1136.1199              1170.7170
 Red. masses --     4.0939                 7.3359                 2.6985
 Frc consts  --     0.0000                 0.0000                 0.0000
 IR Inten    --     0.1579                44.9895                 5.2639
 Raman Activ --     0.0000                 0.0000                 0.0000
 Depolar     --     0.0000                 0.0000                 0.0000
 Atom AN      X      Y      Z        X      Y      Z        X      Y      Z
   1   6    -0.00  -0.01   0.02     0.01  -0.14  -0.21    -0.01   0.04   0.07
   2   6     0.00  -0.01  -0.02     0.02   0.21   0.34    -0.00  -0.09  -0.15
   3   7     0.01   0.01  -0.04     0.04  -0.06  -0.09     0.00   0.02   0.03
   4   6    -0.07  -0.08   0.12     0.01   0.04   0.04    -0.00  -0.02  -0.00
   5   6    -0.04   0.01  -0.23    -0.01  -0.01  -0.01     0.00   0.00  -0.00
   6   6     0.12   0.09  -0.00    -0.01  -0.01   0.01     0.00   0.00  -0.00
   7   6    -0.13  -0.12   0.11    -0.01  -0.01   0.01    -0.00  -0.00   0.00
   8   6     0.03   0.07  -0.21     0.01   0.01  -0.03    -0.00   0.00   0.00
   9   6     0.21   0.15   0.05     0.02   0.01   0.01     0.00   0.00   0.00
  10   6     0.00   0.00  -0.01    -0.12   0.14   0.11    -0.02  -0.06   0.03
  11   6    -0.03   0.02   0.03     0.01  -0.01  -0.00     0.02   0.03  -0.03
  12   6     0.00  -0.03  -0.01     0.04  -0.05  -0.04    -0.07  -0.03   0.07
  13   6     0.03  -0.02  -0.04    -0.11   0.11   0.12     0.04   0.07  -0.04
  14   6    -0.02   0.02   0.02     0.13  -0.12  -0.15     0.01  -0.00  -0.02
  15   6     0.02  -0.03  -0.02    -0.13   0.14   0.14     0.01   0.14  -0.01
  16   6     0.01   0.00  -0.01     0.04  -0.03  -0.05     0.02  -0.11  -0.03
  17   6    -0.01   0.02   0.01     0.03  -0.04  -0.03     0.02   0.04  -0.02
  18   6     0.01  -0.02  -0.01    -0.14   0.11   0.15    -0.10   0.02   0.11
  19   6    -0.01   0.01   0.01     0.15  -0.11  -0.16    -0.05  -0.16   0.05
  20   1     0.01   0.01   0.01    -0.04   0.01   0.02     0.03   0.00  -0.00
  21   1    -0.01  -0.00  -0.02    -0.01   0.03   0.02     0.00  -0.01  -0.01
  22   1     0.01   0.01   0.00    -0.16  -0.08  -0.18     0.06   0.03   0.06
  23   1    -0.35  -0.19  -0.17    -0.08  -0.03  -0.02     0.02   0.01   0.00
  24   1     0.13   0.03   0.29     0.01  -0.00   0.04    -0.00   0.00  -0.01
  25   1    -0.23  -0.23   0.29    -0.02  -0.02   0.02    -0.01  -0.01   0.01
  26   1    -0.16  -0.09  -0.12    -0.00   0.01  -0.01     0.00  -0.00  -0.00
  27   1     0.18   0.03   0.38     0.01   0.01   0.03     0.00  -0.00  -0.01
  28   1    -0.03   0.06   0.03     0.03  -0.14  -0.06     0.01   0.02  -0.00
  29   1    -0.01  -0.01   0.01     0.22  -0.04  -0.25    -0.28   0.03   0.32
  30   1     0.03   0.05  -0.04    -0.07  -0.06   0.08     0.17   0.35  -0.17
  31   1    -0.01  -0.03   0.01     0.01   0.12  -0.00     0.15   0.37  -0.18
  32   1    -0.00   0.02   0.00     0.09  -0.27  -0.10     0.13  -0.42  -0.15
  33   1    -0.03   0.01   0.03     0.17  -0.03  -0.19     0.14  -0.01  -0.16
  34   1    -0.00  -0.00  -0.01    -0.08  -0.08   0.11    -0.06  -0.08   0.08
                     55                     56                     57
                        a                      a                      a 
 Frequencies --  1179.8020              1179.9308              1191.1888
 Red. masses --     1.4179                 1.6952                 2.0261
 Frc consts  --     0.0000                 0.0000                 0.0000
 IR Inten    --     0.0263                 0.4813                 3.3017
 Raman Activ --     0.0000                 0.0000                 0.0000
 Depolar     --     0.0000                 0.0000                 0.0000
 Atom AN      X      Y      Z        X      Y      Z        X      Y      Z
   1   6    -0.01  -0.01  -0.01    -0.01  -0.01  -0.01    -0.03  -0.01  -0.03
   2   6     0.02   0.01   0.01    -0.01   0.01   0.00     0.06   0.03   0.05
   3   7     0.02   0.01   0.00    -0.00  -0.01  -0.01     0.06   0.02   0.05
   4   6     0.01   0.02  -0.05     0.01   0.00   0.03    -0.10  -0.05  -0.06
   5   6    -0.05  -0.02  -0.06     0.01  -0.00   0.02     0.07   0.06  -0.01
   6   6     0.00   0.01  -0.06    -0.01  -0.01   0.03     0.03   0.05  -0.13
   7   6    -0.04  -0.05   0.06     0.01   0.01  -0.01    -0.01  -0.00  -0.02
   8   6     0.01   0.01   0.01     0.01   0.01  -0.01    -0.10  -0.07   0.02
   9   6     0.06   0.02   0.08    -0.01  -0.00  -0.02     0.02  -0.01   0.10
  10   6    -0.01  -0.01   0.01    -0.04  -0.05   0.04    -0.02   0.01   0.01
  11   6    -0.00   0.00   0.00    -0.00   0.01   0.01    -0.00   0.00   0.01
  12   6     0.00  -0.00  -0.00    -0.01  -0.01   0.01     0.00  -0.01  -0.00
  13   6    -0.00  -0.01   0.00    -0.00  -0.03   0.00    -0.00   0.00   0.01
  14   6    -0.01   0.02   0.01    -0.04   0.10   0.04     0.00  -0.00  -0.00
  15   6    -0.00   0.01   0.01    -0.02   0.04   0.02    -0.00   0.00   0.00
  16   6    -0.00   0.01   0.01    -0.02   0.05   0.02     0.00   0.00  -0.00
  17   6     0.01  -0.00  -0.01     0.06  -0.01  -0.06    -0.00   0.00   0.00
  18   6    -0.00  -0.00   0.00    -0.01  -0.00   0.01    -0.01   0.01   0.01
  19   6     0.02  -0.01  -0.03     0.10  -0.06  -0.11     0.02  -0.02  -0.02
  20   1     0.00  -0.00  -0.00     0.02   0.01   0.01    -0.00  -0.01  -0.02
  21   1    -0.00  -0.00  -0.01    -0.00  -0.00  -0.01    -0.01  -0.02  -0.03
  22   1    -0.00   0.00  -0.00     0.00   0.01  -0.01    -0.01  -0.00  -0.01
  23   1     0.17   0.11   0.04    -0.08  -0.05  -0.02     0.39   0.24   0.11
  24   1    -0.14  -0.00  -0.47     0.04  -0.00   0.14    -0.08   0.01  -0.31
  25   1    -0.36  -0.36   0.48     0.08   0.08  -0.11     0.04   0.04  -0.05
  26   1     0.29   0.19   0.10    -0.04  -0.03  -0.02    -0.44  -0.29  -0.13
  27   1    -0.01   0.01  -0.07    -0.01  -0.00  -0.02     0.16  -0.00   0.51
  28   1     0.01  -0.04  -0.02     0.04  -0.15  -0.06     0.01  -0.03  -0.01
  29   1    -0.03   0.00   0.04    -0.18   0.02   0.20    -0.01  -0.00   0.01
  30   1     0.01   0.02  -0.01     0.05   0.10  -0.05     0.01   0.02  -0.01
  31   1    -0.03  -0.06   0.03    -0.12  -0.23   0.13    -0.01  -0.03   0.02
  32   1    -0.03   0.10   0.04    -0.13   0.41   0.15    -0.01   0.03   0.01
  33   1     0.09  -0.01  -0.10     0.38  -0.05  -0.43     0.03  -0.00  -0.03
  34   1    -0.03  -0.07   0.04    -0.13  -0.30   0.18    -0.01  -0.01   0.01
                     58                     59                     60
                        a                      a                      a 
 Frequencies --  1199.4112              1222.0099              1243.4356
 Red. masses --     3.9806                 6.6067                 6.0288
 Frc consts  --     0.0000                 0.0000                 0.0000
 IR Inten    --    21.3415                 3.4903                 8.7888
 Raman Activ --     0.0000                 0.0000                 0.0000
 Depolar     --     0.0000                 0.0000                 0.0000
 Atom AN      X      Y      Z        X      Y      Z        X      Y      Z
   1   6     0.01  -0.06  -0.11     0.00   0.03   0.03    -0.01  -0.03  -0.08
   2   6     0.00   0.14   0.24    -0.00  -0.08  -0.08     0.03   0.14   0.24
   3   7    -0.02  -0.02  -0.05     0.01   0.02   0.02    -0.01   0.01   0.03
   4   6     0.01   0.02  -0.00    -0.01  -0.01  -0.00    -0.06  -0.01  -0.10
   5   6    -0.01  -0.01  -0.00    -0.00   0.00  -0.00    -0.02  -0.01  -0.02
   6   6     0.00  -0.00   0.01     0.00   0.00  -0.00     0.03   0.02   0.01
   7   6     0.00   0.00   0.00     0.00   0.00   0.00     0.01   0.01   0.01
   8   6     0.00  -0.00   0.00     0.00   0.00   0.00    -0.01  -0.02   0.04
   9   6    -0.00  -0.01  -0.00     0.00   0.00  -0.00    -0.03  -0.02  -0.03
  10   6     0.04   0.02  -0.06     0.04   0.16  -0.03     0.09  -0.10  -0.14
  11   6    -0.05  -0.11   0.05     0.01  -0.02  -0.02     0.09  -0.08  -0.10
  12   6    -0.04   0.04   0.04    -0.05   0.13   0.06    -0.06   0.04   0.07
  13   6    -0.03  -0.01   0.03    -0.07   0.08   0.08     0.03   0.16  -0.03
  14   6    -0.02  -0.03   0.03    -0.20  -0.48   0.22     0.06  -0.13  -0.07
  15   6    -0.03  -0.06   0.03     0.06  -0.04  -0.07    -0.00   0.08   0.00
  16   6     0.01   0.00  -0.01     0.12  -0.02  -0.14     0.00  -0.02  -0.00
  17   6    -0.04  -0.09   0.05    -0.04   0.04   0.05    -0.09   0.09   0.09
  18   6     0.06   0.04  -0.07     0.01   0.14  -0.02    -0.03   0.11   0.03
  19   6     0.19   0.17  -0.22    -0.04  -0.17   0.04    -0.02  -0.42   0.04
  20   1    -0.03  -0.01   0.00     0.00  -0.00  -0.00    -0.05  -0.03  -0.02
  21   1    -0.01   0.01   0.00     0.01  -0.00   0.00    -0.01  -0.00  -0.02
  22   1    -0.08  -0.05  -0.09     0.03   0.01   0.03    -0.07  -0.04  -0.06
  23   1    -0.03  -0.01  -0.01     0.00  -0.00  -0.00    -0.01  -0.01  -0.01
  24   1     0.00  -0.00   0.01     0.00   0.00   0.01     0.02   0.01   0.04
  25   1    -0.00  -0.00   0.00     0.00  -0.00   0.00     0.01   0.01  -0.01
  26   1     0.02   0.01   0.01     0.00   0.00   0.00     0.07   0.04   0.04
  27   1    -0.00   0.00   0.00    -0.00  -0.00  -0.01    -0.00  -0.00   0.04
  28   1     0.12  -0.49  -0.17     0.03  -0.09  -0.03    -0.06   0.26   0.08
  29   1    -0.23   0.04   0.26     0.26  -0.00  -0.29    -0.12   0.03   0.14
  30   1     0.13   0.29  -0.13     0.12   0.32  -0.12     0.04   0.12  -0.05
  31   1    -0.00  -0.01   0.00     0.12   0.20  -0.14    -0.13  -0.26   0.15
  32   1    -0.01   0.04   0.01    -0.07   0.33   0.08    -0.01   0.03   0.01
  33   1    -0.27   0.01   0.31     0.03   0.01  -0.03     0.09   0.01  -0.10
  34   1     0.05   0.08  -0.06    -0.01   0.01   0.01     0.17   0.43  -0.21
                     61                     62                     63
                        a                      a                      a 
 Frequencies --  1258.5551              1264.0247              1280.9820
 Red. masses --     8.5762                 8.2286                 4.1089
 Frc consts  --     0.0000                 0.0000                 0.0000
 IR Inten    --     8.5776                59.2498                13.6866
 Raman Activ --     0.0000                 0.0000                 0.0000
 Depolar     --     0.0000                 0.0000                 0.0000
 Atom AN      X      Y      Z        X      Y      Z        X      Y      Z
   1   6    -0.09  -0.05  -0.09    -0.05   0.06   0.09    -0.02   0.03   0.02
   2   6     0.20   0.16   0.25     0.15  -0.20  -0.24     0.04  -0.05  -0.07
   3   7     0.11   0.09   0.19     0.14   0.10   0.19     0.02   0.02   0.11
   4   6    -0.34  -0.16  -0.33    -0.28  -0.17  -0.18     0.11   0.14  -0.34
   5   6    -0.11  -0.05  -0.10    -0.08  -0.03  -0.08     0.07   0.04   0.06
   6   6     0.13   0.10  -0.04     0.09   0.08  -0.07     0.03  -0.01   0.16
   7   6     0.05   0.02   0.05     0.04   0.02   0.03    -0.05  -0.05   0.08
   8   6     0.00  -0.03   0.15     0.03   0.00   0.11    -0.14  -0.11   0.04
   9   6    -0.07  -0.04  -0.10    -0.04  -0.01  -0.08    -0.09  -0.04  -0.11
  10   6     0.07  -0.10  -0.13    -0.17   0.19   0.21    -0.03   0.04   0.04
  11   6     0.04  -0.10  -0.04    -0.08   0.17   0.10    -0.02   0.04   0.02
  12   6     0.00   0.08   0.01     0.02  -0.14  -0.03     0.01  -0.02  -0.01
  13   6     0.03  -0.02  -0.03    -0.04  -0.04   0.05    -0.01  -0.02   0.01
  14   6    -0.11   0.02   0.13     0.13   0.03  -0.14     0.01   0.02  -0.01
  15   6     0.02  -0.02  -0.03    -0.02   0.01   0.02     0.00  -0.00  -0.00
  16   6     0.03  -0.04  -0.03    -0.04   0.07   0.05    -0.01   0.01   0.01
  17   6     0.02  -0.02  -0.02    -0.00   0.01   0.00     0.01  -0.00  -0.01
  18   6     0.03  -0.03  -0.04    -0.04  -0.01   0.05    -0.01  -0.01   0.01
  19   6    -0.06   0.13   0.08     0.07  -0.07  -0.08     0.00   0.01  -0.01
  20   1    -0.00  -0.03  -0.06     0.02  -0.02  -0.04     0.00  -0.01  -0.02
  21   1    -0.02  -0.05  -0.08    -0.00  -0.04  -0.05     0.00  -0.02  -0.01
  22   1    -0.05  -0.01  -0.05     0.07   0.04   0.08     0.02   0.01   0.03
  23   1     0.10   0.06   0.00     0.13   0.08   0.02    -0.34  -0.22  -0.10
  24   1     0.12   0.03   0.24     0.10   0.03   0.22    -0.10  -0.01  -0.29
  25   1     0.01  -0.00   0.03    -0.01  -0.02   0.04     0.12   0.12  -0.16
  26   1     0.14   0.08   0.09     0.07   0.04   0.05     0.29   0.19   0.12
  27   1    -0.01  -0.00   0.06    -0.03   0.00  -0.05     0.14  -0.01   0.48
  28   1    -0.03   0.10   0.03     0.06  -0.26  -0.09     0.02  -0.06  -0.02
  29   1    -0.04   0.03   0.04     0.09  -0.05  -0.11     0.03  -0.01  -0.03
  30   1    -0.05  -0.12   0.05     0.05   0.11  -0.05     0.00   0.00  -0.00
  31   1     0.10   0.19  -0.11    -0.09  -0.19   0.11    -0.00  -0.01   0.00
  32   1    -0.01   0.05   0.01     0.02  -0.09  -0.03     0.01  -0.02  -0.01
  33   1    -0.01  -0.00   0.01     0.02  -0.00  -0.02     0.01  -0.00  -0.01
  34   1    -0.08  -0.23   0.12     0.07   0.19  -0.09    -0.01  -0.01   0.00
                     64                     65                     66
                        a                      a                      a 
 Frequencies --  1317.7855              1337.1856              1366.2179
 Red. masses --    11.5910                 9.4417                 8.6451
 Frc consts  --     0.0000                 0.0000                 0.0000
 IR Inten    --     2.2777                 0.6604                 4.1499
 Raman Activ --     0.0000                 0.0000                 0.0000
 Depolar     --     0.0000                 0.0000                 0.0000
 Atom AN      X      Y      Z        X      Y      Z        X      Y      Z
   1   6    -0.00   0.01  -0.00    -0.00  -0.00   0.02     0.01  -0.01  -0.01
   2   6     0.01  -0.02  -0.02     0.02   0.03  -0.03    -0.02   0.09   0.12
   3   7    -0.00   0.01   0.02     0.01  -0.01   0.02    -0.04  -0.01  -0.02
   4   6     0.21   0.21  -0.30     0.00   0.01  -0.02     0.01   0.00   0.02
   5   6    -0.34  -0.22  -0.09    -0.02  -0.01  -0.01     0.01   0.00   0.00
   6   6     0.10   0.00   0.32     0.01   0.00   0.02    -0.00  -0.00   0.00
   7   6     0.23   0.23  -0.30     0.02   0.01  -0.01    -0.01  -0.00   0.00
   8   6    -0.27  -0.18  -0.08    -0.02  -0.02  -0.00     0.01   0.01  -0.00
   9   6     0.11  -0.01   0.41     0.00  -0.00   0.01     0.00   0.00   0.00
  10   6     0.01   0.02  -0.01    -0.22  -0.39   0.22     0.16  -0.22  -0.20
  11   6    -0.01   0.00   0.01     0.08   0.15  -0.08     0.01   0.16   0.00
  12   6    -0.01  -0.01   0.01     0.14   0.13  -0.15    -0.01   0.16   0.02
  13   6     0.01  -0.01  -0.01    -0.17  -0.03   0.19    -0.11  -0.32   0.11
  14   6    -0.00   0.01   0.00     0.13  -0.11  -0.15    -0.08   0.08   0.10
  15   6     0.01   0.01  -0.01    -0.14  -0.26   0.16     0.10  -0.14  -0.12
  16   6    -0.00  -0.00   0.00     0.02   0.14  -0.03    -0.04   0.30   0.04
  17   6    -0.01   0.00   0.01     0.19   0.02  -0.21    -0.01   0.08   0.01
  18   6     0.00  -0.01  -0.00    -0.13   0.03   0.14    -0.09  -0.36   0.11
  19   6    -0.01  -0.00   0.01     0.13   0.05  -0.15    -0.07   0.20   0.07
  20   1    -0.00  -0.00  -0.01     0.01  -0.01  -0.01    -0.03  -0.02  -0.01
  21   1     0.01  -0.00   0.01    -0.01  -0.00  -0.02    -0.02   0.01  -0.03
  22   1     0.01   0.00   0.01    -0.00   0.01  -0.01    -0.03  -0.01  -0.03
  23   1     0.02   0.00   0.01     0.01   0.00   0.00    -0.00  -0.00  -0.00
  24   1     0.03  -0.00   0.11     0.00   0.00   0.01    -0.00  -0.00  -0.01
  25   1    -0.05  -0.05   0.07     0.00   0.00   0.00    -0.00   0.00  -0.00
  26   1    -0.09  -0.06  -0.03     0.01   0.00   0.00    -0.01  -0.00  -0.00
  27   1    -0.02  -0.00  -0.03    -0.00   0.00   0.00    -0.00  -0.00  -0.01
  28   1     0.01  -0.03  -0.01    -0.06   0.30   0.07     0.05  -0.10  -0.06
  29   1     0.01  -0.00  -0.01    -0.04   0.05   0.05     0.15   0.02  -0.17
  30   1    -0.00  -0.01   0.00     0.04   0.19  -0.04     0.09   0.18  -0.10
  31   1    -0.00  -0.01   0.00     0.04   0.09  -0.05     0.02  -0.06  -0.02
  32   1     0.00  -0.01  -0.00    -0.04   0.19   0.05     0.08  -0.19  -0.09
  33   1     0.01  -0.00  -0.01    -0.12   0.03   0.13     0.20  -0.01  -0.22
  34   1     0.00   0.00  -0.00    -0.02   0.04   0.02     0.08   0.15  -0.10
                     67                     68                     69
                        a                      a                      a 
 Frequencies --  1382.1153              1390.9548              1417.0922
 Red. masses --     3.5397                 9.7944                 9.4282
 Frc consts  --     0.0000                 0.0000                 0.0000
 IR Inten    --    13.2281                 0.3209                 0.4153
 Raman Activ --     0.0000                 0.0000                 0.0000
 Depolar     --     0.0000                 0.0000                 0.0000
 Atom AN      X      Y      Z        X      Y      Z        X      Y      Z
   1   6     0.23   0.16   0.36    -0.02  -0.02  -0.05    -0.02  -0.01   0.01
   2   6    -0.03  -0.04  -0.05    -0.00  -0.00   0.02     0.01   0.02  -0.02
   3   7    -0.02  -0.00  -0.01    -0.01  -0.00  -0.00     0.01  -0.01   0.00
   4   6     0.01   0.00   0.01     0.00   0.00   0.00    -0.01  -0.01   0.01
   5   6     0.02   0.01   0.00    -0.00  -0.00   0.00    -0.01  -0.01  -0.01
   6   6    -0.01  -0.01   0.02     0.00   0.00  -0.00     0.01   0.01   0.01
   7   6    -0.01  -0.00  -0.01     0.00   0.00   0.00    -0.00  -0.00   0.01
   8   6     0.01   0.01  -0.01    -0.00  -0.00   0.00    -0.02  -0.01  -0.01
   9   6     0.01   0.00   0.03    -0.00  -0.00  -0.00     0.01   0.01  -0.00
  10   6    -0.00   0.01   0.02    -0.03  -0.12   0.02    -0.16  -0.23   0.17
  11   6    -0.01   0.01   0.01    -0.09   0.23   0.12     0.12   0.01  -0.13
  12   6     0.02  -0.02  -0.02     0.20  -0.06  -0.22    -0.06   0.18   0.07
  13   6     0.00   0.00  -0.01    -0.05  -0.10   0.05    -0.08  -0.25   0.08
  14   6    -0.04   0.04   0.05    -0.28   0.31   0.32    -0.12   0.04   0.14
  15   6     0.00   0.01  -0.00     0.03  -0.01  -0.03     0.17   0.35  -0.19
  16   6     0.02  -0.04  -0.02     0.10  -0.15  -0.11    -0.11  -0.07   0.12
  17   6    -0.02   0.01   0.02    -0.12   0.10   0.13    -0.08  -0.21   0.10
  18   6     0.00   0.01  -0.01    -0.02   0.04   0.02     0.18   0.28  -0.21
  19   6     0.04  -0.03  -0.04     0.24  -0.30  -0.27     0.13  -0.02  -0.15
  20   1    -0.21  -0.35  -0.30     0.01   0.04   0.04     0.04  -0.00  -0.02
  21   1    -0.12  -0.07  -0.49     0.01   0.01   0.06     0.00  -0.01   0.01
  22   1    -0.37  -0.05  -0.33     0.05  -0.00   0.05     0.00   0.03  -0.02
  23   1    -0.02  -0.01  -0.01     0.00   0.00   0.00     0.01   0.01   0.00
  24   1    -0.01  -0.00  -0.02     0.00   0.00   0.00     0.00   0.00  -0.01
  25   1    -0.00  -0.00  -0.00    -0.00  -0.00   0.00     0.01   0.01  -0.01
  26   1    -0.01  -0.01  -0.01     0.00   0.00   0.00     0.01   0.01   0.00
  27   1    -0.01   0.00  -0.02    -0.00   0.00  -0.00     0.00   0.00   0.00
  28   1     0.00  -0.00   0.00     0.01  -0.04  -0.01    -0.01   0.16   0.02
  29   1    -0.01  -0.00   0.01    -0.04  -0.00   0.04     0.12   0.03  -0.13
  30   1    -0.02  -0.04   0.02    -0.09  -0.18   0.10     0.07   0.14  -0.07
  31   1     0.01   0.03  -0.02     0.10   0.21  -0.12    -0.09  -0.19   0.10
  32   1    -0.00   0.01   0.00    -0.01   0.07   0.01     0.03  -0.21  -0.03
  33   1     0.00   0.00  -0.00     0.04   0.02  -0.04    -0.07  -0.06   0.08
  34   1     0.01  -0.00   0.01     0.08   0.20  -0.10    -0.05  -0.15   0.06
                     70                     71                     72
                        a                      a                      a 
 Frequencies --  1434.3578              1450.0736              1454.0627
 Red. masses --     8.9805                 9.6241                 1.9094
 Frc consts  --     0.0000                 0.0000                 0.0000
 IR Inten    --     5.5637                 1.7653                 8.6175
 Raman Activ --     0.0000                 0.0000                 0.0000
 Depolar     --     0.0000                 0.0000                 0.0000
 Atom AN      X      Y      Z        X      Y      Z        X      Y      Z
   1   6    -0.00  -0.02   0.00    -0.00  -0.03   0.02    -0.01   0.22  -0.05
   2   6     0.01   0.01   0.02     0.01  -0.04  -0.06     0.03   0.01  -0.04
   3   7     0.02   0.02  -0.05     0.03  -0.00   0.00    -0.03   0.01  -0.00
   4   6    -0.19  -0.19   0.26     0.01   0.00   0.01    -0.03  -0.02  -0.01
   5   6    -0.11  -0.02  -0.29    -0.02  -0.01  -0.00     0.03   0.02  -0.01
   6   6     0.26   0.13   0.25     0.00   0.01  -0.01     0.01  -0.00   0.04
   7   6    -0.14  -0.14   0.19     0.01   0.00   0.01    -0.02  -0.02  -0.01
   8   6    -0.24  -0.11  -0.29    -0.02  -0.01  -0.00     0.03   0.02  -0.01
   9   6     0.25   0.16   0.11     0.00   0.01  -0.02     0.01  -0.00   0.04
  10   6     0.01   0.01  -0.02    -0.14   0.15   0.17    -0.02   0.02   0.03
  11   6    -0.01   0.00   0.01    -0.03  -0.25   0.02    -0.00  -0.04   0.00
  12   6    -0.00  -0.01   0.00     0.18   0.02  -0.19     0.03   0.01  -0.04
  13   6     0.01   0.01  -0.01    -0.03   0.22   0.04    -0.01   0.02   0.01
  14   6     0.01   0.00  -0.01    -0.13  -0.37   0.14    -0.03  -0.05   0.03
  15   6    -0.01  -0.01   0.01     0.08  -0.06  -0.09     0.02  -0.01  -0.02
  16   6     0.01  -0.01  -0.01     0.02   0.25  -0.02    -0.01   0.05   0.01
  17   6     0.00   0.01  -0.00    -0.18  -0.06   0.21    -0.02  -0.02   0.02
  18   6    -0.01  -0.01   0.01     0.06  -0.15  -0.06     0.01  -0.02  -0.01
  19   6    -0.01  -0.00   0.01     0.14   0.32  -0.17     0.02   0.04  -0.02
  20   1     0.01  -0.00   0.00     0.00  -0.03  -0.03     0.11   0.22   0.19
  21   1    -0.01   0.01   0.00    -0.03   0.07   0.03     0.28  -0.54  -0.15
  22   1     0.01   0.02  -0.01     0.06   0.08  -0.03    -0.32  -0.50   0.26
  23   1     0.12   0.09  -0.04     0.01   0.01   0.01    -0.02  -0.01  -0.01
  24   1    -0.01   0.04  -0.21     0.01   0.00   0.01    -0.01  -0.00  -0.03
  25   1     0.18   0.19  -0.25     0.00   0.00   0.00     0.00   0.00  -0.01
  26   1     0.18   0.13  -0.00     0.02   0.01   0.01    -0.02  -0.01  -0.01
  27   1     0.02   0.04  -0.15     0.01   0.00   0.02    -0.01  -0.00  -0.04
  28   1     0.00  -0.01  -0.00    -0.07   0.14   0.09    -0.01   0.02   0.01
  29   1    -0.00  -0.00   0.00    -0.15   0.04   0.17    -0.02   0.01   0.02
  30   1    -0.00  -0.01   0.00    -0.07  -0.07   0.08    -0.01  -0.01   0.01
  31   1     0.00   0.01  -0.00     0.01  -0.07  -0.01    -0.00  -0.02   0.00
  32   1    -0.00   0.01   0.00     0.07  -0.14  -0.08     0.01  -0.03  -0.01
  33   1     0.00   0.00  -0.00     0.14  -0.05  -0.16     0.02  -0.01  -0.02
  34   1     0.00   0.01  -0.00     0.06   0.05  -0.08     0.00   0.00  -0.01
                     73                     74                     75
                        a                      a                      a 
 Frequencies --  1461.7866              1468.4547              1505.9747
 Red. masses --     2.0549                 8.4562                10.7690
 Frc consts  --     0.0000                 0.0000                 0.0000
 IR Inten    --    10.3661                25.6092                 0.4020
 Raman Activ --     0.0000                 0.0000                 0.0000
 Depolar     --     0.0000                 0.0000                 0.0000
 Atom AN      X      Y      Z        X      Y      Z        X      Y      Z
   1   6     0.18  -0.02  -0.11    -0.02   0.04   0.05     0.00  -0.00   0.00
   2   6    -0.04   0.01  -0.02    -0.08  -0.01  -0.03    -0.01   0.01   0.04
   3   7     0.06  -0.01  -0.00    -0.06  -0.03  -0.08    -0.02   0.00  -0.01
   4   6     0.06   0.03   0.06     0.28   0.13   0.30     0.01   0.00   0.01
   5   6    -0.07  -0.05   0.01    -0.25  -0.19   0.04    -0.01  -0.00   0.00
   6   6     0.00   0.02  -0.08    -0.01   0.06  -0.32    -0.00   0.00  -0.01
   7   6     0.04   0.02   0.05     0.16   0.08   0.17     0.00  -0.00   0.01
   8   6    -0.07  -0.05   0.00    -0.26  -0.19   0.01    -0.01  -0.00  -0.00
   9   6     0.00   0.02  -0.08     0.00   0.07  -0.30     0.00   0.00  -0.00
  10   6    -0.01  -0.01   0.01     0.02   0.00  -0.01     0.15   0.01  -0.17
  11   6     0.01  -0.01  -0.01    -0.00   0.01   0.00    -0.14   0.19   0.16
  12   6    -0.00   0.01   0.00    -0.02  -0.01   0.02     0.23  -0.09  -0.26
  13   6    -0.00  -0.01   0.00     0.01  -0.00  -0.01    -0.07   0.13   0.08
  14   6    -0.00  -0.00   0.00     0.01   0.02  -0.01    -0.12  -0.21   0.13
  15   6     0.01   0.02  -0.01    -0.01  -0.01   0.01     0.14   0.01  -0.16
  16   6    -0.00  -0.00   0.00     0.01  -0.02  -0.01    -0.18   0.30   0.20
  17   6    -0.00  -0.01   0.00     0.00   0.01  -0.00     0.25  -0.16  -0.27
  18   6     0.01   0.01  -0.01    -0.01  -0.01   0.01    -0.04   0.22   0.03
  19   6     0.00   0.01  -0.01    -0.01  -0.01   0.01    -0.11  -0.26   0.13
  20   1    -0.59   0.05   0.34     0.16   0.00  -0.07    -0.01  -0.01  -0.01
  21   1    -0.25   0.26  -0.30     0.09  -0.13   0.05    -0.01   0.01  -0.00
  22   1     0.11  -0.23   0.36    -0.09  -0.01  -0.08    -0.00   0.01  -0.01
  23   1     0.05   0.03   0.03     0.19   0.12   0.10     0.00   0.00   0.00
  24   1     0.03   0.01   0.06     0.10   0.02   0.22     0.00   0.00   0.00
  25   1     0.01   0.01   0.01     0.05   0.02   0.05     0.00   0.00  -0.00
  26   1     0.05   0.03   0.03     0.19   0.12   0.09     0.00   0.00   0.00
  27   1     0.03   0.00   0.06     0.11   0.02   0.24     0.00   0.00   0.00
  28   1    -0.00   0.01   0.00     0.01  -0.01  -0.00     0.01  -0.09  -0.01
  29   1     0.00   0.00  -0.00     0.01  -0.00  -0.01    -0.08  -0.00   0.09
  30   1     0.00   0.01  -0.00     0.00  -0.00  -0.00    -0.06  -0.05   0.06
  31   1    -0.00  -0.01   0.00     0.00   0.01  -0.00    -0.02  -0.13   0.03
  32   1     0.00  -0.01  -0.00    -0.00   0.01   0.00     0.02  -0.14  -0.02
  33   1    -0.01  -0.00   0.00     0.00   0.00  -0.00    -0.09  -0.02   0.10
  34   1    -0.00  -0.03   0.02    -0.00   0.01  -0.01    -0.07  -0.09   0.09
                     76                     77                     78
                        a                      a                      a 
 Frequencies --  1563.5153              1572.7777              1594.3930
 Red. masses --    11.7013                11.4472                11.4565
 Frc consts  --     0.0000                 0.0000                 0.0000
 IR Inten    --     0.4918                 2.5746                46.2064
 Raman Activ --     0.0000                 0.0000                 0.0000
 Depolar     --     0.0000                 0.0000                 0.0000
 Atom AN      X      Y      Z        X      Y      Z        X      Y      Z
   1   6    -0.00  -0.00  -0.00    -0.00  -0.01   0.00     0.00  -0.00   0.00
   2   6     0.01  -0.03  -0.02    -0.00   0.00   0.01     0.04   0.00  -0.00
   3   7     0.01   0.00  -0.00     0.01   0.01  -0.02    -0.06   0.00  -0.01
   4   6     0.01   0.01  -0.01    -0.22  -0.22   0.32     0.15   0.08   0.11
   5   6    -0.01  -0.01   0.01     0.21   0.17  -0.09    -0.30  -0.18  -0.19
   6   6     0.00   0.01  -0.02    -0.07  -0.12   0.33     0.19   0.07   0.32
   7   6    -0.01  -0.01   0.02     0.28   0.29  -0.41    -0.14  -0.08  -0.09
   8   6     0.00   0.01  -0.01    -0.20  -0.18   0.16     0.32   0.19   0.17
   9   6     0.00  -0.00   0.02     0.01   0.08  -0.33    -0.19  -0.07  -0.28
  10   6    -0.06   0.27   0.09    -0.00  -0.00   0.00    -0.05  -0.22   0.04
  11   6     0.12  -0.36  -0.15     0.00   0.00  -0.00     0.01   0.21  -0.00
  12   6    -0.21   0.07   0.24    -0.02  -0.01   0.02    -0.15  -0.11   0.16
  13   6     0.12  -0.02  -0.13     0.02   0.02  -0.02     0.15   0.21  -0.16
  14   6    -0.18   0.23   0.21    -0.01   0.00   0.01    -0.06  -0.12   0.06
  15   6     0.03  -0.20  -0.04     0.00  -0.01  -0.00     0.02  -0.01  -0.02
  16   6    -0.11   0.28   0.12    -0.01   0.02   0.01    -0.01   0.04   0.01
  17   6     0.23  -0.04  -0.26     0.01  -0.00  -0.01     0.01  -0.01  -0.01
  18   6    -0.15  -0.03   0.17    -0.01  -0.00   0.01    -0.01  -0.02   0.01
  19   6     0.19  -0.20  -0.22     0.01  -0.01  -0.01     0.06   0.07  -0.07
  20   1    -0.00  -0.00  -0.00     0.00   0.00   0.01    -0.01  -0.00   0.00
  21   1    -0.00   0.01   0.00    -0.00  -0.00  -0.00    -0.01   0.00  -0.01
  22   1     0.01   0.01   0.00    -0.00  -0.00  -0.00     0.00  -0.00   0.00
  23   1     0.00   0.00   0.00    -0.05  -0.02  -0.05     0.07   0.05  -0.00
  24   1     0.00   0.00   0.00    -0.06  -0.03  -0.05    -0.01   0.02  -0.09
  25   1     0.00   0.00  -0.00    -0.08  -0.08   0.10    -0.02  -0.01  -0.04
  26   1     0.00   0.00  -0.00     0.03   0.00   0.07    -0.08  -0.06  -0.01
  27   1    -0.00  -0.00  -0.01     0.05   0.02   0.08    -0.00  -0.02   0.07
  28   1    -0.02   0.08   0.03     0.00  -0.00  -0.00     0.04  -0.05  -0.04
  29   1     0.04   0.00  -0.04     0.00  -0.00  -0.00     0.03  -0.04  -0.04
  30   1     0.01  -0.04  -0.01    -0.00  -0.01   0.00    -0.02  -0.07   0.02
  31   1     0.04   0.01  -0.04     0.00  -0.00  -0.00     0.00  -0.01  -0.00
  32   1     0.02  -0.05  -0.02     0.00  -0.00  -0.00     0.01  -0.01  -0.01
  33   1    -0.04   0.01   0.05    -0.00  -0.00   0.00     0.00  -0.00  -0.00
  34   1    -0.01   0.06   0.01    -0.00   0.00   0.00     0.00   0.01  -0.00
                     79                     80                     81
                        a                      a                      a 
 Frequencies --  1595.8155              1608.3236              1722.8861
 Red. masses --    11.4385                11.3923                12.7351
 Frc consts  --     0.0000                 0.0000                 0.0000
 IR Inten    --    15.4190                 0.1194               283.9586
 Raman Activ --     0.0000                 0.0000                 0.0000
 Depolar     --     0.0000                 0.0000                 0.0000
 Atom AN      X      Y      Z        X      Y      Z        X      Y      Z
   1   6    -0.00  -0.00  -0.00    -0.00  -0.00  -0.00    -0.04  -0.01  -0.03
   2   6    -0.02   0.04   0.02     0.01  -0.00  -0.00     0.72  -0.09   0.04
   3   7     0.03  -0.01   0.01    -0.00  -0.00  -0.00    -0.65   0.04  -0.10
   4   6    -0.09  -0.04  -0.09    -0.00  -0.00  -0.00     0.04   0.02   0.06
   5   6     0.19   0.11   0.13     0.01   0.01   0.01     0.05   0.02   0.03
   6   6    -0.12  -0.04  -0.23    -0.01  -0.00  -0.01    -0.03  -0.01  -0.04
   7   6     0.08   0.04   0.08     0.00   0.00   0.00     0.01   0.01   0.01
   8   6    -0.20  -0.12  -0.12    -0.01  -0.01  -0.00    -0.03  -0.02  -0.02
   9   6     0.12   0.04   0.20     0.01   0.00   0.01     0.02   0.01   0.03
  10   6    -0.07  -0.35   0.05    -0.01   0.02   0.02    -0.04   0.03   0.02
  11   6     0.02   0.32  -0.00    -0.01  -0.04   0.01     0.00   0.01   0.00
  12   6    -0.22  -0.17   0.24     0.04   0.02  -0.05     0.01  -0.01  -0.00
  13   6     0.23   0.32  -0.24    -0.02   0.02   0.02    -0.00  -0.00   0.00
  14   6    -0.08  -0.17   0.09    -0.10  -0.17   0.11     0.01  -0.00  -0.01
  15   6     0.02  -0.03  -0.02     0.13   0.47  -0.15    -0.00  -0.00   0.00
  16   6    -0.01   0.08   0.01    -0.03  -0.41   0.04     0.00  -0.00  -0.00
  17   6     0.00  -0.02  -0.00     0.24   0.18  -0.27    -0.00   0.00   0.00
  18   6    -0.00  -0.01   0.00    -0.23  -0.33   0.27     0.00   0.00  -0.00
  19   6     0.09   0.10  -0.10     0.06   0.20  -0.07    -0.01  -0.00   0.01
  20   1     0.00   0.01   0.01     0.00   0.00   0.00    -0.05  -0.03  -0.01
  21   1     0.00  -0.00   0.00     0.00  -0.00   0.00    -0.04   0.02  -0.06
  22   1    -0.00  -0.00   0.00     0.00  -0.00   0.00     0.05   0.01   0.04
  23   1    -0.05  -0.04   0.00    -0.00  -0.00  -0.00    -0.01  -0.01   0.00
  24   1     0.01  -0.01   0.06     0.00  -0.00   0.00    -0.00  -0.00   0.01
  25   1     0.02   0.01   0.02     0.00   0.00   0.00     0.00  -0.00   0.00
  26   1     0.05   0.04   0.00     0.00   0.00   0.00     0.01   0.00  -0.00
  27   1    -0.00   0.01  -0.05     0.00   0.00  -0.00     0.00  -0.00  -0.01
  28   1     0.05  -0.08  -0.07    -0.01   0.01   0.01    -0.00  -0.00  -0.01
  29   1     0.05  -0.06  -0.06    -0.01   0.01   0.02     0.00  -0.00  -0.00
  30   1    -0.03  -0.11   0.02    -0.01  -0.00   0.01    -0.00   0.00  -0.00
  31   1     0.00  -0.01  -0.00    -0.06  -0.07   0.07     0.00   0.00   0.00
  32   1     0.01  -0.02  -0.01    -0.07   0.06   0.07    -0.00   0.00   0.00
  33   1     0.01  -0.01  -0.01    -0.07   0.07   0.07     0.00  -0.00  -0.00
  34   1     0.01   0.01  -0.01     0.02   0.11  -0.03     0.00  -0.00   0.00
                     82                     83                     84
                        a                      a                      a 
 Frequencies --  2999.7786              3029.2339              3053.5442
 Red. masses --     1.8193                 1.5362                 1.7908
 Frc consts  --     0.0000                 0.0000                 0.0000
 IR Inten    --    11.7386                13.1220                21.0644
 Raman Activ --     0.0000                 0.0000                 0.0000
 Depolar     --     0.0000                 0.0000                 0.0000
 Atom AN      X      Y      Z        X      Y      Z        X      Y      Z
   1   6    -0.02   0.22  -0.16     0.20   0.09  -0.03    -0.18   0.14   0.14
   2   6    -0.00   0.00  -0.01     0.01   0.00   0.00    -0.01   0.00   0.01
   3   7     0.00   0.00  -0.00    -0.00   0.00  -0.00     0.00  -0.00  -0.00
   4   6    -0.00  -0.00   0.00    -0.00  -0.00   0.00     0.00  -0.00   0.00
   5   6    -0.00  -0.00   0.00     0.00   0.00  -0.00     0.00   0.00  -0.00
   6   6    -0.00  -0.00   0.00     0.00   0.00  -0.00    -0.00  -0.00   0.00
   7   6    -0.00  -0.00  -0.00     0.00   0.00   0.00     0.00   0.00   0.00
   8   6     0.00   0.00  -0.00    -0.00  -0.00   0.00     0.00   0.00  -0.00
   9   6    -0.00  -0.00   0.00    -0.00  -0.00   0.00    -0.00  -0.00  -0.00
  10   6     0.00   0.00  -0.00    -0.00   0.00   0.00     0.00  -0.00  -0.00
  11   6    -0.00  -0.00   0.00    -0.00  -0.00   0.00    -0.00  -0.00   0.00
  12   6     0.00   0.00  -0.00     0.00  -0.00  -0.00     0.00   0.00  -0.00
  13   6    -0.00  -0.00   0.00     0.00  -0.00  -0.00    -0.00   0.00   0.00
  14   6    -0.00   0.00   0.00    -0.00   0.00   0.00    -0.00  -0.00  -0.00
  15   6     0.00  -0.00  -0.00     0.00   0.00  -0.00    -0.00   0.00   0.00
  16   6     0.00   0.00  -0.00     0.00   0.00  -0.00     0.00  -0.00  -0.00
  17   6     0.00  -0.00  -0.00     0.00   0.00  -0.00    -0.00  -0.00   0.00
  18   6     0.00  -0.00  -0.00     0.00  -0.00  -0.00    -0.01   0.01   0.01
  19   6     0.00   0.00  -0.00    -0.00  -0.00   0.00    -0.00   0.00   0.00
  20   1     0.27  -0.70   0.56    -0.04   0.19  -0.15    -0.02   0.01   0.02
  21   1    -0.20  -0.08   0.05    -0.76  -0.45   0.30     0.08   0.08  -0.03
  22   1     0.01   0.02  -0.03     0.10  -0.07  -0.07     0.57  -0.59  -0.48
  23   1     0.00   0.00  -0.00    -0.00  -0.00   0.00    -0.00  -0.00   0.01
  24   1     0.00   0.00  -0.00    -0.00  -0.00   0.00     0.00   0.00  -0.00
  25   1     0.00   0.00   0.00    -0.00  -0.00  -0.00    -0.00  -0.00  -0.00
  26   1    -0.00  -0.00   0.00     0.00   0.00  -0.00    -0.00  -0.00   0.01
  27   1     0.00   0.00   0.00     0.00   0.00  -0.00     0.00   0.00  -0.00
  28   1     0.00   0.00  -0.00     0.00   0.00  -0.00     0.00   0.00  -0.00
  29   1    -0.00  -0.00   0.00     0.00   0.00  -0.00    -0.00  -0.01   0.00
  30   1     0.00  -0.00   0.00    -0.00   0.00   0.00     0.00  -0.00  -0.01
  31   1    -0.00   0.00   0.00     0.00   0.00  -0.00     0.01  -0.01  -0.01
  32   1    -0.00  -0.00   0.00    -0.00  -0.00   0.00    -0.00  -0.00   0.00
  33   1    -0.00   0.00   0.00    -0.00  -0.01   0.00     0.00   0.02  -0.00
  34   1    -0.00   0.00   0.00    -0.01   0.01   0.01     0.02  -0.02  -0.02
                     85                     86                     87
                        a                      a                      a 
 Frequencies --  3062.7546              3065.2687              3065.9079
 Red. masses --     1.7549                 1.7729                 1.7818
 Frc consts  --     0.0000                 0.0000                 0.0000
 IR Inten    --    12.2329                 4.3786                22.8917
 Raman Activ --     0.0000                 0.0000                 0.0000
 Depolar     --     0.0000                 0.0000                 0.0000
 Atom AN      X      Y      Z        X      Y      Z        X      Y      Z
   1   6     0.00  -0.00  -0.00    -0.00   0.00   0.00    -0.00   0.00   0.00
   2   6     0.00  -0.00   0.00    -0.00   0.00   0.00    -0.00   0.00   0.00
   3   7    -0.00  -0.00  -0.00    -0.00  -0.00  -0.00     0.00   0.00  -0.00
   4   6    -0.00  -0.00  -0.00    -0.00  -0.00   0.00    -0.00  -0.00   0.00
   5   6     0.00   0.00  -0.01    -0.00  -0.00   0.00    -0.01  -0.02   0.07
   6   6    -0.04  -0.03   0.02     0.00   0.00  -0.00     0.17   0.13  -0.05
   7   6     0.06   0.03   0.07     0.00   0.00   0.00    -0.04  -0.02  -0.05
   8   6     0.03   0.07  -0.21     0.00   0.00  -0.00     0.01   0.02  -0.07
   9   6    -0.06  -0.05   0.02    -0.00  -0.00   0.00    -0.04  -0.03   0.01
  10   6    -0.00   0.00   0.00     0.00  -0.00  -0.00     0.00  -0.00  -0.00
  11   6    -0.00  -0.00   0.00     0.03   0.02  -0.03     0.01   0.00  -0.01
  12   6     0.00   0.00  -0.00    -0.01  -0.06   0.00    -0.00  -0.00   0.00
  13   6    -0.00   0.00   0.00    -0.06   0.06   0.07     0.00  -0.00  -0.00
  14   6    -0.00   0.00   0.00    -0.00  -0.01   0.00    -0.00   0.00   0.00
  15   6    -0.00   0.00   0.00     0.10  -0.12  -0.12    -0.01   0.01   0.01
  16   6     0.00   0.00  -0.00    -0.06  -0.05   0.07     0.00   0.00  -0.00
  17   6    -0.00  -0.00   0.00     0.00   0.04  -0.00    -0.00  -0.00   0.00
  18   6     0.00  -0.00  -0.00     0.01  -0.01  -0.01     0.00  -0.00  -0.00
  19   6     0.00   0.00  -0.00     0.00   0.00  -0.00    -0.00   0.00  -0.00
  20   1    -0.00   0.00  -0.00     0.00  -0.00   0.00    -0.00   0.00   0.00
  21   1    -0.00  -0.00   0.00     0.00   0.00  -0.00     0.00   0.00  -0.00
  22   1    -0.00   0.00   0.00     0.01  -0.01  -0.01     0.00  -0.00  -0.00
  23   1    -0.00  -0.01   0.04     0.00   0.00  -0.01     0.04   0.08  -0.29
  24   1     0.15   0.12  -0.05    -0.02  -0.01   0.01    -0.62  -0.48   0.20
  25   1    -0.25  -0.12  -0.27    -0.00  -0.00  -0.00     0.17   0.08   0.19
  26   1    -0.10  -0.24   0.75    -0.00  -0.01   0.02    -0.03  -0.08   0.25
  27   1     0.25   0.20  -0.08     0.01   0.01  -0.00     0.14   0.11  -0.04
  28   1     0.01   0.00  -0.01    -0.11  -0.08   0.12    -0.02  -0.01   0.02
  29   1    -0.00  -0.01   0.00     0.02   0.23  -0.01     0.00   0.01  -0.00
  30   1     0.00  -0.00  -0.00     0.21  -0.21  -0.24    -0.00   0.00   0.00
  31   1     0.01  -0.01  -0.01    -0.38   0.41   0.43     0.02  -0.02  -0.02
  32   1    -0.00  -0.00   0.00     0.24   0.17  -0.27    -0.01  -0.01   0.01
  33   1     0.00   0.01  -0.00    -0.01  -0.16   0.01     0.00   0.01  -0.00
  34   1    -0.01   0.01   0.01    -0.04   0.04   0.05    -0.00   0.00   0.00
                     88                     89                     90
                        a                      a                      a 
 Frequencies --  3067.2772              3068.9323              3070.7902
 Red. masses --     1.7590                 1.7844                 1.8132
 Frc consts  --     0.0000                 0.0000                 0.0000
 IR Inten    --     1.3275                14.8986                42.0352
 Raman Activ --     0.0000                 0.0000                 0.0000
 Depolar     --     0.0000                 0.0000                 0.0000
 Atom AN      X      Y      Z        X      Y      Z        X      Y      Z
   1   6     0.00  -0.00  -0.00     0.01  -0.00  -0.01     0.00   0.00  -0.00
   2   6     0.00  -0.00  -0.00     0.00   0.00  -0.00     0.00   0.00  -0.00
   3   7    -0.00   0.00  -0.00     0.00  -0.00   0.00    -0.00  -0.00   0.00
   4   6     0.00   0.00  -0.00     0.00  -0.00   0.00    -0.00   0.00   0.00
   5   6     0.00   0.00  -0.00    -0.00  -0.00   0.00    -0.00  -0.00   0.00
   6   6    -0.01  -0.01   0.00     0.00   0.00  -0.00    -0.00  -0.00   0.00
   7   6     0.00   0.00   0.00    -0.00  -0.00  -0.00     0.00   0.00   0.00
   8   6    -0.00  -0.00   0.00     0.00   0.00  -0.01     0.00   0.00  -0.00
   9   6     0.00   0.00  -0.00     0.00   0.00  -0.00     0.00   0.00  -0.00
  10   6     0.00  -0.00  -0.00    -0.00   0.00   0.00     0.00  -0.00  -0.00
  11   6     0.10   0.07  -0.11    -0.06  -0.04   0.06     0.10   0.07  -0.10
  12   6    -0.01  -0.12   0.01     0.00   0.02  -0.00     0.00   0.03  -0.00
  13   6    -0.06   0.05   0.06    -0.03   0.03   0.03     0.10  -0.10  -0.12
  14   6    -0.00   0.00   0.00     0.00  -0.00  -0.00     0.01  -0.00  -0.01
  15   6    -0.04   0.05   0.05     0.04  -0.04  -0.05     0.04  -0.04  -0.04
  16   6     0.04   0.03  -0.05     0.01   0.01  -0.02    -0.02  -0.02   0.02
  17   6    -0.00  -0.05   0.00    -0.01  -0.15   0.01    -0.00  -0.04   0.00
  18   6    -0.03   0.03   0.03    -0.10   0.10   0.10    -0.04   0.04   0.04
  19   6    -0.00  -0.00   0.00    -0.00   0.00   0.00    -0.00   0.00   0.00
  20   1     0.00  -0.00   0.00     0.00   0.00  -0.00     0.00  -0.00   0.00
  21   1    -0.01  -0.00   0.00    -0.01  -0.01   0.00    -0.01  -0.00   0.00
  22   1    -0.01   0.01   0.01    -0.02   0.02   0.02    -0.00   0.00   0.00
  23   1    -0.00  -0.00   0.01     0.00   0.00  -0.01     0.00   0.00  -0.01
  24   1     0.03   0.02  -0.01    -0.01  -0.01   0.00     0.00   0.00  -0.00
  25   1    -0.01  -0.00  -0.01     0.00   0.00   0.00    -0.01  -0.01  -0.01
  26   1     0.00   0.00  -0.01    -0.00  -0.01   0.02    -0.00  -0.00   0.01
  27   1    -0.00  -0.00   0.00    -0.02  -0.01   0.01    -0.00  -0.00   0.00
  28   1    -0.36  -0.26   0.39     0.20   0.15  -0.22    -0.34  -0.25   0.37
  29   1     0.04   0.46  -0.02    -0.01  -0.08   0.00    -0.01  -0.12   0.01
  30   1     0.20  -0.21  -0.23     0.09  -0.09  -0.10    -0.36   0.37   0.41
  31   1     0.16  -0.17  -0.18    -0.14   0.15   0.16    -0.14   0.14   0.15
  32   1    -0.15  -0.11   0.17    -0.05  -0.03   0.06     0.07   0.05  -0.08
  33   1     0.01   0.20  -0.02     0.03   0.55  -0.05     0.01   0.15  -0.01
  34   1     0.10  -0.10  -0.11     0.36  -0.37  -0.38     0.13  -0.14  -0.14
                     91                     92                     93
                        a                      a                      a 
 Frequencies --  3076.7718              3077.6773              3081.0623
 Red. masses --     1.8382                 1.8538                 1.8650
 Frc consts  --     0.0000                 0.0000                 0.0000
 IR Inten    --    79.2429               101.8135               135.1408
 Raman Activ --     0.0000                 0.0000                 0.0000
 Depolar     --     0.0000                 0.0000                 0.0000
 Atom AN      X      Y      Z        X      Y      Z        X      Y      Z
   1   6     0.00  -0.00  -0.00    -0.00   0.00   0.00     0.00  -0.00  -0.00
   2   6    -0.00  -0.00  -0.00    -0.00  -0.00   0.00     0.00   0.00  -0.00
   3   7    -0.00  -0.00  -0.00     0.00   0.00  -0.00    -0.00  -0.00   0.00
   4   6     0.01   0.00   0.01     0.00   0.00   0.00    -0.00  -0.00  -0.00
   5   6    -0.01  -0.02   0.06    -0.01  -0.01   0.04     0.02   0.05  -0.18
   6   6     0.04   0.03  -0.01     0.02   0.02  -0.01     0.03   0.02  -0.01
   7   6     0.09   0.04   0.10     0.05   0.02   0.05    -0.07  -0.03  -0.07
   8   6     0.00   0.01  -0.03    -0.00  -0.00   0.00     0.01   0.03  -0.10
   9   6     0.14   0.11  -0.05     0.05   0.04  -0.02     0.10   0.08  -0.03
  10   6    -0.00   0.00   0.00     0.00  -0.00  -0.00    -0.00   0.00  -0.00
  11   6    -0.00  -0.00   0.00     0.00   0.00  -0.00     0.00   0.00  -0.00
  12   6    -0.00  -0.01   0.00     0.00   0.01  -0.00    -0.00  -0.00   0.00
  13   6    -0.00   0.00   0.00     0.00  -0.00  -0.01     0.00  -0.00  -0.00
  14   6     0.00   0.00  -0.00    -0.00  -0.00   0.00    -0.00  -0.00   0.00
  15   6    -0.02   0.03   0.03     0.05  -0.06  -0.06     0.01  -0.01  -0.01
  16   6    -0.03  -0.03   0.04     0.09   0.07  -0.10     0.01   0.01  -0.01
  17   6     0.00   0.06  -0.01    -0.01  -0.10   0.01     0.00   0.00  -0.00
  18   6    -0.04   0.04   0.04     0.08  -0.08  -0.09     0.00  -0.00  -0.00
  19   6    -0.00  -0.00   0.00     0.00   0.00  -0.00     0.00  -0.00   0.00
  20   1     0.00  -0.00   0.00    -0.00   0.00  -0.00     0.00  -0.00   0.00
  21   1    -0.00  -0.00   0.00     0.01   0.00  -0.00    -0.00  -0.00   0.00
  22   1    -0.00   0.00   0.00     0.01  -0.01  -0.01    -0.00   0.00   0.00
  23   1     0.03   0.07  -0.24     0.02   0.04  -0.13    -0.08  -0.19   0.62
  24   1    -0.15  -0.12   0.05    -0.07  -0.05   0.02    -0.09  -0.07   0.03
  25   1    -0.32  -0.15  -0.35    -0.16  -0.08  -0.18     0.22   0.11   0.25
  26   1    -0.01  -0.03   0.08     0.00   0.00  -0.01    -0.05  -0.11   0.34
  27   1    -0.49  -0.39   0.16    -0.19  -0.15   0.06    -0.36  -0.28   0.11
  28   1     0.01   0.01  -0.01    -0.01  -0.01   0.02    -0.00  -0.00   0.01
  29   1     0.00   0.04  -0.00    -0.00  -0.04   0.00     0.00   0.01  -0.00
  30   1     0.01  -0.01  -0.01    -0.02   0.02   0.02    -0.01   0.01   0.01
  31   1     0.08  -0.09  -0.09    -0.18   0.20   0.21    -0.02   0.02   0.02
  32   1     0.12   0.09  -0.13    -0.31  -0.23   0.35    -0.04  -0.03   0.04
  33   1    -0.01  -0.20   0.02     0.02   0.35  -0.03    -0.00  -0.01   0.00
  34   1     0.12  -0.13  -0.13    -0.28   0.29   0.30    -0.02   0.02   0.02
                     94                     95                     96
                        a                      a                      a 
 Frequencies --  3084.4224              3087.4468              3087.6597
 Red. masses --     1.9023                 1.9111                 1.9113
 Frc consts  --     0.0000                 0.0000                 0.0000
 IR Inten    --   140.3790                64.6739                11.2220
 Raman Activ --     0.0000                 0.0000                 0.0000
 Depolar     --     0.0000                 0.0000                 0.0000
 Atom AN      X      Y      Z        X      Y      Z        X      Y      Z
   1   6     0.00  -0.00  -0.00     0.00   0.00   0.00     0.00  -0.00  -0.00
   2   6     0.00   0.00  -0.00     0.00  -0.00  -0.00     0.00  -0.00  -0.00
   3   7    -0.00  -0.00   0.00    -0.00   0.00  -0.00     0.00   0.00   0.00
   4   6     0.00   0.00   0.00     0.00   0.00   0.01    -0.00  -0.00  -0.00
   5   6    -0.00  -0.00   0.01    -0.01  -0.03   0.11     0.01   0.03  -0.12
   6   6    -0.01  -0.01   0.00    -0.07  -0.05   0.02     0.07   0.06  -0.02
   7   6    -0.01  -0.00  -0.01    -0.07  -0.03  -0.08     0.07   0.03   0.08
   8   6     0.00   0.00  -0.01     0.01   0.02  -0.06    -0.01  -0.02   0.06
   9   6     0.00   0.00  -0.00     0.05   0.04  -0.02    -0.04  -0.03   0.01
  10   6     0.00  -0.00  -0.00     0.00  -0.00  -0.00     0.00  -0.00  -0.00
  11   6     0.06   0.04  -0.06     0.02   0.01  -0.02     0.02   0.01  -0.02
  12   6     0.02   0.21  -0.01     0.00   0.05  -0.00     0.01   0.07  -0.00
  13   6    -0.06   0.06   0.07    -0.02   0.02   0.02    -0.03   0.02   0.03
  14   6    -0.00  -0.00   0.00    -0.00   0.00   0.00    -0.00   0.00   0.00
  15   6     0.01  -0.01  -0.01    -0.03   0.03   0.03    -0.03   0.03   0.03
  16   6     0.04   0.03  -0.05    -0.07  -0.05   0.08    -0.07  -0.05   0.08
  17   6     0.00   0.08  -0.01    -0.01  -0.12   0.01    -0.01  -0.11   0.01
  18   6    -0.02   0.02   0.03     0.04  -0.04  -0.04     0.03  -0.03  -0.04
  19   6    -0.00  -0.00   0.00     0.00   0.00  -0.00     0.00   0.00  -0.00
  20   1     0.00  -0.00   0.00    -0.00   0.00  -0.00     0.00  -0.00   0.00
  21   1    -0.00  -0.00   0.00    -0.00  -0.00   0.00     0.00   0.00  -0.00
  22   1    -0.00   0.00   0.00     0.00  -0.00  -0.00    -0.00   0.00   0.00
  23   1     0.00   0.01  -0.04     0.05   0.11  -0.36    -0.05  -0.12   0.39
  24   1     0.02   0.02  -0.01     0.21   0.17  -0.07    -0.23  -0.18   0.07
  25   1     0.02   0.01   0.03     0.23   0.11   0.25    -0.24  -0.11  -0.26
  26   1    -0.00  -0.01   0.02    -0.03  -0.06   0.20     0.03   0.06  -0.19
  27   1    -0.01  -0.01   0.00    -0.18  -0.14   0.06     0.12   0.09  -0.04
  28   1    -0.19  -0.13   0.20    -0.05  -0.04   0.06    -0.07  -0.05   0.07
  29   1    -0.06  -0.73   0.04    -0.02  -0.18   0.01    -0.02  -0.24   0.01
  30   1     0.20  -0.21  -0.23     0.06  -0.06  -0.07     0.08  -0.09  -0.09
  31   1    -0.03   0.03   0.03     0.10  -0.10  -0.11     0.10  -0.11  -0.11
  32   1    -0.14  -0.10   0.16     0.24   0.17  -0.27     0.23   0.17  -0.26
  33   1    -0.01  -0.26   0.02     0.02   0.41  -0.03     0.02   0.37  -0.03
  34   1     0.08  -0.08  -0.08    -0.14   0.14   0.15    -0.11   0.11   0.12
