      -----------------------------------------------------------      
     |                   =====================                   |     
     |                           x T B                           |     
     |                   =====================                   |     
     |                         S. Grimme                         |     
     |          Mulliken Center for Theoretical Chemistry        |     
     |                    University of Bonn                     |     
      -----------------------------------------------------------      

   * xtb version 6.7.1 (edcfbbe) compiled by 'VssAdministrator@runnervm171ch' on 2026-06-10

   xtb is free software: you can redistribute it and/or modify it under
   the terms of the GNU Lesser General Public License as published by
   the Free Software Foundation, either version 3 of the License, or
   (at your option) any later version.
   
   xtb is distributed in the hope that it will be useful,
   but WITHOUT ANY WARRANTY; without even the implied warranty of
   MERCHANTABILITY or FITNESS FOR A PARTICULAR PURPOSE.  See the
   GNU Lesser General Public License for more details.
   
   Cite this work as:
   * C. Bannwarth, E. Caldeweyher, S. Ehlert, A. Hansen, P. Pracht,
     J. Seibert, S. Spicher, S. Grimme, WIREs Comput. Mol. Sci., 2020, 11,
     e01493. DOI: 10.1002/wcms.1493
   
   for GFN2-xTB:
   * C. Bannwarth, S. Ehlert and S. Grimme., J. Chem. Theory Comput., 2019,
     15, 1652-1671. DOI: 10.1021/acs.jctc.8b01176
   for GFN1-xTB:
   * S. Grimme, C. Bannwarth, P. Shushkov, J. Chem. Theory Comput., 2017,
     13, 1989-2009. DOI: 10.1021/acs.jctc.7b00118
   for GFN0-xTB:
   * P. Pracht, E. Caldeweyher, S. Ehlert, S. Grimme, ChemRxiv, 2019, preprint.
     DOI: 10.26434/chemrxiv.8326202.v1
   for GFN-FF:
   * S. Spicher and S. Grimme, Angew. Chem. Int. Ed., 2020, 59, 15665-15673.
     DOI: 10.1002/anie.202004239
   
   for ALPB and GBSA implicit solvation:
   * S. Ehlert, M. Stahn, S. Spicher, S. Grimme, J. Chem. Theory Comput.,
     2021, 17, 4250-4261. DOI: 10.1021/acs.jctc.1c00471
   
   for ddCOSMO and CPCM-X implicit solvation:
   * M. Stahn, S. Ehlert, S. Grimme, J. Phys. Chem. A,
     2023, XX, XXXX-XXXX. DOI: 10.1021/acs.jpca.3c04382
   
   for DFT-D4:
   * E. Caldeweyher, C. Bannwarth and S. Grimme, J. Chem. Phys., 2017,
     147, 034112. DOI: 10.1063/1.4993215
   * E. Caldeweyher, S. Ehlert, A. Hansen, H. Neugebauer, S. Spicher,
     C. Bannwarth and S. Grimme, J. Chem. Phys., 2019, 150, 154122.
     DOI: 10.1063/1.5090222
   * E. Caldeweyher, J.-M. Mewes, S. Ehlert and S. Grimme, Phys. Chem. Chem. Phys.
     2020, 22, 8499-8512. DOI: 10.1039/D0CP00502A
   
   for sTDA-xTB:
   * S. Grimme and C. Bannwarth, J. Chem. Phys., 2016, 145, 054103.
     DOI: 10.1063/1.4959605
   
   in the mass-spec context:
   * V. Asgeirsson, C. Bauer and S. Grimme, Chem. Sci., 2017, 8, 4879.
     DOI: 10.1039/c7sc00601b
   * J. Koopman and S. Grimme, ACS Omega 2019, 4, 12, 15120-15133.
     DOI: 10.1021/acsomega.9b02011
   
   for metadynamics refer to:
   * S. Grimme, J. Chem. Theory Comput., 2019, 155, 2847-2862
     DOI: 10.1021/acs.jctc.9b00143
   
   for SPH calculations refer to:
   * S. Spicher and S. Grimme, J. Chem. Theory Comput., 2021, 17, 1701-1714
     DOI: 10.1021/acs.jctc.0c01306
   
   for ONIOM refer to:
   * C. Plett, A. Katbashev, S. Ehlert, S. Grimme, M. Bursch,
     Phys. Chem. Chem. Phys., 2023, 25, 17860-17868. DOI: 10.1039/D3CP02178E
   
   for DIPRO refer to:
   * J. Kohn, N. Gildemeister, S. Grimme, D. Fazzi, A. Hansen,
     J. Chem. Phys., 2023, just accepted.
   
   for PTB refer to:
   * S. Grimme, M. Mueller, A. Hansen, J. Chem. Phys., 2023, 158, 124111.
     DOI: 10.1063/5.0137838
   
   with help from (in alphabetical order)
   P. Atkinson, C. Bannwarth, F. Bohle, G. Brandenburg, E. Caldeweyher
   M. Checinski, S. Dohm, S. Ehlert, S. Ehrlich, I. Gerasimov, C. Hölzer
   A. Katbashev, J. Kohn, J. Koopman, C. Lavigne, S. Lehtola, F. März, M. Müller,
   F. Musil, H. Neugebauer, J. Pisarek, C. Plett, P. Pracht, F. Pultar,
   J. Seibert, P. Shushkov, S. Spicher, M. Stahn, M. Steiner, T. Strunk,
   J. Stückrath, T. Rose, and J. Unsleber
   
 * started run on 2026/09/10 at 22:57:35.243     
   ID    Z sym.   atoms
    1    6 C      1, 2, 4-19
    2    7 N      3
    3    1 H      20-34

           -------------------------------------------------
          |                Calculation Setup                |
           -------------------------------------------------

          program call               : C:\Users\HUIWEI\miniconda3\envs\phase2ff\Library\bin\xtb.exe xtbopt.xyz --gfn 2 --chrg 0 --uhf 0 --alpb toluene --acc 0.2 --hess --strict
          coordinate file            : xtbopt.xyz
          omp threads                :                     1


           -------------------------------------------------
          |                 G F N 2 - x T B                 |
           -------------------------------------------------

        Reference                      10.1021/acs.jctc.8b01176
      * Hamiltonian:
        H0-scaling (s, p, d)           1.850000    2.230000    2.230000
        zeta-weighting                 0.500000
      * Dispersion:
        s8                             2.700000
        a1                             0.520000
        a2                             5.000000
        s9                             5.000000
      * Repulsion:
        kExp                           1.500000    1.000000
        rExp                           1.000000
      * Coulomb:
        alpha                          2.000000
        third order                    shell-resolved
        anisotropic                    true
        a3                             3.000000
        a5                             4.000000
        cn-shift                       1.200000
        cn-exp                         4.000000
        max-rad                        5.000000

      * Solvation model:               ALPB
        Solvent                        toluene
        Parameter file                 internal GFN2-xTB/ALPB
        Dielectric constant                7.0000E+00
        Reference state                gsolv [1 M gas/solution]
        Free energy shift                  2.2081E-03 Eh       1.3856E+00 kcal/mol
        Temperature                        2.9815E+02 K
        Density                            8.6700E-01 kg/L
        Solvent mass                       7.8110E+01 g/mol
        Interaction kernel             P16
        Born radius scaling (c1)           1.7172E+00
        Born radii integrator          GBOBC
        Born offset                        0.0000E+00 a0       0.0000E+00 AA
        H-bond correction              false
        Ion screening                  false
        Surface tension                    1.0000E-05 Eh       1.5569E+01 dyn/cm
        Grid points                               230 per atom
q/qsh data taken from xtbrestart
CAMM data taken from xtbrestart

          ...................................................
          :                      SETUP                      :
          :.................................................:
          :  # basis functions                  91          :
          :  # atomic orbitals                  91          :
          :  # shells                           53          :
          :  # electrons                        92          :
          :  max. iterations                   250          :
          :  Hamiltonian                  GFN2-xTB          :
          :  restarted?                       true          :
          :  GBSA solvation                   true          :
          :  PC potential                    false          :
          :  electronic temp.          300.0000000     K    :
          :  accuracy                    0.2000000          :
          :  -> integral cutoff          0.3198970E+02      :
          :  -> integral neglect         0.2000000E-08      :
          :  -> SCF convergence          0.2000000E-06 Eh   :
          :  -> wf. convergence          0.2000000E-04 e    :
          :  Broyden damping             0.4000000          :
          :  net charge                          0          :
          :  unpaired electrons                  0          :
          ...................................................

 iter      E             dE          RMSdq      gap      omega  full diag
   1    -50.0406900 -0.500407E+02  0.118E-06    2.51       0.0  T
   2    -50.0406900 -0.206057E-12  0.760E-07    2.51   22556.3  T
   3    -50.0406900  0.248690E-12  0.421E-07    2.51   40738.6  T

   *** convergence criteria satisfied after 3 iterations ***

         #    Occupation            Energy/Eh            Energy/eV
      -------------------------------------------------------------
         1        2.0000           -0.6571355             -17.8816
       ...           ...                  ...                  ...
        40        2.0000           -0.4209664             -11.4551
        41        2.0000           -0.4128256             -11.2336
        42        2.0000           -0.4039373             -10.9917
        43        2.0000           -0.3983841             -10.8406
        44        2.0000           -0.3968471             -10.7988
        45        2.0000           -0.3807301             -10.3602
        46        2.0000           -0.3572299              -9.7207 (HOMO)
        47                         -0.2648439              -7.2068 (LUMO)
        48                         -0.2415312              -6.5724
        49                         -0.2320619              -6.3147
        50                         -0.2148066              -5.8452
        51                         -0.1996240              -5.4320
       ...                                ...                  ...
        91                          0.6948279              18.9072
      -------------------------------------------------------------
                  HL-Gap            0.0923860 Eh            2.5140 eV
             Fermi-level           -0.3110369 Eh           -8.4637 eV

 SCC (total)                   0 d,  0 h,  0 min,  0.028 sec
 SCC setup                      ...        0 min,  0.001 sec (  3.351%)
 Dispersion                     ...        0 min,  0.000 sec (  1.459%)
 classical contributions        ...        0 min,  0.000 sec (  0.273%)
 integral evaluation            ...        0 min,  0.005 sec ( 17.051%)
 iterations                     ...        0 min,  0.006 sec ( 22.607%)
 molecular gradient             ...        0 min,  0.015 sec ( 54.106%)
 printout                       ...        0 min,  0.000 sec (  1.086%)

         :::::::::::::::::::::::::::::::::::::::::::::::::::::
         ::                     SUMMARY                     ::
         :::::::::::::::::::::::::::::::::::::::::::::::::::::
         :: total energy             -49.110665603375 Eh    ::
         :: total w/o Gsasa/hb       -49.089476125875 Eh    ::
         :: gradient norm              0.000055830451 Eh/a0 ::
         :: HOMO-LUMO gap              2.513951644127 eV    ::
         ::.................................................::
         :: SCC energy               -50.039949177879 Eh    ::
         :: -> isotropic ES            0.010670920706 Eh    ::
         :: -> anisotropic ES          0.006111841560 Eh    ::
         :: -> anisotropic XC          0.035732330195 Eh    ::
         :: -> dispersion             -0.039206952755 Eh    ::
         :: -> Gsolv                  -0.021551681546 Eh    ::
         ::    -> Gelec               -0.000362204046 Eh    ::
         ::    -> Gsasa               -0.023397620639 Eh    ::
         ::    -> Ghb                  0.000000000000 Eh    ::
         ::    -> Gshift               0.002208143139 Eh    ::
         :: repulsion energy           0.929283574504 Eh    ::
         :: add. restraining           0.000000000000 Eh    ::
         :: total charge               0.000000000000 e     ::
         :::::::::::::::::::::::::::::::::::::::::::::::::::::

           ------------------------------------------------- 
          |                Numerical Hessian                |
           ------------------------------------------------- 
step length          :   0.00500
SCC accuracy         :   0.30000
Hessian scale factor :   1.00000
frozen atoms in %    :   0.00000    0
RMS gradient         :   0.00006
estimated CPU  time      0.01 min
estimated wall time      0.12 min

writing file <hessian>.

 projected vibrational frequencies (cm⁻¹)
eigval :       -0.00    -0.00    -0.00    -0.00     0.00     0.00
eigval :       21.87    34.21    45.18    97.25    99.31   119.95
eigval :      147.13   154.52   179.63   217.78   267.42   333.46
eigval :      361.19   371.67   390.60   420.72   434.19   455.96
eigval :      485.37   489.31   530.62   540.07   579.37   590.57
eigval :      605.81   645.12   667.96   686.26   725.38   756.60
eigval :      760.04   778.52   814.27   828.15   851.31   868.47
eigval :      880.08   884.49   894.05   918.08   922.02   924.45
eigval :      924.84   932.69   969.15   982.44  1009.81  1023.85
eigval :     1080.36  1080.88  1111.56  1117.71  1136.12  1170.72
eigval :     1179.80  1179.93  1191.19  1199.41  1222.01  1243.44
eigval :     1258.56  1264.02  1280.98  1317.79  1337.19  1366.22
eigval :     1382.12  1390.95  1417.09  1434.36  1450.07  1454.06
eigval :     1461.79  1468.45  1505.97  1563.52  1572.78  1594.39
eigval :     1595.82  1608.32  1722.89  2999.78  3029.23  3053.54
eigval :     3062.75  3065.27  3065.91  3067.28  3068.93  3070.79
eigval :     3076.77  3077.68  3081.06  3084.42  3087.45  3087.66
           -------------------------------------------------
          |                Property Printout                |
           -------------------------------------------------

    * Orbital Energies and Occupations

         #    Occupation            Energy/Eh            Energy/eV
      -------------------------------------------------------------
         1        2.0000           -0.6571356             -17.8816
       ...           ...                  ...                  ...
        34        2.0000           -0.4545622             -12.3693
        35        2.0000           -0.4492613             -12.2250
        36        2.0000           -0.4418392             -12.0231
        37        2.0000           -0.4327060             -11.7745
        38        2.0000           -0.4263294             -11.6010
        39        2.0000           -0.4220744             -11.4852
        40        2.0000           -0.4209664             -11.4551
        41        2.0000           -0.4128256             -11.2336
        42        2.0000           -0.4039373             -10.9917
        43        2.0000           -0.3983841             -10.8406
        44        2.0000           -0.3968471             -10.7988
        45        2.0000           -0.3807301             -10.3602
        46        2.0000           -0.3572299              -9.7207 (HOMO)
        47                         -0.2648439              -7.2068 (LUMO)
        48                         -0.2415312              -6.5724
        49                         -0.2320619              -6.3147
        50                         -0.2148066              -5.8452
        51                         -0.1996240              -5.4320
        52                         -0.1896278              -5.1600
        53                         -0.1481578              -4.0316
        54                         -0.0807232              -2.1966
        55                         -0.0614835              -1.6731
        56                          0.0801418               2.1808
        57                          0.0938099               2.5527
       ...                                ...                  ...
        91                          0.6948279              18.9072
      -------------------------------------------------------------
                  HL-Gap            0.0923860 Eh            2.5140 eV
             Fermi-level           -0.3110369 Eh           -8.4637 eV

     #   Z          covCN         q      C6AA      α(0)
     1   6 C        3.761    -0.117    22.790     6.805
     2   6 C        2.905     0.119    25.373     8.260
     3   7 N        1.842    -0.221    26.658     7.652
     4   6 C        2.932     0.083    26.145     8.386
     5   6 C        2.925    -0.046    29.143     8.853
     6   6 C        2.919    -0.031    28.782     8.798
     7   6 C        2.919    -0.040    28.996     8.830
     8   6 C        2.919    -0.031    28.780     8.797
     9   6 C        2.921    -0.049    29.223     8.865
    10   6 C        2.972    -0.008    28.219     8.714
    11   6 C        2.922    -0.031    28.769     8.796
    12   6 C        2.914    -0.030    28.754     8.793
    13   6 C        2.918    -0.036    28.907     8.817
    14   6 C        2.986     0.014    27.700     8.633
    15   6 C        2.919    -0.034    28.856     8.809
    16   6 C        2.915    -0.030    28.738     8.791
    17   6 C        2.916    -0.030    28.756     8.794
    18   6 C        2.917    -0.035    28.879     8.812
    19   6 C        2.987     0.012    27.728     8.638
    20   1 H        0.924     0.063     2.166     2.301
    21   1 H        0.925     0.060     2.197     2.318
    22   1 H        0.925     0.067     2.124     2.279
    23   1 H        0.926     0.032     2.551     2.498
    24   1 H        0.926     0.028     2.620     2.531
    25   1 H        0.926     0.025     2.660     2.550
    26   1 H        0.926     0.025     2.661     2.551
    27   1 H        0.926     0.022     2.703     2.571
    28   1 H        0.925     0.027     2.624     2.533
    29   1 H        0.926     0.033     2.549     2.497
    30   1 H        0.926     0.033     2.540     2.492
    31   1 H        0.926     0.033     2.548     2.496
    32   1 H        0.926     0.032     2.560     2.502
    33   1 H        0.926     0.031     2.568     2.506
    34   1 H        0.926     0.032     2.563     2.504

 Mol. C6AA /au·bohr⁶  :      15399.398388
 Mol. C8AA /au·bohr⁸  :     382874.355779
 Mol. α(0) /au        :        199.970702


Wiberg/Mayer (AO) data.
largest (>0.10) Wiberg bond orders for each atom

 ---------------------------------------------------------------------------
     #   Z sym  total        # sym  WBO       # sym  WBO       # sym  WBO
 ---------------------------------------------------------------------------
     1   6 C    3.992 --     2 C    1.017    22 H    0.981    21 H    0.968
                            20 H    0.958
     2   6 C    3.964 --     3 N    1.810     1 C    1.017    10 C    0.990
     3   7 N    3.192 --     2 C    1.810     4 C    1.114
     4   6 C    3.978 --     9 C    1.353     5 C    1.353     3 N    1.114
     5   6 C    3.989 --     6 C    1.462     4 C    1.353    23 H    0.970
                             8 C    0.106
     6   6 C    3.992 --     5 C    1.462     7 C    1.426    24 H    0.971
                             9 C    0.105
     7   6 C    3.990 --     8 C    1.433     6 C    1.426    25 H    0.972
     8   6 C    3.992 --     9 C    1.454     7 C    1.433    26 H    0.971
                             5 C    0.106
     9   6 C    3.990 --     8 C    1.454     4 C    1.353    27 H    0.969
                             6 C    0.105
    10   6 C    3.988 --    11 C    1.513    19 C    1.243     2 C    0.990
                            13 C    0.115
    11   6 C    3.992 --    10 C    1.513    12 C    1.324    28 H    0.970
    12   6 C    3.992 --    13 C    1.554    11 C    1.324    29 H    0.970
    13   6 C    3.991 --    12 C    1.554    14 C    1.278    30 H    0.968
                            10 C    0.115
    14   6 C    3.990 --    15 C    1.279    13 C    1.278    19 C    1.254
    15   6 C    3.991 --    16 C    1.558    14 C    1.279    31 H    0.968
                            18 C    0.118
    16   6 C    3.992 --    15 C    1.558    17 C    1.321    32 H    0.971
    17   6 C    3.992 --    18 C    1.555    16 C    1.321    33 H    0.971
    18   6 C    3.992 --    17 C    1.555    19 C    1.282    34 H    0.966
                            15 C    0.118
    19   6 C    3.989 --    18 C    1.282    14 C    1.254    10 C    1.243
    20   1 H    0.995 --     1 C    0.958
    21   1 H    0.995 --     1 C    0.968
    22   1 H    0.995 --     1 C    0.981
    23   1 H    0.999 --     5 C    0.970
    24   1 H    0.998 --     6 C    0.971
    25   1 H    0.999 --     7 C    0.972
    26   1 H    0.999 --     8 C    0.971
    27   1 H    1.000 --     9 C    0.969
    28   1 H    0.999 --    11 C    0.970
    29   1 H    0.998 --    12 C    0.970
    30   1 H    0.998 --    13 C    0.968
    31   1 H    0.998 --    15 C    0.968
    32   1 H    0.998 --    16 C    0.971
    33   1 H    0.999 --    17 C    0.971
    34   1 H    0.999 --    18 C    0.966
 ---------------------------------------------------------------------------

Topologies differ in total number of bonds
Writing topology from bond orders to xtbtopo.mol

molecular dipole:
                 x           y           z       tot (Debye)
 q only:       -0.780      -0.023      -0.251
   full:       -0.960       0.139      -0.022       2.465
molecular quadrupole (traceless):
                xx          xy          yy          xz          yz          zz
 q only:       -3.262       1.869       0.510       0.890       0.757       2.753
  q+dip:       -5.148       5.081       2.667      -1.809      -1.591       2.481
   full:       -4.139       3.491       1.992       1.184      -1.338       2.147

           -------------------------------------------------
          |               Frequency Printout                |
           -------------------------------------------------
 projected vibrational frequencies (cm⁻¹)
eigval :       -0.00    -0.00    -0.00    -0.00     0.00     0.00
eigval :       21.87    34.21    45.18    97.25    99.31   119.95
eigval :      147.13   154.52   179.63   217.78   267.42   333.46
eigval :      361.19   371.67   390.60   420.72   434.19   455.96
eigval :      485.37   489.31   530.62   540.07   579.37   590.57
eigval :      605.81   645.12   667.96   686.26   725.38   756.60
eigval :      760.04   778.52   814.27   828.15   851.31   868.47
eigval :      880.08   884.49   894.05   918.08   922.02   924.45
eigval :      924.84   932.69   969.15   982.44  1009.81  1023.85
eigval :     1080.36  1080.88  1111.56  1117.71  1136.12  1170.72
eigval :     1179.80  1179.93  1191.19  1199.41  1222.01  1243.44
eigval :     1258.56  1264.02  1280.98  1317.79  1337.19  1366.22
eigval :     1382.12  1390.95  1417.09  1434.36  1450.07  1454.06
eigval :     1461.79  1468.45  1505.97  1563.52  1572.78  1594.39
eigval :     1595.82  1608.32  1722.89  2999.78  3029.23  3053.54
eigval :     3062.75  3065.27  3065.91  3067.28  3068.93  3070.79
eigval :     3076.77  3077.68  3081.06  3084.42  3087.45  3087.66
 reduced masses (amu)
   1: 10.87   2: 11.18   3: 11.27   4: 11.15   5: 11.24   6: 11.08   7: 10.66   8: 10.45
   9: 10.05  10:  9.86  11: 10.03  12:  4.95  13:  8.10  14: 10.01  15:  8.90  16:  9.78
  17:  9.39  18: 10.75  19: 10.23  20:  9.08  21: 10.56  22:  9.94  23:  9.63  24: 11.16
  25: 11.15  26: 10.57  27: 10.83  28: 10.26  29: 10.79  30: 10.94  31: 10.87  32: 10.78
  33:  9.31  34: 10.81  35:  9.90  36:  5.33  37:  4.63  38: 10.89  39:  3.90  40: 10.68
  41: 10.43  42:  3.31  43:  3.70  44:  3.90  45:  4.03  46:  3.66  47:  4.00  48:  3.52
  49:  2.88  50:  3.17  51: 10.93  52:  9.48  53:  5.15  54:  7.14  55:  6.61  56:  7.09
  57:  6.67  58:  4.09  59:  7.34  60:  2.70  61:  1.42  62:  1.70  63:  2.03  64:  3.98
  65:  6.61  66:  6.03  67:  8.58  68:  8.23  69:  4.11  70: 11.59  71:  9.44  72:  8.65
  73:  3.54  74:  9.79  75:  9.43  76:  8.98  77:  9.62  78:  1.91  79:  2.05  80:  8.46
  81: 10.77  82: 11.70  83: 11.45  84: 11.46  85: 11.44  86: 11.39  87: 12.74  88:  1.82
  89:  1.54  90:  1.79  91:  1.75  92:  1.77  93:  1.78  94:  1.76  95:  1.78  96:  1.81
  97:  1.84  98:  1.85  99:  1.87 100:  1.90 101:  1.91 102:  1.91
 IR intensities (km·mol⁻¹)
   1:  0.01   2:  0.09   3:  0.12   4:  0.06   5:  0.06   6:  0.01   7:  0.09   8:  0.02
Molecule has no symmetry elements
It seems to be the C1 point group
   9:  0.37  10:  0.85  11:  1.93  12:  0.31  13:  0.42  14:  0.18  15:  0.84  16:  0.54
  17:  0.28  18:  3.01  19:  0.52  20:  0.74  21:  2.87  22:  1.22  23:  0.37  24:  3.00
  25:  0.44  26:  1.54  27:  1.31  28:  1.80  29:  2.12  30:  1.44  31:  1.03  32:  2.37
  33:  0.28  34:  2.85  35:  0.14  36: 29.84  37:  3.10  38:  0.02  39: 39.13  40: 26.30
  41:  1.74  42:  2.22  43:  0.37  44:  2.28  45:  0.19  46:  0.02  47:  0.18  48:  0.27
  49:  0.10  50:  0.04  51: 20.87  52:  1.73  53:  8.91  54: 19.57  55:  0.28  56:  0.46
  57:  4.46  58:  0.16  59: 44.99  60:  5.26  61:  0.03  62:  0.48  63:  3.30  64: 21.34
  65:  3.49  66:  8.79  67:  8.58  68: 59.25  69: 13.69  70:  2.28  71:  0.66  72:  4.15
  73: 13.23  74:  0.32  75:  0.42  76:  5.56  77:  1.77  78:  8.62  79: 10.37  80: 25.61
  81:  0.40  82:  0.49  83:  2.57  84: 46.21  85: 15.42  86:  0.12  87:283.96  88: 11.74
  89: 13.12  90: 21.06  91: 12.23  92:  4.38  93: 22.89  94:  1.33  95: 14.90  96: 42.04
  97: 79.24  98:101.81  99:135.14 100:140.38 101: 64.67 102: 11.22
 Raman intensities (Ä⁴*amu⁻¹)
   1:  0.00   2:  0.00   3:  0.00   4:  0.00   5:  0.00   6:  0.00   7:  0.00   8:  0.00
   9:  0.00  10:  0.00  11:  0.00  12:  0.00  13:  0.00  14:  0.00  15:  0.00  16:  0.00
  17:  0.00  18:  0.00  19:  0.00  20:  0.00  21:  0.00  22:  0.00  23:  0.00  24:  0.00
  25:  0.00  26:  0.00  27:  0.00  28:  0.00  29:  0.00  30:  0.00  31:  0.00  32:  0.00
  33:  0.00  34:  0.00  35:  0.00  36:  0.00  37:  0.00  38:  0.00  39:  0.00  40:  0.00
  41:  0.00  42:  0.00  43:  0.00  44:  0.00  45:  0.00  46:  0.00  47:  0.00  48:  0.00
  49:  0.00  50:  0.00  51:  0.00  52:  0.00  53:  0.00  54:  0.00  55:  0.00  56:  0.00
  57:  0.00  58:  0.00  59:  0.00  60:  0.00  61:  0.00  62:  0.00  63:  0.00  64:  0.00
  65:  0.00  66:  0.00  67:  0.00  68:  0.00  69:  0.00  70:  0.00  71:  0.00  72:  0.00
  73:  0.00  74:  0.00  75:  0.00  76:  0.00  77:  0.00  78:  0.00  79:  0.00  80:  0.00
  81:  0.00  82:  0.00  83:  0.00  84:  0.00  85:  0.00  86:  0.00  87:  0.00  88:  0.00
  89:  0.00  90:  0.00  91:  0.00  92:  0.00  93:  0.00  94:  0.00  95:  0.00  96:  0.00
  97:  0.00  98:  0.00  99:  0.00 100:  0.00 101:  0.00 102:  0.00
 output can be read by thermo (or use thermo option).
 writing <g98.out> molden fake output.
 recommended (thermochemical) frequency scaling factor: 1.0
           -------------------------------------------------
          |             Thermodynamic Functions             |
           -------------------------------------------------

c1  symmetry found (for desy threshold:  0.10E+00) used in thermo

          ...................................................
          :                      SETUP                      :
          :.................................................:
          :  # frequencies                          96      :
          :  # imaginary freq.                       0      :
          :  linear?                             false      :
          :  only rotor calc.                    false      :
          :  symmetry                               c1      :
          :  rotational number                       1      :
          :  scaling factor                  1.0000000      :
          :  rotor cutoff                   50.0000000 cm⁻¹ :
          :  imag. cutoff                  -20.0000000 cm⁻¹ :
          :.................................................:

    mode    ω/cm⁻¹     T·S(HO)/kcal·mol⁻¹    T·S(FR)/kcal·mol⁻¹   T·S(vib)
   ------------------------------------------------------------------------
       1     21.87    -1.92507 (  3.53%)    -1.30137 ( 96.47%)    -1.32339
       2     34.21    -1.66043 ( 17.97%)    -1.16890 ( 82.03%)    -1.25723
       3     45.18    -1.49612 ( 40.00%)    -1.08652 ( 60.00%)    -1.25034
       4     97.25    -1.04613 ( 93.47%)    -0.85944 (  6.53%)    -1.03393
       5     99.31    -1.03393 ( 93.96%)    -0.85323 (  6.04%)    -1.02302
       6    119.95    -0.92464 ( 97.07%)    -0.79731 (  2.93%)    -0.92090
Note: The following floating-point exceptions are signalling: IEEE_DIVIDE_BY_ZERO IEEE_UNDERFLOW_FLAG IEEE_DENORMAL
normal termination of xtb
       7    147.13    -0.80769 ( 98.68%)    -0.73679 (  1.32%)    -0.80675
       8    154.52    -0.77990 ( 98.92%)    -0.72228 (  1.08%)    -0.77928
       9    179.63    -0.69536 ( 99.40%)    -0.67767 (  0.60%)    -0.69525
      10    217.78    -0.58959 ( 99.72%)    -0.62063 (  0.28%)    -0.58968
      11    267.42    -0.48086 ( 99.88%)    -0.55980 (  0.12%)    -0.48095
   ------------------------------------------------------------------------

   temp. (K)  partition function   enthalpy   heat capacity  entropy
                                   cal/mol     cal/K/mol   cal/K/mol   J/K/mol
 298.15  VIB  0.653E+06             8283.003     55.083     50.101
         ROT  0.405E+07              888.752      2.981     33.216
         INT  0.265E+13             9171.755     58.064     83.317
         TR   0.372E+28             1481.254      4.968     42.374
         TOT                       10653.0092    63.0318   125.6909   525.8906

       T/K    H(0)-H(T)+PV         H(T)/Eh          T*S/Eh         G(T)/Eh
   ------------------------------------------------------------------------
    298.15    0.169767E-01    0.285710E+00    0.597198E-01    0.225990E+00
   ------------------------------------------------------------------------

         :::::::::::::::::::::::::::::::::::::::::::::::::::::
         ::                  THERMODYNAMIC                  ::
         :::::::::::::::::::::::::::::::::::::::::::::::::::::
         :: total free energy         -48.884675652941 Eh   ::
         ::.................................................::
         :: total energy              -49.110665601512 Eh   ::
         :: zero point energy           0.268733090737 Eh   ::
         :: G(RRHO) w/o ZPVE           -0.042743142165 Eh   ::
         :: G(RRHO) contrib.            0.225989948571 Eh   ::
         :::::::::::::::::::::::::::::::::::::::::::::::::::::

           -------------------------------------------------
          | TOTAL ENERGY              -49.110665601512 Eh   |
          | TOTAL ENTHALPY            -48.824955859990 Eh   |
          | TOTAL FREE ENERGY         -48.884675652941 Eh   |
          | GRADIENT NORM               0.000055826892 Eh/α |
          | HOMO-LUMO GAP               2.513951110778 eV   |
           -------------------------------------------------

------------------------------------------------------------------------
 * finished run on 2026/09/10 at 22:57:41.933     
------------------------------------------------------------------------
 total:
 * wall-time:     0 d,  0 h,  0 min,  6.691 sec
 *  cpu-time:     0 d,  0 h,  0 min,  0.797 sec
 * ratio c/w:     0.119 speedup
 SCF:
 * wall-time:     0 d,  0 h,  0 min,  0.029 sec
 *  cpu-time:     0 d,  0 h,  0 min,  0.016 sec
 * ratio c/w:     0.544 speedup
 analytical hessian:
 * wall-time:     0 d,  0 h,  0 min,  6.614 sec
 *  cpu-time:     0 d,  0 h,  0 min,  0.781 sec
 * ratio c/w:     0.118 speedup

