      -----------------------------------------------------------      
     |                   =====================                   |     
     |                           x T B                           |     
     |                   =====================                   |     
     |                         S. Grimme                         |     
     |          Mulliken Center for Theoretical Chemistry        |     
     |                    University of Bonn                     |     
      -----------------------------------------------------------      

   * xtb version 6.7.1 (edcfbbe) compiled by 'VssAdministrator@runnervm171ch' on 2026-06-10

   xtb is free software: you can redistribute it and/or modify it under
   the terms of the GNU Lesser General Public License as published by
   the Free Software Foundation, either version 3 of the License, or
   (at your option) any later version.
   
   xtb is distributed in the hope that it will be useful,
   but WITHOUT ANY WARRANTY; without even the implied warranty of
   MERCHANTABILITY or FITNESS FOR A PARTICULAR PURPOSE.  See the
   GNU Lesser General Public License for more details.
   
   Cite this work as:
   * C. Bannwarth, E. Caldeweyher, S. Ehlert, A. Hansen, P. Pracht,
     J. Seibert, S. Spicher, S. Grimme, WIREs Comput. Mol. Sci., 2020, 11,
     e01493. DOI: 10.1002/wcms.1493
   
   for GFN2-xTB:
   * C. Bannwarth, S. Ehlert and S. Grimme., J. Chem. Theory Comput., 2019,
     15, 1652-1671. DOI: 10.1021/acs.jctc.8b01176
   for GFN1-xTB:
   * S. Grimme, C. Bannwarth, P. Shushkov, J. Chem. Theory Comput., 2017,
     13, 1989-2009. DOI: 10.1021/acs.jctc.7b00118
   for GFN0-xTB:
   * P. Pracht, E. Caldeweyher, S. Ehlert, S. Grimme, ChemRxiv, 2019, preprint.
     DOI: 10.26434/chemrxiv.8326202.v1
   for GFN-FF:
   * S. Spicher and S. Grimme, Angew. Chem. Int. Ed., 2020, 59, 15665-15673.
     DOI: 10.1002/anie.202004239
   
   for ALPB and GBSA implicit solvation:
   * S. Ehlert, M. Stahn, S. Spicher, S. Grimme, J. Chem. Theory Comput.,
     2021, 17, 4250-4261. DOI: 10.1021/acs.jctc.1c00471
   
   for ddCOSMO and CPCM-X implicit solvation:
   * M. Stahn, S. Ehlert, S. Grimme, J. Phys. Chem. A,
     2023, XX, XXXX-XXXX. DOI: 10.1021/acs.jpca.3c04382
   
   for DFT-D4:
   * E. Caldeweyher, C. Bannwarth and S. Grimme, J. Chem. Phys., 2017,
     147, 034112. DOI: 10.1063/1.4993215
   * E. Caldeweyher, S. Ehlert, A. Hansen, H. Neugebauer, S. Spicher,
     C. Bannwarth and S. Grimme, J. Chem. Phys., 2019, 150, 154122.
     DOI: 10.1063/1.5090222
   * E. Caldeweyher, J.-M. Mewes, S. Ehlert and S. Grimme, Phys. Chem. Chem. Phys.
     2020, 22, 8499-8512. DOI: 10.1039/D0CP00502A
   
   for sTDA-xTB:
   * S. Grimme and C. Bannwarth, J. Chem. Phys., 2016, 145, 054103.
     DOI: 10.1063/1.4959605
   
   in the mass-spec context:
   * V. Asgeirsson, C. Bauer and S. Grimme, Chem. Sci., 2017, 8, 4879.
     DOI: 10.1039/c7sc00601b
   * J. Koopman and S. Grimme, ACS Omega 2019, 4, 12, 15120-15133.
     DOI: 10.1021/acsomega.9b02011
   
   for metadynamics refer to:
   * S. Grimme, J. Chem. Theory Comput., 2019, 155, 2847-2862
     DOI: 10.1021/acs.jctc.9b00143
   
   for SPH calculations refer to:
   * S. Spicher and S. Grimme, J. Chem. Theory Comput., 2021, 17, 1701-1714
     DOI: 10.1021/acs.jctc.0c01306
   
   for ONIOM refer to:
   * C. Plett, A. Katbashev, S. Ehlert, S. Grimme, M. Bursch,
     Phys. Chem. Chem. Phys., 2023, 25, 17860-17868. DOI: 10.1039/D3CP02178E
   
   for DIPRO refer to:
   * J. Kohn, N. Gildemeister, S. Grimme, D. Fazzi, A. Hansen,
     J. Chem. Phys., 2023, just accepted.
   
   for PTB refer to:
   * S. Grimme, M. Mueller, A. Hansen, J. Chem. Phys., 2023, 158, 124111.
     DOI: 10.1063/5.0137838
   
   with help from (in alphabetical order)
   P. Atkinson, C. Bannwarth, F. Bohle, G. Brandenburg, E. Caldeweyher
   M. Checinski, S. Dohm, S. Ehlert, S. Ehrlich, I. Gerasimov, C. Hölzer
   A. Katbashev, J. Kohn, J. Koopman, C. Lavigne, S. Lehtola, F. März, M. Müller,
   F. Musil, H. Neugebauer, J. Pisarek, C. Plett, P. Pracht, F. Pultar,
   J. Seibert, P. Shushkov, S. Spicher, M. Stahn, M. Steiner, T. Strunk,
   J. Stückrath, T. Rose, and J. Unsleber
   
 * started run on 2026/09/10 at 22:57:50.273     
   ID    Z sym.   atoms
    1    6 C      1, 2, 4-19
    2    7 N      3
    3    1 H      20-34

           -------------------------------------------------
          |                Calculation Setup                |
           -------------------------------------------------

          program call               : C:\Users\HUIWEI\miniconda3\envs\phase2ff\Library\bin\xtb.exe input.xyz --gfn 2 --chrg 0 --uhf 0 --alpb toluene --acc 0.2 --opt vtight
          coordinate file            : input.xyz
          omp threads                :                     1


           -------------------------------------------------
          |                 G F N 2 - x T B                 |
           -------------------------------------------------

        Reference                      10.1021/acs.jctc.8b01176
      * Hamiltonian:
        H0-scaling (s, p, d)           1.850000    2.230000    2.230000
        zeta-weighting                 0.500000
      * Dispersion:
        s8                             2.700000
        a1                             0.520000
        a2                             5.000000
        s9                             5.000000
      * Repulsion:
        kExp                           1.500000    1.000000
        rExp                           1.000000
      * Coulomb:
        alpha                          2.000000
        third order                    shell-resolved
        anisotropic                    true
        a3                             3.000000
        a5                             4.000000
        cn-shift                       1.200000
        cn-exp                         4.000000
        max-rad                        5.000000

      * Solvation model:               ALPB
        Solvent                        toluene
        Parameter file                 internal GFN2-xTB/ALPB
        Dielectric constant                7.0000E+00
        Reference state                gsolv [1 M gas/solution]
        Free energy shift                  2.2081E-03 Eh       1.3856E+00 kcal/mol
        Temperature                        2.9815E+02 K
        Density                            8.6700E-01 kg/L
        Solvent mass                       7.8110E+01 g/mol
        Interaction kernel             P16
        Born radius scaling (c1)           1.7172E+00
        Born radii integrator          GBOBC
        Born offset                        0.0000E+00 a0       0.0000E+00 AA
        H-bond correction              false
        Ion screening                  false
        Surface tension                    1.0000E-05 Eh       1.5569E+01 dyn/cm
        Grid points                               230 per atom

          ...................................................
          :                      SETUP                      :
          :.................................................:
          :  # basis functions                  91          :
          :  # atomic orbitals                  91          :
          :  # shells                           53          :
          :  # electrons                        92          :
          :  max. iterations                   250          :
          :  Hamiltonian                  GFN2-xTB          :
          :  restarted?                      false          :
          :  GBSA solvation                   true          :
          :  PC potential                    false          :
          :  electronic temp.          300.0000000     K    :
          :  accuracy                    0.2000000          :
          :  -> integral cutoff          0.3198970E+02      :
          :  -> integral neglect         0.2000000E-08      :
          :  -> SCF convergence          0.2000000E-06 Eh   :
          :  -> wf. convergence          0.2000000E-04 e    :
          :  Broyden damping             0.4000000          :
          :  net charge                          0          :
          :  unpaired electrons                  0          :
          ...................................................

 iter      E             dE          RMSdq      gap      omega  full diag
   1    -49.9528191 -0.499528E+02  0.412E+00    2.55       0.0  T
   2    -49.9785674 -0.257483E-01  0.246E+00    2.53       1.0  T
   3    -49.9693417  0.922570E-02  0.776E-01    2.40       1.0  T
   4    -49.9814118 -0.120701E-01  0.264E-01    2.36       1.0  T
   5    -49.9828374 -0.142553E-02  0.806E-02    2.37       1.0  T
   6    -49.9830010 -0.163678E-03  0.338E-02    2.36       1.0  T
   7    -49.9830072 -0.612883E-05  0.143E-02    2.36       1.2  T
   8    -49.9830096 -0.242974E-05  0.367E-03    2.37       4.7  T
   9    -49.9830099 -0.273512E-06  0.104E-03    2.37      16.5  T
  10    -49.9830099 -0.154080E-08  0.508E-04    2.37      33.8  T
  11    -49.9830099 -0.444363E-08  0.123E-04    2.37     139.1  T
  12    -49.9830099 -0.165777E-09  0.695E-05    2.37     246.6  T

   *** convergence criteria satisfied after 12 iterations ***

         #    Occupation            Energy/Eh            Energy/eV
      -------------------------------------------------------------
         1        2.0000           -0.6545547             -17.8113
       ...           ...                  ...                  ...
        40        2.0000           -0.4207710             -11.4498
        41        2.0000           -0.4132820             -11.2460
        42        2.0000           -0.4045696             -11.0089
        43        2.0000           -0.3999533             -10.8833
        44        2.0000           -0.3949722             -10.7477
        45        2.0000           -0.3772736             -10.2661
        46        2.0000           -0.3589574              -9.7677 (HOMO)
        47                         -0.2719841              -7.4011 (LUMO)
        48                         -0.2511445              -6.8340
        49                         -0.2237537              -6.0886
        50                         -0.2188620              -5.9555
        51                         -0.2067477              -5.6259
       ...                                ...                  ...
        91                          0.6901430              18.7797
      -------------------------------------------------------------
                  HL-Gap            0.0869733 Eh            2.3667 eV
             Fermi-level           -0.3154708 Eh           -8.5844 eV

 SCC (total)                   0 d,  0 h,  0 min,  0.048 sec
 SCC setup                      ...        0 min,  0.001 sec (  2.662%)
 Dispersion                     ...        0 min,  0.000 sec (  0.944%)
 classical contributions        ...        0 min,  0.000 sec (  0.216%)
 integral evaluation            ...        0 min,  0.007 sec ( 13.759%)
 iterations                     ...        0 min,  0.021 sec ( 43.871%)
 molecular gradient             ...        0 min,  0.018 sec ( 37.919%)
 printout                       ...        0 min,  0.000 sec (  0.583%)

         :::::::::::::::::::::::::::::::::::::::::::::::::::::
         ::                     SUMMARY                     ::
         :::::::::::::::::::::::::::::::::::::::::::::::::::::
         :: total energy             -49.103145265127 Eh    ::
         :: total w/o Gsasa/hb       -49.081635454420 Eh    ::
         :: gradient norm              0.093457883284 Eh/a0 ::
         :: HOMO-LUMO gap              2.366662986492 eV    ::
         ::.................................................::
         :: SCC energy               -49.982338027288 Eh    ::
         :: -> isotropic ES            0.011131233262 Eh    ::
         :: -> anisotropic ES          0.007146121401 Eh    ::
         :: -> anisotropic XC          0.037445912621 Eh    ::
         :: -> dispersion             -0.037595222116 Eh    ::
         :: -> Gsolv                  -0.021945486953 Eh    ::
         ::    -> Gelec               -0.000435676245 Eh    ::
         ::    -> Gsasa               -0.023717953846 Eh    ::
         ::    -> Ghb                  0.000000000000 Eh    ::
         ::    -> Gshift               0.002208143139 Eh    ::
         :: repulsion energy           0.879192762160 Eh    ::
         :: add. restraining           0.000000000000 Eh    ::
         :: total charge              -0.000000000000 e     ::
         :::::::::::::::::::::::::::::::::::::::::::::::::::::

      ----------------------------------------------------------- 
     |                   =====================                   |
     |                        A N C O P T                        |
     |                   =====================                   |
     |               Approximate Normal Coordinate               |
     |                Rational Function Optimizer                |
      ----------------------------------------------------------- 
      ----------------------------------------------------------- 
     |                   =====================                   |
     |                        A N C O P T                        |
     |                   =====================                   |
     |               Approximate Normal Coordinate               |
     |                Rational Function Optimizer                |
      ----------------------------------------------------------- 

          ...................................................
          :                      SETUP                      :
          :.................................................:
          :   optimization level         verytight          :
          :   max. optcycles                   680          :
          :   ANC micro-cycles                  20          :
          :   degrees of freedom                96          :
          :.................................................:
          :   RF solver                   davidson          :
          :   write xtbopt.log                true          :
          :   linear?                        false          :
          :   energy convergence         0.1000000E-06 Eh   :
          :   grad. convergence          0.2000000E-03 Eh/α :
          :   maxmium RF displ.          1.0000000          :
          :   Hlow (freq-cutoff)         0.1000000E-01      :
          :   Hmax (freq-cutoff)         5.0000000          :
          :   S6 in model hess.         20.0000000          :
          ...................................................

generating ANC from exact Hessian ...
Using Lindh-Hessian (1995)
 Shifting diagonal of input Hessian by    9.6202296273708611E-003
 Lowest  eigenvalues of input Hessian
    0.000000    0.000000    0.000000    0.000000    0.000000    0.000000
    0.010000    0.010235    0.010678    0.011676    0.012550    0.014677
    0.016142    0.016599    0.018839    0.020604    0.022029    0.024145
 Highest eigenvalues
    1.891694    1.919585    1.949736    2.007124    2.068141    2.095266


........................................................................
.............................. CYCLE    1 ..............................
........................................................................

 iter      E             dE          RMSdq      gap      omega  full diag
   1    -49.9830099 -0.499830E+02  0.310E-05    2.37       0.0  T
   2    -49.9830099 -0.641620E-11  0.240E-05    2.37     713.4  T
   3    -49.9830099 -0.121503E-10  0.120E-05    2.37    1434.6  T
     SCC iter.                  ...        0 min,  0.006 sec
     gradient                   ...        0 min,  0.017 sec
 * total energy  :   -49.1031453 Eh     change       -0.5234568E-10 Eh
   gradient norm :     0.0934581 Eh/α   predicted     0.0000000E+00 (-100.00%)
   displ. norm   :     0.1819227 α      lambda       -0.8351795E-02
   maximum displ.:     0.0532872 α      in ANC's #23, #50, #8, ...

........................................................................
.............................. CYCLE    2 ..............................
........................................................................

 iter      E             dE          RMSdq      gap      omega  full diag
   1    -50.0263820 -0.500264E+02  0.137E-01    2.41       0.0  T
   2    -50.0264471 -0.651562E-04  0.856E-02    2.45       1.0  T
   3    -50.0264349  0.122562E-04  0.396E-02    2.45       1.0  T
   4    -50.0264595 -0.246292E-04  0.850E-03    2.45       2.0  T
   5    -50.0264613 -0.174258E-05  0.278E-03    2.45       6.2  T
   6    -50.0264613 -0.808719E-07  0.131E-03    2.45      13.1  T
   7    -50.0264613 -0.635392E-08  0.549E-04    2.45      31.3  T
   8    -50.0264613 -0.457878E-08  0.238E-04    2.45      72.0  T
   9    -50.0264613 -0.107845E-08  0.667E-05    2.45     256.9  T
  10    -50.0264613 -0.438547E-10  0.332E-05    2.45     516.4  T
     SCC iter.                  ...        0 min,  0.016 sec
     gradient                   ...        0 min,  0.026 sec
 * total energy  :   -49.1086852 Eh     change       -0.5539955E-02 Eh
   gradient norm :     0.0352415 Eh/α   predicted    -0.4314732E-02 ( -22.12%)
   displ. norm   :     0.1435671 α      lambda       -0.1759435E-02
   maximum displ.:     0.0644611 α      in ANC's #8, #6, #7, ...

........................................................................
.............................. CYCLE    3 ..............................
........................................................................

 iter      E             dE          RMSdq      gap      omega  full diag
   1    -50.0437390 -0.500437E+02  0.932E-02    2.46       0.0  T
   2    -50.0437608 -0.217782E-04  0.565E-02    2.48       1.0  T
   3    -50.0437531  0.760866E-05  0.285E-02    2.48       1.0  T
   4    -50.0437677 -0.145132E-04  0.429E-03    2.49       4.0  T
   5    -50.0437681 -0.462987E-06  0.164E-03    2.48      10.5  T
   6    -50.0437682 -0.338486E-07  0.741E-04    2.48      23.1  T
   7    -50.0437682 -0.535401E-09  0.312E-04    2.48      55.0  T
   8    -50.0437682 -0.183263E-08  0.117E-04    2.48     146.8  T
   9    -50.0437682 -0.187654E-09  0.397E-05    2.48     432.3  T
     SCC iter.                  ...        0 min,  0.016 sec
     gradient                   ...        0 min,  0.019 sec
 * total energy  :   -49.1096799 Eh     change       -0.9946444E-03 Eh
   gradient norm :     0.0091256 Eh/α   predicted    -0.8980022E-03 (  -9.72%)
   displ. norm   :     0.1178609 α      lambda       -0.2778889E-03
   maximum displ.:     0.0531991 α      in ANC's #4, #8, #6, ...

........................................................................
.............................. CYCLE    4 ..............................
........................................................................

 iter      E             dE          RMSdq      gap      omega  full diag
   1    -50.0432113 -0.500432E+02  0.562E-02    2.47       0.0  T
   2    -50.0432129 -0.161172E-05  0.329E-02    2.48       1.0  T
   3    -50.0432078  0.509027E-05  0.149E-02    2.47       1.2  T
   4    -50.0432141 -0.629903E-05  0.136E-03    2.48      12.6  T
   5    -50.0432141 -0.330315E-07  0.711E-04    2.48      24.1  T
   6    -50.0432141 -0.666558E-08  0.333E-04    2.48      51.5  T
   7    -50.0432141 -0.627772E-09  0.107E-04    2.48     160.6  T
   8    -50.0432141 -0.255994E-09  0.329E-05    2.48     521.9  T
     SCC iter.                  ...        0 min,  0.014 sec
     gradient                   ...        0 min,  0.017 sec
 * total energy  :   -49.1098987 Eh     change       -0.2188497E-03 Eh
   gradient norm :     0.0054573 Eh/α   predicted    -0.1408764E-03 ( -35.63%)
   displ. norm   :     0.2482283 α      lambda       -0.3485690E-03
   maximum displ.:     0.1263144 α      in ANC's #4, #8, #6, ...

........................................................................
.............................. CYCLE    5 ..............................
........................................................................

 iter      E             dE          RMSdq      gap      omega  full diag
   1    -50.0397102 -0.500397E+02  0.102E-01    2.45       0.0  T
   2    -50.0397131 -0.295977E-05  0.597E-02    2.45       1.0  T
   3    -50.0397005  0.125914E-04  0.214E-02    2.45       1.0  T
   4    -50.0397153 -0.148059E-04  0.224E-03    2.45       7.7  T
   5    -50.0397154 -0.593411E-07  0.127E-03    2.45      13.5  T
   6    -50.0397154 -0.200773E-07  0.527E-04    2.45      32.6  T
   7    -50.0397154 -0.213215E-08  0.156E-04    2.45     110.1  T
   8    -50.0397154 -0.507590E-09  0.566E-05    2.45     303.2  T
     SCC iter.                  ...        0 min,  0.011 sec
     gradient                   ...        0 min,  0.017 sec
 * total energy  :   -49.1101253 Eh     change       -0.2265567E-03 Eh
   gradient norm :     0.0060137 Eh/α   predicted    -0.1850261E-03 ( -18.33%)
   displ. norm   :     0.1929234 α      lambda       -0.1507901E-03
   maximum displ.:     0.1058882 α      in ANC's #4, #2, #10, ...

........................................................................
.............................. CYCLE    6 ..............................
........................................................................

 iter      E             dE          RMSdq      gap      omega  full diag
   1    -50.0383770 -0.500384E+02  0.689E-02    2.43       0.0  T
   2    -50.0383778 -0.754384E-06  0.401E-02    2.43       1.0  T
   3    -50.0383754  0.240165E-05  0.892E-03    2.43       1.9  T
   4    -50.0383782 -0.283809E-05  0.138E-03    2.43      12.4  T
   5    -50.0383782 -0.147741E-07  0.779E-04    2.43      22.0  T
   6    -50.0383782 -0.717425E-08  0.274E-04    2.43      62.5  T
   7    -50.0383782 -0.803446E-09  0.860E-05    2.43     199.4  T
   8    -50.0383782 -0.143118E-09  0.350E-05    2.43     490.0  T
     SCC iter.                  ...        0 min,  0.012 sec
     gradient                   ...        0 min,  0.017 sec
 * total energy  :   -49.1102490 Eh     change       -0.1237749E-03 Eh
   gradient norm :     0.0069827 Eh/α   predicted    -0.7821834E-04 ( -36.81%)
   displ. norm   :     0.3081977 α      lambda       -0.2559762E-03
   maximum displ.:     0.1657389 α      in ANC's #4, #2, #10, ...

........................................................................
.............................. CYCLE    7 ..............................
........................................................................

 iter      E             dE          RMSdq      gap      omega  full diag
   1    -50.0376738 -0.500377E+02  0.102E-01    2.41       0.0  T
   2    -50.0376756 -0.181060E-05  0.596E-02    2.41       1.0  T
   3    -50.0376716  0.392187E-05  0.114E-02    2.41       1.5  T
   4    -50.0376764 -0.475733E-05  0.224E-03    2.41       7.6  T
   5    -50.0376764 -0.489901E-07  0.119E-03    2.41      14.4  T
   6    -50.0376765 -0.144028E-07  0.436E-04    2.41      39.3  T
   7    -50.0376765 -0.321562E-08  0.123E-04    2.41     139.3  T
   8    -50.0376765 -0.249237E-09  0.529E-05    2.41     324.0  T
     SCC iter.                  ...        0 min,  0.010 sec
     gradient                   ...        0 min,  0.016 sec
 * total energy  :   -49.1104558 Eh     change       -0.2067508E-03 Eh
   gradient norm :     0.0063202 Eh/α   predicted    -0.1401463E-03 ( -32.21%)
   displ. norm   :     0.3862905 α      lambda       -0.2970366E-03
   maximum displ.:     0.2267540 α      in ANC's #2, #4, #10, ...

........................................................................
.............................. CYCLE    8 ..............................
........................................................................

 iter      E             dE          RMSdq      gap      omega  full diag
   1    -50.0377056 -0.500377E+02  0.124E-01    2.39       0.0  T
   2    -50.0377088 -0.319435E-05  0.720E-02    2.38       1.0  T
   3    -50.0377018  0.698269E-05  0.157E-02    2.39       1.1  T
   4    -50.0377103 -0.842767E-05  0.278E-03    2.38       6.2  T
   5    -50.0377104 -0.788265E-07  0.147E-03    2.38      11.6  T
   6    -50.0377104 -0.181853E-07  0.632E-04    2.38      27.1  T
   7    -50.0377104 -0.721783E-08  0.146E-04    2.38     117.7  T
   8    -50.0377104 -0.312795E-09  0.653E-05    2.38     262.6  T
     SCC iter.                  ...        0 min,  0.012 sec
     gradient                   ...        0 min,  0.015 sec
 * total energy  :   -49.1106775 Eh     change       -0.2217013E-03 Eh
   gradient norm :     0.0060173 Eh/α   predicted    -0.1706830E-03 ( -23.01%)
   displ. norm   :     0.2925502 α      lambda       -0.2224881E-03
   maximum displ.:     0.1984999 α      in ANC's #2, #4, #10, ...

........................................................................
.............................. CYCLE    9 ..............................
........................................................................

 iter      E             dE          RMSdq      gap      omega  full diag
   1    -50.0394940 -0.500395E+02  0.942E-02    2.38       0.0  T
   2    -50.0394960 -0.199440E-05  0.549E-02    2.37       1.0  T
   3    -50.0394912  0.478138E-05  0.133E-02    2.38       1.3  T
   4    -50.0394969 -0.571292E-05  0.194E-03    2.37       8.9  T
   5    -50.0394969 -0.383982E-07  0.104E-03    2.37      16.5  T
   6    -50.0394970 -0.907124E-08  0.496E-04    2.37      34.6  T
   7    -50.0394970 -0.390678E-08  0.103E-04    2.37     166.3  T
   8    -50.0394970 -0.165201E-09  0.467E-05    2.37     367.4  T
     SCC iter.                  ...        0 min,  0.012 sec
     gradient                   ...        0 min,  0.017 sec
 * total energy  :   -49.1108495 Eh     change       -0.1720292E-03 Eh
   gradient norm :     0.0051360 Eh/α   predicted    -0.1207674E-03 ( -29.80%)
   displ. norm   :     0.2606908 α      lambda       -0.1911945E-03
   maximum displ.:     0.1952328 α      in ANC's #2, #10, #4, ...

........................................................................
.............................. CYCLE   10 ..............................
........................................................................

 iter      E             dE          RMSdq      gap      omega  full diag
   1    -50.0411925 -0.500412E+02  0.846E-02    2.37       0.0  T
   2    -50.0411935 -0.101900E-05  0.495E-02    2.37       1.0  T
   3    -50.0411911  0.243645E-05  0.955E-03    2.37       1.8  T
   4    -50.0411940 -0.290938E-05  0.140E-03    2.37      12.3  T
   5    -50.0411940 -0.191291E-07  0.783E-04    2.37      21.9  T
   6    -50.0411940 -0.480942E-08  0.381E-04    2.37      45.0  T
   7    -50.0411940 -0.223928E-08  0.725E-05    2.37     236.7  T
   8    -50.0411940 -0.766676E-10  0.343E-05    2.37     500.1  T
     SCC iter.                  ...        0 min,  0.012 sec
     gradient                   ...        0 min,  0.018 sec
 * total energy  :   -49.1110069 Eh     change       -0.1573347E-03 Eh
   gradient norm :     0.0046383 Eh/α   predicted    -0.1020948E-03 ( -35.11%)
   displ. norm   :     0.2837197 α      lambda       -0.2014628E-03
   maximum displ.:     0.2213459 α      in ANC's #2, #10, #5, ...

........................................................................
.............................. CYCLE   11 ..............................
........................................................................

 iter      E             dE          RMSdq      gap      omega  full diag
   1    -50.0415168 -0.500415E+02  0.911E-02    2.37       0.0  T
   2    -50.0415175 -0.680646E-06  0.534E-02    2.37       1.0  T
   3    -50.0415157  0.176091E-05  0.794E-03    2.37       2.2  T
   4    -50.0415179 -0.212909E-05  0.121E-03    2.37      14.1  T
   5    -50.0415179 -0.104277E-07  0.708E-04    2.37      24.2  T
   6    -50.0415179 -0.311486E-08  0.317E-04    2.37      54.1  T
   7    -50.0415179 -0.181926E-08  0.650E-05    2.37     263.7  T
   8    -50.0415179 -0.633236E-10  0.317E-05    2.37     541.3  T
     SCC iter.                  ...        0 min,  0.012 sec
     gradient                   ...        0 min,  0.016 sec
 * total energy  :   -49.1111799 Eh     change       -0.1730509E-03 Eh
   gradient norm :     0.0049219 Eh/α   predicted    -0.1088441E-03 ( -37.10%)
   displ. norm   :     0.3149882 α      lambda       -0.2408487E-03
   maximum displ.:     0.2558474 α      in ANC's #2, #6, #7, ...

........................................................................
.............................. CYCLE   12 ..............................
........................................................................

 iter      E             dE          RMSdq      gap      omega  full diag
   1    -50.0416888 -0.500417E+02  0.105E-01    2.37       0.0  T
   2    -50.0416896 -0.818134E-06  0.614E-02    2.37       1.0  T
   3    -50.0416881  0.148776E-05  0.740E-03    2.37       2.3  T
   4    -50.0416900 -0.190675E-05  0.135E-03    2.37      12.7  T
   5    -50.0416900 -0.486052E-08  0.737E-04    2.37      23.3  T
   6    -50.0416900 -0.498012E-08  0.298E-04    2.37      57.5  T
   7    -50.0416900 -0.187669E-08  0.887E-05    2.37     193.3  T
   8    -50.0416900 -0.887184E-10  0.418E-05    2.37     410.0  T
     SCC iter.                  ...        0 min,  0.012 sec
     gradient                   ...        0 min,  0.016 sec
 * total energy  :   -49.1113824 Eh     change       -0.2024947E-03 Eh
   gradient norm :     0.0047506 Eh/α   predicted    -0.1323839E-03 ( -34.62%)
   displ. norm   :     0.3793782 α      lambda       -0.2473166E-03
   maximum displ.:     0.3071060 α      in ANC's #2, #6, #10, ...

........................................................................
.............................. CYCLE   13 ..............................
........................................................................

 iter      E             dE          RMSdq      gap      omega  full diag
   1    -50.0383610 -0.500384E+02  0.117E-01    2.36       0.0  T
   2    -50.0383630 -0.197036E-05  0.687E-02    2.36       1.0  T
   3    -50.0383612  0.179263E-05  0.834E-03    2.36       2.1  T
   4    -50.0383635 -0.233131E-05  0.238E-03    2.36       7.2  T
   5    -50.0383636 -0.997177E-07  0.106E-03    2.36      16.2  T
   6    -50.0383636  0.205335E-08  0.491E-04    2.36      34.9  T
   7    -50.0383636 -0.667260E-08  0.109E-04    2.36     157.4  T
   8    -50.0383636 -0.771507E-10  0.591E-05    2.36     290.0  T
     SCC iter.                  ...        0 min,  0.012 sec
     gradient                   ...        0 min,  0.017 sec
 * total energy  :   -49.1115526 Eh     change       -0.1702150E-03 Eh
   gradient norm :     0.0071822 Eh/α   predicted    -0.1414744E-03 ( -16.88%)
   displ. norm   :     0.3208136 α      lambda       -0.2896975E-03
   maximum displ.:     0.2694693 α      in ANC's #2, #6, #7, ...

........................................................................
.............................. CYCLE   14 ..............................
........................................................................

 iter      E             dE          RMSdq      gap      omega  full diag
   1    -50.0390887 -0.500391E+02  0.114E-01    2.37       0.0  T
   2    -50.0390911 -0.241016E-05  0.665E-02    2.36       1.0  T
   3    -50.0390898  0.132238E-05  0.779E-03    2.36       2.2  T
   4    -50.0390917 -0.191195E-05  0.245E-03    2.36       7.0  T
   5    -50.0390918 -0.962529E-07  0.112E-03    2.36      15.3  T
   6    -50.0390918 -0.166745E-08  0.486E-04    2.36      35.3  T
   7    -50.0390918 -0.608277E-08  0.117E-04    2.36     146.8  T
   8    -50.0390918 -0.519762E-10  0.492E-05    2.36     348.2  T
     SCC iter.                  ...        0 min,  0.012 sec
     gradient                   ...        0 min,  0.017 sec
 * total energy  :   -49.1117345 Eh     change       -0.1819117E-03 Eh
   gradient norm :     0.0045797 Eh/α   predicted    -0.1597622E-03 ( -12.18%)
   displ. norm   :     0.3415737 α      lambda       -0.1806537E-03
   maximum displ.:     0.2920936 α      in ANC's #2, #8, #6, ...

........................................................................
.............................. CYCLE   15 ..............................
........................................................................

 iter      E             dE          RMSdq      gap      omega  full diag
   1    -50.0370757 -0.500371E+02  0.107E-01    2.36       0.0  T
   2    -50.0370770 -0.130626E-05  0.625E-02    2.36       1.0  T
   3    -50.0370758  0.121769E-05  0.700E-03    2.36       2.4  T
   4    -50.0370775 -0.170281E-05  0.192E-03    2.36       8.9  T
   5    -50.0370775 -0.365174E-07  0.932E-04    2.36      18.4  T
   6    -50.0370775 -0.129080E-08  0.401E-04    2.36      42.8  T
   7    -50.0370775 -0.454126E-08  0.101E-04    2.36     170.5  T
   8    -50.0370775 -0.325713E-10  0.563E-05    2.36     304.5  T
     SCC iter.                  ...        0 min,  0.011 sec
     gradient                   ...        0 min,  0.015 sec
 * total energy  :   -49.1118686 Eh     change       -0.1340312E-03 Eh
   gradient norm :     0.0058501 Eh/α   predicted    -0.1008672E-03 ( -24.74%)
   displ. norm   :     0.3469579 α      lambda       -0.2223307E-03
   maximum displ.:     0.3012841 α      in ANC's #2, #8, #1, ...

........................................................................
.............................. CYCLE   16 ..............................
........................................................................

 iter      E             dE          RMSdq      gap      omega  full diag
   1    -50.0382099 -0.500382E+02  0.112E-01    2.35       0.0  T
   2    -50.0382108 -0.874057E-06  0.656E-02    2.35       1.0  T
   3    -50.0382094  0.139732E-05  0.709E-03    2.35       2.4  T
   4    -50.0382113 -0.187600E-05  0.154E-03    2.35      11.1  T
   5    -50.0382113 -0.103888E-08  0.818E-04    2.35      21.0  T
   6    -50.0382113 -0.978184E-08  0.257E-04    2.35      66.6  T
   7    -50.0382113 -0.113160E-08  0.104E-04    2.35     164.3  T
   8    -50.0382113 -0.116906E-09  0.487E-05    2.35     351.9  T
     SCC iter.                  ...        0 min,  0.013 sec
     gradient                   ...        0 min,  0.016 sec
 * total energy  :   -49.1120309 Eh     change       -0.1623260E-03 Eh
   gradient norm :     0.0056060 Eh/α   predicted    -0.1245485E-03 ( -23.27%)
   displ. norm   :     0.2929440 α      lambda       -0.1743539E-03
   maximum displ.:     0.2505864 α      in ANC's #2, #8, #1, ...

........................................................................
.............................. CYCLE   17 ..............................
........................................................................

 iter      E             dE          RMSdq      gap      omega  full diag
   1    -50.0404432 -0.500404E+02  0.947E-02    2.34       0.0  T
   2    -50.0404440 -0.834282E-06  0.557E-02    2.34       1.0  T
   3    -50.0404426  0.136999E-05  0.703E-03    2.34       2.4  T
   4    -50.0404443 -0.170345E-05  0.143E-03    2.34      12.0  T
   5    -50.0404444 -0.275895E-07  0.738E-04    2.34      23.2  T
   6    -50.0404444 -0.199898E-08  0.368E-04    2.34      46.6  T
   7    -50.0404444 -0.208261E-08  0.887E-05    2.34     193.4  T
   8    -50.0404444 -0.989715E-10  0.422E-05    2.34     406.5  T
     SCC iter.                  ...        0 min,  0.014 sec
     gradient                   ...        0 min,  0.017 sec
 * total energy  :   -49.1121523 Eh     change       -0.1213929E-03 Eh
   gradient norm :     0.0039784 Eh/α   predicted    -0.9465947E-04 ( -22.02%)
   displ. norm   :     0.3583832 α      lambda       -0.1029552E-03
   maximum displ.:     0.3146263 α      in ANC's #2, #1, #8, ...

........................................................................
.............................. CYCLE   18 ..............................
........................................................................

 iter      E             dE          RMSdq      gap      omega  full diag
   1    -50.0381312 -0.500381E+02  0.110E-01    2.33       0.0  T
   2    -50.0381322 -0.978249E-06  0.649E-02    2.33       1.0  T
   3    -50.0381292  0.296281E-05  0.101E-02    2.33       1.7  T
   4    -50.0381327 -0.354677E-05  0.162E-03    2.33      10.6  T
   5    -50.0381328 -0.247490E-07  0.898E-04    2.33      19.1  T
   6    -50.0381328 -0.379289E-08  0.372E-04    2.33      46.2  T
   7    -50.0381328 -0.222938E-08  0.899E-05    2.33     190.8  T
   8    -50.0381328 -0.116145E-09  0.456E-05    2.33     375.9  T
     SCC iter.                  ...        0 min,  0.011 sec
     gradient                   ...        0 min,  0.015 sec
 * total energy  :   -49.1122054 Eh     change       -0.5312810E-04 Eh
   gradient norm :     0.0048996 Eh/α   predicted    -0.5809143E-04 (   9.34%)
   displ. norm   :     0.1409325 α      lambda       -0.1098429E-03
   maximum displ.:     0.1001000 α      in ANC's #2, #6, #5, ...

........................................................................
.............................. CYCLE   19 ..............................
........................................................................

 iter      E             dE          RMSdq      gap      omega  full diag
   1    -50.0431868 -0.500432E+02  0.509E-02    2.33       0.0  T
   2    -50.0431884 -0.155617E-05  0.296E-02    2.33       1.0  T
   3    -50.0431870  0.142671E-05  0.759E-03    2.33       2.3  T
   4    -50.0431886 -0.159866E-05  0.227E-03    2.33       7.6  T
   5    -50.0431887 -0.137347E-06  0.698E-04    2.33      24.6  T
   6    -50.0431887 -0.407496E-09  0.409E-04    2.33      41.9  T
   7    -50.0431887 -0.242807E-08  0.878E-05    2.33     195.4  T
   8    -50.0431887 -0.628759E-10  0.397E-05    2.33     432.1  T
     SCC iter.                  ...        0 min,  0.011 sec
     gradient                   ...        0 min,  0.016 sec
 * total energy  :   -49.1122353 Eh     change       -0.2985785E-04 Eh
   gradient norm :     0.0034479 Eh/α   predicted    -0.5601410E-04 (  87.60%)
   displ. norm   :     0.0841122 α      lambda       -0.4525835E-04
   maximum displ.:     0.0685204 α      in ANC's #2, #6, #7, ...

........................................................................
.............................. CYCLE   20 ..............................
........................................................................

 iter      E             dE          RMSdq      gap      omega  full diag
   1    -50.0416250 -0.500416E+02  0.302E-02    2.33       0.0  T
   2    -50.0416252 -0.273401E-06  0.176E-02    2.33       1.0  T
   3    -50.0416251  0.145263E-06  0.256E-03    2.33       6.7  T
   4    -50.0416253 -0.185666E-06  0.830E-04    2.33      20.7  T
   5    -50.0416253 -0.155644E-07  0.324E-04    2.33      53.0  T
   6    -50.0416253  0.204743E-09  0.167E-04    2.33     102.5  T
   7    -50.0416253 -0.695643E-09  0.393E-05    2.33     436.5  T
     SCC iter.                  ...        0 min,  0.013 sec
     gradient                   ...        0 min,  0.017 sec
 * total energy  :   -49.1122632 Eh     change       -0.2792965E-04 Eh
   gradient norm :     0.0018550 Eh/α   predicted    -0.2279315E-04 ( -18.39%)
   displ. norm   :     0.1248856 α      lambda       -0.2086388E-04
   maximum displ.:     0.1022920 α      in ANC's #2, #4, #6, ...
 * RMSD in coord.:     0.7203940 α      energy gain  -0.9117935E-02 Eh

generating ANC from exact Hessian ...
Using Lindh-Hessian (1995)
 Shifting diagonal of input Hessian by    9.5358785600991192E-003
 Lowest  eigenvalues of input Hessian
    0.000000    0.000000    0.000000    0.000000    0.000000    0.000000
    0.010000    0.010250    0.010604    0.011681    0.013325    0.014712
    0.016293    0.017538    0.019720    0.022091    0.023024    0.025176
 Highest eigenvalues
    1.956025    1.990826    2.012023    2.033419    2.122086    2.226457


........................................................................
.............................. CYCLE   21 ..............................
........................................................................

 iter      E             dE          RMSdq      gap      omega  full diag
   1    -50.0398623 -0.500399E+02  0.450E-02    2.32       0.0  T
   2    -50.0398625 -0.171914E-06  0.264E-02    2.32       1.0  T
   3    -50.0398622  0.271008E-06  0.318E-03    2.32       5.4  T
   4    -50.0398625 -0.344953E-06  0.617E-04    2.32      27.8  T
   5    -50.0398625 -0.421879E-08  0.325E-04    2.32      52.7  T
   6    -50.0398625 -0.323830E-09  0.150E-04    2.32     114.1  T
   7    -50.0398625 -0.498581E-09  0.381E-05    2.32     450.5  T
     SCC iter.                  ...        0 min,  0.010 sec
     gradient                   ...        0 min,  0.016 sec
 * total energy  :   -49.1122788 Eh     change       -0.1560807E-04 Eh
   gradient norm :     0.0021565 Eh/α   predicted     0.0000000E+00 (-100.00%)
   displ. norm   :     0.0170182 α      lambda       -0.1382228E-04
   maximum displ.:     0.0120441 α      in ANC's #4, #3, #7, ...

........................................................................
.............................. CYCLE   22 ..............................
........................................................................

 iter      E             dE          RMSdq      gap      omega  full diag
   1    -50.0414893 -0.500415E+02  0.936E-03    2.32       0.0  T
   2    -50.0414893 -0.809721E-07  0.542E-03    2.32       3.2  T
   3    -50.0414893  0.195013E-07  0.126E-03    2.32      13.6  T
   4    -50.0414894 -0.243413E-07  0.418E-04    2.32      41.1  T
   5    -50.0414894 -0.421997E-08  0.143E-04    2.32     120.1  T
   6    -50.0414894 -0.317968E-10  0.872E-05    2.32     196.8  T
     SCC iter.                  ...        0 min,  0.008 sec
     gradient                   ...        0 min,  0.016 sec
 * total energy  :   -49.1122880 Eh     change       -0.9235137E-05 Eh
   gradient norm :     0.0006228 Eh/α   predicted    -0.6935966E-05 ( -24.90%)
   displ. norm   :     0.0354608 α      lambda       -0.5007550E-05
   maximum displ.:     0.0267362 α      in ANC's #4, #3, #7, ...

........................................................................
.............................. CYCLE   23 ..............................
........................................................................

 iter      E             dE          RMSdq      gap      omega  full diag
   1    -50.0425778 -0.500426E+02  0.148E-02    2.32       0.0  T
   2    -50.0425779 -0.660985E-07  0.866E-03    2.32       2.0  T
   3    -50.0425778  0.637270E-07  0.175E-03    2.32       9.8  T
   4    -50.0425779 -0.771551E-07  0.349E-04    2.32      49.2  T
   5    -50.0425779 -0.240651E-08  0.138E-04    2.32     124.5  T
   6    -50.0425779 -0.262048E-10  0.838E-05    2.32     204.8  T
     SCC iter.                  ...        0 min,  0.008 sec
     gradient                   ...        0 min,  0.015 sec
 * total energy  :   -49.1122925 Eh     change       -0.4465598E-05 Eh
   gradient norm :     0.0007859 Eh/α   predicted    -0.2508397E-05 ( -43.83%)
   displ. norm   :     0.0288639 α      lambda       -0.2744395E-05
   maximum displ.:     0.0196508 α      in ANC's #4, #3, #2, ...

........................................................................
.............................. CYCLE   24 ..............................
........................................................................

 iter      E             dE          RMSdq      gap      omega  full diag
   1    -50.0423383 -0.500423E+02  0.106E-02    2.32       0.0  T
   2    -50.0423384 -0.221400E-07  0.618E-03    2.32       2.8  T
   3    -50.0423383  0.488372E-07  0.140E-03    2.32      12.3  T
   4    -50.0423384 -0.581428E-07  0.172E-04    2.32      99.5  T
   5    -50.0423384 -0.407013E-09  0.810E-05    2.32     211.7  T
     SCC iter.                  ...        0 min,  0.008 sec
     gradient                   ...        0 min,  0.015 sec
 * total energy  :   -49.1122961 Eh     change       -0.3619714E-05 Eh
   gradient norm :     0.0006473 Eh/α   predicted    -0.1372897E-05 ( -62.07%)
   displ. norm   :     0.0550323 α      lambda       -0.4461518E-05
   maximum displ.:     0.0346217 α      in ANC's #4, #3, #2, ...

........................................................................
.............................. CYCLE   25 ..............................
........................................................................

 iter      E             dE          RMSdq      gap      omega  full diag
   1    -50.0417880 -0.500418E+02  0.184E-02    2.32       0.0  T
   2    -50.0417880 -0.835296E-07  0.107E-02    2.32       1.6  T
   3    -50.0417878  0.186103E-06  0.275E-03    2.32       6.2  T
   4    -50.0417881 -0.221680E-06  0.339E-04    2.32      50.6  T
   5    -50.0417881 -0.160519E-08  0.165E-04    2.32     103.8  T
   6    -50.0417881 -0.222570E-09  0.900E-05    2.32     190.5  T
     SCC iter.                  ...        0 min,  0.009 sec
     gradient                   ...        0 min,  0.014 sec
 * total energy  :   -49.1123014 Eh     change       -0.5250092E-05 Eh
   gradient norm :     0.0002782 Eh/α   predicted    -0.2238625E-05 ( -57.36%)
   displ. norm   :     0.0685696 α      lambda       -0.3533771E-05
   maximum displ.:     0.0436060 α      in ANC's #3, #4, #2, ...

........................................................................
.............................. CYCLE   26 ..............................
........................................................................

 iter      E             dE          RMSdq      gap      omega  full diag
   1    -50.0415276 -0.500415E+02  0.218E-02    2.31       0.0  T
   2    -50.0415277 -0.116419E-06  0.127E-02    2.31       1.4  T
   3    -50.0415274  0.270048E-06  0.334E-03    2.31       5.1  T
   4    -50.0415278 -0.321577E-06  0.394E-04    2.31      43.5  T
   5    -50.0415278 -0.222288E-08  0.202E-04    2.31      84.8  T
   6    -50.0415278 -0.438916E-09  0.104E-04    2.31     165.4  T
   7    -50.0415278 -0.163645E-09  0.238E-05    2.31     720.8  T
     SCC iter.                  ...        0 min,  0.010 sec
     gradient                   ...        0 min,  0.015 sec
 * total energy  :   -49.1123054 Eh     change       -0.4016812E-05 Eh
   gradient norm :     0.0003781 Eh/α   predicted    -0.1773739E-05 ( -55.84%)
   displ. norm   :     0.0525370 α      lambda       -0.2068413E-05
   maximum displ.:     0.0347643 α      in ANC's #3, #4, #2, ...

........................................................................
.............................. CYCLE   27 ..............................
........................................................................

 iter      E             dE          RMSdq      gap      omega  full diag
   1    -50.0415898 -0.500416E+02  0.161E-02    2.31       0.0  T
   2    -50.0415898 -0.565787E-07  0.939E-03    2.31       1.8  T
   3    -50.0415897  0.158824E-06  0.252E-03    2.31       6.8  T
   4    -50.0415898 -0.187471E-06  0.284E-04    2.31      60.4  T
   5    -50.0415899 -0.123694E-08  0.153E-04    2.31     112.3  T
   6    -50.0415899 -0.294200E-09  0.723E-05    2.31     237.3  T
     SCC iter.                  ...        0 min,  0.009 sec
     gradient                   ...        0 min,  0.015 sec
 * total energy  :   -49.1123079 Eh     change       -0.2550580E-05 Eh
   gradient norm :     0.0003290 Eh/α   predicted    -0.1041993E-05 ( -59.15%)
   displ. norm   :     0.0416678 α      lambda       -0.1715182E-05
   maximum displ.:     0.0288512 α      in ANC's #3, #2, #4, ...

........................................................................
.............................. CYCLE   28 ..............................
........................................................................

 iter      E             dE          RMSdq      gap      omega  full diag
   1    -50.0417770 -0.500418E+02  0.132E-02    2.31       0.0  T
   2    -50.0417770 -0.284815E-07  0.769E-03    2.31       2.2  T
   3    -50.0417769  0.987009E-07  0.193E-03    2.31       8.9  T
   4    -50.0417771 -0.114961E-06  0.218E-04    2.31      78.6  T
   5    -50.0417771 -0.809415E-09  0.118E-04    2.31     144.8  T
   6    -50.0417771 -0.169670E-09  0.538E-05    2.31     318.8  T
     SCC iter.                  ...        0 min,  0.009 sec
     gradient                   ...        0 min,  0.015 sec
 * total energy  :   -49.1123101 Eh     change       -0.2155131E-05 Eh
   gradient norm :     0.0001884 Eh/α   predicted    -0.8597381E-06 ( -60.11%)
   displ. norm   :     0.0392340 α      lambda       -0.1607012E-05
   maximum displ.:     0.0277603 α      in ANC's #3, #2, #7, ...

........................................................................
.............................. CYCLE   29 ..............................
........................................................................

 iter      E             dE          RMSdq      gap      omega  full diag
   1    -50.0419533 -0.500420E+02  0.133E-02    2.30       0.0  T
   2    -50.0419533 -0.162095E-07  0.776E-03    2.30       2.2  T
   3    -50.0419532  0.800591E-07  0.164E-03    2.30      10.5  T
   4    -50.0419533 -0.920916E-07  0.181E-04    2.30      94.6  T
   5    -50.0419533 -0.497408E-09  0.100E-04    2.30     170.9  T
     SCC iter.                  ...        0 min,  0.007 sec
     gradient                   ...        0 min,  0.015 sec
 * total energy  :   -49.1123121 Eh     change       -0.2006251E-05 Eh
   gradient norm :     0.0001634 Eh/α   predicted    -0.8081225E-06 ( -59.72%)
   displ. norm   :     0.0386173 α      lambda       -0.1433882E-05
   maximum displ.:     0.0271605 α      in ANC's #3, #2, #7, ...

........................................................................
.............................. CYCLE   30 ..............................
........................................................................

 iter      E             dE          RMSdq      gap      omega  full diag
   1    -50.0420294 -0.500420E+02  0.136E-02    2.30       0.0  T
   2    -50.0420294 -0.128323E-07  0.796E-03    2.30       2.2  T
   3    -50.0420293  0.713245E-07  0.149E-03    2.30      11.5  T
   4    -50.0420294 -0.821511E-07  0.170E-04    2.30     101.0  T
   5    -50.0420294 -0.255866E-09  0.999E-05    2.30     171.7  T
     SCC iter.                  ...        0 min,  0.007 sec
     gradient                   ...        0 min,  0.016 sec
 * total energy  :   -49.1123140 Eh     change       -0.1862057E-05 Eh
   gradient norm :     0.0002065 Eh/α   predicted    -0.7213844E-06 ( -61.26%)
   displ. norm   :     0.0406962 α      lambda       -0.1417711E-05
   maximum displ.:     0.0283214 α      in ANC's #3, #2, #1, ...

........................................................................
.............................. CYCLE   31 ..............................
........................................................................

 iter      E             dE          RMSdq      gap      omega  full diag
   1    -50.0420208 -0.500420E+02  0.143E-02    2.30       0.0  T
   2    -50.0420209 -0.114132E-07  0.841E-03    2.30       2.0  T
   3    -50.0420208  0.539435E-07  0.129E-03    2.30      13.3  T
   4    -50.0420209 -0.632308E-07  0.158E-04    2.30     108.2  T
   5    -50.0420209 -0.127571E-09  0.949E-05    2.30     180.8  T
     SCC iter.                  ...        0 min,  0.007 sec
     gradient                   ...        0 min,  0.018 sec
 * total energy  :   -49.1123159 Eh     change       -0.1895210E-05 Eh
   gradient norm :     0.0002016 Eh/α   predicted    -0.7109865E-06 ( -62.49%)
   displ. norm   :     0.0503876 α      lambda       -0.1663048E-05
   maximum displ.:     0.0346151 α      in ANC's #3, #2, #1, ...

........................................................................
.............................. CYCLE   32 ..............................
........................................................................

 iter      E             dE          RMSdq      gap      omega  full diag
   1    -50.0419469 -0.500419E+02  0.178E-02    2.30       0.0  T
   2    -50.0419469 -0.161332E-07  0.104E-02    2.30       1.6  T
   3    -50.0419468  0.682894E-07  0.144E-03    2.30      11.9  T
   4    -50.0419469 -0.810663E-07  0.186E-04    2.30      92.1  T
   5    -50.0419469 -0.105871E-09  0.111E-04    2.30     155.0  T
     SCC iter.                  ...        0 min,  0.008 sec
     gradient                   ...        0 min,  0.015 sec
 * total energy  :   -49.1123180 Eh     change       -0.2118281E-05 Eh
   gradient norm :     0.0001521 Eh/α   predicted    -0.8338378E-06 ( -60.64%)
   displ. norm   :     0.0601025 α      lambda       -0.1594785E-05
   maximum displ.:     0.0412969 α      in ANC's #3, #2, #1, ...

........................................................................
.............................. CYCLE   33 ..............................
........................................................................

 iter      E             dE          RMSdq      gap      omega  full diag
   1    -50.0418312 -0.500418E+02  0.210E-02    2.30       0.0  T
   2    -50.0418312 -0.202416E-07  0.123E-02    2.30       1.4  T
   3    -50.0418312  0.574175E-07  0.136E-03    2.30      12.6  T
   4    -50.0418313 -0.718731E-07  0.215E-04    2.30      79.7  T
   5    -50.0418313 -0.394635E-10  0.125E-04    2.30     136.7  T
   6    -50.0418313 -0.228539E-09  0.261E-05    2.30     658.2  T
     SCC iter.                  ...        0 min,  0.009 sec
     gradient                   ...        0 min,  0.015 sec
 * total energy  :   -49.1123198 Eh     change       -0.1820996E-05 Eh
   gradient norm :     0.0001271 Eh/α   predicted    -0.7996386E-06 ( -56.09%)
   displ. norm   :     0.0533308 α      lambda       -0.9288947E-06
   maximum displ.:     0.0369975 α      in ANC's #3, #2, #8, ...

........................................................................
.............................. CYCLE   34 ..............................
........................................................................

 iter      E             dE          RMSdq      gap      omega  full diag
   1    -50.0417705 -0.500418E+02  0.182E-02    2.30       0.0  T
   2    -50.0417705 -0.172786E-07  0.107E-02    2.30       1.6  T
   3    -50.0417704  0.515589E-07  0.129E-03    2.30      13.3  T
   4    -50.0417705 -0.637478E-07  0.203E-04    2.30      84.6  T
   5    -50.0417705 -0.472724E-10  0.118E-04    2.30     145.7  T
   6    -50.0417705 -0.223764E-09  0.258E-05    2.30     663.6  T
     SCC iter.                  ...        0 min,  0.009 sec
     gradient                   ...        0 min,  0.017 sec
 * total energy  :   -49.1123208 Eh     change       -0.9646312E-06 Eh
   gradient norm :     0.0001206 Eh/α   predicted    -0.4674225E-06 ( -51.54%)
   displ. norm   :     0.0380875 α      lambda       -0.4492719E-06
   maximum displ.:     0.0267415 α      in ANC's #3, #2, #1, ...

........................................................................
.............................. CYCLE   35 ..............................
........................................................................

 iter      E             dE          RMSdq      gap      omega  full diag
   1    -50.0417576 -0.500418E+02  0.126E-02    2.29       0.0  T
   2    -50.0417576 -0.130452E-07  0.737E-03    2.29       2.3  T
   3    -50.0417576  0.293361E-07  0.103E-03    2.29      16.7  T
   4    -50.0417576 -0.362934E-07  0.168E-04    2.29     102.1  T
   5    -50.0417576 -0.229385E-09  0.937E-05    2.29     183.0  T
     SCC iter.                  ...        0 min,  0.008 sec
     gradient                   ...        0 min,  0.014 sec
 * total energy  :   -49.1123212 Eh     change       -0.4796978E-06 Eh
   gradient norm :     0.0001112 Eh/α   predicted    -0.2262222E-06 ( -52.84%)
   displ. norm   :     0.0307891 α      lambda       -0.3172274E-06
   maximum displ.:     0.0214989 α      in ANC's #3, #2, #4, ...

........................................................................
.............................. CYCLE   36 ..............................
........................................................................

 iter      E             dE          RMSdq      gap      omega  full diag
   1    -50.0417883 -0.500418E+02  0.970E-03    2.29       0.0  T
   2    -50.0417883 -0.132073E-07  0.567E-03    2.29       3.0  T
   3    -50.0417883  0.304237E-07  0.108E-03    2.29      15.8  T
   4    -50.0417883 -0.369307E-07  0.155E-04    2.29     110.6  T
   5    -50.0417883 -0.215287E-09  0.827E-05    2.29     207.4  T
     SCC iter.                  ...        0 min,  0.009 sec
     gradient                   ...        0 min,  0.015 sec
 * total energy  :   -49.1123216 Eh     change       -0.3646360E-06 Eh
   gradient norm :     0.0000811 Eh/α   predicted    -0.1593671E-06 ( -56.29%)
   displ. norm   :     0.0251520 α      lambda       -0.2373532E-06
   maximum displ.:     0.0173269 α      in ANC's #3, #2, #4, ...

........................................................................
.............................. CYCLE   37 ..............................
........................................................................

 iter      E             dE          RMSdq      gap      omega  full diag
   1    -50.0418313 -0.500418E+02  0.772E-03    2.29       0.0  T
   2    -50.0418313 -0.128103E-07  0.450E-03    2.29       3.8  T
   3    -50.0418313  0.304336E-07  0.111E-03    2.29      15.4  T
   4    -50.0418313 -0.364504E-07  0.135E-04    2.29     126.6  T
   5    -50.0418313 -0.219423E-09  0.709E-05    2.29     241.8  T
     SCC iter.                  ...        0 min,  0.007 sec
     gradient                   ...        0 min,  0.014 sec
 * total energy  :   -49.1123219 Eh     change       -0.2711437E-06 Eh
   gradient norm :     0.0000544 Eh/α   predicted    -0.1199049E-06 ( -55.78%)
   displ. norm   :     0.0147299 α      lambda       -0.1243654E-06
   maximum displ.:     0.0095555 α      in ANC's #3, #2, #4, ...

........................................................................
.............................. CYCLE   38 ..............................
........................................................................

 iter      E             dE          RMSdq      gap      omega  full diag
   1    -50.0418551 -0.500419E+02  0.464E-03    2.29       0.0  T
   2    -50.0418552 -0.529536E-08  0.271E-03    2.29       6.3  T
   3    -50.0418551  0.127244E-07  0.740E-04    2.29      23.2  T
   4    -50.0418552 -0.152372E-07  0.789E-05    2.29     217.5  T
   5    -50.0418552 -0.741736E-10  0.411E-05    2.29     417.6  T
     SCC iter.                  ...        0 min,  0.008 sec
     gradient                   ...        0 min,  0.015 sec
 * total energy  :   -49.1123220 Eh     change       -0.1388494E-06 Eh
   gradient norm :     0.0000454 Eh/α   predicted    -0.6544758E-07 ( -52.86%)
   displ. norm   :     0.0147299 α      lambda        0.0000000E+00
   maximum displ.:     0.0095555 α      in ANC's #3, #2, #4, ...

........................................................................
.............................. CYCLE   39 ..............................
........................................................................

 iter      E             dE          RMSdq      gap      omega  full diag
   1    -50.0418761 -0.500419E+02  0.464E-03    2.29       0.0  T
   2    -50.0418761 -0.528966E-08  0.271E-03    2.29       6.3  T
   3    -50.0418761  0.127481E-07  0.737E-04    2.29      23.3  T
   4    -50.0418761 -0.152425E-07  0.803E-05    2.29     213.6  T
   5    -50.0418761 -0.810374E-10  0.420E-05    2.29     408.0  T
     SCC iter.                  ...        0 min,  0.007 sec
     gradient                   ...        0 min,  0.014 sec
 * total energy  :   -49.1123220 Eh     change       -0.1953597E-07 Eh
   gradient norm :     0.0000964 Eh/α   predicted     0.1704263E-08 (-108.72%)
   displ. norm   :     0.0032181 α      lambda       -0.5997525E-07
   maximum displ.:     0.0020871 α      in ANC's #2, #3, #5, ...

   *** GEOMETRY OPTIMIZATION CONVERGED AFTER 39 ITERATIONS ***

------------------------------------------------------------------------
 total energy gain   :        -0.0091768 Eh       -5.7585 kcal/mol
 total RMSD          :         0.7853138 a0        0.4156 Å
 total power (kW/mol):        -0.6177852 (step)  -15.8537 (real)
------------------------------------------------------------------------

 ANCopt (total)                0 d,  0 h,  0 min,  1.520 sec
 optimizer setup                ...        0 min,  0.000 sec (  0.032%)
 model hessian                  ...        0 min,  0.017 sec (  1.097%)
 ANC generation                 ...        0 min,  0.003 sec (  0.166%)
 coordinate transformation      ...        0 min,  0.001 sec (  0.045%)
 single point calculation       ...        0 min,  1.327 sec ( 87.323%)
 optimization log               ...        0 min,  0.157 sec ( 10.350%)
 hessian update                 ...        0 min,  0.001 sec (  0.067%)
 rational function              ...        0 min,  0.011 sec (  0.745%)

================
 final structure:
================
34
 xtb: 6.7.1 (edcfbbe)
C           -0.27513299096785        3.67857847600150       -1.05853172431812
C           -0.57065424397009        2.34210988673233       -0.44801158246416
N           -1.57192342811166        2.25535591821760        0.32296843362434
C           -2.08820606801954        1.10981584766853        0.88686661234625
C           -2.31986959377387        1.07915138899476        2.26448748556806
C           -2.92421916873212       -0.01807140038067        2.84444662075692
C           -3.33237511506891       -1.08932659835772        2.06481846041205
C           -3.12859838123002       -1.05493012985371        0.69476833229487
C           -2.50851870751638        0.02924655877033        0.10610769801379
C            0.35811405414725        1.23275306668509       -0.76398316389851
C            0.84858203901899        1.06189608774874       -2.07828307092494
C            1.69465594634026        0.03392577421106       -2.37871399098480
C            2.11540136702563       -0.87691231176122       -1.38605618673283
C            2.99181095577240       -1.94602114934682       -1.66457262746844
C            3.37703751028430       -2.80720814950359       -0.67487182555000
C            2.90308068379395       -2.63985467712297        0.63676551008275
C            2.05349088382467       -1.61270767366397        0.93885149498562
C            1.63752710433157       -0.70633223172978       -0.06004817369678
C            0.75787949599261        0.35673441866398        0.21858544406387
H           -0.55382610760586        3.67561265230407       -2.11175245883590
H           -0.85495050445027        4.44565701781162       -0.55292421055827
H            0.78708531950235        3.90487672301653       -0.98792833303851
H           -1.99982920065575        1.91772552118234        2.86599792567665
H           -3.08458463387549       -0.03633747907614        3.91342761315959
H           -3.81081573148608       -1.94322395942647        2.52179472451051
H           -3.44998309282030       -1.88374033651600        0.07939425209289
H           -2.35035267417398        0.06008322754111       -0.96330885947118
H            0.53122391119954        1.74108164601034       -2.85561259376434
H            2.05764867612024       -0.09586942402084       -3.38898607230512
H            3.35344288907642       -2.07195351998521       -2.67569262817939
H            4.04908998986585       -3.62443628432397       -0.89422932692783
H            3.21693034606430       -3.33198428538556        1.40491346869999
H            1.68216124888985       -1.47998546855939        1.94546771629090
H            0.40867722110823        0.48486708016436        1.23384503654174

 Bond Distances (Angstroems)
 ---------------------------
C1-C2=1.4987         C1-H20=1.0895        C1-H21=1.0864        C1-H22=1.0883        C2-C1=1.4987         C2-N3=1.2667         
C2-C10=1.4809        N3-C2=1.2667         N3-C4=1.3772         C4-N3=1.3772         C4-C5=1.3973         C4-C9=1.3978         
C5-C4=1.3973         C5-C6=1.3804         C5-H23=1.0805        C6-C5=1.3804         C6-C7=1.3864         C6-H24=1.0811        
C7-C6=1.3864         C7-C8=1.3855         C7-H25=1.0802        C8-C7=1.3855         C8-C9=1.3807         C8-H26=1.0812        
C9-C4=1.3978         C9-C8=1.3807         C9-H27=1.0815        C10-C2=1.4809        C10-C11=1.4132       C10-C19=1.3757       
C11-C10=1.4132       C11-C12=1.3649       C11-H28=1.0799       C12-C11=1.3649       C12-C13=1.4114       C12-H29=1.0813       
C13-C12=1.4114       C13-C14=1.4102       C13-C18=1.4198       C14-C13=1.4102       C14-C15=1.3673       C14-H30=1.0812       
C15-C14=1.3673       C15-C16=1.4046       C15-H31=1.0806       C16-C15=1.4046       C16-C17=1.3668       C16-H32=1.0806       
C17-C16=1.3668       C17-C18=1.4115       C17-H33=1.0811       C18-C13=1.4198       C18-C17=1.4115       C18-C19=1.4077       
C19-C10=1.3757       C19-C18=1.4077       C19-H34=1.0813       H20-C1=1.0895        H21-C1=1.0864        H22-C1=1.0883        
H23-C5=1.0805        H24-C6=1.0811        H25-C7=1.0802        H26-C8=1.0812        H27-C9=1.0815        H28-C11=1.0799       
H29-C12=1.0813       H30-C14=1.0812       H31-C15=1.0806       H32-C16=1.0806       H33-C17=1.0811       H34-C19=1.0813       
 C  H  Rav=1.0823 sigma=0.0030  Rmin=1.0799  Rmax=1.0895    15
 C  C  Rav=1.4032 sigma=0.0342  Rmin=1.3649  Rmax=1.4987    19
 N  C  Rav=1.3220 sigma=0.0553  Rmin=1.2667  Rmax=1.3772     2

 selected bond angles (degree)
 --------------------
H20-C1-C2=109.93               H21-C1-C2=109.56               H21-C1-H20=108.38              H22-C1-C2=110.58               
H22-C1-H20=108.24              H22-C1-H21=110.11              N3-C2-C1=117.70                C10-C2-C1=117.22               
C10-C2-N3=125.05               C4-N3-C2=127.05                C5-C4-N3=118.95                C9-C4-N3=121.80                
C9-C4-C5=118.94                C6-C5-C4=120.28                H23-C5-C4=118.86               H23-C5-C6=120.84               
C7-C6-C5=120.45                H24-C6-C5=119.59               H24-C6-C7=119.96               C8-C7-C6=119.58                
H25-C7-C6=120.22               H25-C7-C8=120.20               C9-C8-C7=120.47                H26-C8-C7=120.00               
H26-C8-C9=119.52               C8-C9-C4=120.26                H27-C9-C4=119.10               H27-C9-C8=120.64               
C11-C10-C2=120.44              C19-C10-C2=120.45              C19-C10-C11=119.10             

 selected dihedral angles (degree)
 ---------------------------------
N3-C2-C1-H20=254.14           N3-C2-C1-H21= 13.14           N3-C2-C1-H22=134.68           C10-C2-C1-H20= 75.89          
C10-C2-C1-H21=194.89          C10-C2-C1-H22=316.44          C4-N3-C2-C1=173.67            C4-N3-C2-C10=351.76           
C5-C4-N3-C2=129.16            C9-C4-N3-C2=302.74            C6-C5-C4-N3=175.39            C6-C5-C4-C9=  1.61            
H23-C5-C4-N3=354.14           H23-C5-C4-C9=180.37           C7-C6-C5-C4=358.69            C7-C6-C5-H23=179.96           
H24-C6-C5-C4=179.08           H24-C6-C5-H23=  0.35          C8-C7-C6-C5=  0.09            C8-C7-C6-H24=179.70           
H25-C7-C6-C5=180.40           H25-C7-C6-H24=  0.00          C9-C8-C7-C6=  0.81            C9-C8-C7-H25=180.49           
H26-C8-C7-C6=180.40           H26-C8-C7-H25=  0.08          C8-C9-C4-N3=185.69            C8-C9-C4-C5=359.28            
H27-C9-C4-N3=  5.06           H27-C9-C4-C5=178.65           C4-C9-C8-C7=359.52            C4-C9-C8-H26=179.92           
H27-C9-C8-C7=180.16           H27-C9-C8-H26=  0.56          C11-C10-C2-C1=318.17          C11-C10-C2-N3=140.06          
C19-C10-C2-C1=137.99          C19-C10-C2-N3=319.89          
           -------------------------------------------------
          |                Final Singlepoint                |
           -------------------------------------------------

          ...................................................
          :                      SETUP                      :
          :.................................................:
          :  # basis functions                  91          :
          :  # atomic orbitals                  91          :
          :  # shells                           53          :
          :  # electrons                        92          :
          :  max. iterations                   250          :
          :  Hamiltonian                  GFN2-xTB          :
          :  restarted?                      false          :
          :  GBSA solvation                   true          :
          :  PC potential                    false          :
          :  electronic temp.          300.0000000     K    :
          :  accuracy                    0.2000000          :
          :  -> integral cutoff          0.3198970E+02      :
          :  -> integral neglect         0.2000000E-08      :
          :  -> SCF convergence          0.2000000E-06 Eh   :
          :  -> wf. convergence          0.2000000E-04 e    :
          :  Broyden damping             0.4000000          :
          :  net charge                          0          :
          :  unpaired electrons                  0          :
          ...................................................

 iter      E             dE          RMSdq      gap      omega  full diag
   1    -50.0418761 -0.500419E+02  0.221E-05    2.29       0.0  T
   2    -50.0418761 -0.211031E-11  0.157E-05    2.29    1091.9  T
   3    -50.0418761 -0.607514E-11  0.737E-06    2.29    2327.1  T

   *** convergence criteria satisfied after 3 iterations ***

         #    Occupation            Energy/Eh            Energy/eV
      -------------------------------------------------------------
         1        2.0000           -0.6554794             -17.8365
       ...           ...                  ...                  ...
        40        2.0000           -0.4185678             -11.3898
        41        2.0000           -0.4155152             -11.3067
        42        2.0000           -0.4048712             -11.0171
        43        2.0000           -0.3968823             -10.7997
        44        2.0000           -0.3956311             -10.7657
        45        2.0000           -0.3805966             -10.3566
        46        2.0000           -0.3544292              -9.6445 (HOMO)
        47                         -0.2702766              -7.3546 (LUMO)
        48                         -0.2504862              -6.8161
        49                         -0.2204359              -5.9984
        50                         -0.2140049              -5.8234
        51                         -0.1980563              -5.3894
       ...                                ...                  ...
        91                          0.7057398              19.2042
      -------------------------------------------------------------
                  HL-Gap            0.0841525 Eh            2.2899 eV
             Fermi-level           -0.3123529 Eh           -8.4996 eV

 SCC (total)                   0 d,  0 h,  0 min,  0.029 sec
 SCC setup                      ...        0 min,  0.001 sec (  2.262%)
 Dispersion                     ...        0 min,  0.000 sec (  0.921%)
 classical contributions        ...        0 min,  0.000 sec (  0.198%)
 integral evaluation            ...        0 min,  0.004 sec ( 14.879%)
 iterations                     ...        0 min,  0.007 sec ( 24.740%)
 molecular gradient             ...        0 min,  0.016 sec ( 55.644%)
 printout                       ...        0 min,  0.000 sec (  1.292%)

         :::::::::::::::::::::::::::::::::::::::::::::::::::::
         ::                     SUMMARY                     ::
         :::::::::::::::::::::::::::::::::::::::::::::::::::::
         :: total energy             -49.112322042113 Eh    ::
         :: total w/o Gsasa/hb       -49.091188345067 Eh    ::
         :: gradient norm              0.000097714236 Eh/a0 ::
         :: HOMO-LUMO gap              2.289907360733 eV    ::
         ::.................................................::
         :: SCC energy               -50.041378381692 Eh    ::
         :: -> isotropic ES            0.010675268406 Eh    ::
         :: -> anisotropic ES          0.006376926765 Eh    ::
         :: -> anisotropic XC          0.035365704056 Eh    ::
         :: -> dispersion             -0.037963068952 Eh    ::
         :: -> Gsolv                  -0.021531798922 Eh    ::
         ::    -> Gelec               -0.000398101876 Eh    ::
         ::    -> Gsasa               -0.023341840184 Eh    ::
         ::    -> Ghb                  0.000000000000 Eh    ::
         ::    -> Gshift               0.002208143139 Eh    ::
         :: repulsion energy           0.929056339579 Eh    ::
         :: add. restraining           0.000000000000 Eh    ::
         :: total charge               0.000000000000 e     ::
         :::::::::::::::::::::::::::::::::::::::::::::::::::::

           -------------------------------------------------
          |                Property Printout                |
           -------------------------------------------------

    * Orbital Energies and Occupations

         #    Occupation            Energy/Eh            Energy/eV
      -------------------------------------------------------------
         1        2.0000           -0.6554794             -17.8365
       ...           ...                  ...                  ...
        34        2.0000           -0.4546857             -12.3726
        35        2.0000           -0.4478835             -12.1875
        36        2.0000           -0.4393229             -11.9546
        37        2.0000           -0.4313317             -11.7371
        38        2.0000           -0.4281131             -11.6496
        39        2.0000           -0.4241207             -11.5409
        40        2.0000           -0.4185678             -11.3898
        41        2.0000           -0.4155152             -11.3067
        42        2.0000           -0.4048712             -11.0171
        43        2.0000           -0.3968823             -10.7997
        44        2.0000           -0.3956311             -10.7657
        45        2.0000           -0.3805966             -10.3566
        46        2.0000           -0.3544292              -9.6445 (HOMO)
        47                         -0.2702766              -7.3546 (LUMO)
        48                         -0.2504862              -6.8161
        49                         -0.2204359              -5.9984
        50                         -0.2140049              -5.8234
        51                         -0.1980563              -5.3894
        52                         -0.1863819              -5.0717
        53                         -0.1407964              -3.8313
        54                         -0.0796395              -2.1671
        55                         -0.0580023              -1.5783
        56                          0.0798629               2.1732
        57                          0.0996819               2.7125
       ...                                ...                  ...
        91                          0.7057398              19.2042
      -------------------------------------------------------------
                  HL-Gap            0.0841525 Eh            2.2899 eV
             Fermi-level           -0.3123529 Eh           -8.4996 eV

     #   Z          covCN         q      C6AA      α(0)
     1   6 C        3.763    -0.117    22.792     6.805
     2   6 C        2.899     0.115    25.470     8.275
     3   7 N        1.844    -0.220    26.642     7.650
     4   6 C        2.925     0.085    26.106     8.379
     5   6 C        2.925    -0.048    29.187     8.860
     6   6 C        2.919    -0.032    28.789     8.799
     7   6 C        2.919    -0.041    29.023     8.834
     8   6 C        2.919    -0.031    28.774     8.796
     9   6 C        2.922    -0.049    29.217     8.864
    10   6 C        2.969    -0.004    28.125     8.699
    11   6 C        2.918    -0.033    28.831     8.805
    12   6 C        2.916    -0.036    28.892     8.814
    13   6 C        2.987     0.014    27.693     8.632
    14   6 C        2.917    -0.035    28.871     8.811
    15   6 C        2.916    -0.029    28.720     8.788
    16   6 C        2.915    -0.029    28.725     8.789
    17   6 C        2.918    -0.034    28.840     8.806
    18   6 C        2.985     0.014    27.695     8.633
    19   6 C        2.924    -0.031    28.785     8.798
    20   1 H        0.925     0.064     2.156     2.296
    21   1 H        0.925     0.066     2.125     2.280
    22   1 H        0.925     0.056     2.252     2.347
    23   1 H        0.926     0.031     2.573     2.508
    24   1 H        0.926     0.026     2.640     2.541
    25   1 H        0.926     0.024     2.679     2.560
    26   1 H        0.926     0.024     2.672     2.556
    27   1 H        0.925     0.018     2.760     2.598
    28   1 H        0.926     0.035     2.510     2.477
    29   1 H        0.925     0.035     2.522     2.483
    30   1 H        0.926     0.033     2.538     2.491
    31   1 H        0.926     0.033     2.547     2.496
    32   1 H        0.926     0.032     2.553     2.499
    33   1 H        0.926     0.032     2.558     2.501
    34   1 H        0.925     0.032     2.554     2.499

 Mol. C6AA /au·bohr⁶  :      15399.463342
 Mol. C8AA /au·bohr⁸  :     382872.380504
 Mol. α(0) /au        :        199.970232


Wiberg/Mayer (AO) data.
largest (>0.10) Wiberg bond orders for each atom

 ---------------------------------------------------------------------------
     #   Z sym  total        # sym  WBO       # sym  WBO       # sym  WBO
 ---------------------------------------------------------------------------
     1   6 C    3.992 --     2 C    1.019    21 H    0.981    22 H    0.974
                            20 H    0.957
     2   6 C    3.964 --     3 N    1.779    10 C    1.023     1 C    1.019
     3   7 N    3.195 --     2 C    1.779     4 C    1.130
     4   6 C    3.978 --     5 C    1.346     9 C    1.341     3 N    1.130
     5   6 C    3.985 --     6 C    1.463     4 C    1.346    23 H    0.971
                             8 C    0.105
     6   6 C    3.992 --     5 C    1.463     7 C    1.425    24 H    0.971
                             9 C    0.103
     7   6 C    3.989 --     8 C    1.430     6 C    1.425    25 H    0.972
     8   6 C    3.992 --     9 C    1.459     7 C    1.430    26 H    0.970
                             5 C    0.105
     9   6 C    3.989 --     8 C    1.459     4 C    1.341    27 H    0.970
                             6 C    0.103
    10   6 C    3.988 --    19 C    1.496    11 C    1.274     2 C    1.023
    11   6 C    3.989 --    12 C    1.570    10 C    1.274    28 H    0.968
    12   6 C    3.991 --    11 C    1.570    13 C    1.274    29 H    0.967
                            19 C    0.111
    13   6 C    3.990 --    14 C    1.283    12 C    1.274    18 C    1.249
    14   6 C    3.991 --    15 C    1.555    13 C    1.283    30 H    0.968
                            17 C    0.118
    15   6 C    3.986 --    14 C    1.555    16 C    1.320    31 H    0.971
    16   6 C    3.992 --    17 C    1.559    15 C    1.320    32 H    0.971
    17   6 C    3.987 --    16 C    1.559    18 C    1.275    33 H    0.968
                            14 C    0.118
    18   6 C    3.990 --    19 C    1.289    17 C    1.275    13 C    1.249
    19   6 C    3.992 --    10 C    1.496    18 C    1.289    34 H    0.965
                            12 C    0.111
    20   1 H    0.994 --     1 C    0.957
    21   1 H    0.995 --     1 C    0.981
    22   1 H    0.996 --     1 C    0.974
    23   1 H    0.999 --     5 C    0.971
    24   1 H    0.998 --     6 C    0.971
    25   1 H    0.999 --     7 C    0.972
    26   1 H    0.999 --     8 C    0.970
    27   1 H    1.000 --     9 C    0.970
    28   1 H    0.998 --    11 C    0.968
    29   1 H    0.997 --    12 C    0.967
    30   1 H    0.998 --    14 C    0.968
    31   1 H    0.998 --    15 C    0.971
    32   1 H    0.998 --    16 C    0.971
    33   1 H    0.998 --    17 C    0.968
    34   1 H    0.998 --    19 C    0.965
 ---------------------------------------------------------------------------

Topologies differ in total number of bonds
Writing topology from bond orders to xtbtopo.mol

molecular dipole:
                 x           y           z       tot (Debye)
 q only:        0.713       0.209      -0.482
   full:        0.874      -0.049      -0.580       2.669
molecular quadrupole (traceless):
                xx          xy          yy          xz          yz          zz
 q only:       -5.337       0.204       4.004       0.189      -3.406       1.333
  q+dip:      -10.128       0.203       2.517      -1.470      -4.703       7.611
   full:       -6.745       2.014       1.990       0.436      -4.122       4.755

           -------------------------------------------------
          |                Geometry Summary                 |
           -------------------------------------------------

      molecular mass/u    :      245.3190607
   center of mass at/Å    :       -0.0119785       0.0465558       0.0235101
  moments of inertia/u·Å² :        0.8821486E+03   0.1758982E+04   0.2330140E+04
rotational constants/cm⁻¹ :        0.1910974E-01   0.9583745E-02   0.7234601E-02

 * 33 selected distances

     #   Z          #   Z                                           value/Å
     2   6 C        3   7 N                                       1.2666794
     4   6 C        5   6 C                                       1.3973002
     5   6 C        6   6 C                                       1.3803946
     6   6 C        7   6 C                                       1.3863619
     7   6 C        8   6 C                                       1.3855489
     4   6 C        9   6 C                                       1.3978117
     8   6 C        9   6 C                                       1.3807460
    10   6 C       11   6 C                                       1.4132005
    11   6 C       12   6 C                                       1.3648528
    12   6 C       13   6 C                                       1.4113903
    13   6 C       14   6 C                                       1.4101983
    14   6 C       15   6 C                                       1.3673151
    15   6 C       16   6 C                                       1.4046477
    16   6 C       17   6 C                                       1.3667809
    13   6 C       18   6 C                                       1.4197743 (max)
    17   6 C       18   6 C                                       1.4115039
    10   6 C       19   6 C                                       1.3757407
    18   6 C       19   6 C                                       1.4076675
     1   6 C       20   1 H                                       1.0894736
     1   6 C       21   1 H                                       1.0863871
     1   6 C       22   1 H                                       1.0883491
     5   6 C       23   1 H                                       1.0804848
     6   6 C       24   1 H                                       1.0810973
     7   6 C       25   1 H                                       1.0802193
     8   6 C       26   1 H                                       1.0811568
     9   6 C       27   1 H                                       1.0814894
    11   6 C       28   1 H                                       1.0799308 (min)
    12   6 C       29   1 H                                       1.0813235
    14   6 C       30   1 H                                       1.0812033
    15   6 C       31   1 H                                       1.0805713
    16   6 C       32   1 H                                       1.0805538
    17   6 C       33   1 H                                       1.0811000
Note: The following floating-point exceptions are signalling: IEEE_DIVIDE_BY_ZERO IEEE_UNDERFLOW_FLAG IEEE_DENORMAL
normal termination of xtb
    19   6 C       34   1 H                                       1.0812550

 * 3 distinct bonds (by element types)

   Z      Z             #   av. dist./Å        max./Å        min./Å
   1 H    6 C          15     1.0823063     1.0894736     1.0799308
   6 C    6 C          17     1.3930138     1.4197743     1.3648528
   6 C    7 N           1     1.2666794     1.2666794     1.2666794


optimized geometry written to: xtbopt.xyz


           -------------------------------------------------
          | TOTAL ENERGY              -49.112322042113 Eh   |
          | GRADIENT NORM               0.000097714236 Eh/α |
          | HOMO-LUMO GAP               2.289907360733 eV   |
           -------------------------------------------------

------------------------------------------------------------------------
 * finished run on 2026/09/10 at 22:57:51.926     
------------------------------------------------------------------------
 total:
 * wall-time:     0 d,  0 h,  0 min,  1.652 sec
 *  cpu-time:     0 d,  0 h,  0 min,  0.094 sec
 * ratio c/w:     0.057 speedup
 SCF:
 * wall-time:     0 d,  0 h,  0 min,  0.048 sec
 *  cpu-time:     0 d,  0 h,  0 min,  0.016 sec
 * ratio c/w:     0.324 speedup
 ANC optimizer:
 * wall-time:     0 d,  0 h,  0 min,  1.559 sec
 *  cpu-time:     0 d,  0 h,  0 min,  0.078 sec
 * ratio c/w:     0.050 speedup

