34
MMFF starting geometry; not quantum validated
C -0.0822026036 3.7195999290 -0.9134262745
C -0.5465859513 2.3852558710 -0.3753676496
N -1.6489962904 2.3716163737 0.3146469461
C -2.1829594999 1.1719740305 0.8049569353
C -2.1714166580 0.9267728927 2.1802911006
C -2.7124391709 -0.2526399168 2.6960501181
C -3.2846348026 -1.1890848521 1.8363384109
C -3.3254322103 -0.9412159906 0.4649488090
C -2.7845683294 0.2403158422 -0.0464699052
C 0.3069174201 1.2167521670 -0.7000919011
C 0.5060903380 0.8677516732 -2.0360862158
C 1.3186766862 -0.2232319794 -2.3483712163
C 1.9397069302 -0.9694405754 -1.3325907990
C 2.7579406462 -2.0702370363 -1.6318900812
C 3.3685047050 -2.8034289728 -0.6129573890
C 3.1689604068 -2.4465404559 0.7174328623
C 2.3587921315 -1.3549219620 1.0332292654
C 1.7379666344 -0.6063780619 0.0208704620
C 0.9219718150 0.4935345395 0.3247871584
H -0.7512904746 4.0335074987 -1.7198636933
H -0.1159613562 4.4649880232 -0.1130576746
H 0.9410425607 3.6678726934 -1.2950821158
H -1.7372150201 1.6636944334 2.8498551876
H -2.6926708865 -0.4355507413 3.7667875660
H -3.7079450620 -2.1070215179 2.2356322282
H -3.7822730209 -1.6630941416 -0.2063355126
H -2.8315236088 0.4376117274 -1.1131774323
H 0.0262318157 1.4282153409 -2.8338205322
H 1.4628420328 -0.4913397148 -3.3928772003
H 2.9260219927 -2.3668686489 -2.6648168265
H 3.9988110820 -3.6540762870 -0.8591065401
H 3.6425274636 -3.0183147429 1.5113235660
H 2.2125093777 -1.0937970890 2.0791545144
H 0.7626009068 0.7882958635 1.3590838291
