34
 energy: -49.112322042113 gnorm: 0.000097714236 xtb: 6.7.1 (edcfbbe)
C           -0.27513299096785        3.67857847600150       -1.05853172431812
C           -0.57065424397009        2.34210988673233       -0.44801158246416
N           -1.57192342811166        2.25535591821760        0.32296843362434
C           -2.08820606801954        1.10981584766853        0.88686661234625
C           -2.31986959377387        1.07915138899476        2.26448748556806
C           -2.92421916873212       -0.01807140038067        2.84444662075692
C           -3.33237511506891       -1.08932659835772        2.06481846041205
C           -3.12859838123002       -1.05493012985371        0.69476833229487
C           -2.50851870751638        0.02924655877033        0.10610769801379
C            0.35811405414725        1.23275306668509       -0.76398316389851
C            0.84858203901899        1.06189608774874       -2.07828307092494
C            1.69465594634026        0.03392577421106       -2.37871399098480
C            2.11540136702563       -0.87691231176122       -1.38605618673283
C            2.99181095577240       -1.94602114934682       -1.66457262746844
C            3.37703751028430       -2.80720814950359       -0.67487182555000
C            2.90308068379395       -2.63985467712297        0.63676551008275
C            2.05349088382467       -1.61270767366397        0.93885149498562
C            1.63752710433157       -0.70633223172978       -0.06004817369678
C            0.75787949599261        0.35673441866398        0.21858544406387
H           -0.55382610760586        3.67561265230407       -2.11175245883590
H           -0.85495050445027        4.44565701781162       -0.55292421055827
H            0.78708531950235        3.90487672301653       -0.98792833303851
H           -1.99982920065575        1.91772552118234        2.86599792567665
H           -3.08458463387549       -0.03633747907614        3.91342761315959
H           -3.81081573148608       -1.94322395942647        2.52179472451051
H           -3.44998309282030       -1.88374033651600        0.07939425209289
H           -2.35035267417398        0.06008322754111       -0.96330885947118
H            0.53122391119954        1.74108164601034       -2.85561259376434
H            2.05764867612024       -0.09586942402084       -3.38898607230512
H            3.35344288907642       -2.07195351998521       -2.67569262817939
H            4.04908998986585       -3.62443628432397       -0.89422932692783
H            3.21693034606430       -3.33198428538556        1.40491346869999
H            1.68216124888985       -1.47998546855939        1.94546771629090
H            0.40867722110823        0.48486708016436        1.23384503654174
