117
 energy: -188.247370333025 gnorm: 0.000062767286 xtb: 6.7.1 (edcfbbe)
O           -0.00620258997430        3.35863551296145       -1.15827445056168
P           -0.47205563120501        2.23201299205932       -0.31741948716796
O           -1.47496833546704        2.51158420192347        0.77131394360108
O           -1.04038007700880        1.03885813560028       -1.28976924929620
C           -1.48849002037402       -0.01656101373474       -0.52266210929974
C           -2.85582453184460       -0.08339730162504       -0.17188734059139
C           -3.27063475941990       -1.09046409610524        0.66286404126550
C           -2.36520184823971       -2.03315258356140        1.18789841847486
C           -2.79282835028265       -3.04691000210046        2.07213492331462
C           -1.89965523905045       -3.92432121995962        2.61962863981898
C           -0.53405625078640       -3.81280965656965        2.31785082888489
C           -0.08848921369963       -2.84707741248335        1.45756760965503
C           -0.98842839469276       -1.94652078091189        0.84784135944473
C           -0.56700772314258       -0.92050206790227       -0.04257457988039
C            0.85272561350478       -0.73924674557580       -0.41300581125186
C            1.47177812336909        0.46278209532644       -0.12110297588751
O            0.77127758878761        1.47642730643792        0.47274917750704
C            2.86747953225800        0.62746739564632       -0.32431088201491
C            3.58667827269097       -0.40226764804115       -0.87654612078934
C            2.96881442302163       -1.59557368147221       -1.29760933354828
C            3.69557688364229       -2.62003870781424       -1.94018493170359
C            3.07337169890150       -3.76086021204316       -2.36388854295307
C            1.69282951729120       -3.91968298211746       -2.17013434952545
C            0.96337687964638       -2.95002741363234       -1.53894151892356
C            1.57919096000255       -1.76950957462762       -1.06948209231781
C           -3.80085868081786        0.93390279080735       -0.66321548518035
C           -4.57206961495884        1.65126775909155        0.24640111071188
C           -5.48986320043400        2.58635442837812       -0.19481011647432
C           -5.65532591330462        2.80894881430292       -1.55182331208603
C           -4.87614423446971        2.11448851606925       -2.46220537953115
C           -3.94931821603268        1.18580493381577       -2.02308760228262
C            3.55429722926291        1.86300458443748        0.09907864211881
C            3.14609886804466        3.11407632649607       -0.35284863522452
C            3.81132633368506        4.25494182196329        0.06236760042298
C            4.88920978225853        4.16314210828105        0.92778160615778
C            5.30471096085137        2.92003988945630        1.37699924411726
C            4.64379188144235        1.77735254215002        0.96343973720460
H           -1.77930939544697        3.95188598345007        1.00544850022614
H           -4.31392830155057       -1.15877734162947        0.93844930311429
H           -3.84502950580158       -3.11035369732681        2.31227941687708
H           -2.23473134597015       -4.69869261404171        3.29436856860574
H            0.16839194893557       -4.49547001388116        2.77380244567847
H            0.96623042234952       -2.76347944643310        1.24214023320208
H            4.65116420069796       -0.28466725965567       -1.02756598988283
H            4.75548919522601       -2.47836631399715       -2.09944476534388
H            3.63509417162573       -4.53984156062489       -2.85866760811902
H            1.20588230546662       -4.81508800335012       -2.52882432294072
H           -0.10112620852584       -3.07575773700810       -1.40451159900782
H           -4.42271869193035        1.48652798347266        1.30104573532069
H           -6.07388246056508        3.14919391825134        0.52092554258932
H           -6.38367664905689        3.52735566403965       -1.89814338431337
H           -4.99248755572132        2.29542177046833       -3.52136783670341
H           -3.34282663599113        0.64349447703111       -2.73462543616558
H            2.30465196601209        3.19417336369543       -1.02252967837294
H            3.48245566716835        5.22108039829833       -0.29328501629850
H            5.40356643256740        5.05652222694267        1.25151190723237
H            6.14477825015207        2.84079402352741        2.05248834779933
H            4.96037634986400        0.80750415158753        1.32213299566847
C           -2.33054924240576        6.76395491172683        2.85536309558758
C           -1.76495512926637        5.49551827737663        2.32612440907843
N           -2.19411797902669        4.91644319184191        1.25893151462293
C           -3.19764178405934        5.31262557526091        0.36044097535998
C           -4.44094369876151        5.78689297550814        0.76485509545668
C           -5.37624001679119        6.15443662032830       -0.18784804227537
C           -5.07430375574805        6.06091547594743       -1.53585023787186
C           -3.84664663431202        5.55552393858829       -1.93717322925999
C           -2.91321856408581        5.16540909157423       -0.99657014515414
C           -0.62773668682071        4.89571880327063        3.02056599243734
C           -0.57463687513940        4.89724053072381        4.41692363436157
C            0.49191090294893        4.31315928575406        5.07245753513609
C            1.52971875234791        3.74518356972863        4.34847604066231
C            1.49836364305537        3.76371884868367        2.96321264662708
C            0.42660166983589        4.32948311074609        2.29797752391446
H           -3.08628485422745        6.51543435296557        3.60200413650569
H           -1.55512382869092        7.35121474241314        3.34173343927635
H           -2.80327281227139        7.34602139077130        2.06684792893257
H           -4.68700005795567        5.82643429961088        1.81288575441309
H           -6.34835732626941        6.50806822752427        0.12259290919885
H           -5.80147888081142        6.36516533516372       -2.27384434128224
H           -3.61721520592163        5.45624870709342       -2.98728193412188
H           -1.96082412151976        4.75405513404963       -1.29494314970703
H           -1.39740442937029        5.30712658257933        4.98063005777355
H            0.51566748518635        4.30011295842659        6.15226173638579
H            2.36462456007905        3.29236484262541        4.86248482486345
H            2.30607676905001        3.33236577159845        2.39268289503328
H            0.42901298218937        4.35575066764194        1.21952719048956
C           -6.52598246895544        8.37318324844021        2.92603743598830
O           -6.49181141319229        6.99073165996323        3.24431955125165
C           -7.45369205250771        6.21820491451809        2.68689039853709
O           -8.30309290750441        6.69428948960063        1.95630914950186
C           -7.31851143713333        4.82116209570341        3.07897944783050
C           -8.16319587846306        3.83655561474007        2.68562891403323
C           -9.39115278013400        3.97836757268388        1.85150740172263
N           -7.87539434092505        2.54057157986675        3.05750507370750
C           -6.58836967479442        2.11610994377054        3.32925133963667
C           -6.40311812226369        0.64695200336624        3.13428685590713
C           -5.68329695680230        3.05025331199643        3.70549455949604
C           -4.22890028532070        2.91450855942827        3.79182723361467
O           -3.49148409601882        3.87646041452704        3.92064693182140
O           -3.76108239859219        1.65808110518932        3.71492900857994
C           -2.34657959023458        1.49307873221376        3.71952461598447
C           -6.20766208176393        4.43496019143857        4.02696773484557
H           -5.80632745852314        8.85235753309820        3.58536408142155
H           -6.24960956845899        8.53067154838032        1.88036118193619
H           -7.52699055144019        8.77803844494944        3.08977463959006
H           -9.59863351923947        5.02404046440798        1.65361658264171
H           -9.25816745441417        3.46002736485591        0.90128001922256
H          -10.24112247174271        3.53293880211172        2.36796883440769
H           -8.53131865470465        1.83018304432482        2.76109083797779
H           -5.40878252479558        0.32950436938594        3.42161487335128
H           -7.13296300372258        0.11519022841734        3.74601880681224
H           -6.57601706611711        0.38209546671822        2.09031566302585
H           -1.89471864537439        2.09952604285943        4.50691338607389
H           -2.16765038209002        0.43454436502153        3.89502342196646
H           -1.93015491920472        1.79078339206403        2.75461775502038
H           -5.38792382046204        5.14868191105278        3.98362269192420
H           -6.59076981416658        4.44241971396517        5.05650621407478
