      -----------------------------------------------------------      
     |                   =====================                   |     
     |                           x T B                           |     
     |                   =====================                   |     
     |                         S. Grimme                         |     
     |          Mulliken Center for Theoretical Chemistry        |     
     |                    University of Bonn                     |     
      -----------------------------------------------------------      

   * xtb version 6.7.1 (edcfbbe) compiled by 'VssAdministrator@runnervm171ch' on 2026-06-10

   xtb is free software: you can redistribute it and/or modify it under
   the terms of the GNU Lesser General Public License as published by
   the Free Software Foundation, either version 3 of the License, or
   (at your option) any later version.
   
   xtb is distributed in the hope that it will be useful,
   but WITHOUT ANY WARRANTY; without even the implied warranty of
   MERCHANTABILITY or FITNESS FOR A PARTICULAR PURPOSE.  See the
   GNU Lesser General Public License for more details.
   
   Cite this work as:
   * C. Bannwarth, E. Caldeweyher, S. Ehlert, A. Hansen, P. Pracht,
     J. Seibert, S. Spicher, S. Grimme, WIREs Comput. Mol. Sci., 2020, 11,
     e01493. DOI: 10.1002/wcms.1493
   
   for GFN2-xTB:
   * C. Bannwarth, S. Ehlert and S. Grimme., J. Chem. Theory Comput., 2019,
     15, 1652-1671. DOI: 10.1021/acs.jctc.8b01176
   for GFN1-xTB:
   * S. Grimme, C. Bannwarth, P. Shushkov, J. Chem. Theory Comput., 2017,
     13, 1989-2009. DOI: 10.1021/acs.jctc.7b00118
   for GFN0-xTB:
   * P. Pracht, E. Caldeweyher, S. Ehlert, S. Grimme, ChemRxiv, 2019, preprint.
     DOI: 10.26434/chemrxiv.8326202.v1
   for GFN-FF:
   * S. Spicher and S. Grimme, Angew. Chem. Int. Ed., 2020, 59, 15665-15673.
     DOI: 10.1002/anie.202004239
   
   for ALPB and GBSA implicit solvation:
   * S. Ehlert, M. Stahn, S. Spicher, S. Grimme, J. Chem. Theory Comput.,
     2021, 17, 4250-4261. DOI: 10.1021/acs.jctc.1c00471
   
   for ddCOSMO and CPCM-X implicit solvation:
   * M. Stahn, S. Ehlert, S. Grimme, J. Phys. Chem. A,
     2023, XX, XXXX-XXXX. DOI: 10.1021/acs.jpca.3c04382
   
   for DFT-D4:
   * E. Caldeweyher, C. Bannwarth and S. Grimme, J. Chem. Phys., 2017,
     147, 034112. DOI: 10.1063/1.4993215
   * E. Caldeweyher, S. Ehlert, A. Hansen, H. Neugebauer, S. Spicher,
     C. Bannwarth and S. Grimme, J. Chem. Phys., 2019, 150, 154122.
     DOI: 10.1063/1.5090222
   * E. Caldeweyher, J.-M. Mewes, S. Ehlert and S. Grimme, Phys. Chem. Chem. Phys.
     2020, 22, 8499-8512. DOI: 10.1039/D0CP00502A
   
   for sTDA-xTB:
   * S. Grimme and C. Bannwarth, J. Chem. Phys., 2016, 145, 054103.
     DOI: 10.1063/1.4959605
   
   in the mass-spec context:
   * V. Asgeirsson, C. Bauer and S. Grimme, Chem. Sci., 2017, 8, 4879.
     DOI: 10.1039/c7sc00601b
   * J. Koopman and S. Grimme, ACS Omega 2019, 4, 12, 15120-15133.
     DOI: 10.1021/acsomega.9b02011
   
   for metadynamics refer to:
   * S. Grimme, J. Chem. Theory Comput., 2019, 155, 2847-2862
     DOI: 10.1021/acs.jctc.9b00143
   
   for SPH calculations refer to:
   * S. Spicher and S. Grimme, J. Chem. Theory Comput., 2021, 17, 1701-1714
     DOI: 10.1021/acs.jctc.0c01306
   
   for ONIOM refer to:
   * C. Plett, A. Katbashev, S. Ehlert, S. Grimme, M. Bursch,
     Phys. Chem. Chem. Phys., 2023, 25, 17860-17868. DOI: 10.1039/D3CP02178E
   
   for DIPRO refer to:
   * J. Kohn, N. Gildemeister, S. Grimme, D. Fazzi, A. Hansen,
     J. Chem. Phys., 2023, just accepted.
   
   for PTB refer to:
   * S. Grimme, M. Mueller, A. Hansen, J. Chem. Phys., 2023, 158, 124111.
     DOI: 10.1063/5.0137838
   
   with help from (in alphabetical order)
   P. Atkinson, C. Bannwarth, F. Bohle, G. Brandenburg, E. Caldeweyher
   M. Checinski, S. Dohm, S. Ehlert, S. Ehrlich, I. Gerasimov, C. Hölzer
   A. Katbashev, J. Kohn, J. Koopman, C. Lavigne, S. Lehtola, F. März, M. Müller,
   F. Musil, H. Neugebauer, J. Pisarek, C. Plett, P. Pracht, F. Pultar,
   J. Seibert, P. Shushkov, S. Spicher, M. Stahn, M. Steiner, T. Strunk,
   J. Stückrath, T. Rose, and J. Unsleber
   
 * started run on 2026/09/10 at 23:16:50.129     
   ID    Z sym.   atoms
    1    8 O      1, 3, 4, 17, 88, 90, 99, 100
    2   15 P      2
    3    6 C      5-16, 18-37, 59, 60, 62-73, 87, 89, 91-93, 95-98, 101, 102
    4    1 H      38-58, 74-86, 103-117
    5    7 N      61, 94

           -------------------------------------------------
          |                Calculation Setup                |
           -------------------------------------------------

          program call               : C:\Users\HUIWEI\miniconda3\envs\phase2ff\Library\bin\xtb.exe xtbopt.xyz --gfn 2 --chrg 0 --uhf 0 --alpb toluene --acc 0.2 --hess --strict
          coordinate file            : xtbopt.xyz
          omp threads                :                     1


molecular fragmentation (1/2 indicates fragments):
111111111111111111111111111111111111111111111111111111111122222222222222
222222222222222222222222222222222222222222222
# atoms in fragment 1/2:    58    59
 fragment masses (1/2) :      500.48      420.50
CMA distance (Bohr)    :  11.394
constraining FC (au)   :  0.0500

           -------------------------------------------------
          |                 G F N 2 - x T B                 |
           -------------------------------------------------

        Reference                      10.1021/acs.jctc.8b01176
      * Hamiltonian:
        H0-scaling (s, p, d)           1.850000    2.230000    2.230000
        zeta-weighting                 0.500000
      * Dispersion:
        s8                             2.700000
        a1                             0.520000
        a2                             5.000000
        s9                             5.000000
      * Repulsion:
        kExp                           1.500000    1.000000
        rExp                           1.000000
      * Coulomb:
        alpha                          2.000000
        third order                    shell-resolved
        anisotropic                    true
        a3                             3.000000
        a5                             4.000000
        cn-shift                       1.200000
        cn-exp                         4.000000
        max-rad                        5.000000

      * Solvation model:               ALPB
        Solvent                        toluene
        Parameter file                 internal GFN2-xTB/ALPB
        Dielectric constant                7.0000E+00
        Reference state                gsolv [1 M gas/solution]
        Free energy shift                  2.2081E-03 Eh       1.3856E+00 kcal/mol
        Temperature                        2.9815E+02 K
        Density                            8.6700E-01 kg/L
        Solvent mass                       7.8110E+01 g/mol
        Interaction kernel             P16
        Born radius scaling (c1)           1.7172E+00
        Born radii integrator          GBOBC
        Born offset                        0.0000E+00 a0       0.0000E+00 AA
        H-bond correction              false
        Ion screening                  false
        Surface tension                    1.0000E-05 Eh       1.5569E+01 dyn/cm
        Grid points                               230 per atom
q/qsh data taken from xtbrestart
CAMM data taken from xtbrestart

          ...................................................
          :                      SETUP                      :
          :.................................................:
          :  # basis functions                 327          :
          :  # atomic orbitals                 326          :
          :  # shells                          186          :
          :  # electrons                       340          :
          :  max. iterations                   250          :
          :  Hamiltonian                  GFN2-xTB          :
          :  restarted?                       true          :
          :  GBSA solvation                   true          :
          :  PC potential                    false          :
          :  electronic temp.          300.0000000     K    :
          :  accuracy                    0.2000000          :
          :  -> integral cutoff          0.3198970E+02      :
          :  -> integral neglect         0.2000000E-08      :
          :  -> SCF convergence          0.2000000E-06 Eh   :
          :  -> wf. convergence          0.2000000E-04 e    :
          :  Broyden damping             0.4000000          :
          :  net charge                          0          :
          :  unpaired electrons                  0          :
          ...................................................

 iter      E             dE          RMSdq      gap      omega  full diag
   1   -191.2116255 -0.191212E+03  0.262E-06    2.00       0.0  T
   2   -191.2116255 -0.369482E-12  0.237E-06    2.00    3902.1  T
   3   -191.2116255 -0.133582E-11  0.867E-07    2.00   10663.8  T

   *** convergence criteria satisfied after 3 iterations ***

         #    Occupation            Energy/Eh            Energy/eV
      -------------------------------------------------------------
         1        2.0000           -0.7287905             -19.8314
       ...           ...                  ...                  ...
       164        2.0000           -0.3898982             -10.6097
       165        2.0000           -0.3881261             -10.5614
       166        2.0000           -0.3856772             -10.4948
       167        2.0000           -0.3806981             -10.3593
       168        2.0000           -0.3728768             -10.1465
       169        2.0000           -0.3705935             -10.0844
       170        2.0000           -0.3499981              -9.5239 (HOMO)
       171                         -0.2765637              -7.5257 (LUMO)
       172                         -0.2734829              -7.4418
       173                         -0.2647736              -7.2049
       174                         -0.2610945              -7.1047
       175                         -0.2452080              -6.6724
       ...                                ...                  ...
       326                          1.2915397              35.1446
      -------------------------------------------------------------
                  HL-Gap            0.0734344 Eh            1.9983 eV
             Fermi-level           -0.3132809 Eh           -8.5248 eV

 SCC (total)                   0 d,  0 h,  0 min,  0.317 sec
 SCC setup                      ...        0 min,  0.005 sec (  1.668%)
 Dispersion                     ...        0 min,  0.003 sec (  1.097%)
 classical contributions        ...        0 min,  0.001 sec (  0.292%)
 integral evaluation            ...        0 min,  0.048 sec ( 15.016%)
 iterations                     ...        0 min,  0.059 sec ( 18.637%)
 molecular gradient             ...        0 min,  0.199 sec ( 62.547%)
 printout                       ...        0 min,  0.002 sec (  0.730%)

         :::::::::::::::::::::::::::::::::::::::::::::::::::::
         ::                     SUMMARY                     ::
         :::::::::::::::::::::::::::::::::::::::::::::::::::::
         :: total energy            -188.243893933714 Eh    ::
         :: total w/o Gsasa/hb      -188.167152710042 Eh    ::
         :: gradient norm              0.000050340552 Eh/a0 ::
         :: HOMO-LUMO gap              1.998252420836 eV    ::
         ::.................................................::
         :: SCC energy              -191.200018909575 Eh    ::
         :: -> isotropic ES            0.240702007323 Eh    ::
         :: -> anisotropic ES         -0.014426846675 Eh    ::
         :: -> anisotropic XC          0.083085957072 Eh    ::
         :: -> dispersion             -0.193465368615 Eh    ::
         :: -> Gsolv                  -0.086806149590 Eh    ::
         ::    -> Gelec               -0.010064925919 Eh    ::
         ::    -> Gsasa               -0.078949366810 Eh    ::
         ::    -> Ghb                  0.000000000000 Eh    ::
         ::    -> Gshift               0.002208143139 Eh    ::
         :: repulsion energy           2.956124975860 Eh    ::
         :: add. restraining           0.000000000000 Eh    ::
         :: total charge               0.000000000000 e     ::
         :::::::::::::::::::::::::::::::::::::::::::::::::::::

           ------------------------------------------------- 
          |                Numerical Hessian                |
           ------------------------------------------------- 
step length          :   0.00500
SCC accuracy         :   0.30000
Hessian scale factor :   1.00000
frozen atoms in %    :   0.00000    0
RMS gradient         :   0.00005
estimated CPU  time      0.40 min
estimated wall time      4.31 min

writing file <hessian>.

 projected vibrational frequencies (cm⁻¹)
eigval :       -0.00    -0.00     0.00     0.00     0.00     0.00
eigval :        6.27    12.87    16.95    18.07    23.03    25.59
eigval :       28.69    33.93    42.59    43.64    46.28    48.84
eigval :       52.34    54.06    62.84    63.88    68.61    70.57
eigval :       73.27    78.49    80.16    81.56    85.46    86.30
eigval :       88.94    96.22    98.40   101.72   103.26   107.41
eigval :      114.44   122.35   131.12   139.64   141.55   144.68
eigval :      148.28   149.82   150.11   165.98   171.32   177.72
eigval :      178.52   182.06   184.32   189.36   210.65   212.87
eigval :      227.22   236.33   244.04   251.31   267.81   270.38
eigval :      277.13   288.56   289.93   296.39   300.86   305.43
eigval :      315.30   316.88   325.74   326.38   331.26   333.33
eigval :      335.30   341.36   357.80   368.74   370.08   373.95
eigval :      376.81   381.41   384.84   387.53   398.30   409.03
eigval :      426.85   433.94   440.32   443.37   464.00   469.10
eigval :      475.19   488.70   493.96   501.24   503.82   512.90
eigval :      515.25   521.79   524.25   526.88   539.38   546.78
eigval :      549.95   554.89   565.05   573.22   585.50   585.97
eigval :      587.67   588.68   589.52   593.66   622.76   627.60
eigval :      631.17   633.28   641.08   651.07   659.24   664.37
eigval :      666.28   668.25   671.41   682.58   682.80   695.36
eigval :      704.12   710.33   720.13   729.72   740.95   748.74
eigval :      757.72   758.25   760.13   765.47   768.94   770.94
eigval :      776.95   784.80   787.74   796.24   824.82   834.11
eigval :      839.86   852.29   860.36   864.98   865.04   871.27
eigval :      871.82   876.41   876.98   879.89   884.00   898.05
eigval :      899.90   905.48   907.45   910.99   913.60   915.58
eigval :      918.67   921.11   926.20   926.32   926.75   929.19
eigval :      929.59   932.82   934.91   938.78   940.16   953.17
eigval :      961.21   966.15   969.17   971.64   984.33   986.08
eigval :      991.31   994.39  1001.31  1009.93  1013.26  1018.57
eigval :     1024.36  1027.99  1034.34  1072.56  1081.60  1082.31
eigval :     1083.40  1083.85  1084.05  1086.83  1091.77  1098.90
eigval :     1102.05  1118.83  1121.47  1121.58  1126.10  1126.78
eigval :     1131.48  1132.67  1146.65  1151.17  1152.50  1164.45
eigval :     1168.91  1173.18  1174.89  1178.05  1179.94  1180.65
eigval :     1181.24  1181.87  1187.58  1194.60  1198.96  1203.01
eigval :     1205.70  1207.47  1207.81  1212.41  1214.41  1236.81
eigval :     1245.52  1248.35  1250.69  1256.79  1260.85  1269.26
eigval :     1277.47  1282.33  1282.91  1287.11  1290.40  1294.58
eigval :     1295.23  1312.19  1314.89  1319.03  1321.33  1326.24
eigval :     1334.46  1341.95  1364.63  1367.75  1382.29  1383.85
eigval :     1385.47  1388.27  1391.19  1394.27  1399.34  1413.90
eigval :     1414.79  1416.77  1425.17  1428.49  1429.93  1433.12
eigval :     1437.45  1439.86  1441.87  1443.54  1447.29  1450.16
eigval :     1460.15  1461.87  1464.60  1467.20  1467.42  1468.79
eigval :     1472.47  1481.34  1482.65  1483.21  1483.51  1488.54
eigval :     1491.73  1548.93  1554.74  1572.13  1573.48  1576.18
eigval :     1577.83  1581.54  1584.55  1586.45  1594.15  1599.17
eigval :     1600.33  1606.24  1606.61  1615.09  1648.93  1654.69
eigval :     1672.91  1700.90  2289.72  2862.57  2957.65  2964.64
eigval :     2978.74  2984.65  3004.83  3013.40  3021.42  3024.49
eigval :     3026.47  3028.79  3035.65  3037.62  3041.73  3043.97
eigval :     3045.23  3056.70  3061.25  3066.43  3067.13  3069.37
eigval :     3070.00  3070.03  3070.85  3072.26  3073.03  3074.41
eigval :     3075.77  3076.46  3076.69  3077.82  3080.25  3081.10
eigval :     3081.46  3084.84  3084.99  3086.22  3086.68  3091.27
eigval :     3092.73  3093.08  3094.24  3094.35  3097.40  3100.80
eigval :     3101.10  3160.99  3413.15
           -------------------------------------------------
          |                Property Printout                |
           -------------------------------------------------

    * Orbital Energies and Occupations

         #    Occupation            Energy/Eh            Energy/eV
      -------------------------------------------------------------
         1        2.0000           -0.7287905             -19.8314
       ...           ...                  ...                  ...
       158        2.0000           -0.4059976             -11.0478
       159        2.0000           -0.4030127             -10.9665
       160        2.0000           -0.4020539             -10.9404
       161        2.0000           -0.4007055             -10.9038
       162        2.0000           -0.3970301             -10.8037
       163        2.0000           -0.3923436             -10.6762
       164        2.0000           -0.3898982             -10.6097
       165        2.0000           -0.3881261             -10.5614
       166        2.0000           -0.3856772             -10.4948
       167        2.0000           -0.3806981             -10.3593
       168        2.0000           -0.3728768             -10.1465
       169        2.0000           -0.3705936             -10.0844
       170        2.0000           -0.3499981              -9.5239 (HOMO)
       171                         -0.2765637              -7.5257 (LUMO)
       172                         -0.2734829              -7.4418
       173                         -0.2647736              -7.2049
       174                         -0.2610945              -7.1047
       175                         -0.2452080              -6.6724
       176                         -0.2379291              -6.4744
       177                         -0.2283714              -6.2143
       178                         -0.2243215              -6.1041
       179                         -0.2239942              -6.0952
       180                         -0.2187814              -5.9533
       181                         -0.2145009              -5.8369
       ...                                ...                  ...
       326                          1.2915397              35.1446
      -------------------------------------------------------------
                  HL-Gap            0.0734344 Eh            1.9983 eV
             Fermi-level           -0.3132809 Eh           -8.5248 eV

     #   Z          covCN         q      C6AA      α(0)
     1   8 O        0.808    -0.532    24.536     6.640
     2  15 P        3.931     0.737   131.436    20.594
     3   8 O        1.603    -0.457    22.019     6.333
     4   8 O        1.661    -0.321    19.386     5.944
     5   6 C        3.163     0.141    24.635     8.112
     6   6 C        2.967    -0.009    28.232     8.715
     7   6 C        2.927    -0.049    29.222     8.865
     8   6 C        2.983     0.007    27.857     8.658
     9   6 C        2.919    -0.035    28.859     8.810
    10   6 C        2.915    -0.030    28.737     8.791
    11   6 C        2.916    -0.029    28.727     8.789
    12   6 C        2.917    -0.033    28.817     8.803
    13   6 C        2.987     0.011    27.769     8.644
    14   6 C        2.973    -0.010    28.252     8.719
    15   6 C        2.973    -0.012    28.305     8.727
    16   6 C        3.223     0.142    24.243     8.002
    17   8 O        1.661    -0.292    18.866     5.864
    18   6 C        2.969    -0.004    28.115     8.697
    19   6 C        2.927    -0.050    29.250     8.869
    20   6 C        2.983     0.008    27.844     8.656
    21   6 C        2.920    -0.035    28.868     8.811
    22   6 C        2.915    -0.030    28.752     8.793
    23   6 C        2.916    -0.030    28.755     8.793
    24   6 C        2.917    -0.034    28.853     8.808
    25   6 C        2.986     0.009    27.801     8.649
    26   6 C        2.976     0.017    27.627     8.622
    27   6 C        2.925    -0.036    28.892     8.815
    28   6 C        2.918    -0.031    28.782     8.798
    29   6 C        2.920    -0.032    28.790     8.799
    30   6 C        2.919    -0.030    28.737     8.791
    31   6 C        2.924    -0.031    28.762     8.795
    32   6 C        2.979     0.023    27.479     8.599
    33   6 C        2.925    -0.035    28.864     8.811
    34   6 C        2.919    -0.032    28.791     8.799
    35   6 C        2.920    -0.031    28.762     8.795
    36   6 C        2.919    -0.019    28.473     8.750
    37   6 C        2.924    -0.017    28.429     8.744
    38   1 H        0.844     0.367     0.546     1.158
    39   1 H        0.926     0.047     2.358     2.401
    40   1 H        0.926     0.038     2.472     2.459
    41   1 H        0.926     0.038     2.479     2.462
    42   1 H        0.926     0.036     2.498     2.471
    43   1 H        0.926     0.034     2.537     2.491
    44   1 H        0.926     0.046     2.367     2.406
    45   1 H        0.926     0.038     2.475     2.460
    46   1 H        0.926     0.037     2.483     2.464
    47   1 H        0.926     0.036     2.505     2.475
    48   1 H        0.926     0.033     2.546     2.495
    49   1 H        0.926     0.036     2.508     2.477
    50   1 H        0.926     0.035     2.523     2.484
    51   1 H        0.926     0.032     2.557     2.501
    52   1 H        0.926     0.031     2.569     2.506
    53   1 H        0.926     0.038     2.479     2.462
    54   1 H        0.925     0.029     2.598     2.521
    55   1 H        0.926     0.032     2.559     2.502
    56   1 H        0.926     0.030     2.586     2.515
    57   1 H        0.926     0.033     2.541     2.493
    58   1 H        0.926     0.034     2.529     2.487
    59   6 C        3.756    -0.122    22.892     6.822
    60   6 C        2.901     0.122    25.328     8.252
    61   7 N        1.876    -0.239    27.103     7.717
    62   6 C        2.927     0.082    26.173     8.390
    63   6 C        2.921    -0.043    29.077     8.843
    64   6 C        2.919    -0.031    28.768     8.795
    65   6 C        2.918    -0.039    28.967     8.826
    66   6 C        2.919    -0.031    28.765     8.795
    67   6 C        2.923    -0.046    29.136     8.852
    68   6 C        2.977     0.005    27.916     8.667
    69   6 C        2.924    -0.029    28.726     8.789
    70   6 C        2.918    -0.030    28.750     8.793
    71   6 C        2.919    -0.026    28.658     8.779
    72   6 C        2.918    -0.026    28.647     8.777
    73   6 C        2.927    -0.028    28.711     8.787
    74   1 H        0.925     0.085     1.933     2.174
    75   1 H        0.925     0.058     2.228     2.334
    76   1 H        0.925     0.050     2.319     2.382
    77   1 H        0.926     0.047     2.353     2.399
    78   1 H        0.926     0.033     2.541     2.493
    79   1 H        0.926     0.031     2.570     2.507
    80   1 H        0.926     0.032     2.561     2.503
    81   1 H        0.926     0.035     2.510     2.478
    82   1 H        0.926     0.042     2.427     2.436
    83   1 H        0.926     0.041     2.429     2.437
    84   1 H        0.926     0.042     2.427     2.436
    85   1 H        0.926     0.046     2.375     2.410
    86   1 H        0.926     0.054     2.271     2.357
    87   6 C        3.655     0.037    20.250     6.460
    88   8 O        1.705    -0.277    18.604     5.823
    89   6 C        2.730     0.345    21.134     7.526
    90   8 O        0.856    -0.453    22.768     6.397
    91   6 C        2.956    -0.061    29.514     8.911
    92   6 C        2.892     0.087    26.054     8.369
    93   6 C        3.759    -0.132    23.094     6.851
    94   7 N        2.713    -0.115    23.516     7.202
    95   6 C        2.888     0.080    26.210     8.393
    96   6 C        3.759    -0.128    22.998     6.837
    97   6 C        2.955    -0.067    29.675     8.935
    98   6 C        2.726     0.341    21.205     7.539
    99   8 O        0.857    -0.476    23.258     6.466
   100   8 O        1.704    -0.281    18.667     5.833
   101   6 C        3.652     0.038    20.244     6.461
   102   6 C        3.816    -0.053    21.518     6.602
   103   1 H        0.925     0.063     2.164     2.300
   104   1 H        0.924     0.061     2.192     2.315
   105   1 H        0.924     0.053     2.285     2.364
   106   1 H        0.925     0.079     1.994     2.208
   107   1 H        0.925     0.100     1.781     2.087
   108   1 H        0.925     0.052     2.289     2.366
   109   1 H        0.860     0.194     1.136     1.670
   110   1 H        0.925     0.080     1.980     2.201
   111   1 H        0.925     0.061     2.190     2.314
   112   1 H        0.925     0.079     1.992     2.207
   113   1 H        0.924     0.059     2.216     2.328
   114   1 H        0.925     0.069     2.098     2.265
   115   1 H        0.924     0.055     2.262     2.352
   116   1 H        0.924     0.067     2.113     2.273
   117   1 H        0.923     0.040     2.449     2.447

 Mol. C6AA /au·bohr⁶  :     183905.449082
 Mol. C8AA /au·bohr⁸  :    4623878.677584
 Mol. α(0) /au        :        682.425570


Wiberg/Mayer (AO) data.
largest (>0.10) Wiberg bond orders for each atom

 ---------------------------------------------------------------------------
     #   Z sym  total        # sym  WBO       # sym  WBO       # sym  WBO
 ---------------------------------------------------------------------------
     1   8 O    2.034 --     2 P    1.801
     2  15 P    5.442 --     1 O    1.801     3 O    1.293    17 O    1.126
                             4 O    1.088
     3   8 O    2.204 --     2 P    1.293    38 H    0.682
     4   8 O    2.305 --     2 P    1.088     5 C    0.971
     5   6 C    3.913 --    14 C    1.463     6 C    1.244     4 O    0.971
     6   6 C    3.985 --     7 C    1.493     5 C    1.244    26 C    1.048
     7   6 C    3.984 --     6 C    1.493     8 C    1.285    39 H    0.964
                            14 C    0.102
     8   6 C    3.988 --     7 C    1.285     9 C    1.276    13 C    1.250
     9   6 C    3.985 --    10 C    1.557     8 C    1.276    40 H    0.968
                            12 C    0.117
    10   6 C    3.988 --     9 C    1.557    11 C    1.322    41 H    0.970
    11   6 C    3.984 --    12 C    1.552    10 C    1.322    42 H    0.971
    12   6 C    3.990 --    11 C    1.552    13 C    1.286    43 H    0.966
                             9 C    0.117
    13   6 C    3.985 --    12 C    1.286     8 C    1.250    14 C    1.236
    14   6 C    3.985 --     5 C    1.463    13 C    1.236    15 C    1.028
                             7 C    0.102
    15   6 C    3.984 --    16 C    1.463    25 C    1.234    14 C    1.028
                            19 C    0.103
    16   6 C    3.908 --    15 C    1.463    18 C    1.248    17 O    0.959
    17   8 O    2.326 --     2 P    1.126    16 C    0.959
    18   6 C    3.985 --    19 C    1.498    16 C    1.248    32 C    1.037
    19   6 C    3.984 --    18 C    1.498    20 C    1.283    44 H    0.965
                            15 C    0.103
    20   6 C    3.988 --    19 C    1.283    21 C    1.277    25 C    1.251
    21   6 C    3.984 --    22 C    1.556    20 C    1.277    45 H    0.968
                            24 C    0.117
    22   6 C    3.988 --    21 C    1.556    23 C    1.322    46 H    0.970
    23   6 C    3.986 --    24 C    1.551    22 C    1.322    47 H    0.971
    24   6 C    3.990 --    23 C    1.551    25 C    1.286    48 H    0.966
                            21 C    0.117
    25   6 C    3.985 --    24 C    1.286    20 C    1.251    15 C    1.234
    26   6 C    3.988 --    31 C    1.387    27 C    1.387     6 C    1.048
                            29 C    0.105
    27   6 C    3.989 --    28 C    1.451    26 C    1.387    49 H    0.967
                            30 C    0.108
    28   6 C    3.992 --    27 C    1.451    29 C    1.433    50 H    0.970
                            31 C    0.108
    29   6 C    3.986 --    30 C    1.434    28 C    1.433    51 H    0.970
                            26 C    0.105
    30   6 C    3.992 --    31 C    1.451    29 C    1.434    52 H    0.970
                            27 C    0.108
    31   6 C    3.987 --    30 C    1.451    26 C    1.387    53 H    0.969
                            28 C    0.108
    32   6 C    3.988 --    37 C    1.395    33 C    1.389    18 C    1.037
                            35 C    0.106
    33   6 C    3.987 --    34 C    1.451    32 C    1.389    54 H    0.970
                            36 C    0.109
    34   6 C    3.992 --    33 C    1.451    35 C    1.432    55 H    0.971
                            37 C    0.110
    35   6 C    3.988 --    36 C    1.438    34 C    1.432    56 H    0.971
                            32 C    0.106
    36   6 C    3.991 --    37 C    1.445    35 C    1.438    57 H    0.970
                            33 C    0.109
    37   6 C    3.987 --    36 C    1.445    32 C    1.395    58 H    0.970
                            34 C    0.110
    38   1 H    0.865 --     3 O    0.682    61 N    0.138
    39   1 H    0.997 --     7 C    0.964
    40   1 H    0.998 --     9 C    0.968
    41   1 H    0.998 --    10 C    0.970
    42   1 H    0.998 --    11 C    0.971
    43   1 H    0.998 --    12 C    0.966
    44   1 H    0.997 --    19 C    0.965
    45   1 H    0.998 --    21 C    0.968
    46   1 H    0.998 --    22 C    0.970
    47   1 H    0.998 --    23 C    0.971
    48   1 H    0.998 --    24 C    0.966
    49   1 H    0.999 --    27 C    0.967
    50   1 H    0.998 --    28 C    0.970
    51   1 H    0.998 --    29 C    0.970
    52   1 H    0.998 --    30 C    0.970
    53   1 H    0.999 --    31 C    0.969
    54   1 H    0.999 --    33 C    0.970
    55   1 H    0.998 --    34 C    0.971
    56   1 H    0.999 --    35 C    0.971
    57   1 H    0.998 --    36 C    0.970
    58   1 H    0.999 --    37 C    0.970
    59   6 C    3.993 --    60 C    1.021    76 H    0.978    75 H    0.962
                            74 H    0.950
    60   6 C    3.958 --    61 N    1.718    68 C    1.066    59 C    1.021
    61   7 N    3.279 --    60 C    1.718    62 C    1.090    38 H    0.138
    62   6 C    3.973 --    67 C    1.359    63 C    1.357    61 N    1.090
    63   6 C    3.984 --    64 C    1.450    62 C    1.357    77 H    0.966
                            66 C    0.105
    64   6 C    3.991 --    63 C    1.450    65 C    1.433    78 H    0.970
                            67 C    0.107
    65   6 C    3.987 --    64 C    1.433    66 C    1.426    79 H    0.972
    66   6 C    3.991 --    67 C    1.459    65 C    1.426    80 H    0.971
                            63 C    0.105
    67   6 C    3.986 --    66 C    1.459    62 C    1.359    81 H    0.966
                            64 C    0.107
    68   6 C    3.988 --    73 C    1.375    69 C    1.373    60 C    1.066
                            71 C    0.100
    69   6 C    3.984 --    70 C    1.459    68 C    1.373    82 H    0.963
                            72 C    0.106
    70   6 C    3.991 --    69 C    1.459    71 C    1.426    83 H    0.970
                            73 C    0.105
    71   6 C    3.985 --    72 C    1.433    70 C    1.426    84 H    0.970
                            68 C    0.100
    72   6 C    3.991 --    73 C    1.454    71 C    1.433    85 H    0.969
                            69 C    0.106
    73   6 C    3.988 --    72 C    1.454    68 C    1.375    86 H    0.953
                            70 C    0.105
    74   1 H    0.992 --    59 C    0.950
    75   1 H    0.996 --    59 C    0.962
    76   1 H    0.997 --    59 C    0.978
    77   1 H    0.998 --    63 C    0.966
    78   1 H    0.998 --    64 C    0.970
    79   1 H    0.999 --    65 C    0.972
    80   1 H    0.998 --    66 C    0.971
    81   1 H    0.999 --    67 C    0.966
    82   1 H    0.998 --    69 C    0.963
    83   1 H    0.998 --    70 C    0.970
    84   1 H    0.998 --    71 C    0.970
    85   1 H    0.997 --    72 C    0.969
    86   1 H    0.997 --    73 C    0.953
    87   6 C    3.932 --   103 H    0.979   105 H    0.977   104 H    0.975
                            88 O    0.966
    88   8 O    2.273 --    89 C    1.085    87 C    0.966    90 O    0.152
    89   6 C    3.920 --    90 O    1.666    88 O    1.085    91 C    1.073
    90   8 O    1.997 --    89 C    1.666    88 O    0.152
    91   6 C    3.972 --    92 C    1.624    89 C    1.073   102 C    1.000
    92   6 C    3.967 --    91 C    1.624    94 N    1.141    93 C    1.037
    93   6 C    3.986 --    92 C    1.037   108 H    0.979   106 H    0.961
                           107 H    0.941
    94   7 N    3.521 --    95 C    1.169    92 C    1.141   109 H    0.924
    95   6 C    3.967 --    97 C    1.601    94 N    1.169    96 C    1.030
    96   6 C    3.989 --    95 C    1.030   111 H    0.978   110 H    0.963
                           112 H    0.957
    97   6 C    3.970 --    95 C    1.601    98 C    1.093   102 C    0.997
    98   6 C    3.923 --    99 O    1.642    97 C    1.093   100 O    1.085
    99   8 O    1.967 --    98 C    1.642   100 O    0.147
   100   8 O    2.271 --    98 C    1.085   101 C    0.963    99 O    0.147
   101   6 C    3.930 --   114 H    0.981   113 H    0.977   115 H    0.975
                           100 O    0.963
   102   6 C    3.994 --    91 C    1.000    97 C    0.997   116 H    0.958
                           117 H    0.955
   103   1 H    0.996 --    87 C    0.979
   104   1 H    0.996 --    87 C    0.975
   105   1 H    0.997 --    87 C    0.977
   106   1 H    0.993 --    93 C    0.961
   107   1 H    0.990 --    93 C    0.941
   108   1 H    0.997 --    93 C    0.979
   109   1 H    0.961 --    94 N    0.924
   110   1 H    0.993 --    96 C    0.963
   111   1 H    0.996 --    96 C    0.978
   112   1 H    0.993 --    96 C    0.957
   113   1 H    0.996 --   101 C    0.977
   114   1 H    0.995 --   101 C    0.981
   115   1 H    0.996 --   101 C    0.975
   116   1 H    0.995 --   102 C    0.958
   117   1 H    0.998 --   102 C    0.955
 ---------------------------------------------------------------------------

Topologies differ in total number of bonds
Writing topology from bond orders to xtbtopo.mol

molecular dipole:
                 x           y           z       tot (Debye)
 q only:       -0.849       0.430      -1.787
   full:       -1.124       0.669      -1.754       5.562
molecular quadrupole (traceless):
                xx          xy          yy          xz          yz          zz
 q only:       -4.610      -7.168       7.897     -10.772     -49.383      -3.287
  q+dip:       -5.348     -11.180       6.074     -15.758     -47.551      -0.726
   full:       -6.298      -8.479       9.336     -10.695     -46.677      -3.038

           -------------------------------------------------
          |               Frequency Printout                |
           -------------------------------------------------
 projected vibrational frequencies (cm⁻¹)
eigval :       -0.00    -0.00     0.00     0.00     0.00     0.00
eigval :        6.27    12.87    16.95    18.07    23.03    25.59
eigval :       28.69    33.93    42.59    43.64    46.28    48.84
eigval :       52.34    54.06    62.84    63.88    68.61    70.57
eigval :       73.27    78.49    80.16    81.56    85.46    86.30
eigval :       88.94    96.22    98.40   101.72   103.26   107.41
eigval :      114.44   122.35   131.12   139.64   141.55   144.68
eigval :      148.28   149.82   150.11   165.98   171.32   177.72
eigval :      178.52   182.06   184.32   189.36   210.65   212.87
eigval :      227.22   236.33   244.04   251.31   267.81   270.38
eigval :      277.13   288.56   289.93   296.39   300.86   305.43
eigval :      315.30   316.88   325.74   326.38   331.26   333.33
eigval :      335.30   341.36   357.80   368.74   370.08   373.95
eigval :      376.81   381.41   384.84   387.53   398.30   409.03
eigval :      426.85   433.94   440.32   443.37   464.00   469.10
eigval :      475.19   488.70   493.96   501.24   503.82   512.90
eigval :      515.25   521.79   524.25   526.88   539.38   546.78
eigval :      549.95   554.89   565.05   573.22   585.50   585.97
eigval :      587.67   588.68   589.52   593.66   622.76   627.60
eigval :      631.17   633.28   641.08   651.07   659.24   664.37
eigval :      666.28   668.25   671.41   682.58   682.80   695.36
eigval :      704.12   710.33   720.13   729.72   740.95   748.74
eigval :      757.72   758.25   760.13   765.47   768.94   770.94
eigval :      776.95   784.80   787.74   796.24   824.82   834.11
eigval :      839.86   852.29   860.36   864.98   865.04   871.27
eigval :      871.82   876.41   876.98   879.89   884.00   898.05
eigval :      899.90   905.48   907.45   910.99   913.60   915.58
eigval :      918.67   921.11   926.20   926.32   926.75   929.19
eigval :      929.59   932.82   934.91   938.78   940.16   953.17
eigval :      961.21   966.15   969.17   971.64   984.33   986.08
eigval :      991.31   994.39  1001.31  1009.93  1013.26  1018.57
eigval :     1024.36  1027.99  1034.34  1072.56  1081.60  1082.31
eigval :     1083.40  1083.85  1084.05  1086.83  1091.77  1098.90
eigval :     1102.05  1118.83  1121.47  1121.58  1126.10  1126.78
eigval :     1131.48  1132.67  1146.65  1151.17  1152.50  1164.45
eigval :     1168.91  1173.18  1174.89  1178.05  1179.94  1180.65
eigval :     1181.24  1181.87  1187.58  1194.60  1198.96  1203.01
eigval :     1205.70  1207.47  1207.81  1212.41  1214.41  1236.81
eigval :     1245.52  1248.35  1250.69  1256.79  1260.85  1269.26
eigval :     1277.47  1282.33  1282.91  1287.11  1290.40  1294.58
eigval :     1295.23  1312.19  1314.89  1319.03  1321.33  1326.24
eigval :     1334.46  1341.95  1364.63  1367.75  1382.29  1383.85
eigval :     1385.47  1388.27  1391.19  1394.27  1399.34  1413.90
eigval :     1414.79  1416.77  1425.17  1428.49  1429.93  1433.12
eigval :     1437.45  1439.86  1441.87  1443.54  1447.29  1450.16
eigval :     1460.15  1461.87  1464.60  1467.20  1467.42  1468.79
eigval :     1472.47  1481.34  1482.65  1483.21  1483.51  1488.54
eigval :     1491.73  1548.93  1554.74  1572.13  1573.48  1576.18
eigval :     1577.83  1581.54  1584.55  1586.45  1594.15  1599.17
eigval :     1600.33  1606.24  1606.61  1615.09  1648.93  1654.69
eigval :     1672.91  1700.90  2289.72  2862.57  2957.65  2964.64
eigval :     2978.74  2984.65  3004.83  3013.40  3021.42  3024.49
eigval :     3026.47  3028.79  3035.65  3037.62  3041.73  3043.97
eigval :     3045.23  3056.70  3061.25  3066.43  3067.13  3069.37
eigval :     3070.00  3070.03  3070.85  3072.26  3073.03  3074.41
eigval :     3075.77  3076.46  3076.69  3077.82  3080.25  3081.10
eigval :     3081.46  3084.84  3084.99  3086.22  3086.68  3091.27
eigval :     3092.73  3093.08  3094.24  3094.35  3097.40  3100.80
eigval :     3101.10  3160.99  3413.15
 reduced masses (amu)
   1: 12.06   2: 11.68   3: 12.62   4: 12.23   5: 11.82   6: 12.11   7: 11.40   8: 11.76
   9: 11.54  10: 12.88  11: 11.62  12: 11.44  13: 11.60  14: 11.62  15: 12.70  16: 12.41
  17: 12.45  18: 11.41  19: 11.24  20: 10.87  21: 11.17  22: 10.84  23: 10.80  24: 11.21
  25: 10.47  26: 11.71  27:  9.87  28:  9.50  29: 11.37  30:  7.20  31: 11.69  32: 12.21
  33: 10.81  34: 10.99  35: 12.32  36: 12.47  37:  9.63  38: 11.64  39:  4.09  40: 10.60
  41: 10.38  42:  7.12  43:  9.66  44:  9.37  45: 10.25  46:  8.64  47: 10.09  48:  7.97
  49:  9.33  50:  8.51  51: 11.35  52: 12.01  53: 11.53  54:  9.67  55:  3.67  56: 12.92
  57: 11.79  58: 13.37  59: 10.72  60: 11.14  61: 12.49  62: 12.73  63: 11.18  64: 11.01
  65: 11.20  66: 10.99  67: 10.52  68: 10.89  69: 11.87  70: 13.01  71: 11.16  72: 10.61
  73:  9.32  74: 12.74  75: 13.51  76:  9.59  77:  9.05  78:  9.10  79:  9.21  80: 12.28
  81:  9.47  82: 11.50  83:  9.96  84: 13.64  85: 15.77  86: 11.60  87: 13.09  88: 12.76
  89: 13.84  90: 10.64  91: 12.27  92: 10.12  93: 10.77  94:  5.76  95: 10.01  96: 11.96
  97:  9.80  98: 11.48  99: 12.27 100: 11.33 101: 11.33 102: 11.57 103: 10.50 104:  9.16
 105:  9.94 106: 12.13 107: 11.29 108: 11.31 109: 11.17 110: 11.30 111: 11.19 112: 11.30
 113: 11.21 114: 11.12 115: 11.26 116: 11.45 117: 11.92 118: 13.25 119: 12.94 120:  9.28
 121: 10.36 122: 10.00 123: 10.36 124: 10.59 125: 10.72 126: 11.19 127: 12.13 128: 10.96
 129: 12.28 130: 11.31 131: 11.10 132:  6.45 133:  5.50 134:  5.91 135:  4.44 136:  4.84
 137:  6.33 138:  7.47 139:  8.57 140: 12.97 141: 15.54 142:  9.03 143: 11.67 144: 11.76
 145: 12.04 146: 10.42 147: 10.31 148:  3.71 149:  4.48 150:  3.39 151:  3.59 152:  3.76
 153:  3.75 154:  3.82 155:  3.30 156:  3.68 157:  5.76 158: 11.15 159:  9.27 160:  3.98
 161:  6.03 162:  8.28 163:  4.90 164:  4.18 165:  3.18 166:  3.07 167:  3.55 168:  3.77
 169:  3.20 170:  3.49 171:  3.35 172:  3.33 173:  3.39 174:  7.53 175: 11.44 176: 10.82
 177: 11.42 178: 10.63 179:  9.95 180:  7.15 181:  8.33 182:  5.89 183: 10.81 184:  7.21
 185:  5.09 186:  4.64 187: 10.07 188:  4.97 189:  4.14 190: 12.47 191:  7.51 192:  6.93
 193:  6.87 194:  6.93 195:  8.39 196:  7.56 197:  8.55 198: 13.23 199:  6.71 200:  4.85
 201:  4.16 202:  4.17 203:  4.30 204:  9.94 205:  4.19 206:  4.07 207:  6.64 208:  5.36
 209:  6.29 210:  9.93 211:  4.72 212:  3.83 213:  1.53 214:  3.94 215:  2.82 216:  1.36
 217:  1.36 218:  1.46 219:  6.78 220:  2.36 221:  2.65 222:  3.51 223:  4.18 224:  6.48
 225:  3.26 226:  5.29 227:  6.60 228: 12.00 229: 13.39 230:  6.32 231:  8.08 232:  7.91
 233: 10.42 234:  9.93 235:  3.88 236:  3.65 237:  4.17 238:  3.91 239:  8.61 240:  9.94
 241: 10.38 242:  8.87 243: 11.68 244: 11.79 245: 10.95 246: 11.89 247:  9.73 248:  7.78
 249: 10.20 250:  3.18 251:  9.08 252:  2.66 253: 10.26 254:  2.68 255:  3.66 256: 10.53
 257:  3.91 258: 10.90 259: 10.33 260:  9.05 261:  8.91 262:  9.22 263:  9.30 264:  8.90
 265:  9.55 266:  1.75 267:  1.56 268:  1.57 269: 10.52 270:  1.56 271:  6.91 272:  2.98
 273:  1.99 274:  2.33 275:  1.69 276:  6.72 277:  1.85 278:  9.23 279:  9.25 280:  4.27
 281:  2.24 282: 10.70 283: 10.80 284: 11.76 285: 11.72 286: 11.45 287: 11.58 288: 11.42
 289: 11.60 290: 11.53 291: 11.56 292: 11.52 293: 11.49 294: 11.48 295: 11.48 296: 11.41
 297: 11.41 298: 11.55 299: 11.87 300: 12.57 301: 13.23 302: 13.10 303:  2.34 304:  1.77
 305:  1.81 306:  1.93 307:  1.43 308:  1.54 309:  1.66 310:  1.77 311:  1.61 312:  1.90
 313:  1.92 314:  1.73 315:  1.76 316:  1.85 317:  1.76 318:  1.52 319:  1.50 320:  1.65
 321:  1.75 322:  1.80 323:  1.75 324:  1.75 325:  1.78 326:  1.78 327:  1.77 328:  1.80
 329:  1.79 330:  1.81 331:  1.84 332:  1.80 333:  1.80 334:  1.81 335:  1.84 336:  1.84
 337:  1.86 338:  1.86 339:  1.86 340:  1.88 341:  1.88 342:  1.88 343:  1.90 344:  1.90
 345:  1.90 346:  1.87 347:  1.87 348:  1.85 349:  1.86 350:  1.82 351:  1.84
 IR intensities (km·mol⁻¹)
   1:  0.01   2:  0.06   3:  0.02   4:  0.03   5:  0.04   6:  0.04   7:  0.13   8:  0.43
   9:  0.19  10:  1.93  11:  1.45  12:  0.18  13:  2.13  14:  0.59  15:  1.13  16:  0.50
  17:  2.07  18:  0.39  19:  0.24  20:  2.60  21:  0.15  22:  0.33  23:  0.19  24:  1.24
  25:  3.10  26:  2.21  27:  0.52  28:  0.82  29:  2.14  30:  0.78  31:  6.41  32:  1.98
  33:  5.03  34:  5.45  35:  0.82  36:  1.37  37:  3.06  38:  6.04  39:  1.88  40:  1.30
  41:  7.54  42:  1.24  43:  2.84  44:  1.18  45:  2.62  46:  2.64  47:  0.19  48:  4.21
  49:  1.87  50:  0.74  51:  0.14  52:  5.87  53:  2.81  54: 14.03  55:  8.79  56: 27.24
  57:  2.87  58:  1.06  59:  1.62  60:  3.38  61:  5.52  62: 17.60  63: 12.66  64:  4.89
  65:  0.33  66:  2.40  67:  2.36  68:  6.34  69:  9.05  70: 16.29  71:  0.19  72:  8.50
  73: 13.64  74:  9.37  75: 13.08  76:  4.37  77:  1.03  78:  1.62  79:  2.83  80:  0.19
  81:  4.08  82:  0.75  83: 14.85  84: 33.74  85: 76.36  86: 10.78  87: 19.88  88:  8.06
  89: 36.52  90: 10.47  91: 31.51  92:  9.63  93:  8.63  94: 92.40  95:  5.06  96: 21.69
  97: 15.85  98: 15.70  99: 25.36 100: 12.94 101:  1.16 102: 14.29 103:  3.69 104:  2.34
 105:  3.67 106: 28.36 107:  5.36 108:  7.61 109:  0.23 110:  0.80 111:  0.63 112:  8.10
 113:  6.88 114: 15.12 115:  0.14 116: 10.62 117:  8.85 118: 19.39 119: 24.96 120:  3.50
 121:  1.08 122:  4.32 123:  7.62 124: 47.81 125: 67.48 126: 12.80 127: 10.09 128: 64.45
 129: 11.17 130:  8.82 131: 19.40 132:  4.06 133: 24.14 134:153.76 135: 12.19 136:  9.00
 137: 86.37 138:109.04 139: 34.86 140:  6.89 141:186.60 142: 36.59 143: 13.66 144:112.51
 145: 66.92 146:  1.80 147: 50.70 148:  9.34 149:  1.43 150:  3.88 151:  3.21 152:  5.80
 153:  4.53 154:  4.43 155:  1.85 156:  0.15 157: 64.91 158:243.40 159:151.12 160:  7.24
 161:  1.97 162:  3.81 163:  3.73 164:  2.07 165:  0.59 166:  0.01 167:  2.49 168:  2.01
 169:  0.30 170:  1.72 171:  1.15 172:  0.97 173:  3.36 174: 13.35 175: 38.50 176:  4.08
 177: 18.76 178:105.74 179:  6.77 180: 37.53 181:  7.39 182:  8.17 183: 48.07 184:  5.65
 185: 57.85 186: 34.75 187:  7.40 188: 35.83 189:203.75 190:230.43 191:  2.15 192:  0.93
 193:  0.76 194:  1.37 195:  2.27 196:  6.59 197: 37.61 198:211.06 199: 27.34 200: 53.62
 201:  0.75 202:  5.15 203:  0.59 204:294.71 205:  3.07 206: 14.40 207: 18.03 208:  5.57
 209: 23.11 210: 85.85 211:  7.26 212:130.59 213:  3.99 214: 27.41 215: 27.81 216:  1.60
 217:  0.65 218:  0.87 219: 35.28 220: 12.18 221: 17.76 222: 68.97 223: 24.70 224:133.26
 225:  2.94 226:162.65 227:271.78 228:237.86 229: 90.08 230:  6.17 231:  1.61 232:145.85
 233:136.92 234:  2.82 235: 13.71 236:  0.03 237:  4.09 238:  0.19 239:  2.62 240: 21.94
 241:112.47 242:  2.13 243:  2.06 244:  0.04 245:  0.42 246:  0.45 247:  8.45 248: 15.92
 249: 15.08 250: 45.79 251: 19.25 252: 38.05 253:  6.12 254: 28.22 255:104.83 256: 26.44
 257: 88.22 258: 95.40 259:195.24 260:278.68 261:  7.10 262:  0.82 263:  1.03 264:  2.39
 265:  2.52 266:  1.22 267:  5.09 268:  5.36 269: 37.12 270:  4.40 271: 24.32 272: 23.85
 273:  3.08 274:  2.38 275:  3.90 276:  1.13 277:  1.66 278:  4.98 279: 11.46 280:  9.69
 281:  4.79 282:  2.55 283:  0.44 284:  2.53 285:  0.23 286:  1.56 287: 13.24 288:  8.69
 289:  7.36 290:  2.77 291:  2.49 292: 67.84 293:  3.98 294:  1.54 295:  0.79 296:  0.35
 297:  0.77 298:337.86 299:395.60 300:360.62 301:379.09 302:379.93 303:****** 304: 63.18
 305: 39.94 306: 21.94 307: 34.27 308: 20.92 309:  4.84 310:  0.59 311: 31.55 312: 12.02
 313:  2.03 314: 33.60 315: 15.26 316: 13.41 317: 14.02 318: 14.32 319:  2.77 320:  4.41
 321:  5.38 322: 41.04 323:  5.12 324:  5.52 325:  6.37 326:  2.38 327:  8.47 328: 42.57
 329: 18.67 330:  8.27 331: 64.90 332: 23.36 333: 28.47 334: 32.57 335:115.18 336: 32.79
 337:125.25 338:105.14 339:170.97 340:105.67 341: 38.49 342: 54.30 343: 90.45 344:  8.04
 345: 83.31 346: 37.30 347: 31.68 348: 38.05 349: 23.25 350:  4.52 351: 52.09
 Raman intensities (Ä⁴*amu⁻¹)
   1:  0.00   2:  0.00   3:  0.00   4:  0.00   5:  0.00   6:  0.00   7:  0.00   8:  0.00
   9:  0.00  10:  0.00  11:  0.00  12:  0.00  13:  0.00  14:  0.00  15:  0.00  16:  0.00
  17:  0.00  18:  0.00  19:  0.00  20:  0.00  21:  0.00  22:  0.00  23:  0.00  24:  0.00
  25:  0.00  26:  0.00  27:  0.00  28:  0.00  29:  0.00  30:  0.00  31:  0.00  32:  0.00
  33:  0.00  34:  0.00  35:  0.00  36:  0.00  37:  0.00  38:  0.00  39:  0.00  40:  0.00
  41:  0.00  42:  0.00  43:  0.00  44:  0.00  45:  0.00  46:  0.00  47:  0.00  48:  0.00
  49:  0.00  50:  0.00  51:  0.00  52:  0.00  53:  0.00  54:  0.00  55:  0.00  56:  0.00
  57:  0.00  58:  0.00  59:  0.00  60:  0.00  61:  0.00  62:  0.00  63:  0.00  64:  0.00
  65:  0.00  66:  0.00  67:  0.00  68:  0.00  69:  0.00  70:  0.00  71:  0.00  72:  0.00
  73:  0.00  74:  0.00  75:  0.00  76:  0.00  77:  0.00  78:  0.00  79:  0.00  80:  0.00
  81:  0.00  82:  0.00  83:  0.00  84:  0.00  85:  0.00  86:  0.00  87:  0.00  88:  0.00
Refinement of some symmetry elements was terminated before convergence was reached.
Some symmetry elements may remain unidentified.
Molecule has no symmetry elements
It seems to be the C1 point group
  89:  0.00  90:  0.00  91:  0.00  92:  0.00  93:  0.00  94:  0.00  95:  0.00  96:  0.00
  97:  0.00  98:  0.00  99:  0.00 100:  0.00 101:  0.00 102:  0.00 103:  0.00 104:  0.00
 105:  0.00 106:  0.00 107:  0.00 108:  0.00 109:  0.00 110:  0.00 111:  0.00 112:  0.00
 113:  0.00 114:  0.00 115:  0.00 116:  0.00 117:  0.00 118:  0.00 119:  0.00 120:  0.00
 121:  0.00 122:  0.00 123:  0.00 124:  0.00 125:  0.00 126:  0.00 127:  0.00 128:  0.00
 129:  0.00 130:  0.00 131:  0.00 132:  0.00 133:  0.00 134:  0.00 135:  0.00 136:  0.00
 137:  0.00 138:  0.00 139:  0.00 140:  0.00 141:  0.00 142:  0.00 143:  0.00 144:  0.00
 145:  0.00 146:  0.00 147:  0.00 148:  0.00 149:  0.00 150:  0.00 151:  0.00 152:  0.00
 153:  0.00 154:  0.00 155:  0.00 156:  0.00 157:  0.00 158:  0.00 159:  0.00 160:  0.00
 161:  0.00 162:  0.00 163:  0.00 164:  0.00 165:  0.00 166:  0.00 167:  0.00 168:  0.00
 169:  0.00 170:  0.00 171:  0.00 172:  0.00 173:  0.00 174:  0.00 175:  0.00 176:  0.00
 177:  0.00 178:  0.00 179:  0.00 180:  0.00 181:  0.00 182:  0.00 183:  0.00 184:  0.00
 185:  0.00 186:  0.00 187:  0.00 188:  0.00 189:  0.00 190:  0.00 191:  0.00 192:  0.00
 193:  0.00 194:  0.00 195:  0.00 196:  0.00 197:  0.00 198:  0.00 199:  0.00 200:  0.00
 201:  0.00 202:  0.00 203:  0.00 204:  0.00 205:  0.00 206:  0.00 207:  0.00 208:  0.00
 209:  0.00 210:  0.00 211:  0.00 212:  0.00 213:  0.00 214:  0.00 215:  0.00 216:  0.00
 217:  0.00 218:  0.00 219:  0.00 220:  0.00 221:  0.00 222:  0.00 223:  0.00 224:  0.00
 225:  0.00 226:  0.00 227:  0.00 228:  0.00 229:  0.00 230:  0.00 231:  0.00 232:  0.00
 233:  0.00 234:  0.00 235:  0.00 236:  0.00 237:  0.00 238:  0.00 239:  0.00 240:  0.00
 241:  0.00 242:  0.00 243:  0.00 244:  0.00 245:  0.00 246:  0.00 247:  0.00 248:  0.00
 249:  0.00 250:  0.00 251:  0.00 252:  0.00 253:  0.00 254:  0.00 255:  0.00 256:  0.00
 257:  0.00 258:  0.00 259:  0.00 260:  0.00 261:  0.00 262:  0.00 263:  0.00 264:  0.00
 265:  0.00 266:  0.00 267:  0.00 268:  0.00 269:  0.00 270:  0.00 271:  0.00 272:  0.00
 273:  0.00 274:  0.00 275:  0.00 276:  0.00 277:  0.00 278:  0.00 279:  0.00 280:  0.00
 281:  0.00 282:  0.00 283:  0.00 284:  0.00 285:  0.00 286:  0.00 287:  0.00 288:  0.00
 289:  0.00 290:  0.00 291:  0.00 292:  0.00 293:  0.00 294:  0.00 295:  0.00 296:  0.00
 297:  0.00 298:  0.00 299:  0.00 300:  0.00 301:  0.00 302:  0.00 303:  0.00 304:  0.00
 305:  0.00 306:  0.00 307:  0.00 308:  0.00 309:  0.00 310:  0.00 311:  0.00 312:  0.00
 313:  0.00 314:  0.00 315:  0.00 316:  0.00 317:  0.00 318:  0.00 319:  0.00 320:  0.00
 321:  0.00 322:  0.00 323:  0.00 324:  0.00 325:  0.00 326:  0.00 327:  0.00 328:  0.00
 329:  0.00 330:  0.00 331:  0.00 332:  0.00 333:  0.00 334:  0.00 335:  0.00 336:  0.00
 337:  0.00 338:  0.00 339:  0.00 340:  0.00 341:  0.00 342:  0.00 343:  0.00 344:  0.00
 345:  0.00 346:  0.00 347:  0.00 348:  0.00 349:  0.00 350:  0.00 351:  0.00
 output can be read by thermo (or use thermo option).
 writing <g98.out> molden fake output.
 recommended (thermochemical) frequency scaling factor: 1.0
           -------------------------------------------------
          |             Thermodynamic Functions             |
           -------------------------------------------------

c1  symmetry found (for desy threshold:  0.10E+00) used in thermo

          ...................................................
          :                      SETUP                      :
          :.................................................:
          :  # frequencies                         345      :
          :  # imaginary freq.                       0      :
          :  linear?                             false      :
          :  only rotor calc.                    false      :
          :  symmetry                               c1      :
          :  rotational number                       1      :
          :  scaling factor                  1.0000000      :
          :  rotor cutoff                   50.0000000 cm⁻¹ :
          :  imag. cutoff                  -20.0000000 cm⁻¹ :
          :.................................................:

    mode    ω/cm⁻¹     T·S(HO)/kcal·mol⁻¹    T·S(FR)/kcal·mol⁻¹   T·S(vib)
   ------------------------------------------------------------------------
       1      6.27    -2.66457 (  0.02%)    -1.67134 ( 99.98%)    -1.67158
       2     12.87    -2.23918 (  0.44%)    -1.45863 ( 99.56%)    -1.46204
       3     16.95    -2.07605 (  1.30%)    -1.37704 ( 98.70%)    -1.38615
       4     18.07    -2.03801 (  1.68%)    -1.35801 ( 98.32%)    -1.36942
       5     23.03    -1.89449 (  4.31%)    -1.28620 ( 95.69%)    -1.31239
       6     25.59    -1.83202 (  6.42%)    -1.25492 ( 93.58%)    -1.29200
       7     28.69    -1.76441 (  9.78%)    -1.22108 ( 90.22%)    -1.27423
       8     33.93    -1.66517 ( 17.50%)    -1.17136 ( 82.50%)    -1.25780
       9     42.59    -1.53101 ( 34.48%)    -1.10409 ( 65.52%)    -1.25129
      10     43.64    -1.51655 ( 36.72%)    -1.09684 ( 63.28%)    -1.25097
      11     46.28    -1.48195 ( 42.32%)    -1.07947 ( 57.68%)    -1.24981
      12     48.84    -1.45009 ( 47.66%)    -1.06347 ( 52.34%)    -1.24775
      13     52.34    -1.40939 ( 54.55%)    -1.04302 ( 45.45%)    -1.24289
      14     54.06    -1.39026 ( 57.75%)    -1.03340 ( 42.25%)    -1.23948
      15     62.84    -1.30172 ( 71.39%)    -0.98884 ( 28.61%)    -1.21219
      16     63.88    -1.29206 ( 72.71%)    -0.98397 ( 27.29%)    -1.20798
      17     68.61    -1.25012 ( 78.00%)    -0.96282 ( 22.00%)    -1.18691
      18     70.57    -1.23355 ( 79.87%)    -0.95446 ( 20.13%)    -1.17738
      19     73.27    -1.21153 ( 82.18%)    -0.94334 ( 17.82%)    -1.16374
      20     78.49    -1.17119 ( 85.86%)    -0.92294 ( 14.14%)    -1.13610
      21     80.16    -1.15887 ( 86.85%)    -0.91671 ( 13.15%)    -1.12704
      22     81.56    -1.14879 ( 87.62%)    -0.91160 ( 12.38%)    -1.11943
      23     85.46    -1.12147 ( 89.51%)    -0.89776 ( 10.49%)    -1.09801
      24     86.30    -1.11573 ( 89.87%)    -0.89485 ( 10.13%)    -1.09337
      25     88.94    -1.09816 ( 90.92%)    -0.88593 (  9.08%)    -1.07889
      26     96.22    -1.05233 ( 93.20%)    -0.86263 (  6.80%)    -1.03944
      27     98.40    -1.03929 ( 93.75%)    -0.85599 (  6.25%)    -1.02783
      28    101.72    -1.02002 ( 94.48%)    -0.84617 (  5.52%)    -1.01043
      29    103.26    -1.01125 ( 94.79%)    -0.84169 (  5.21%)    -1.00242
      30    107.41    -0.98842 ( 95.52%)    -0.83003 (  4.48%)    -0.98132
      31    114.44    -0.95175 ( 96.48%)    -0.81125 (  3.52%)    -0.94681
      32    122.35    -0.91319 ( 97.29%)    -0.79144 (  2.71%)    -0.90988
      33    131.12    -0.87342 ( 97.93%)    -0.77093 (  2.07%)    -0.87130
      34    139.64    -0.83746 ( 98.38%)    -0.75230 (  1.62%)    -0.83608
      35    141.55    -0.82969 ( 98.47%)    -0.74827 (  1.53%)    -0.82844
      36    144.68    -0.81724 ( 98.59%)    -0.74179 (  1.41%)    -0.81618
      37    148.28    -0.80329 ( 98.72%)    -0.73452 (  1.28%)    -0.80241
      38    149.82    -0.79742 ( 98.77%)    -0.73146 (  1.23%)    -0.79661
      39    150.11    -0.79629 ( 98.78%)    -0.73087 (  1.22%)    -0.79550
      40    165.98    -0.73955 ( 99.18%)    -0.70110 (  0.82%)    -0.73924
      41    171.32    -0.72179 ( 99.28%)    -0.69172 (  0.72%)    -0.72158
      42    177.72    -0.70132 ( 99.38%)    -0.68086 (  0.62%)    -0.70119
      43    178.52    -0.69881 ( 99.39%)    -0.67952 (  0.61%)    -0.69869
      44    182.06    -0.68787 ( 99.43%)    -0.67370 (  0.57%)    -0.68779
      45    184.32    -0.68103 ( 99.46%)    -0.67005 (  0.54%)    -0.68097
      46    189.36    -0.66608 ( 99.52%)    -0.66206 (  0.48%)    -0.66606
      47    210.65    -0.60764 ( 99.68%)    -0.63050 (  0.32%)    -0.60771
      48    212.87    -0.60194 ( 99.70%)    -0.62740 (  0.30%)    -0.60202
      49    227.22    -0.56673 ( 99.77%)    -0.60807 (  0.23%)    -0.56683
      50    236.33    -0.54572 ( 99.80%)    -0.59643 (  0.20%)    -0.54582
      51    244.04    -0.52870 ( 99.82%)    -0.58692 (  0.18%)    -0.52880
Note: The following floating-point exceptions are signalling: IEEE_DIVIDE_BY_ZERO IEEE_UNDERFLOW_FLAG IEEE_DENORMAL
normal termination of xtb
      52    251.31    -0.51323 ( 99.84%)    -0.57822 (  0.16%)    -0.51333
      53    267.81    -0.48010 ( 99.88%)    -0.55937 (  0.12%)    -0.48020
      54    270.38    -0.47519 ( 99.88%)    -0.55655 (  0.12%)    -0.47529
      55    277.13    -0.46252 ( 99.89%)    -0.54924 (  0.11%)    -0.46262
      56    288.56    -0.44198 ( 99.91%)    -0.53728 (  0.09%)    -0.44206
      57    289.93    -0.43959 ( 99.91%)    -0.53587 (  0.09%)    -0.43968
      58    296.39    -0.42851 ( 99.92%)    -0.52934 (  0.08%)    -0.42859
   ------------------------------------------------------------------------

   temp. (K)  partition function   enthalpy   heat capacity  entropy
                                   cal/mol     cal/K/mol   cal/K/mol   J/K/mol
 298.15  VIB  0.223E+31            37951.465    225.635    242.640
         ROT  0.132E+09              888.752      2.981     40.143
         INT  0.295E+39            38840.217    228.616    282.783
         TR   0.270E+29             1481.254      4.968     46.315
         TOT                       40321.4712   233.5839   329.0980  1376.9458

       T/K    H(0)-H(T)+PV         H(T)/Eh          T*S/Eh         G(T)/Eh
   ------------------------------------------------------------------------
    298.15    0.642564E-01    0.963407E+00    0.156365E+00    0.807042E+00
   ------------------------------------------------------------------------

         :::::::::::::::::::::::::::::::::::::::::::::::::::::
         ::                  THERMODYNAMIC                  ::
         :::::::::::::::::::::::::::::::::::::::::::::::::::::
         :: total free energy        -187.436852025200 Eh   ::
         ::.................................................::
         :: total energy             -188.243893936403 Eh   ::
         :: zero point energy           0.899150613159 Eh   ::
         :: G(RRHO) w/o ZPVE           -0.092108701956 Eh   ::
         :: G(RRHO) contrib.            0.807041911203 Eh   ::
         :::::::::::::::::::::::::::::::::::::::::::::::::::::

           -------------------------------------------------
          | TOTAL ENERGY             -188.243893936403 Eh   |
          | TOTAL ENTHALPY           -187.280486968751 Eh   |
          | TOTAL FREE ENERGY        -187.436852025200 Eh   |
          | GRADIENT NORM               0.000050344215 Eh/α |
          | HOMO-LUMO GAP               1.998252234892 eV   |
           -------------------------------------------------

------------------------------------------------------------------------
 * finished run on 2026/09/10 at 23:22:29.425     
------------------------------------------------------------------------
 total:
 * wall-time:     0 d,  0 h,  5 min, 39.297 sec
 *  cpu-time:     0 d,  0 h,  0 min, 52.875 sec
 * ratio c/w:     0.156 speedup
 SCF:
 * wall-time:     0 d,  0 h,  0 min,  0.319 sec
 *  cpu-time:     0 d,  0 h,  0 min,  0.016 sec
 * ratio c/w:     0.049 speedup
 analytical hessian:
 * wall-time:     0 d,  0 h,  5 min, 38.727 sec
 *  cpu-time:     0 d,  0 h,  0 min, 52.812 sec
 * ratio c/w:     0.156 speedup

