      -----------------------------------------------------------      
     |                   =====================                   |     
     |                           x T B                           |     
     |                   =====================                   |     
     |                         S. Grimme                         |     
     |          Mulliken Center for Theoretical Chemistry        |     
     |                    University of Bonn                     |     
      -----------------------------------------------------------      

   * xtb version 6.7.1 (edcfbbe) compiled by 'VssAdministrator@runnervm171ch' on 2026-06-10

   xtb is free software: you can redistribute it and/or modify it under
   the terms of the GNU Lesser General Public License as published by
   the Free Software Foundation, either version 3 of the License, or
   (at your option) any later version.
   
   xtb is distributed in the hope that it will be useful,
   but WITHOUT ANY WARRANTY; without even the implied warranty of
   MERCHANTABILITY or FITNESS FOR A PARTICULAR PURPOSE.  See the
   GNU Lesser General Public License for more details.
   
   Cite this work as:
   * C. Bannwarth, E. Caldeweyher, S. Ehlert, A. Hansen, P. Pracht,
     J. Seibert, S. Spicher, S. Grimme, WIREs Comput. Mol. Sci., 2020, 11,
     e01493. DOI: 10.1002/wcms.1493
   
   for GFN2-xTB:
   * C. Bannwarth, S. Ehlert and S. Grimme., J. Chem. Theory Comput., 2019,
     15, 1652-1671. DOI: 10.1021/acs.jctc.8b01176
   for GFN1-xTB:
   * S. Grimme, C. Bannwarth, P. Shushkov, J. Chem. Theory Comput., 2017,
     13, 1989-2009. DOI: 10.1021/acs.jctc.7b00118
   for GFN0-xTB:
   * P. Pracht, E. Caldeweyher, S. Ehlert, S. Grimme, ChemRxiv, 2019, preprint.
     DOI: 10.26434/chemrxiv.8326202.v1
   for GFN-FF:
   * S. Spicher and S. Grimme, Angew. Chem. Int. Ed., 2020, 59, 15665-15673.
     DOI: 10.1002/anie.202004239
   
   for ALPB and GBSA implicit solvation:
   * S. Ehlert, M. Stahn, S. Spicher, S. Grimme, J. Chem. Theory Comput.,
     2021, 17, 4250-4261. DOI: 10.1021/acs.jctc.1c00471
   
   for ddCOSMO and CPCM-X implicit solvation:
   * M. Stahn, S. Ehlert, S. Grimme, J. Phys. Chem. A,
     2023, XX, XXXX-XXXX. DOI: 10.1021/acs.jpca.3c04382
   
   for DFT-D4:
   * E. Caldeweyher, C. Bannwarth and S. Grimme, J. Chem. Phys., 2017,
     147, 034112. DOI: 10.1063/1.4993215
   * E. Caldeweyher, S. Ehlert, A. Hansen, H. Neugebauer, S. Spicher,
     C. Bannwarth and S. Grimme, J. Chem. Phys., 2019, 150, 154122.
     DOI: 10.1063/1.5090222
   * E. Caldeweyher, J.-M. Mewes, S. Ehlert and S. Grimme, Phys. Chem. Chem. Phys.
     2020, 22, 8499-8512. DOI: 10.1039/D0CP00502A
   
   for sTDA-xTB:
   * S. Grimme and C. Bannwarth, J. Chem. Phys., 2016, 145, 054103.
     DOI: 10.1063/1.4959605
   
   in the mass-spec context:
   * V. Asgeirsson, C. Bauer and S. Grimme, Chem. Sci., 2017, 8, 4879.
     DOI: 10.1039/c7sc00601b
   * J. Koopman and S. Grimme, ACS Omega 2019, 4, 12, 15120-15133.
     DOI: 10.1021/acsomega.9b02011
   
   for metadynamics refer to:
   * S. Grimme, J. Chem. Theory Comput., 2019, 155, 2847-2862
     DOI: 10.1021/acs.jctc.9b00143
   
   for SPH calculations refer to:
   * S. Spicher and S. Grimme, J. Chem. Theory Comput., 2021, 17, 1701-1714
     DOI: 10.1021/acs.jctc.0c01306
   
   for ONIOM refer to:
   * C. Plett, A. Katbashev, S. Ehlert, S. Grimme, M. Bursch,
     Phys. Chem. Chem. Phys., 2023, 25, 17860-17868. DOI: 10.1039/D3CP02178E
   
   for DIPRO refer to:
   * J. Kohn, N. Gildemeister, S. Grimme, D. Fazzi, A. Hansen,
     J. Chem. Phys., 2023, just accepted.
   
   for PTB refer to:
   * S. Grimme, M. Mueller, A. Hansen, J. Chem. Phys., 2023, 158, 124111.
     DOI: 10.1063/5.0137838
   
   with help from (in alphabetical order)
   P. Atkinson, C. Bannwarth, F. Bohle, G. Brandenburg, E. Caldeweyher
   M. Checinski, S. Dohm, S. Ehlert, S. Ehrlich, I. Gerasimov, C. Hölzer
   A. Katbashev, J. Kohn, J. Koopman, C. Lavigne, S. Lehtola, F. März, M. Müller,
   F. Musil, H. Neugebauer, J. Pisarek, C. Plett, P. Pracht, F. Pultar,
   J. Seibert, P. Shushkov, S. Spicher, M. Stahn, M. Steiner, T. Strunk,
   J. Stückrath, T. Rose, and J. Unsleber
   
 * started run on 2026/09/10 at 23:14:36.750     
   ID    Z sym.   atoms
    1    8 O      1, 3, 4, 17, 88, 90, 99, 100
    2   15 P      2
    3    6 C      5-16, 18-37, 59, 60, 62-73, 87, 89, 91-93, 95-98, 101, 102
    4    1 H      38-58, 74-86, 103-117
    5    7 N      61, 94

           -------------------------------------------------
          |                Calculation Setup                |
           -------------------------------------------------

          program call               : C:\Users\HUIWEI\miniconda3\envs\phase2ff\Library\bin\xtb.exe input.xyz --gfn 2 --chrg 0 --uhf 0 --alpb toluene --acc 0.2 --opt vtight
          coordinate file            : input.xyz
          omp threads                :                     1


           -------------------------------------------------
          |                 G F N 2 - x T B                 |
           -------------------------------------------------

        Reference                      10.1021/acs.jctc.8b01176
      * Hamiltonian:
        H0-scaling (s, p, d)           1.850000    2.230000    2.230000
        zeta-weighting                 0.500000
      * Dispersion:
        s8                             2.700000
        a1                             0.520000
        a2                             5.000000
        s9                             5.000000
      * Repulsion:
        kExp                           1.500000    1.000000
        rExp                           1.000000
      * Coulomb:
        alpha                          2.000000
        third order                    shell-resolved
        anisotropic                    true
        a3                             3.000000
        a5                             4.000000
        cn-shift                       1.200000
        cn-exp                         4.000000
        max-rad                        5.000000

      * Solvation model:               ALPB
        Solvent                        toluene
        Parameter file                 internal GFN2-xTB/ALPB
        Dielectric constant                7.0000E+00
        Reference state                gsolv [1 M gas/solution]
        Free energy shift                  2.2081E-03 Eh       1.3856E+00 kcal/mol
        Temperature                        2.9815E+02 K
        Density                            8.6700E-01 kg/L
        Solvent mass                       7.8110E+01 g/mol
        Interaction kernel             P16
        Born radius scaling (c1)           1.7172E+00
        Born radii integrator          GBOBC
        Born offset                        0.0000E+00 a0       0.0000E+00 AA
        H-bond correction              false
        Ion screening                  false
        Surface tension                    1.0000E-05 Eh       1.5569E+01 dyn/cm
        Grid points                               230 per atom

          ...................................................
          :                      SETUP                      :
          :.................................................:
          :  # basis functions                 327          :
          :  # atomic orbitals                 326          :
          :  # shells                          186          :
          :  # electrons                       340          :
          :  max. iterations                   250          :
          :  Hamiltonian                  GFN2-xTB          :
          :  restarted?                      false          :
          :  GBSA solvation                   true          :
          :  PC potential                    false          :
          :  electronic temp.          300.0000000     K    :
          :  accuracy                    0.2000000          :
          :  -> integral cutoff          0.3198970E+02      :
          :  -> integral neglect         0.2000000E-08      :
          :  -> SCF convergence          0.2000000E-06 Eh   :
          :  -> wf. convergence          0.2000000E-04 e    :
          :  Broyden damping             0.4000000          :
          :  net charge                          0          :
          :  unpaired electrons                  0          :
          ...................................................

 iter      E             dE          RMSdq      gap      omega  full diag
   1   -190.2399222 -0.190240E+03  0.483E+00    1.72       0.0  T
   2   -190.4724423 -0.232520E+00  0.286E+00    1.61       1.0  T
   3   -190.4065188  0.659235E-01  0.145E+00    1.71       1.0  T
   4   -190.5226916 -0.116173E+00  0.523E-01    1.39       1.0  T
   5   -190.5388108 -0.161192E-01  0.222E-01    1.46       1.0  T
   6   -190.5406334 -0.182256E-02  0.123E-01    1.51       1.0  T
   7   -190.5419706 -0.133728E-02  0.579E-02    1.49       1.0  T
   8   -190.5421163 -0.145622E-03  0.333E-02    1.50       1.0  T
   9   -190.5421594 -0.431877E-04  0.142E-02    1.49       1.0  T
  10   -190.5421678 -0.832061E-05  0.646E-03    1.49       1.4  T
  11   -190.5421696 -0.179857E-05  0.312E-03    1.49       3.0  T
  12   -190.5421699 -0.294019E-06  0.163E-03    1.49       5.7  T
  13   -190.5421701 -0.212556E-06  0.500E-04    1.49      18.5  T
  14   -190.5421701 -0.100030E-07  0.246E-04    1.49      37.5  T
  15   -190.5421701 -0.393598E-08  0.106E-04    1.49      87.5  T
  16   -190.5421701 -0.440394E-09  0.448E-05    1.49     206.3  T

   *** convergence criteria satisfied after 16 iterations ***

         #    Occupation            Energy/Eh            Energy/eV
      -------------------------------------------------------------
         1        2.0000           -0.7647020             -20.8086
       ...           ...                  ...                  ...
       164        2.0000           -0.3783720             -10.2960
       165        2.0000           -0.3773845             -10.2692
       166        2.0000           -0.3679226             -10.0117
       167        2.0000           -0.3657910              -9.9537
       168        2.0000           -0.3609923              -9.8231
       169        2.0000           -0.3492016              -9.5023
       170        2.0000           -0.3406270              -9.2689 (HOMO)
       171                         -0.2857592              -7.7759 (LUMO)
       172                         -0.2685491              -7.3076
       173                         -0.2655529              -7.2261
       174                         -0.2599469              -7.0735
       175                         -0.2456301              -6.6839
       ...                                ...                  ...
       326                          1.3697228              37.2721
      -------------------------------------------------------------
                  HL-Gap            0.0548678 Eh            1.4930 eV
             Fermi-level           -0.3131931 Eh           -8.5224 eV

 SCC (total)                   0 d,  0 h,  0 min,  0.569 sec
 SCC setup                      ...        0 min,  0.006 sec (  1.043%)
 Dispersion                     ...        0 min,  0.004 sec (  0.680%)
 classical contributions        ...        0 min,  0.001 sec (  0.154%)
 integral evaluation            ...        0 min,  0.053 sec (  9.277%)
 iterations                     ...        0 min,  0.316 sec ( 55.483%)
 molecular gradient             ...        0 min,  0.187 sec ( 32.932%)
 printout                       ...        0 min,  0.002 sec (  0.427%)

         :::::::::::::::::::::::::::::::::::::::::::::::::::::
         ::                     SUMMARY                     ::
         :::::::::::::::::::::::::::::::::::::::::::::::::::::
         :: total energy            -187.703800002221 Eh    ::
         :: total w/o Gsasa/hb      -187.629888953517 Eh    ::
         :: gradient norm              0.501420802745 Eh/a0 ::
         :: HOMO-LUMO gap              1.493027776481 eV    ::
         ::.................................................::
         :: SCC energy              -190.532229048280 Eh    ::
         :: -> isotropic ES            0.245333049541 Eh    ::
         :: -> anisotropic ES          0.005446918239 Eh    ::
         :: -> anisotropic XC          0.093603967270 Eh    ::
         :: -> dispersion             -0.188078913457 Eh    ::
         :: -> Gsolv                  -0.085664539543 Eh    ::
         ::    -> Gelec               -0.011753490840 Eh    ::
         ::    -> Gsasa               -0.076119191842 Eh    ::
         ::    -> Ghb                  0.000000000000 Eh    ::
         ::    -> Gshift               0.002208143139 Eh    ::
         :: repulsion energy           2.828429046060 Eh    ::
         :: add. restraining           0.000000000000 Eh    ::
         :: total charge              -0.000000000000 e     ::
         :::::::::::::::::::::::::::::::::::::::::::::::::::::

      ----------------------------------------------------------- 
     |                   =====================                   |
     |                        A N C O P T                        |
     |                   =====================                   |
     |               Approximate Normal Coordinate               |
     |                Rational Function Optimizer                |
      ----------------------------------------------------------- 
      ----------------------------------------------------------- 
     |                   =====================                   |
     |                        A N C O P T                        |
     |                   =====================                   |
     |               Approximate Normal Coordinate               |
     |                Rational Function Optimizer                |
      ----------------------------------------------------------- 

          ...................................................
          :                      SETUP                      :
          :.................................................:
          :   optimization level         verytight          :
          :   max. optcycles                  2340          :
          :   ANC micro-cycles                  20          :
          :   degrees of freedom               345          :
          :.................................................:
          :   RF solver                   davidson          :
          :   write xtbopt.log                true          :
          :   linear?                        false          :
          :   energy convergence         0.1000000E-06 Eh   :
          :   grad. convergence          0.2000000E-03 Eh/α :
          :   maxmium RF displ.          1.0000000          :
          :   Hlow (freq-cutoff)         0.1000000E-01      :
          :   Hmax (freq-cutoff)         5.0000000          :
          :   S6 in model hess.         20.0000000          :
          ...................................................

generating ANC from exact Hessian ...
Using Lindh-Hessian (1995)
 Shifting diagonal of input Hessian by    9.8951785630006991E-003
 Lowest  eigenvalues of input Hessian
    0.000000    0.000000    0.000000    0.000000    0.000000    0.000000
    0.010000    0.010040    0.010230    0.010252    0.010269    0.010381
    0.010448    0.010595    0.010712    0.010889    0.011097    0.011211
 Highest eigenvalues
    2.076056    2.169895    2.301482    2.303530    2.304240    2.910385


........................................................................
.............................. CYCLE    1 ..............................
........................................................................

 iter      E             dE          RMSdq      gap      omega  full diag
   1   -190.5421701 -0.190542E+03  0.199E-05    1.49       0.0  T
   2   -190.5421701 -0.528644E-11  0.136E-05    1.49     678.3  T
   3   -190.5421701 -0.790124E-11  0.879E-06    1.49    1051.3  T
     SCC iter.                  ...        0 min,  0.053 sec
     gradient                   ...        0 min,  0.186 sec
 * total energy  :  -187.7038000 Eh     change       -0.1224691E-09 Eh
   gradient norm :     0.5014210 Eh/α   predicted     0.0000000E+00 (-100.00%)
   displ. norm   :     0.6372787 α      lambda       -0.2773113E+00
   maximum displ.:     0.1445751 α      in ANC's #245, #248, #243, ...

........................................................................
.............................. CYCLE    2 ..............................
........................................................................

 iter      E             dE          RMSdq      gap      omega  full diag
   1   -190.8224469 -0.190822E+03  0.401E-01    1.67       0.0  T
   2   -190.8255846 -0.313772E-02  0.243E-01    1.70       1.0  T
   3   -190.8254184  0.166220E-03  0.136E-01    1.69       1.0  T
   4   -190.8265217 -0.110330E-02  0.588E-02    1.70       1.0  T
   5   -190.8266221 -0.100393E-03  0.289E-02    1.70       1.0  T
   6   -190.8267067 -0.846183E-04  0.108E-02    1.70       1.0  T
   7   -190.8267132 -0.653653E-05  0.429E-03    1.70       2.2  T
   8   -190.8267141 -0.885979E-06  0.220E-03    1.70       4.2  T
   9   -190.8267143 -0.208244E-06  0.109E-03    1.70       8.4  T
  10   -190.8267144 -0.675051E-07  0.510E-04    1.70      18.1  T
  11   -190.8267144 -0.134509E-07  0.233E-04    1.70      39.6  T
  12   -190.8267144 -0.204872E-08  0.102E-04    1.70      91.1  T
  13   -190.8267144 -0.494254E-09  0.467E-05    1.70     198.1  T
     SCC iter.                  ...        0 min,  0.250 sec
     gradient                   ...        0 min,  0.187 sec
 * total energy  :  -187.9123523 Eh     change       -0.2085523E+00 Eh
   gradient norm :     0.2507966 Eh/α   predicted    -0.1950004E+00 (  -6.50%)
   displ. norm   :     0.6058470 α      lambda       -0.1297377E+00
   maximum displ.:     0.1303091 α      in ANC's #78, #245, #202, ...

........................................................................
.............................. CYCLE    3 ..............................
........................................................................

 iter      E             dE          RMSdq      gap      omega  full diag
   1   -190.9926880 -0.190993E+03  0.262E-01    1.84       0.0  T
   2   -190.9938324 -0.114437E-02  0.152E-01    1.88       1.0  T
   3   -190.9937147  0.117662E-03  0.860E-02    1.88       1.0  T
   4   -190.9941403 -0.425562E-03  0.345E-02    1.89       1.0  T
   5   -190.9941789 -0.386192E-04  0.162E-02    1.89       1.0  T
   6   -190.9942023 -0.234081E-04  0.640E-03    1.89       1.4  T
   7   -190.9942049 -0.258023E-05  0.225E-03    1.89       4.1  T
   8   -190.9942050 -0.150825E-06  0.124E-03    1.89       7.5  T
   9   -190.9942051 -0.565890E-07  0.626E-04    1.89      14.8  T
  10   -190.9942051 -0.191058E-07  0.302E-04    1.89      30.7  T
  11   -190.9942051 -0.524111E-08  0.141E-04    1.89      65.6  T
  12   -190.9942051 -0.778897E-09  0.586E-05    1.89     157.8  T
     SCC iter.                  ...        0 min,  0.217 sec
     gradient                   ...        0 min,  0.184 sec
 * total energy  :  -188.0100063 Eh     change       -0.9765394E-01 Eh
   gradient norm :     0.1216672 Eh/α   predicted    -0.8867969E-01 (  -9.19%)
   displ. norm   :     0.6601110 α      lambda       -0.6821959E-01
   maximum displ.:     0.1702441 α      in ANC's #78, #40, #75, ...

........................................................................
.............................. CYCLE    4 ..............................
........................................................................

 iter      E             dE          RMSdq      gap      omega  full diag
   1   -191.0682812 -0.191068E+03  0.188E-01    1.96       0.0  T
   2   -191.0686637 -0.382533E-03  0.108E-01    1.98       1.0  T
   3   -191.0684972  0.166537E-03  0.604E-02    1.99       1.0  T
   4   -191.0687958 -0.298549E-03  0.214E-02    1.99       1.0  T
   5   -191.0688120 -0.162437E-04  0.957E-03    1.99       1.0  T
   6   -191.0688194 -0.742709E-05  0.352E-03    1.99       2.6  T
   7   -191.0688203 -0.838965E-06  0.136E-03    1.99       6.8  T
   8   -191.0688204 -0.868988E-07  0.779E-04    1.99      11.9  T
   9   -191.0688204 -0.371522E-07  0.362E-04    1.99      25.5  T
  10   -191.0688204 -0.629626E-08  0.164E-04    1.99      56.5  T
  11   -191.0688204 -0.981316E-09  0.822E-05    1.99     112.4  T
     SCC iter.                  ...        0 min,  0.191 sec
     gradient                   ...        0 min,  0.181 sec
 * total energy  :  -188.0643915 Eh     change       -0.5438523E-01 Eh
   gradient norm :     0.0724354 Eh/α   predicted    -0.4897306E-01 (  -9.95%)
   displ. norm   :     0.7221202 α      lambda       -0.4413057E-01
   maximum displ.:     0.2056567 α      in ANC's #40, #78, #75, ...

........................................................................
.............................. CYCLE    5 ..............................
........................................................................

 iter      E             dE          RMSdq      gap      omega  full diag
   1   -191.1000325 -0.191100E+03  0.177E-01    2.01       0.0  T
   2   -191.1001982 -0.165711E-03  0.961E-02    2.02       1.0  T
   3   -191.1000206  0.177581E-03  0.506E-02    2.03       1.0  T
   4   -191.1002644 -0.243711E-03  0.147E-02    2.03       1.0  T
   5   -191.1002702 -0.587941E-05  0.703E-03    2.03       1.3  T
   6   -191.1002748 -0.458623E-05  0.234E-03    2.03       3.9  T
   7   -191.1002752 -0.370322E-06  0.119E-03    2.03       7.8  T
   8   -191.1002753 -0.103249E-06  0.535E-04    2.03      17.3  T
   9   -191.1002753 -0.792488E-08  0.225E-04    2.03      41.0  T
  10   -191.1002753 -0.245322E-08  0.104E-04    2.03      89.0  T
  11   -191.1002753 -0.303913E-09  0.524E-05    2.03     176.4  T
     SCC iter.                  ...        0 min,  0.204 sec
     gradient                   ...        0 min,  0.182 sec
 * total energy  :  -188.1009202 Eh     change       -0.3652866E-01 Eh
   gradient norm :     0.0510311 Eh/α   predicted    -0.3357143E-01 (  -8.10%)
   displ. norm   :     0.7692625 α      lambda       -0.3160685E-01
   maximum displ.:     0.2461237 α      in ANC's #40, #78, #34, ...

........................................................................
.............................. CYCLE    6 ..............................
........................................................................

 iter      E             dE          RMSdq      gap      omega  full diag
   1   -191.1161263 -0.191116E+03  0.188E-01    2.03       0.0  T
   2   -191.1162141 -0.878051E-04  0.101E-01    2.02       1.0  T
   3   -191.1160519  0.162282E-03  0.453E-02    2.03       1.0  T
   4   -191.1162519 -0.200019E-03  0.114E-02    2.02       1.0  T
   5   -191.1162559 -0.402869E-05  0.588E-03    2.02       1.6  T
   6   -191.1162592 -0.328624E-05  0.201E-03    2.02       4.6  T
   7   -191.1162594 -0.198495E-06  0.107E-03    2.02       8.7  T
   8   -191.1162595 -0.924378E-07  0.409E-04    2.02      22.6  T
   9   -191.1162595 -0.319190E-08  0.169E-04    2.02      54.8  T
  10   -191.1162595 -0.158752E-08  0.749E-05    2.02     123.4  T
     SCC iter.                  ...        0 min,  0.181 sec
     gradient                   ...        0 min,  0.183 sec
 * total energy  :  -188.1278030 Eh     change       -0.2688281E-01 Eh
   gradient norm :     0.0384967 Eh/α   predicted    -0.2515534E-01 (  -6.43%)
   displ. norm   :     0.7999791 α      lambda       -0.2371060E-01
   maximum displ.:     0.2718271 α      in ANC's #40, #78, #34, ...

........................................................................
.............................. CYCLE    7 ..............................
........................................................................

 iter      E             dE          RMSdq      gap      omega  full diag
   1   -191.1278990 -0.191128E+03  0.195E-01    2.02       0.0  T
   2   -191.1279590 -0.600106E-04  0.107E-01    2.01       1.0  T
   3   -191.1278120  0.147065E-03  0.415E-02    2.01       1.0  T
   4   -191.1279852 -0.173183E-03  0.977E-03    2.00       1.0  T
   5   -191.1279897 -0.452691E-05  0.511E-03    2.01       1.8  T
   6   -191.1279918 -0.208569E-05  0.206E-03    2.01       4.5  T
   7   -191.1279920 -0.225884E-06  0.935E-04    2.01       9.9  T
   8   -191.1279921 -0.657624E-07  0.388E-04    2.01      23.9  T
   9   -191.1279921 -0.427210E-08  0.157E-04    2.01      58.9  T
  10   -191.1279921 -0.100863E-08  0.667E-05    2.01     138.6  T
     SCC iter.                  ...        0 min,  0.185 sec
     gradient                   ...        0 min,  0.183 sec
 * total energy  :  -188.1481962 Eh     change       -0.2039325E-01 Eh
   gradient norm :     0.0298767 Eh/α   predicted    -0.1944230E-01 (  -4.66%)
   displ. norm   :     0.8135977 α      lambda       -0.1789639E-01
   maximum displ.:     0.2805281 α      in ANC's #40, #34, #78, ...

........................................................................
.............................. CYCLE    8 ..............................
........................................................................

 iter      E             dE          RMSdq      gap      omega  full diag
   1   -191.1382183 -0.191138E+03  0.190E-01    2.01       0.0  T
   2   -191.1382641 -0.458528E-04  0.106E-01    2.00       1.0  T
   3   -191.1381283  0.135800E-03  0.385E-02    2.00       1.0  T
   4   -191.1382858 -0.157463E-03  0.825E-03    1.99       1.1  T
   5   -191.1382894 -0.361374E-05  0.441E-03    2.00       2.1  T
   6   -191.1382907 -0.130660E-05  0.192E-03    2.00       4.8  T
   7   -191.1382909 -0.221324E-06  0.800E-04    2.00      11.6  T
   8   -191.1382910 -0.446298E-07  0.363E-04    2.00      25.5  T
   9   -191.1382910 -0.432425E-08  0.140E-04    2.00      66.2  T
  10   -191.1382910 -0.823320E-09  0.585E-05    2.00     158.1  T
     SCC iter.                  ...        0 min,  0.173 sec
     gradient                   ...        0 min,  0.186 sec
 * total energy  :  -188.1636600 Eh     change       -0.1546375E-01 Eh
   gradient norm :     0.0245794 Eh/α   predicted    -0.1487138E-01 (  -3.83%)
   displ. norm   :     0.8154940 α      lambda       -0.1357729E-01
   maximum displ.:     0.2753511 α      in ANC's #40, #34, #28, ...

........................................................................
.............................. CYCLE    9 ..............................
........................................................................

 iter      E             dE          RMSdq      gap      omega  full diag
   1   -191.1473966 -0.191147E+03  0.180E-01    2.01       0.0  T
   2   -191.1474344 -0.377478E-04  0.102E-01    2.00       1.0  T
   3   -191.1473086  0.125740E-03  0.358E-02    2.00       1.0  T
   4   -191.1474537 -0.145055E-03  0.693E-03    1.99       1.3  T
   5   -191.1474565 -0.282366E-05  0.369E-03    2.00       2.5  T
   6   -191.1474572 -0.712199E-06  0.171E-03    1.99       5.4  T
   7   -191.1474574 -0.200896E-06  0.677E-04    1.99      13.7  T
   8   -191.1474574 -0.313026E-07  0.326E-04    1.99      28.3  T
   9   -191.1474574 -0.289867E-08  0.119E-04    1.99      77.9  T
  10   -191.1474574 -0.879339E-09  0.473E-05    1.99     195.5  T
     SCC iter.                  ...        0 min,  0.178 sec
     gradient                   ...        0 min,  0.195 sec
 * total energy  :  -188.1754316 Eh     change       -0.1177159E-01 Eh
   gradient norm :     0.0212651 Eh/α   predicted    -0.1130331E-01 (  -3.98%)
   displ. norm   :     0.8127439 α      lambda       -0.1047099E-01
   maximum displ.:     0.2612813 α      in ANC's #40, #34, #28, ...

........................................................................
.............................. CYCLE   10 ..............................
........................................................................

 iter      E             dE          RMSdq      gap      omega  full diag
   1   -191.1552701 -0.191155E+03  0.171E-01    2.01       0.0  T
   2   -191.1553078 -0.377023E-04  0.988E-02    2.01       1.0  T
   3   -191.1551898  0.117920E-03  0.339E-02    2.00       1.0  T
   4   -191.1553253 -0.135444E-03  0.634E-03    2.00       1.5  T
   5   -191.1553282 -0.295640E-05  0.312E-03    2.00       3.0  T
   6   -191.1553286 -0.403119E-06  0.162E-03    2.00       5.7  T
   7   -191.1553288 -0.165005E-06  0.627E-04    2.00      14.7  T
   8   -191.1553288 -0.290511E-07  0.294E-04    2.00      31.5  T
   9   -191.1553288 -0.201172E-08  0.123E-04    2.00      75.4  T
  10   -191.1553288 -0.982226E-09  0.434E-05    2.00     213.2  T
     SCC iter.                  ...        0 min,  0.179 sec
     gradient                   ...        0 min,  0.190 sec
 * total energy  :  -188.1844919 Eh     change       -0.9060377E-02 Eh
   gradient norm :     0.0185598 Eh/α   predicted    -0.8693826E-02 (  -4.05%)
   displ. norm   :     0.8018276 α      lambda       -0.8062823E-02
   maximum displ.:     0.2412677 α      in ANC's #40, #34, #28, ...

........................................................................
.............................. CYCLE   11 ..............................
........................................................................

 iter      E             dE          RMSdq      gap      omega  full diag
   1   -191.1618073 -0.191162E+03  0.161E-01    2.02       0.0  T
   2   -191.1618427 -0.353550E-04  0.945E-02    2.02       1.0  T
   3   -191.1617365  0.106210E-03  0.316E-02    2.02       1.0  T
   4   -191.1618580 -0.121509E-03  0.591E-03    2.02       1.6  T
   5   -191.1618608 -0.286418E-05  0.273E-03    2.02       3.4  T
   6   -191.1618611 -0.292206E-06  0.152E-03    2.02       6.1  T
   7   -191.1618612 -0.110332E-06  0.595E-04    2.02      15.6  T
   8   -191.1618613 -0.270213E-07  0.268E-04    2.02      34.5  T
   9   -191.1618613 -0.213959E-08  0.122E-04    2.02      75.8  T
  10   -191.1618613 -0.904237E-09  0.422E-05    2.02     218.9  T
     SCC iter.                  ...        0 min,  0.187 sec
     gradient                   ...        0 min,  0.188 sec
 * total energy  :  -188.1914502 Eh     change       -0.6958237E-02 Eh
   gradient norm :     0.0159910 Eh/α   predicted    -0.6623323E-02 (  -4.81%)
   displ. norm   :     0.7925340 α      lambda       -0.6247830E-02
   maximum displ.:     0.2208902 α      in ANC's #40, #34, #22, ...

........................................................................
.............................. CYCLE   12 ..............................
........................................................................

 iter      E             dE          RMSdq      gap      omega  full diag
   1   -191.1669478 -0.191167E+03  0.152E-01    2.04       0.0  T
   2   -191.1669836 -0.357650E-04  0.896E-02    2.04       1.0  T
   3   -191.1668890  0.945658E-04  0.295E-02    2.04       1.0  T
   4   -191.1669970 -0.108029E-03  0.560E-03    2.04       1.7  T
   5   -191.1669998 -0.273108E-05  0.246E-03    2.04       3.8  T
   6   -191.1670000 -0.258412E-06  0.139E-03    2.04       6.6  T
   7   -191.1670001 -0.726940E-07  0.557E-04    2.04      16.6  T
   8   -191.1670001 -0.226705E-07  0.253E-04    2.04      36.6  T
   9   -191.1670001 -0.235016E-08  0.120E-04    2.04      77.2  T
  10   -191.1670001 -0.947381E-09  0.397E-05    2.04     232.8  T
     SCC iter.                  ...        0 min,  0.186 sec
     gradient                   ...        0 min,  0.188 sec
 * total energy  :  -188.1968183 Eh     change       -0.5368160E-02 Eh
   gradient norm :     0.0149409 Eh/α   predicted    -0.5086091E-02 (  -5.25%)
   displ. norm   :     0.7828019 α      lambda       -0.4881709E-02
   maximum displ.:     0.2027621 α      in ANC's #40, #22, #26, ...

........................................................................
.............................. CYCLE   13 ..............................
........................................................................

 iter      E             dE          RMSdq      gap      omega  full diag
   1   -191.1720319 -0.191172E+03  0.141E-01    2.05       0.0  T
   2   -191.1720539 -0.219739E-04  0.829E-02    2.06       1.0  T
   3   -191.1719857  0.681762E-04  0.246E-02    2.06       1.0  T
   4   -191.1720636 -0.778928E-04  0.436E-03    2.06       2.1  T
   5   -191.1720649 -0.133557E-05  0.215E-03    2.06       4.3  T
   6   -191.1720651 -0.215553E-06  0.120E-03    2.06       7.7  T
   7   -191.1720652 -0.527446E-07  0.486E-04    2.06      19.0  T
   8   -191.1720652 -0.175497E-07  0.213E-04    2.06      43.4  T
   9   -191.1720652 -0.184863E-08  0.908E-05    2.06     101.8  T
  10   -191.1720652 -0.539103E-09  0.337E-05    2.06     274.1  T
     SCC iter.                  ...        0 min,  0.185 sec
     gradient                   ...        0 min,  0.189 sec
 * total energy  :  -188.2009883 Eh     change       -0.4170004E-02 Eh
   gradient norm :     0.0144329 Eh/α   predicted    -0.3936574E-02 (  -5.60%)
   displ. norm   :     0.7856039 α      lambda       -0.4047823E-02
   maximum displ.:     0.2268794 α      in ANC's #26, #22, #40, ...

........................................................................
.............................. CYCLE   14 ..............................
........................................................................

 iter      E             dE          RMSdq      gap      omega  full diag
   1   -191.1723234 -0.191172E+03  0.141E-01    2.07       0.0  T
   2   -191.1724058 -0.824157E-04  0.829E-02    2.09       1.0  T
   3   -191.1723119  0.939266E-04  0.321E-02    2.08       1.0  T
   4   -191.1724206 -0.108755E-03  0.785E-03    2.08       1.2  T
   5   -191.1724270 -0.640550E-05  0.234E-03    2.08       3.9  T
   6   -191.1724273 -0.296070E-06  0.124E-03    2.08       7.5  T
   7   -191.1724274 -0.355751E-07  0.576E-04    2.08      16.1  T
   8   -191.1724274 -0.161196E-07  0.245E-04    2.08      37.7  T
   9   -191.1724274 -0.152340E-08  0.131E-04    2.08      70.5  T
  10   -191.1724274 -0.157809E-08  0.461E-05    2.08     200.4  T
     SCC iter.                  ...        0 min,  0.183 sec
     gradient                   ...        0 min,  0.188 sec
 * total energy  :  -188.2042307 Eh     change       -0.3242414E-02 Eh
   gradient norm :     0.0246382 Eh/α   predicted    -0.3273034E-02 (   0.94%)
   displ. norm   :     0.7704627 α      lambda       -0.3816358E-02
   maximum displ.:     0.1966522 α      in ANC's #6, #22, #26, ...

........................................................................
.............................. CYCLE   15 ..............................
........................................................................

 iter      E             dE          RMSdq      gap      omega  full diag
   1   -191.1803171 -0.191180E+03  0.126E-01    2.08       0.0  T
   2   -191.1803896 -0.724102E-04  0.744E-02    2.07       1.0  T
   3   -191.1803448  0.447908E-04  0.236E-02    2.09       1.0  T
   4   -191.1803946 -0.498871E-04  0.769E-03    2.08       1.2  T
   5   -191.1804011 -0.645751E-05  0.223E-03    2.08       4.1  T
   6   -191.1804015 -0.352351E-06  0.110E-03    2.08       8.4  T
   7   -191.1804015 -0.315719E-07  0.627E-04    2.08      14.8  T
   8   -191.1804015 -0.245458E-07  0.220E-04    2.08      42.0  T
   9   -191.1804015 -0.192315E-08  0.105E-04    2.08      87.9  T
  10   -191.1804015 -0.813742E-09  0.361E-05    2.08     256.4  T
     SCC iter.                  ...        0 min,  0.178 sec
     gradient                   ...        0 min,  0.188 sec
 * total energy  :  -188.2070352 Eh     change       -0.2804474E-02 Eh
   gradient norm :     0.0199915 Eh/α   predicted    -0.3040905E-02 (   8.43%)
   displ. norm   :     0.7319650 α      lambda       -0.2698722E-02
   maximum displ.:     0.2207620 α      in ANC's #26, #6, #22, ...

........................................................................
.............................. CYCLE   16 ..............................
........................................................................

 iter      E             dE          RMSdq      gap      omega  full diag
   1   -191.1782297 -0.191178E+03  0.119E-01    2.09       0.0  T
   2   -191.1782614 -0.317466E-04  0.698E-02    2.10       1.0  T
   3   -191.1781989  0.624889E-04  0.241E-02    2.10       1.0  T
   4   -191.1782706 -0.716908E-04  0.513E-03    2.10       1.8  T
   5   -191.1782730 -0.242148E-05  0.179E-03    2.10       5.2  T
   6   -191.1782732 -0.106604E-06  0.989E-04    2.10       9.4  T
   7   -191.1782732 -0.206830E-07  0.438E-04    2.10      21.1  T
   8   -191.1782732 -0.997096E-08  0.179E-04    2.10      51.6  T
   9   -191.1782732 -0.105985E-08  0.905E-05    2.10     102.2  T
     SCC iter.                  ...        0 min,  0.166 sec
     gradient                   ...        0 min,  0.190 sec
 * total energy  :  -188.2093151 Eh     change       -0.2279883E-02 Eh
   gradient norm :     0.0135743 Eh/α   predicted    -0.2072312E-02 (  -9.10%)
   displ. norm   :     0.7446609 α      lambda       -0.2444888E-02
   maximum displ.:     0.2483936 α      in ANC's #6, #26, #10, ...

........................................................................
.............................. CYCLE   17 ..............................
........................................................................

 iter      E             dE          RMSdq      gap      omega  full diag
   1   -191.1874514 -0.191187E+03  0.111E-01    2.10       0.0  T
   2   -191.1874999 -0.484813E-04  0.650E-02    2.09       1.0  T
   3   -191.1874515  0.483907E-04  0.242E-02    2.09       1.0  T
   4   -191.1875060 -0.545139E-04  0.715E-03    2.09       1.3  T
   5   -191.1875111 -0.510083E-05  0.175E-03    2.09       5.3  T
   6   -191.1875112 -0.137195E-06  0.916E-04    2.09      10.1  T
   7   -191.1875112 -0.573283E-08  0.445E-04    2.09      20.8  T
   8   -191.1875112 -0.134293E-07  0.183E-04    2.09      50.5  T
   9   -191.1875112 -0.797343E-09  0.986E-05    2.09      93.8  T
     SCC iter.                  ...        0 min,  0.175 sec
     gradient                   ...        0 min,  0.193 sec
 * total energy  :  -188.2111137 Eh     change       -0.1798583E-02 Eh
   gradient norm :     0.0219708 Eh/α   predicted    -0.1900314E-02 (   5.66%)
   displ. norm   :     0.7377532 α      lambda       -0.2454243E-02
   maximum displ.:     0.2394817 α      in ANC's #6, #10, #26, ...

........................................................................
.............................. CYCLE   18 ..............................
........................................................................

 iter      E             dE          RMSdq      gap      omega  full diag
   1   -191.1828029 -0.191183E+03  0.118E-01    2.11       0.0  T
   2   -191.1829382 -0.135311E-03  0.714E-02    2.13       1.0  T
   3   -191.1828680  0.701835E-04  0.358E-02    2.11       1.0  T
   4   -191.1829642 -0.962371E-04  0.111E-02    2.11       1.0  T
   5   -191.1829762 -0.120042E-04  0.246E-03    2.12       3.8  T
   6   -191.1829765 -0.282342E-06  0.125E-03    2.12       7.4  T
   7   -191.1829765 -0.573755E-08  0.563E-04    2.12      16.4  T
   8   -191.1829766 -0.175319E-07  0.269E-04    2.12      34.4  T
   9   -191.1829766 -0.350965E-08  0.123E-04    2.12      75.3  T
  10   -191.1829766 -0.914497E-09  0.526E-05    2.12     175.8  T
     SCC iter.                  ...        0 min,  0.325 sec
     gradient                   ...        0 min,  0.297 sec
 * total energy  :  -188.2124454 Eh     change       -0.1331739E-02 Eh
   gradient norm :     0.0251346 Eh/α   predicted    -0.1895021E-02 (  42.30%)
   displ. norm   :     0.5788898 α      lambda       -0.1790212E-02
   maximum displ.:     0.2125102 α      in ANC's #6, #10, #18, ...

........................................................................
.............................. CYCLE   19 ..............................
........................................................................

 iter      E             dE          RMSdq      gap      omega  full diag
   1   -191.1793116 -0.191179E+03  0.900E-02    2.11       0.0  T
   2   -191.1793781 -0.664820E-04  0.534E-02    2.10       1.0  T
   3   -191.1793479  0.302129E-04  0.231E-02    2.11       1.0  T
   4   -191.1793850 -0.370625E-04  0.790E-03    2.11       1.2  T
   5   -191.1793913 -0.635663E-05  0.178E-03    2.11       5.2  T
   6   -191.1793915 -0.159546E-06  0.913E-04    2.11      10.1  T
   7   -191.1793915 -0.546703E-08  0.507E-04    2.11      18.2  T
   8   -191.1793915 -0.165790E-07  0.224E-04    2.11      41.2  T
   9   -191.1793915 -0.238961E-08  0.107E-04    2.11      86.5  T
  10   -191.1793915 -0.648356E-09  0.450E-05    2.11     205.6  T
     SCC iter.                  ...        0 min,  0.391 sec
     gradient                   ...        0 min,  0.286 sec
 * total energy  :  -188.2135196 Eh     change       -0.1074127E-02 Eh
   gradient norm :     0.0165488 Eh/α   predicted    -0.1195069E-02 (  11.26%)
   displ. norm   :     0.5230830 α      lambda       -0.1714091E-02
   maximum displ.:     0.2019669 α      in ANC's #6, #4, #11, ...

........................................................................
.............................. CYCLE   20 ..............................
........................................................................

 iter      E             dE          RMSdq      gap      omega  full diag
   1   -191.1879539 -0.191188E+03  0.754E-02    2.10       0.0  T
   2   -191.1879658 -0.119227E-04  0.441E-02    2.09       1.0  T
   3   -191.1879549  0.109296E-04  0.111E-02    2.10       1.0  T
   4   -191.1879677 -0.127412E-04  0.323E-03    2.10       2.9  T
   5   -191.1879686 -0.994634E-06  0.147E-03    2.10       6.3  T
   6   -191.1879688 -0.125943E-06  0.753E-04    2.10      12.3  T
   7   -191.1879688 -0.211471E-07  0.310E-04    2.10      29.8  T
   8   -191.1879688 -0.780065E-08  0.118E-04    2.10      78.3  T
   9   -191.1879688 -0.285524E-09  0.655E-05    2.10     141.2  T
     SCC iter.                  ...        0 min,  0.326 sec
     gradient                   ...        0 min,  0.292 sec
 * total energy  :  -188.2142805 Eh     change       -0.7609076E-03 Eh
   gradient norm :     0.0249344 Eh/α   predicted    -0.1091560E-02 (  43.45%)
   displ. norm   :     0.4758496 α      lambda       -0.1500531E-02
   maximum displ.:     0.2025013 α      in ANC's #6, #3, #10, ...
 * RMSD in coord.:     1.1066727 α      energy gain  -0.5104805E+00 Eh

generating ANC from exact Hessian ...
Using Lindh-Hessian (1995)
 Shifting diagonal of input Hessian by    1.0056568967891566E-002
 Lowest  eigenvalues of input Hessian
    0.010000    0.010025    0.000000    0.000000    0.000000    0.000000
    0.000000    0.000000    0.010099    0.010157    0.010192    0.010211
    0.010303    0.010344    0.010422    0.010473    0.010506    0.010626
 Highest eigenvalues
    2.148673    2.179070    2.286565    2.348421    2.354624    3.110935


........................................................................
.............................. CYCLE   21 ..............................
........................................................................

 iter      E             dE          RMSdq      gap      omega  full diag
   1   -191.1931082 -0.191193E+03  0.698E-02    2.10       0.0  T
   2   -191.1931562 -0.480485E-04  0.398E-02    2.10       1.0  T
   3   -191.1931487  0.751748E-05  0.161E-02    2.09       1.0  T
   4   -191.1931563 -0.760567E-05  0.637E-03    2.09       1.5  T
   5   -191.1931610 -0.466798E-05  0.144E-03    2.09       6.4  T
   6   -191.1931611 -0.144307E-06  0.665E-04    2.09      13.9  T
   7   -191.1931611 -0.252797E-08  0.386E-04    2.09      23.9  T
   8   -191.1931611 -0.109293E-07  0.143E-04    2.09      64.6  T
   9   -191.1931611 -0.950877E-09  0.782E-05    2.09     118.3  T
     SCC iter.                  ...        0 min,  0.280 sec
     gradient                   ...        0 min,  0.267 sec
 * total energy  :  -188.2153428 Eh     change       -0.1062377E-02 Eh
   gradient norm :     0.0153859 Eh/α   predicted     0.0000000E+00 (-100.00%)
   displ. norm   :     0.1791108 α      lambda       -0.7165213E-03
   maximum displ.:     0.0610588 α      in ANC's #7, #29, #14, ...

........................................................................
.............................. CYCLE   22 ..............................
........................................................................

 iter      E             dE          RMSdq      gap      omega  full diag
   1   -191.1896726 -0.191190E+03  0.386E-02    2.10       0.0  T
   2   -191.1896791 -0.650932E-05  0.231E-02    2.10       1.0  T
   3   -191.1896693  0.983400E-05  0.101E-02    2.10       1.0  T
   4   -191.1896808 -0.114994E-04  0.253E-03    2.10       3.7  T
   5   -191.1896814 -0.642967E-06  0.622E-04    2.10      14.9  T
   6   -191.1896814 -0.135047E-07  0.329E-04    2.10      28.1  T
   7   -191.1896814 -0.247610E-09  0.137E-04    2.10      67.3  T
   8   -191.1896815 -0.136748E-08  0.579E-05    2.10     159.8  T
     SCC iter.                  ...        0 min,  0.244 sec
     gradient                   ...        0 min,  0.340 sec
 * total energy  :  -188.2159211 Eh     change       -0.5782650E-03 Eh
   gradient norm :     0.0074505 Eh/α   predicted    -0.3697766E-03 ( -36.05%)
   displ. norm   :     0.4651180 α      lambda       -0.1139508E-02
   maximum displ.:     0.1674909 α      in ANC's #7, #14, #29, ...

........................................................................
.............................. CYCLE   23 ..............................
........................................................................

 iter      E             dE          RMSdq      gap      omega  full diag
   1   -191.1839146 -0.191184E+03  0.840E-02    2.10       0.0  T
   2   -191.1839299 -0.153465E-04  0.497E-02    2.11       1.0  T
   3   -191.1838946  0.353123E-04  0.176E-02    2.11       1.0  T
   4   -191.1839345 -0.398638E-04  0.398E-03    2.11       2.3  T
   5   -191.1839360 -0.153762E-05  0.126E-03    2.11       7.3  T
   6   -191.1839361 -0.482986E-07  0.684E-04    2.11      13.5  T
   7   -191.1839361 -0.481722E-08  0.274E-04    2.11      33.7  T
   8   -191.1839361 -0.562920E-08  0.118E-04    2.11      78.3  T
   9   -191.1839361 -0.416094E-10  0.737E-05    2.11     125.4  T
     SCC iter.                  ...        0 min,  0.316 sec
     gradient                   ...        0 min,  0.264 sec
 * total energy  :  -188.2167799 Eh     change       -0.8588444E-03 Eh
   gradient norm :     0.0101654 Eh/α   predicted    -0.6930969E-03 ( -19.30%)
   displ. norm   :     0.5487900 α      lambda       -0.9290307E-03
   maximum displ.:     0.2028154 α      in ANC's #7, #14, #12, ...

........................................................................
.............................. CYCLE   24 ..............................
........................................................................

 iter      E             dE          RMSdq      gap      omega  full diag
   1   -191.1803496 -0.191180E+03  0.919E-02    2.10       0.0  T
   2   -191.1803584 -0.877148E-05  0.540E-02    2.11       1.0  T
   3   -191.1803358  0.226317E-04  0.137E-02    2.11       1.0  T
   4   -191.1803612 -0.254500E-04  0.306E-03    2.11       3.0  T
   5   -191.1803621 -0.860990E-06  0.124E-03    2.11       7.4  T
   6   -191.1803621 -0.442951E-07  0.682E-04    2.11      13.6  T
   7   -191.1803621 -0.148410E-07  0.204E-04    2.11      45.4  T
   8   -191.1803621 -0.190835E-08  0.107E-04    2.11      86.3  T
   9   -191.1803621 -0.872262E-10  0.594E-05    2.11     155.7  T
     SCC iter.                  ...        0 min,  0.328 sec
     gradient                   ...        0 min,  0.312 sec
 * total energy  :  -188.2175650 Eh     change       -0.7850125E-03 Eh
   gradient norm :     0.0145143 Eh/α   predicted    -0.6044982E-03 ( -23.00%)
   displ. norm   :     0.6695348 α      lambda       -0.1149377E-02
   maximum displ.:     0.2514501 α      in ANC's #7, #14, #12, ...

........................................................................
.............................. CYCLE   25 ..............................
........................................................................

 iter      E             dE          RMSdq      gap      omega  full diag
   1   -191.1793296 -0.191179E+03  0.108E-01    2.10       0.0  T
   2   -191.1793394 -0.978504E-05  0.636E-02    2.10       1.0  T
   3   -191.1793154  0.239380E-04  0.144E-02    2.11       1.0  T
   4   -191.1793430 -0.275337E-04  0.282E-03    2.11       3.3  T
   5   -191.1793436 -0.658201E-06  0.134E-03    2.11       6.9  T
   6   -191.1793437 -0.567732E-07  0.735E-04    2.11      12.6  T
   7   -191.1793437 -0.274735E-07  0.203E-04    2.11      45.5  T
   8   -191.1793437 -0.137211E-08  0.111E-04    2.11      83.0  T
   9   -191.1793437 -0.241329E-09  0.562E-05    2.11     164.5  T
     SCC iter.                  ...        0 min,  0.252 sec
     gradient                   ...        0 min,  0.246 sec
 * total energy  :  -188.2185861 Eh     change       -0.1021131E-02 Eh
   gradient norm :     0.0148658 Eh/α   predicted    -0.8323099E-03 ( -18.49%)
   displ. norm   :     0.7108402 α      lambda       -0.1411050E-02
   maximum displ.:     0.2731850 α      in ANC's #7, #12, #14, ...

........................................................................
.............................. CYCLE   26 ..............................
........................................................................

 iter      E             dE          RMSdq      gap      omega  full diag
   1   -191.1838617 -0.191184E+03  0.112E-01    2.10       0.0  T
   2   -191.1838754 -0.136821E-04  0.658E-02    2.10       1.0  T
   3   -191.1838472  0.282102E-04  0.162E-02    2.10       1.0  T
   4   -191.1838801 -0.329117E-04  0.290E-03    2.10       3.2  T
   5   -191.1838808 -0.708028E-06  0.133E-03    2.10       6.9  T
   6   -191.1838809 -0.594948E-07  0.659E-04    2.10      14.0  T
   7   -191.1838809 -0.175871E-07  0.243E-04    2.10      38.1  T
   8   -191.1838809 -0.368681E-08  0.105E-04    2.10      88.2  T
   9   -191.1838809 -0.706848E-10  0.584E-05    2.10     158.2  T
     SCC iter.                  ...        0 min,  0.210 sec
     gradient                   ...        0 min,  0.244 sec
 * total energy  :  -188.2198050 Eh     change       -0.1218923E-02 Eh
   gradient norm :     0.0123705 Eh/α   predicted    -0.1062033E-02 ( -12.87%)
   displ. norm   :     0.7303176 α      lambda       -0.1321965E-02
   maximum displ.:     0.2835103 α      in ANC's #7, #12, #5, ...

........................................................................
.............................. CYCLE   27 ..............................
........................................................................

 iter      E             dE          RMSdq      gap      omega  full diag
   1   -191.1881325 -0.191188E+03  0.111E-01    2.09       0.0  T
   2   -191.1881443 -0.118060E-04  0.652E-02    2.09       1.0  T
   3   -191.1881185  0.257813E-04  0.154E-02    2.10       1.0  T
   4   -191.1881486 -0.300656E-04  0.258E-03    2.10       3.6  T
   5   -191.1881491 -0.519604E-06  0.119E-03    2.10       7.8  T
   6   -191.1881492 -0.472483E-07  0.581E-04    2.10      15.9  T
   7   -191.1881492 -0.144610E-07  0.211E-04    2.10      43.8  T
   8   -191.1881492 -0.255469E-08  0.941E-05    2.10      98.2  T
   9   -191.1881492 -0.175987E-09  0.556E-05    2.10     166.3  T
     SCC iter.                  ...        0 min,  0.269 sec
     gradient                   ...        0 min,  0.331 sec
 * total energy  :  -188.2209401 Eh     change       -0.1135054E-02 Eh
   gradient norm :     0.0122410 Eh/α   predicted    -0.1013570E-02 ( -10.70%)
   displ. norm   :     0.7662675 α      lambda       -0.1180076E-02
   maximum displ.:     0.2976278 α      in ANC's #7, #12, #5, ...

........................................................................
.............................. CYCLE   28 ..............................
........................................................................

 iter      E             dE          RMSdq      gap      omega  full diag
   1   -191.1880151 -0.191188E+03  0.113E-01    2.09       0.0  T
   2   -191.1880231 -0.796211E-05  0.660E-02    2.09       1.0  T
   3   -191.1879986  0.245162E-04  0.148E-02    2.09       1.0  T
   4   -191.1880270 -0.284695E-04  0.219E-03    2.10       4.2  T
   5   -191.1880273 -0.244576E-06  0.112E-03    2.10       8.3  T
   6   -191.1880273 -0.410501E-07  0.540E-04    2.10      17.1  T
   7   -191.1880273 -0.135592E-07  0.163E-04    2.10      56.7  T
   8   -191.1880273 -0.750788E-09  0.848E-05    2.10     109.0  T
     SCC iter.                  ...        0 min,  0.244 sec
     gradient                   ...        0 min,  0.223 sec
 * total energy  :  -188.2219767 Eh     change       -0.1036628E-02 Eh
   gradient norm :     0.0110953 Eh/α   predicted    -0.9365191E-03 (  -9.66%)
   displ. norm   :     0.7339637 α      lambda       -0.1135280E-02
   maximum displ.:     0.2878592 α      in ANC's #7, #5, #2, ...

........................................................................
.............................. CYCLE   29 ..............................
........................................................................

 iter      E             dE          RMSdq      gap      omega  full diag
   1   -191.1940113 -0.191194E+03  0.101E-01    2.09       0.0  T
   2   -191.1940187 -0.741980E-05  0.592E-02    2.10       1.0  T
   3   -191.1939929  0.257976E-04  0.155E-02    2.10       1.0  T
   4   -191.1940226 -0.296746E-04  0.261E-03    2.10       3.5  T
   5   -191.1940229 -0.306003E-06  0.122E-03    2.10       7.6  T
   6   -191.1940229 -0.400248E-07  0.570E-04    2.10      16.2  T
   7   -191.1940229 -0.159039E-07  0.207E-04    2.10      44.6  T
   8   -191.1940229 -0.124655E-08  0.112E-04    2.10      82.3  T
   9   -191.1940229 -0.331227E-09  0.525E-05    2.10     176.0  T
     SCC iter.                  ...        0 min,  0.214 sec
     gradient                   ...        0 min,  0.272 sec
 * total energy  :  -188.2229209 Eh     change       -0.9442122E-03 Eh
   gradient norm :     0.0079460 Eh/α   predicted    -0.8735355E-03 (  -7.49%)
   displ. norm   :     0.8384314 α      lambda       -0.1077249E-02
   maximum displ.:     0.3220139 α      in ANC's #7, #5, #12, ...

........................................................................
.............................. CYCLE   30 ..............................
........................................................................

 iter      E             dE          RMSdq      gap      omega  full diag
   1   -191.1809701 -0.191181E+03  0.120E-01    2.10       0.0  T
   2   -191.1809795 -0.942330E-05  0.708E-02    2.10       1.0  T
   3   -191.1809465  0.330431E-04  0.171E-02    2.10       1.0  T
   4   -191.1809844 -0.379073E-04  0.271E-03    2.10       3.4  T
   5   -191.1809848 -0.411548E-06  0.129E-03    2.10       7.2  T
   6   -191.1809848 -0.502981E-07  0.597E-04    2.10      15.5  T
   7   -191.1809848 -0.151937E-07  0.218E-04    2.10      42.5  T
   8   -191.1809848 -0.173125E-08  0.104E-04    2.10      89.0  T
   9   -191.1809848 -0.292260E-09  0.436E-05    2.10     211.9  T
     SCC iter.                  ...        0 min,  0.237 sec
     gradient                   ...        0 min,  0.245 sec
 * total energy  :  -188.2237470 Eh     change       -0.8261260E-03 Eh
   gradient norm :     0.0106711 Eh/α   predicted    -0.9172655E-03 (  11.03%)
   displ. norm   :     0.6372266 α      lambda       -0.1068826E-02
   maximum displ.:     0.2365357 α      in ANC's #7, #5, #2, ...

........................................................................
.............................. CYCLE   31 ..............................
........................................................................

 iter      E             dE          RMSdq      gap      omega  full diag
   1   -191.1880018 -0.191188E+03  0.845E-02    2.11       0.0  T
   2   -191.1880118 -0.100401E-04  0.493E-02    2.11       1.0  T
   3   -191.1879868  0.250983E-04  0.159E-02    2.11       1.0  T
   4   -191.1880157 -0.289819E-04  0.336E-03    2.11       2.8  T
   5   -191.1880163 -0.606891E-06  0.141E-03    2.11       6.5  T
   6   -191.1880164 -0.468198E-07  0.646E-04    2.11      14.3  T
   7   -191.1880164 -0.251993E-07  0.246E-04    2.11      37.6  T
   8   -191.1880164 -0.230804E-08  0.138E-04    2.11      67.0  T
   9   -191.1880164 -0.396312E-09  0.685E-05    2.11     135.0  T
     SCC iter.                  ...        0 min,  0.252 sec
     gradient                   ...        0 min,  0.291 sec
 * total energy  :  -188.2246075 Eh     change       -0.8605135E-03 Eh
   gradient norm :     0.0108867 Eh/α   predicted    -0.7514214E-03 ( -12.68%)
   displ. norm   :     0.7216562 α      lambda       -0.9203077E-03
   maximum displ.:     0.2691323 α      in ANC's #7, #5, #2, ...

........................................................................
.............................. CYCLE   32 ..............................
........................................................................

 iter      E             dE          RMSdq      gap      omega  full diag
   1   -191.1896274 -0.191190E+03  0.901E-02    2.11       0.0  T
   2   -191.1896335 -0.612937E-05  0.531E-02    2.12       1.0  T
   3   -191.1896170  0.164925E-04  0.124E-02    2.12       1.0  T
   4   -191.1896361 -0.190703E-04  0.254E-03    2.12       3.6  T
   5   -191.1896365 -0.342063E-06  0.115E-03    2.12       8.0  T
   6   -191.1896365 -0.317186E-07  0.604E-04    2.12      15.3  T
   7   -191.1896365 -0.237441E-07  0.196E-04    2.12      47.1  T
   8   -191.1896365 -0.408704E-09  0.104E-04    2.12      89.2  T
     SCC iter.                  ...        0 min,  0.181 sec
     gradient                   ...        0 min,  0.255 sec
 * total energy  :  -188.2254202 Eh     change       -0.8126554E-03 Eh
   gradient norm :     0.0116319 Eh/α   predicted    -0.6998077E-03 ( -13.89%)
   displ. norm   :     0.7354181 α      lambda       -0.9793716E-03
   maximum displ.:     0.2692230 α      in ANC's #5, #2, #7, ...

........................................................................
.............................. CYCLE   33 ..............................
........................................................................

 iter      E             dE          RMSdq      gap      omega  full diag
   1   -191.1946159 -0.191195E+03  0.900E-02    2.12       0.0  T
   2   -191.1946225 -0.658615E-05  0.537E-02    2.12       1.0  T
   3   -191.1946118  0.107223E-04  0.983E-03    2.12       1.0  T
   4   -191.1946246 -0.127763E-04  0.240E-03    2.12       3.8  T
   5   -191.1946250 -0.403021E-06  0.104E-03    2.12       8.9  T
   6   -191.1946250 -0.933809E-08  0.645E-04    2.12      14.3  T
   7   -191.1946250 -0.275033E-07  0.224E-04    2.12      41.3  T
   8   -191.1946250 -0.133886E-08  0.110E-04    2.12      83.9  T
   9   -191.1946250 -0.450996E-09  0.524E-05    2.12     176.5  T
     SCC iter.                  ...        0 min,  0.341 sec
     gradient                   ...        0 min,  0.297 sec
 * total energy  :  -188.2262567 Eh     change       -0.8364833E-03 Eh
   gradient norm :     0.0100332 Eh/α   predicted    -0.7545396E-03 (  -9.80%)
   displ. norm   :     0.8155195 α      lambda       -0.9154928E-03
   maximum displ.:     0.3032150 α      in ANC's #5, #2, #7, ...

........................................................................
.............................. CYCLE   34 ..............................
........................................................................

 iter      E             dE          RMSdq      gap      omega  full diag
   1   -191.1893260 -0.191189E+03  0.992E-02    2.12       0.0  T
   2   -191.1893343 -0.833910E-05  0.594E-02    2.13       1.0  T
   3   -191.1893219  0.124317E-04  0.105E-02    2.13       1.0  T
   4   -191.1893364 -0.145531E-04  0.283E-03    2.13       3.3  T
   5   -191.1893371 -0.676019E-06  0.116E-03    2.13       8.0  T
   6   -191.1893371 -0.273444E-07  0.711E-04    2.13      13.0  T
   7   -191.1893372 -0.342453E-07  0.259E-04    2.13      35.7  T
   8   -191.1893372 -0.893550E-09  0.130E-04    2.13      71.2  T
   9   -191.1893372 -0.821160E-09  0.594E-05    2.13     155.8  T
     SCC iter.                  ...        0 min,  0.360 sec
     gradient                   ...        0 min,  0.348 sec
 * total energy  :  -188.2270377 Eh     change       -0.7810287E-03 Eh
   gradient norm :     0.0094145 Eh/α   predicted    -0.7621825E-03 (  -2.41%)
   displ. norm   :     0.7259186 α      lambda       -0.8782611E-03
   maximum displ.:     0.2794365 α      in ANC's #5, #2, #6, ...

........................................................................
.............................. CYCLE   35 ..............................
........................................................................

 iter      E             dE          RMSdq      gap      omega  full diag
   1   -191.1948514 -0.191195E+03  0.864E-02    2.14       0.0  T
   2   -191.1948631 -0.117456E-04  0.519E-02    2.14       1.0  T
   3   -191.1948445  0.186591E-04  0.134E-02    2.14       1.0  T
   4   -191.1948659 -0.214929E-04  0.392E-03    2.14       2.4  T
   5   -191.1948670 -0.108018E-05  0.157E-03    2.14       5.9  T
   6   -191.1948671 -0.107332E-06  0.752E-04    2.14      12.3  T
   7   -191.1948672 -0.319648E-07  0.333E-04    2.14      27.7  T
   8   -191.1948672 -0.282523E-08  0.194E-04    2.14      47.6  T
   9   -191.1948672 -0.160057E-08  0.811E-05    2.14     114.0  T
     SCC iter.                  ...        0 min,  0.257 sec
     gradient                   ...        0 min,  0.337 sec
 * total energy  :  -188.2277226 Eh     change       -0.6848607E-03 Eh
   gradient norm :     0.0089833 Eh/α   predicted    -0.6705344E-03 (  -2.09%)
   displ. norm   :     0.7811996 α      lambda       -0.7398257E-03
   maximum displ.:     0.3112526 α      in ANC's #5, #2, #7, ...

........................................................................
.............................. CYCLE   36 ..............................
........................................................................

 iter      E             dE          RMSdq      gap      omega  full diag
   1   -191.1865522 -0.191187E+03  0.929E-02    2.14       0.0  T
   2   -191.1865641 -0.118727E-04  0.554E-02    2.15       1.0  T
   3   -191.1865490  0.151441E-04  0.116E-02    2.15       1.0  T
   4   -191.1865668 -0.178183E-04  0.313E-03    2.16       3.0  T
   5   -191.1865676 -0.804497E-06  0.133E-03    2.16       7.0  T
   6   -191.1865676 -0.510675E-07  0.748E-04    2.16      12.4  T
   7   -191.1865677 -0.400249E-07  0.302E-04    2.16      30.6  T
   8   -191.1865677 -0.255912E-08  0.164E-04    2.16      56.3  T
   9   -191.1865677 -0.158178E-08  0.666E-05    2.16     138.8  T
     SCC iter.                  ...        0 min,  0.219 sec
     gradient                   ...        0 min,  0.217 sec
 * total energy  :  -188.2282540 Eh     change       -0.5313928E-03 Eh
   gradient norm :     0.0095705 Eh/α   predicted    -0.5956621E-03 (  12.09%)
   displ. norm   :     0.5930547 α      lambda       -0.6187368E-03
   maximum displ.:     0.2515571 α      in ANC's #5, #2, #6, ...

........................................................................
.............................. CYCLE   37 ..............................
........................................................................

 iter      E             dE          RMSdq      gap      omega  full diag
   1   -191.1901290 -0.191190E+03  0.664E-02    2.16       0.0  T
   2   -191.1901373 -0.838026E-05  0.394E-02    2.17       1.0  T
   3   -191.1901277  0.959919E-05  0.982E-03    2.17       1.0  T
   4   -191.1901392 -0.114304E-04  0.291E-03    2.17       3.2  T
   5   -191.1901397 -0.524536E-06  0.134E-03    2.17       6.9  T
   6   -191.1901398 -0.898794E-07  0.655E-04    2.17      14.1  T
   7   -191.1901398 -0.326711E-07  0.283E-04    2.17      32.6  T
   8   -191.1901398 -0.264026E-08  0.156E-04    2.17      59.2  T
   9   -191.1901398 -0.134415E-08  0.585E-05    2.17     158.0  T
     SCC iter.                  ...        0 min,  0.245 sec
     gradient                   ...        0 min,  0.332 sec
 * total energy  :  -188.2286508 Eh     change       -0.3968692E-03 Eh
   gradient norm :     0.0093102 Eh/α   predicted    -0.4181805E-03 (   5.37%)
   displ. norm   :     0.5301973 α      lambda       -0.5031541E-03
   maximum displ.:     0.2414620 α      in ANC's #5, #2, #6, ...

........................................................................
.............................. CYCLE   38 ..............................
........................................................................

 iter      E             dE          RMSdq      gap      omega  full diag
   1   -191.1917410 -0.191192E+03  0.593E-02    2.17       0.0  T
   2   -191.1917463 -0.523748E-05  0.349E-02    2.17       1.0  T
   3   -191.1917360  0.102261E-04  0.991E-03    2.18       1.0  T
   4   -191.1917481 -0.120805E-04  0.209E-03    2.18       4.4  T
   5   -191.1917483 -0.190731E-06  0.119E-03    2.18       7.8  T
   6   -191.1917484 -0.876614E-07  0.514E-04    2.18      18.0  T
   7   -191.1917484 -0.140099E-07  0.228E-04    2.18      40.5  T
   8   -191.1917484 -0.219990E-08  0.124E-04    2.18      74.4  T
   9   -191.1917484 -0.933937E-09  0.495E-05    2.18     186.6  T
     SCC iter.                  ...        0 min,  0.294 sec
     gradient                   ...        0 min,  0.330 sec
 * total energy  :  -188.2289325 Eh     change       -0.2816485E-03 Eh
   gradient norm :     0.0094528 Eh/α   predicted    -0.3222985E-03 (  14.43%)
   displ. norm   :     0.4293166 α      lambda       -0.3724417E-03
   maximum displ.:     0.2028848 α      in ANC's #5, #2, #6, ...

........................................................................
.............................. CYCLE   39 ..............................
........................................................................

 iter      E             dE          RMSdq      gap      omega  full diag
   1   -191.1949476 -0.191195E+03  0.462E-02    2.18       0.0  T
   2   -191.1949521 -0.442338E-05  0.273E-02    2.18       1.0  T
   3   -191.1949467  0.535590E-05  0.744E-03    2.18       1.2  T
   4   -191.1949531 -0.634067E-05  0.184E-03    2.18       5.0  T
   5   -191.1949533 -0.291980E-06  0.844E-04    2.18      11.0  T
   6   -191.1949534 -0.273595E-07  0.399E-04    2.18      23.2  T
   7   -191.1949534 -0.678170E-08  0.164E-04    2.18      56.4  T
   8   -191.1949534 -0.125073E-08  0.849E-05    2.18     108.8  T
     SCC iter.                  ...        0 min,  0.282 sec
     gradient                   ...        0 min,  0.278 sec
 * total energy  :  -188.2291295 Eh     change       -0.1969671E-03 Eh
   gradient norm :     0.0089520 Eh/α   predicted    -0.2205479E-03 (  11.97%)
   displ. norm   :     0.3958725 α      lambda       -0.3282814E-03
   maximum displ.:     0.1922869 α      in ANC's #5, #2, #6, ...

........................................................................
.............................. CYCLE   40 ..............................
........................................................................

 iter      E             dE          RMSdq      gap      omega  full diag
   1   -191.1912299 -0.191191E+03  0.458E-02    2.18       0.0  T
   2   -191.1912328 -0.288072E-05  0.269E-02    2.18       1.0  T
   3   -191.1912263  0.652493E-05  0.789E-03    2.18       1.2  T
   4   -191.1912338 -0.756237E-05  0.181E-03    2.18       5.1  T
   5   -191.1912340 -0.169881E-06  0.817E-04    2.18      11.3  T
   6   -191.1912340 -0.325759E-07  0.325E-04    2.18      28.4  T
   7   -191.1912341 -0.571956E-08  0.150E-04    2.18      61.4  T
   8   -191.1912341 -0.741437E-09  0.867E-05    2.18     106.7  T
     SCC iter.                  ...        0 min,  0.299 sec
     gradient                   ...        0 min,  0.338 sec
 * total energy  :  -188.2293539 Eh     change       -0.2243980E-03 Eh
   gradient norm :     0.0072136 Eh/α   predicted    -0.1898672E-03 ( -15.39%)
   displ. norm   :     0.3372266 α      lambda       -0.2899237E-03
   maximum displ.:     0.1787678 α      in ANC's #5, #2, #6, ...

........................................................................
.............................. CYCLE   41 ..............................
........................................................................

 iter      E             dE          RMSdq      gap      omega  full diag
   1   -191.1947732 -0.191195E+03  0.406E-02    2.18       0.0  T
   2   -191.1947753 -0.209584E-05  0.237E-02    2.18       1.0  T
   3   -191.1947694  0.582205E-05  0.784E-03    2.18       1.2  T
   4   -191.1947762 -0.680969E-05  0.176E-03    2.18       5.2  T
   5   -191.1947764 -0.149533E-06  0.787E-04    2.18      11.8  T
   6   -191.1947764 -0.328205E-07  0.318E-04    2.18      29.1  T
   7   -191.1947764 -0.584936E-08  0.152E-04    2.18      60.7  T
   8   -191.1947764 -0.112593E-08  0.837E-05    2.18     110.4  T
     SCC iter.                  ...        0 min,  0.281 sec
     gradient                   ...        0 min,  0.344 sec
 * total energy  :  -188.2295451 Eh     change       -0.1912365E-03 Eh
   gradient norm :     0.0080015 Eh/α   predicted    -0.1614482E-03 ( -15.58%)
   displ. norm   :     0.4209396 α      lambda       -0.2559032E-03
   maximum displ.:     0.2215555 α      in ANC's #5, #2, #6, ...

........................................................................
.............................. CYCLE   42 ..............................
........................................................................

 iter      E             dE          RMSdq      gap      omega  full diag
   1   -191.1945331 -0.191195E+03  0.486E-02    2.18       0.0  T
   2   -191.1945353 -0.218386E-05  0.287E-02    2.18       1.0  T
   3   -191.1945276  0.772744E-05  0.842E-03    2.18       1.1  T
   4   -191.1945365 -0.889281E-05  0.149E-03    2.18       6.2  T
   5   -191.1945366 -0.103143E-06  0.744E-04    2.18      12.4  T
   6   -191.1945366 -0.312147E-07  0.326E-04    2.18      28.4  T
   7   -191.1945366 -0.428048E-08  0.153E-04    2.18      60.6  T
   8   -191.1945366 -0.141864E-08  0.776E-05    2.18     119.1  T
     SCC iter.                  ...        0 min,  0.288 sec
     gradient                   ...        0 min,  0.322 sec
 * total energy  :  -188.2297195 Eh     change       -0.1743887E-03 Eh
   gradient norm :     0.0083672 Eh/α   predicted    -0.1506263E-03 ( -13.63%)
   displ. norm   :     0.4268042 α      lambda       -0.2692537E-03
   maximum displ.:     0.2239114 α      in ANC's #5, #2, #1, ...
 * RMSD in coord.:     1.0557231 α      energy gain  -0.1543902E-01 Eh

generating ANC from exact Hessian ...
Using Lindh-Hessian (1995)
 Shifting diagonal of input Hessian by    1.0048826592973896E-002
 Lowest  eigenvalues of input Hessian
    0.010000    0.000000    0.000000    0.000000    0.000000    0.000000
    0.000000    0.010108    0.010132    0.010148    0.010191    0.010213
    0.010355    0.010412    0.010486    0.010537    0.010650    0.010705
 Highest eigenvalues
    2.146817    2.189230    2.316498    2.328116    2.345869    3.112368


........................................................................
.............................. CYCLE   43 ..............................
........................................................................

 iter      E             dE          RMSdq      gap      omega  full diag
   1   -191.1938117 -0.191194E+03  0.466E-02    2.18       0.0  T
   2   -191.1938139 -0.225049E-05  0.276E-02    2.18       1.0  T
   3   -191.1938067  0.721314E-05  0.797E-03    2.18       1.2  T
   4   -191.1938151 -0.832207E-05  0.133E-03    2.18       6.9  T
   5   -191.1938152 -0.121182E-06  0.634E-04    2.18      14.6  T
   6   -191.1938152 -0.928208E-08  0.373E-04    2.18      24.8  T
   7   -191.1938152 -0.724040E-08  0.113E-04    2.18      81.5  T
   8   -191.1938152 -0.411717E-09  0.628E-05    2.18     147.2  T
     SCC iter.                  ...        0 min,  0.272 sec
     gradient                   ...        0 min,  0.327 sec
 * total energy  :  -188.2298864 Eh     change       -0.1669609E-03 Eh
   gradient norm :     0.0076867 Eh/α   predicted     0.0000000E+00 (-100.00%)
   displ. norm   :     0.0754447 α      lambda       -0.1470388E-03
   maximum displ.:     0.0486617 α      in ANC's #2, #3, #4, ...

........................................................................
.............................. CYCLE   44 ..............................
........................................................................

 iter      E             dE          RMSdq      gap      omega  full diag
   1   -191.1944258 -0.191194E+03  0.155E-02    2.18       0.0  T
   2   -191.1944263 -0.482249E-06  0.914E-03    2.18       1.0  T
   3   -191.1944256  0.626451E-06  0.259E-03    2.18       3.6  T
   4   -191.1944263 -0.694341E-06  0.825E-04    2.18      11.2  T
   5   -191.1944264 -0.555609E-07  0.351E-04    2.18      26.4  T
   6   -191.1944264 -0.864509E-08  0.169E-04    2.18      54.6  T
   7   -191.1944264 -0.170837E-08  0.637E-05    2.18     145.2  T
     SCC iter.                  ...        0 min,  0.267 sec
     gradient                   ...        0 min,  0.298 sec
 * total energy  :  -188.2300071 Eh     change       -0.1206383E-03 Eh
   gradient norm :     0.0038714 Eh/α   predicted    -0.7745378E-04 ( -35.80%)
   displ. norm   :     0.1804552 α      lambda       -0.2001802E-03
   maximum displ.:     0.1163646 α      in ANC's #2, #3, #4, ...

........................................................................
.............................. CYCLE   45 ..............................
........................................................................

 iter      E             dE          RMSdq      gap      omega  full diag
   1   -191.1951019 -0.191195E+03  0.269E-02    2.18       0.0  T
   2   -191.1951031 -0.123096E-05  0.157E-02    2.18       1.0  T
   3   -191.1951011  0.207271E-05  0.465E-03    2.18       2.0  T
   4   -191.1951034 -0.231849E-05  0.143E-03    2.18       6.5  T
   5   -191.1951035 -0.142422E-06  0.633E-04    2.18      14.6  T
   6   -191.1951036 -0.260909E-07  0.313E-04    2.18      29.6  T
   7   -191.1951036 -0.681899E-08  0.118E-04    2.18      78.5  T
   8   -191.1951036 -0.878231E-09  0.594E-05    2.18     155.6  T
     SCC iter.                  ...        0 min,  0.251 sec
     gradient                   ...        0 min,  0.295 sec
 * total energy  :  -188.2301477 Eh     change       -0.1406417E-03 Eh
   gradient norm :     0.0036686 Eh/α   predicted    -0.1033514E-03 ( -26.51%)
   displ. norm   :     0.1997664 α      lambda       -0.1338759E-03
   maximum displ.:     0.1286783 α      in ANC's #2, #3, #4, ...

........................................................................
.............................. CYCLE   46 ..............................
........................................................................

 iter      E             dE          RMSdq      gap      omega  full diag
   1   -191.1952384 -0.191195E+03  0.230E-02    2.17       0.0  T
   2   -191.1952389 -0.543130E-06  0.135E-02    2.17       1.0  T
   3   -191.1952376  0.127848E-05  0.360E-03    2.17       2.6  T
   4   -191.1952391 -0.147366E-05  0.971E-04    2.17       9.5  T
   5   -191.1952392 -0.372376E-07  0.472E-04    2.17      19.6  T
   6   -191.1952392 -0.144944E-07  0.231E-04    2.17      40.1  T
   7   -191.1952392 -0.372063E-08  0.994E-05    2.17      93.0  T
   8   -191.1952392 -0.565564E-09  0.493E-05    2.17     187.5  T
     SCC iter.                  ...        0 min,  0.283 sec
     gradient                   ...        0 min,  0.325 sec
 * total energy  :  -188.2302593 Eh     change       -0.1115937E-03 Eh
   gradient norm :     0.0052800 Eh/α   predicted    -0.6960978E-04 ( -37.62%)
   displ. norm   :     0.2931818 α      lambda       -0.1873927E-03
   maximum displ.:     0.1820812 α      in ANC's #2, #3, #4, ...

........................................................................
.............................. CYCLE   47 ..............................
........................................................................

 iter      E             dE          RMSdq      gap      omega  full diag
   1   -191.1950336 -0.191195E+03  0.300E-02    2.17       0.0  T
   2   -191.1950342 -0.616016E-06  0.176E-02    2.17       1.0  T
   3   -191.1950323  0.190059E-05  0.420E-03    2.17       2.2  T
   4   -191.1950345 -0.223429E-05  0.936E-04    2.17       9.9  T
   5   -191.1950345 -0.107162E-07  0.494E-04    2.17      18.7  T
   6   -191.1950346 -0.157293E-07  0.193E-04    2.17      47.9  T
   7   -191.1950346 -0.154924E-08  0.954E-05    2.17      96.9  T
     SCC iter.                  ...        0 min,  0.287 sec
     gradient                   ...        0 min,  0.330 sec
 * total energy  :  -188.2304223 Eh     change       -0.1630074E-03 Eh
   gradient norm :     0.0055684 Eh/α   predicted    -0.1017526E-03 ( -37.58%)
   displ. norm   :     0.4094847 α      lambda       -0.2508341E-03
   maximum displ.:     0.2521201 α      in ANC's #2, #3, #4, ...

........................................................................
.............................. CYCLE   48 ..............................
........................................................................

 iter      E             dE          RMSdq      gap      omega  full diag
   1   -191.1945060 -0.191195E+03  0.399E-02    2.17       0.0  T
   2   -191.1945069 -0.908119E-06  0.235E-02    2.17       1.0  T
   3   -191.1945037  0.325489E-05  0.519E-03    2.17       1.8  T
   4   -191.1945075 -0.377337E-05  0.101E-03    2.17       9.2  T
   5   -191.1945075 -0.211461E-07  0.660E-04    2.17      14.0  T
   6   -191.1945075 -0.238434E-07  0.266E-04    2.17      34.7  T
   7   -191.1945075 -0.350678E-08  0.122E-04    2.17      75.7  T
   8   -191.1945075 -0.775856E-09  0.589E-05    2.17     157.1  T
     SCC iter.                  ...        0 min,  0.232 sec
     gradient                   ...        0 min,  0.282 sec
 * total energy  :  -188.2306335 Eh     change       -0.2111720E-03 Eh
   gradient norm :     0.0054640 Eh/α   predicted    -0.1464558E-03 ( -30.65%)
   displ. norm   :     0.4434864 α      lambda       -0.2432820E-03
   maximum displ.:     0.2763394 α      in ANC's #2, #3, #4, ...

........................................................................
.............................. CYCLE   49 ..............................
........................................................................

 iter      E             dE          RMSdq      gap      omega  full diag
   1   -191.1942403 -0.191194E+03  0.424E-02    2.17       0.0  T
   2   -191.1942413 -0.104473E-05  0.249E-02    2.17       1.0  T
   3   -191.1942364  0.492525E-05  0.631E-03    2.17       1.5  T
   4   -191.1942419 -0.555591E-05  0.112E-03    2.17       8.2  T
   5   -191.1942420 -0.732269E-07  0.655E-04    2.17      14.1  T
   6   -191.1942420 -0.245896E-07  0.292E-04    2.17      31.7  T
   7   -191.1942420 -0.280164E-08  0.128E-04    2.17      72.3  T
   8   -191.1942421 -0.117743E-08  0.532E-05    2.17     173.9  T
     SCC iter.                  ...        0 min,  0.281 sec
     gradient                   ...        0 min,  0.286 sec
 * total energy  :  -188.2308370 Eh     change       -0.2035476E-03 Eh
   gradient norm :     0.0056885 Eh/α   predicted    -0.1455662E-03 ( -28.49%)
   displ. norm   :     0.4318409 α      lambda       -0.2281227E-03
   maximum displ.:     0.2744828 α      in ANC's #2, #3, #4, ...

........................................................................
.............................. CYCLE   50 ..............................
........................................................................

 iter      E             dE          RMSdq      gap      omega  full diag
   1   -191.1948806 -0.191195E+03  0.418E-02    2.16       0.0  T
   2   -191.1948818 -0.115776E-05  0.245E-02    2.16       1.0  T
   3   -191.1948752  0.658028E-05  0.747E-03    2.16       1.2  T
   4   -191.1948825 -0.734259E-05  0.129E-03    2.16       7.1  T
   5   -191.1948826 -0.116897E-06  0.665E-04    2.16      13.9  T
   6   -191.1948827 -0.302434E-07  0.285E-04    2.16      32.5  T
   7   -191.1948827 -0.336880E-08  0.131E-04    2.16      70.8  T
   8   -191.1948827 -0.112013E-08  0.587E-05    2.16     157.5  T
     SCC iter.                  ...        0 min,  0.257 sec
     gradient                   ...        0 min,  0.296 sec
 * total energy  :  -188.2310322 Eh     change       -0.1951437E-03 Eh
   gradient norm :     0.0051841 Eh/α   predicted    -0.1353324E-03 ( -30.65%)
   displ. norm   :     0.4580160 α      lambda       -0.2336835E-03
   maximum displ.:     0.2946373 α      in ANC's #2, #3, #6, ...

........................................................................
.............................. CYCLE   51 ..............................
........................................................................

 iter      E             dE          RMSdq      gap      omega  full diag
   1   -191.1957425 -0.191196E+03  0.447E-02    2.16       0.0  T
   2   -191.1957438 -0.128877E-05  0.263E-02    2.16       1.0  T
   3   -191.1957355  0.831917E-05  0.853E-03    2.16       1.1  T
   4   -191.1957448 -0.929277E-05  0.140E-03    2.16       6.6  T
   5   -191.1957449 -0.119379E-06  0.716E-04    2.16      12.9  T
   6   -191.1957449 -0.358461E-07  0.299E-04    2.16      30.9  T
   7   -191.1957449 -0.488524E-08  0.133E-04    2.16      69.4  T
   8   -191.1957449 -0.113741E-08  0.622E-05    2.16     148.5  T
     SCC iter.                  ...        0 min,  0.250 sec
     gradient                   ...        0 min,  0.324 sec
 * total energy  :  -188.2312355 Eh     change       -0.2033274E-03 Eh
   gradient norm :     0.0040379 Eh/α   predicted    -0.1413532E-03 ( -30.48%)
   displ. norm   :     0.5082203 α      lambda       -0.2457553E-03
   maximum displ.:     0.3288171 α      in ANC's #2, #3, #6, ...

........................................................................
.............................. CYCLE   52 ..............................
........................................................................

 iter      E             dE          RMSdq      gap      omega  full diag
   1   -191.1963786 -0.191196E+03  0.498E-02    2.15       0.0  T
   2   -191.1963800 -0.133053E-05  0.294E-02    2.15       1.0  T
   3   -191.1963709  0.905506E-05  0.889E-03    2.16       1.0  T
   4   -191.1963810 -0.101182E-04  0.138E-03    2.15       6.7  T
   5   -191.1963811 -0.104410E-06  0.732E-04    2.16      12.6  T
   6   -191.1963812 -0.357915E-07  0.306E-04    2.15      30.2  T
   7   -191.1963812 -0.491437E-08  0.138E-04    2.15      66.9  T
   8   -191.1963812 -0.124592E-08  0.635E-05    2.15     145.7  T
     SCC iter.                  ...        0 min,  0.253 sec
     gradient                   ...        0 min,  0.314 sec
 * total energy  :  -188.2314515 Eh     change       -0.2160204E-03 Eh
   gradient norm :     0.0031590 Eh/α   predicted    -0.1546169E-03 ( -28.42%)
   displ. norm   :     0.5553641 α      lambda       -0.2539904E-03
   maximum displ.:     0.3595794 α      in ANC's #2, #3, #6, ...

........................................................................
.............................. CYCLE   53 ..............................
........................................................................

 iter      E             dE          RMSdq      gap      omega  full diag
   1   -191.1967366 -0.191197E+03  0.542E-02    2.15       0.0  T
   2   -191.1967379 -0.133172E-05  0.320E-02    2.15       1.0  T
   3   -191.1967297  0.820633E-05  0.842E-03    2.15       1.1  T
   4   -191.1967389 -0.920464E-05  0.129E-03    2.15       7.2  T
   5   -191.1967390 -0.875047E-07  0.699E-04    2.15      13.2  T
   6   -191.1967390 -0.277078E-07  0.304E-04    2.15      30.5  T
   7   -191.1967390 -0.397873E-08  0.140E-04    2.15      65.8  T
   8   -191.1967390 -0.140162E-08  0.603E-05    2.15     153.3  T
     SCC iter.                  ...        0 min,  0.280 sec
     gradient                   ...        0 min,  0.324 sec
 * total energy  :  -188.2316769 Eh     change       -0.2253853E-03 Eh
   gradient norm :     0.0033976 Eh/α   predicted    -0.1661663E-03 ( -26.27%)
   displ. norm   :     0.5964258 α      lambda       -0.2610418E-03
   maximum displ.:     0.3855950 α      in ANC's #2, #3, #6, ...

........................................................................
.............................. CYCLE   54 ..............................
........................................................................

 iter      E             dE          RMSdq      gap      omega  full diag
   1   -191.1970217 -0.191197E+03  0.577E-02    2.14       0.0  T
   2   -191.1970232 -0.145162E-05  0.340E-02    2.15       1.0  T
   3   -191.1970164  0.682736E-05  0.759E-03    2.14       1.2  T
   4   -191.1970241 -0.774833E-05  0.122E-03    2.15       7.6  T
   5   -191.1970242 -0.851799E-07  0.669E-04    2.15      13.8  T
   6   -191.1970242 -0.204300E-07  0.306E-04    2.15      30.2  T
   7   -191.1970242 -0.316908E-08  0.136E-04    2.15      68.2  T
   8   -191.1970242 -0.147156E-08  0.556E-05    2.15     166.3  T
     SCC iter.                  ...        0 min,  0.249 sec
     gradient                   ...        0 min,  0.332 sec
 * total energy  :  -188.2319099 Eh     change       -0.2330162E-03 Eh
   gradient norm :     0.0040740 Eh/α   predicted    -0.1769513E-03 ( -24.06%)
   displ. norm   :     0.6353909 α      lambda       -0.2647644E-03
   maximum displ.:     0.4094120 α      in ANC's #2, #3, #6, ...

........................................................................
.............................. CYCLE   55 ..............................
........................................................................

 iter      E             dE          RMSdq      gap      omega  full diag
   1   -191.1966214 -0.191197E+03  0.601E-02    2.14       0.0  T
   2   -191.1966230 -0.167110E-05  0.353E-02    2.14       1.0  T
   3   -191.1966166  0.647421E-05  0.730E-03    2.14       1.3  T
   4   -191.1966240 -0.745476E-05  0.119E-03    2.14       7.8  T
   5   -191.1966241 -0.726881E-07  0.694E-04    2.14      13.3  T
   6   -191.1966241 -0.224154E-07  0.306E-04    2.14      30.2  T
   7   -191.1966241 -0.306810E-08  0.135E-04    2.14      68.3  T
   8   -191.1966241 -0.127818E-08  0.608E-05    2.14     151.9  T
     SCC iter.                  ...        0 min,  0.320 sec
     gradient                   ...        0 min,  0.377 sec
 * total energy  :  -188.2321473 Eh     change       -0.2373257E-03 Eh
   gradient norm :     0.0044104 Eh/α   predicted    -0.1858326E-03 ( -21.70%)
   displ. norm   :     0.6464744 α      lambda       -0.2734582E-03
   maximum displ.:     0.4151619 α      in ANC's #2, #3, #6, ...

........................................................................
.............................. CYCLE   56 ..............................
........................................................................

 iter      E             dE          RMSdq      gap      omega  full diag
   1   -191.1981813 -0.191198E+03  0.603E-02    2.13       0.0  T
   2   -191.1981835 -0.222510E-05  0.354E-02    2.14       1.0  T
   3   -191.1981764  0.713067E-05  0.759E-03    2.14       1.2  T
   4   -191.1981846 -0.827696E-05  0.126E-03    2.14       7.3  T
   5   -191.1981847 -0.770066E-07  0.743E-04    2.14      12.4  T
   6   -191.1981848 -0.311019E-07  0.334E-04    2.14      27.7  T
   7   -191.1981848 -0.441057E-08  0.150E-04    2.14      61.7  T
   8   -191.1981848 -0.106641E-08  0.761E-05    2.14     121.4  T
     SCC iter.                  ...        0 min,  0.289 sec
     gradient                   ...        0 min,  0.249 sec
 * total energy  :  -188.2323801 Eh     change       -0.2327994E-03 Eh
   gradient norm :     0.0046002 Eh/α   predicted    -0.1938729E-03 ( -16.72%)
   displ. norm   :     0.6923480 α      lambda       -0.2798538E-03
   maximum displ.:     0.4449798 α      in ANC's #2, #3, #6, ...

........................................................................
.............................. CYCLE   57 ..............................
........................................................................

 iter      E             dE          RMSdq      gap      omega  full diag
   1   -191.1947070 -0.191195E+03  0.622E-02    2.13       0.0  T
   2   -191.1947096 -0.262517E-05  0.364E-02    2.13       1.0  T
   3   -191.1947028  0.686149E-05  0.754E-03    2.13       1.2  T
   4   -191.1947108 -0.806787E-05  0.148E-03    2.13       6.3  T
   5   -191.1947109 -0.774503E-07  0.902E-04    2.13      10.3  T
   6   -191.1947110 -0.541534E-07  0.384E-04    2.13      24.0  T
   7   -191.1947110 -0.576952E-08  0.175E-04    2.13      52.8  T
   8   -191.1947110 -0.121190E-08  0.949E-05    2.13      97.4  T
     SCC iter.                  ...        0 min,  0.187 sec
     gradient                   ...        0 min,  0.265 sec
 * total energy  :  -188.2325935 Eh     change       -0.2134611E-03 Eh
   gradient norm :     0.0052189 Eh/α   predicted    -0.2070026E-03 (  -3.03%)
   displ. norm   :     0.5813145 α      lambda       -0.2561794E-03
   maximum displ.:     0.3708552 α      in ANC's #2, #3, #6, ...

........................................................................
.............................. CYCLE   58 ..............................
........................................................................

 iter      E             dE          RMSdq      gap      omega  full diag
   1   -191.1968625 -0.191197E+03  0.511E-02    2.13       0.0  T
   2   -191.1968647 -0.217876E-05  0.298E-02    2.13       1.0  T
   3   -191.1968588  0.585159E-05  0.686E-03    2.13       1.3  T
   4   -191.1968657 -0.682509E-05  0.134E-03    2.13       6.9  T
   5   -191.1968657 -0.822171E-07  0.751E-04    2.13      12.3  T
   6   -191.1968658 -0.364163E-07  0.333E-04    2.13      27.8  T
   7   -191.1968658 -0.569042E-08  0.150E-04    2.13      61.6  T
   8   -191.1968658 -0.811099E-09  0.844E-05    2.13     109.5  T
     SCC iter.                  ...        0 min,  0.185 sec
     gradient                   ...        0 min,  0.269 sec
 * total energy  :  -188.2328120 Eh     change       -0.2184412E-03 Eh
   gradient norm :     0.0035393 Eh/α   predicted    -0.1713764E-03 ( -21.55%)
   displ. norm   :     0.6598725 α      lambda       -0.2675478E-03
   maximum displ.:     0.4234627 α      in ANC's #2, #3, #6, ...

........................................................................
.............................. CYCLE   59 ..............................
........................................................................

 iter      E             dE          RMSdq      gap      omega  full diag
   1   -191.1982998 -0.191198E+03  0.569E-02    2.13       0.0  T
   2   -191.1983025 -0.273228E-05  0.332E-02    2.13       1.0  T
   3   -191.1982949  0.764617E-05  0.775E-03    2.13       1.2  T
   4   -191.1983037 -0.884578E-05  0.159E-03    2.13       5.8  T
   5   -191.1983039 -0.153369E-06  0.872E-04    2.13      10.6  T
   6   -191.1983039 -0.455735E-07  0.403E-04    2.13      23.0  T
   7   -191.1983039 -0.762151E-08  0.164E-04    2.13      56.4  T
   8   -191.1983039 -0.125610E-08  0.911E-05    2.13     101.5  T
     SCC iter.                  ...        0 min,  0.250 sec
     gradient                   ...        0 min,  0.315 sec
 * total energy  :  -188.2330399 Eh     change       -0.2279024E-03 Eh
   gradient norm :     0.0040972 Eh/α   predicted    -0.1920287E-03 ( -15.74%)
   displ. norm   :     0.6599928 α      lambda       -0.2911106E-03
   maximum displ.:     0.4188985 α      in ANC's #2, #3, #6, ...

........................................................................
.............................. CYCLE   60 ..............................
........................................................................

 iter      E             dE          RMSdq      gap      omega  full diag
   1   -191.2001782 -0.191200E+03  0.582E-02    2.12       0.0  T
   2   -191.2001821 -0.386173E-05  0.339E-02    2.13       1.0  T
   3   -191.2001731  0.903461E-05  0.870E-03    2.13       1.1  T
   4   -191.2001835 -0.104409E-04  0.190E-03    2.13       4.9  T
   5   -191.2001838 -0.280143E-06  0.967E-04    2.13       9.6  T
   6   -191.2001838 -0.445547E-07  0.501E-04    2.13      18.5  T
   7   -191.2001838 -0.119568E-07  0.178E-04    2.13      51.9  T
   8   -191.2001839 -0.212998E-08  0.910E-05    2.13     101.6  T
     SCC iter.                  ...        0 min,  0.237 sec
     gradient                   ...        0 min,  0.311 sec
 * total energy  :  -188.2332532 Eh     change       -0.2133156E-03 Eh
   gradient norm :     0.0060155 Eh/α   predicted    -0.2089629E-03 (  -2.04%)
   displ. norm   :     0.6554148 α      lambda       -0.2724583E-03
   maximum displ.:     0.4185951 α      in ANC's #2, #3, #6, ...

........................................................................
.............................. CYCLE   61 ..............................
........................................................................

 iter      E             dE          RMSdq      gap      omega  full diag
   1   -191.1992445 -0.191199E+03  0.567E-02    2.12       0.0  T
   2   -191.1992477 -0.317019E-05  0.331E-02    2.12       1.0  T
   3   -191.1992376  0.101259E-04  0.906E-03    2.12       1.0  T
   4   -191.1992491 -0.115780E-04  0.179E-03    2.12       5.2  T
   5   -191.1992494 -0.248252E-06  0.905E-04    2.12      10.2  T
   6   -191.1992494 -0.387681E-07  0.444E-04    2.12      20.8  T
   7   -191.1992494 -0.722457E-08  0.173E-04    2.12      53.4  T
   8   -191.1992494 -0.248113E-08  0.804E-05    2.12     114.9  T
     SCC iter.                  ...        0 min,  0.325 sec
     gradient                   ...        0 min,  0.349 sec
 * total energy  :  -188.2334769 Eh     change       -0.2237615E-03 Eh
   gradient norm :     0.0054732 Eh/α   predicted    -0.1947558E-03 ( -12.96%)
   displ. norm   :     0.6097285 α      lambda       -0.2266430E-03
   maximum displ.:     0.3844503 α      in ANC's #2, #3, #6, ...

........................................................................
.............................. CYCLE   62 ..............................
........................................................................

 iter      E             dE          RMSdq      gap      omega  full diag
   1   -191.1989007 -0.191199E+03  0.533E-02    2.12       0.0  T
   2   -191.1989030 -0.222795E-05  0.310E-02    2.12       1.0  T
   3   -191.1988930  0.992866E-05  0.877E-03    2.12       1.1  T
   4   -191.1989044 -0.113872E-04  0.150E-03    2.12       6.2  T
   5   -191.1989045 -0.121546E-06  0.848E-04    2.12      10.9  T
   6   -191.1989046 -0.352274E-07  0.348E-04    2.12      26.6  T
   7   -191.1989046 -0.553629E-08  0.154E-04    2.12      60.0  T
   8   -191.1989046 -0.159289E-08  0.767E-05    2.12     120.5  T
     SCC iter.                  ...        0 min,  0.317 sec
     gradient                   ...        0 min,  0.367 sec
 * total energy  :  -188.2336768 Eh     change       -0.1998190E-03 Eh
   gradient norm :     0.0056448 Eh/α   predicted    -0.1554545E-03 ( -22.20%)
   displ. norm   :     0.6377811 α      lambda       -0.2675537E-03
   maximum displ.:     0.3935834 α      in ANC's #2, #3, #6, ...

........................................................................
.............................. CYCLE   63 ..............................
........................................................................

 iter      E             dE          RMSdq      gap      omega  full diag
   1   -191.2000674 -0.191200E+03  0.558E-02    2.12       0.0  T
   2   -191.2000698 -0.243478E-05  0.325E-02    2.11       1.0  T
   3   -191.2000574  0.124376E-04  0.972E-03    2.12       1.0  T
   4   -191.2000716 -0.142386E-04  0.162E-03    2.12       5.7  T
   5   -191.2000717 -0.100298E-06  0.913E-04    2.12      10.1  T
   6   -191.2000717 -0.422761E-07  0.326E-04    2.12      28.4  T
   7   -191.2000717 -0.394814E-08  0.171E-04    2.12      53.9  T
   8   -191.2000717 -0.152485E-08  0.843E-05    2.12     109.7  T
     SCC iter.                  ...        0 min,  0.321 sec
     gradient                   ...        0 min,  0.440 sec
 * total energy  :  -188.2339136 Eh     change       -0.2368697E-03 Eh
   gradient norm :     0.0048210 Eh/α   predicted    -0.1881982E-03 ( -20.55%)
   displ. norm   :     0.6854497 α      lambda       -0.2962780E-03
   maximum displ.:     0.4197166 α      in ANC's #2, #3, #6, ...

........................................................................
.............................. CYCLE   64 ..............................
........................................................................

 iter      E             dE          RMSdq      gap      omega  full diag
   1   -191.1992941 -0.191199E+03  0.586E-02    2.11       0.0  T
   2   -191.1992966 -0.251704E-05  0.342E-02    2.11       1.0  T
   3   -191.1992843  0.123210E-04  0.949E-03    2.11       1.0  T
   4   -191.1992983 -0.140425E-04  0.168E-03    2.11       5.5  T
   5   -191.1992984 -0.117476E-06  0.890E-04    2.11      10.4  T
   6   -191.1992985 -0.278989E-07  0.369E-04    2.11      25.1  T
   7   -191.1992985 -0.608176E-08  0.162E-04    2.11      57.2  T
   8   -191.1992985 -0.116822E-08  0.857E-05    2.11     107.9  T
     SCC iter.                  ...        0 min,  0.281 sec
     gradient                   ...        0 min,  0.325 sec
 * total energy  :  -188.2341721 Eh     change       -0.2585136E-03 Eh
   gradient norm :     0.0043770 Eh/α   predicted    -0.2177437E-03 ( -15.77%)
   displ. norm   :     0.6980271 α      lambda       -0.3019281E-03
   maximum displ.:     0.4160204 α      in ANC's #2, #3, #6, ...

........................................................................
.............................. CYCLE   65 ..............................
........................................................................

 iter      E             dE          RMSdq      gap      omega  full diag
   1   -191.2006657 -0.191201E+03  0.578E-02    2.10       0.0  T
   2   -191.2006680 -0.236833E-05  0.339E-02    2.10       1.0  T
   3   -191.2006574  0.106174E-04  0.872E-03    2.10       1.1  T
   4   -191.2006695 -0.120258E-04  0.164E-03    2.10       5.6  T
   5   -191.2006696 -0.150578E-06  0.838E-04    2.10      11.0  T
   6   -191.2006696 -0.157193E-07  0.390E-04    2.10      23.7  T
   7   -191.2006696 -0.741761E-08  0.147E-04    2.10      63.1  T
   8   -191.2006696 -0.860666E-09  0.812E-05    2.10     113.8  T
     SCC iter.                  ...        0 min,  0.234 sec
     gradient                   ...        0 min,  0.379 sec
 * total energy  :  -188.2344340 Eh     change       -0.2618411E-03 Eh
   gradient norm :     0.0054349 Eh/α   predicted    -0.2245224E-03 ( -14.25%)
   displ. norm   :     0.7113966 α      lambda       -0.3117135E-03
   maximum displ.:     0.4188593 α      in ANC's #2, #3, #6, ...

........................................................................
.............................. CYCLE   66 ..............................
........................................................................

 iter      E             dE          RMSdq      gap      omega  full diag
   1   -191.1997567 -0.191200E+03  0.582E-02    2.10       0.0  T
   2   -191.1997587 -0.204590E-05  0.341E-02    2.09       1.0  T
   3   -191.1997504  0.831937E-05  0.782E-03    2.09       1.2  T
   4   -191.1997599 -0.946291E-05  0.141E-03    2.09       6.6  T
   5   -191.1997600 -0.127720E-06  0.731E-04    2.09      12.7  T
   6   -191.1997600 -0.880618E-08  0.352E-04    2.09      26.2  T
   7   -191.1997600 -0.595708E-08  0.116E-04    2.09      80.0  T
   8   -191.1997600 -0.443038E-09  0.670E-05    2.09     138.0  T
     SCC iter.                  ...        0 min,  0.351 sec
     gradient                   ...        0 min,  0.355 sec
 * total energy  :  -188.2347103 Eh     change       -0.2763111E-03 Eh
   gradient norm :     0.0069109 Eh/α   predicted    -0.2347370E-03 ( -15.05%)
   displ. norm   :     0.6918782 α      lambda       -0.3464127E-03
   maximum displ.:     0.3865342 α      in ANC's #2, #6, #3, ...
 * RMSD in coord.:     1.0432066 α      energy gain  -0.4990816E-02 Eh

generating ANC from exact Hessian ...
Using Lindh-Hessian (1995)
 Shifting diagonal of input Hessian by    1.0060679288467506E-002
 Lowest  eigenvalues of input Hessian
    0.010000    0.000000    0.000000    0.000000    0.000000    0.000000
    0.000000    0.010128    0.010169    0.010217    0.010280    0.010319
    0.010411    0.010478    0.010537    0.010598    0.010701    0.010796
 Highest eigenvalues
    2.148931    2.185631    2.316332    2.325289    2.348493    3.134908


........................................................................
.............................. CYCLE   67 ..............................
........................................................................

 iter      E             dE          RMSdq      gap      omega  full diag
   1   -191.2012076 -0.191201E+03  0.576E-02    2.09       0.0  T
   2   -191.2012093 -0.177434E-05  0.337E-02    2.09       1.0  T
   3   -191.2012019  0.749736E-05  0.771E-03    2.09       1.2  T
   4   -191.2012105 -0.861256E-05  0.120E-03    2.09       7.7  T
   5   -191.2012105 -0.771340E-07  0.658E-04    2.09      14.0  T
   6   -191.2012106 -0.148723E-07  0.283E-04    2.09      32.7  T
   7   -191.2012106 -0.239780E-08  0.107E-04    2.09      86.6  T
   8   -191.2012106 -0.236497E-09  0.567E-05    2.09     163.0  T
     SCC iter.                  ...        0 min,  0.350 sec
     gradient                   ...        0 min,  0.384 sec
 * total energy  :  -188.2350230 Eh     change       -0.3126945E-03 Eh
   gradient norm :     0.0074514 Eh/α   predicted     0.0000000E+00 (-100.00%)
   displ. norm   :     0.0742599 α      lambda       -0.1119647E-03
   maximum displ.:     0.0436071 α      in ANC's #5, #4, #2, ...

........................................................................
.............................. CYCLE   68 ..............................
........................................................................

 iter      E             dE          RMSdq      gap      omega  full diag
   1   -191.2022441 -0.191202E+03  0.115E-02    2.09       0.0  T
   2   -191.2022446 -0.537412E-06  0.694E-03    2.09       1.3  T
   3   -191.2022441  0.493014E-06  0.272E-03    2.09       3.4  T
   4   -191.2022447 -0.553989E-06  0.928E-04    2.09      10.0  T
   5   -191.2022448 -0.912382E-07  0.291E-04    2.09      31.8  T
   6   -191.2022448 -0.102708E-08  0.182E-04    2.09      50.7  T
   7   -191.2022448 -0.163629E-08  0.690E-05    2.09     133.9  T
     SCC iter.                  ...        0 min,  0.321 sec
     gradient                   ...        0 min,  0.440 sec
 * total energy  :  -188.2351218 Eh     change       -0.9876993E-04 Eh
   gradient norm :     0.0052462 Eh/α   predicted    -0.5629106E-04 ( -43.01%)
   displ. norm   :     0.2809211 α      lambda       -0.3121103E-03
   maximum displ.:     0.1584637 α      in ANC's #5, #4, #2, ...

........................................................................
.............................. CYCLE   69 ..............................
........................................................................

 iter      E             dE          RMSdq      gap      omega  full diag
   1   -191.2032979 -0.191203E+03  0.397E-02    2.09       0.0  T
   2   -191.2033036 -0.568477E-05  0.238E-02    2.09       1.0  T
   3   -191.2032984  0.522089E-05  0.865E-03    2.09       1.1  T
   4   -191.2033039 -0.553090E-05  0.325E-03    2.09       2.8  T
   5   -191.2033051 -0.118922E-05  0.101E-03    2.09       9.2  T
   6   -191.2033051 -0.965252E-08  0.644E-04    2.09      14.4  T
   7   -191.2033051 -0.240765E-07  0.234E-04    2.09      39.6  T
   8   -191.2033051 -0.302580E-08  0.128E-04    2.09      72.1  T
   9   -191.2033051 -0.696218E-09  0.537E-05    2.09     172.2  T
     SCC iter.                  ...        0 min,  0.425 sec
     gradient                   ...        0 min,  0.289 sec
 * total energy  :  -188.2353366 Eh     change       -0.2148324E-03 Eh
   gradient norm :     0.0033339 Eh/α   predicted    -0.1683736E-03 ( -21.63%)
   displ. norm   :     0.2377505 α      lambda       -0.1404948E-03
   maximum displ.:     0.1371401 α      in ANC's #5, #2, #4, ...

........................................................................
.............................. CYCLE   70 ..............................
........................................................................

 iter      E             dE          RMSdq      gap      omega  full diag
   1   -191.2030465 -0.191203E+03  0.295E-02    2.09       0.0  T
   2   -191.2030487 -0.225600E-05  0.175E-02    2.09       1.0  T
   3   -191.2030462  0.255022E-05  0.557E-03    2.09       1.7  T
   4   -191.2030488 -0.259768E-05  0.219E-03    2.09       4.2  T
   5   -191.2030493 -0.559179E-06  0.667E-04    2.09      13.9  T
   6   -191.2030493 -0.410770E-08  0.425E-04    2.09      21.7  T
   7   -191.2030493 -0.104540E-07  0.153E-04    2.09      60.5  T
   8   -191.2030493 -0.122205E-08  0.856E-05    2.09     108.0  T
     SCC iter.                  ...        0 min,  0.332 sec
     gradient                   ...        0 min,  0.377 sec
 * total energy  :  -188.2354494 Eh     change       -0.1128574E-03 Eh
   gradient norm :     0.0054843 Eh/α   predicted    -0.7421884E-04 ( -34.24%)
   displ. norm   :     0.3054443 α      lambda       -0.1725901E-03
   maximum displ.:     0.1725922 α      in ANC's #5, #2, #4, ...

........................................................................
.............................. CYCLE   71 ..............................
........................................................................

 iter      E             dE          RMSdq      gap      omega  full diag
   1   -191.2024388 -0.191202E+03  0.342E-02    2.09       0.0  T
   2   -191.2024407 -0.194719E-05  0.201E-02    2.09       1.0  T
   3   -191.2024372  0.346355E-05  0.602E-03    2.09       1.5  T
   4   -191.2024410 -0.372296E-05  0.199E-03    2.09       4.7  T
   5   -191.2024414 -0.424174E-06  0.648E-04    2.09      14.3  T
   6   -191.2024414 -0.577799E-08  0.411E-04    2.09      22.5  T
   7   -191.2024414 -0.823306E-08  0.151E-04    2.09      61.4  T
   8   -191.2024414 -0.138573E-08  0.807E-05    2.09     114.6  T
     SCC iter.                  ...        0 min,  0.280 sec
     gradient                   ...        0 min,  0.360 sec
 * total energy  :  -188.2356011 Eh     change       -0.1516826E-03 Eh
   gradient norm :     0.0069150 Eh/α   predicted    -0.9434672E-04 ( -37.80%)
   displ. norm   :     0.4657934 α      lambda       -0.2797781E-03
   maximum displ.:     0.2592071 α      in ANC's #5, #2, #4, ...

........................................................................
.............................. CYCLE   72 ..............................
........................................................................

 iter      E             dE          RMSdq      gap      omega  full diag
   1   -191.2012552 -0.191201E+03  0.481E-02    2.09       0.0  T
   2   -191.2012578 -0.261291E-05  0.281E-02    2.09       1.0  T
   3   -191.2012496  0.816380E-05  0.887E-03    2.09       1.0  T
   4   -191.2012589 -0.924087E-05  0.194E-03    2.09       4.8  T
   5   -191.2012592 -0.324211E-06  0.770E-04    2.09      12.0  T
   6   -191.2012592 -0.157361E-07  0.462E-04    2.09      20.0  T
   7   -191.2012592 -0.591783E-08  0.181E-04    2.09      51.1  T
   8   -191.2012592 -0.279962E-08  0.811E-05    2.09     114.0  T
     SCC iter.                  ...        0 min,  0.310 sec
     gradient                   ...        0 min,  0.302 sec
 * total energy  :  -188.2358467 Eh     change       -0.2455746E-03 Eh
   gradient norm :     0.0079019 Eh/α   predicted    -0.1702531E-03 ( -30.67%)
   displ. norm   :     0.5883370 α      lambda       -0.3575840E-03
   maximum displ.:     0.3269635 α      in ANC's #5, #2, #4, ...

........................................................................
.............................. CYCLE   73 ..............................
........................................................................

 iter      E             dE          RMSdq      gap      omega  full diag
   1   -191.1998929 -0.191200E+03  0.561E-02    2.09       0.0  T
   2   -191.1998959 -0.292364E-05  0.327E-02    2.09       1.0  T
   3   -191.1998835  0.123775E-04  0.107E-02    2.09       1.0  T
   4   -191.1998977 -0.142015E-04  0.175E-03    2.09       5.3  T
   5   -191.1998979 -0.193959E-06  0.823E-04    2.09      11.2  T
   6   -191.1998979 -0.217367E-07  0.436E-04    2.09      21.2  T
   7   -191.1998979 -0.410242E-08  0.173E-04    2.09      53.4  T
   8   -191.1998979 -0.251774E-08  0.752E-05    2.09     122.9  T
     SCC iter.                  ...        0 min,  0.259 sec
     gradient                   ...        0 min,  0.322 sec
 * total energy  :  -188.2361581 Eh     change       -0.3114193E-03 Eh
   gradient norm :     0.0084942 Eh/α   predicted    -0.2406794E-03 ( -22.72%)
   displ. norm   :     0.6290683 α      lambda       -0.3989651E-03
   maximum displ.:     0.3507861 α      in ANC's #5, #2, #4, ...

........................................................................
.............................. CYCLE   74 ..............................
........................................................................

 iter      E             dE          RMSdq      gap      omega  full diag
   1   -191.1996681 -0.191200E+03  0.559E-02    2.09       0.0  T
   2   -191.1996710 -0.290307E-05  0.327E-02    2.08       1.0  T
   3   -191.1996583  0.127038E-04  0.107E-02    2.08       1.0  T
   4   -191.1996729 -0.146542E-04  0.170E-03    2.08       5.4  T
   5   -191.1996731 -0.121082E-06  0.858E-04    2.08      10.8  T
   6   -191.1996731 -0.250620E-07  0.355E-04    2.08      26.0  T
   7   -191.1996731 -0.407735E-08  0.157E-04    2.08      58.9  T
   8   -191.1996731 -0.928964E-09  0.760E-05    2.08     121.7  T
     SCC iter.                  ...        0 min,  0.326 sec
     gradient                   ...        0 min,  0.418 sec
 * total energy  :  -188.2365069 Eh     change       -0.3487859E-03 Eh
   gradient norm :     0.0082773 Eh/α   predicted    -0.2784238E-03 ( -20.17%)
   displ. norm   :     0.6414788 α      lambda       -0.4409694E-03
   maximum displ.:     0.3584481 α      in ANC's #5, #2, #4, ...

........................................................................
.............................. CYCLE   75 ..............................
........................................................................

 iter      E             dE          RMSdq      gap      omega  full diag
   1   -191.2012790 -0.191201E+03  0.552E-02    2.08       0.0  T
   2   -191.2012824 -0.338593E-05  0.323E-02    2.08       1.0  T
   3   -191.2012707  0.117067E-04  0.100E-02    2.08       1.0  T
   4   -191.2012843 -0.135548E-04  0.194E-03    2.08       4.8  T
   5   -191.2012844 -0.150739E-06  0.939E-04    2.08       9.8  T
   6   -191.2012844 -0.287922E-07  0.379E-04    2.08      24.4  T
   7   -191.2012844 -0.736767E-08  0.162E-04    2.08      57.2  T
   8   -191.2012844 -0.492804E-09  0.928E-05    2.08      99.6  T
     SCC iter.                  ...        0 min,  0.256 sec
     gradient                   ...        0 min,  0.342 sec
 * total energy  :  -188.2368903 Eh     change       -0.3833528E-03 Eh
   gradient norm :     0.0072990 Eh/α   predicted    -0.3112140E-03 ( -18.82%)
   displ. norm   :     0.6784093 α      lambda       -0.4619800E-03
   maximum displ.:     0.3805842 α      in ANC's #5, #2, #4, ...

........................................................................
.............................. CYCLE   76 ..............................
........................................................................

 iter      E             dE          RMSdq      gap      omega  full diag
   1   -191.2022523 -0.191202E+03  0.597E-02    2.08       0.0  T
   2   -191.2022560 -0.370936E-05  0.349E-02    2.07       1.0  T
   3   -191.2022418  0.141586E-04  0.107E-02    2.07       1.0  T
   4   -191.2022582 -0.163278E-04  0.206E-03    2.07       4.5  T
   5   -191.2022583 -0.179834E-06  0.104E-03    2.07       8.9  T
   6   -191.2022584 -0.431811E-07  0.410E-04    2.07      22.6  T
   7   -191.2022584 -0.971198E-08  0.174E-04    2.07      53.1  T
   8   -191.2022584 -0.434937E-09  0.979E-05    2.07      94.4  T
     SCC iter.                  ...        0 min,  0.296 sec
     gradient                   ...        0 min,  0.368 sec
 * total energy  :  -188.2372944 Eh     change       -0.4041323E-03 Eh
   gradient norm :     0.0067996 Eh/α   predicted    -0.3373009E-03 ( -16.54%)
   displ. norm   :     0.6788214 α      lambda       -0.4643082E-03
   maximum displ.:     0.3829406 α      in ANC's #5, #2, #6, ...

........................................................................
.............................. CYCLE   77 ..............................
........................................................................

 iter      E             dE          RMSdq      gap      omega  full diag
   1   -191.2044029 -0.191204E+03  0.632E-02    2.07       0.0  T
   2   -191.2044074 -0.455582E-05  0.369E-02    2.07       1.0  T
   3   -191.2043881  0.193151E-04  0.125E-02    2.07       1.0  T
   4   -191.2044103 -0.221970E-04  0.216E-03    2.07       4.3  T
   5   -191.2044106 -0.279025E-06  0.112E-03    2.07       8.2  T
   6   -191.2044106 -0.415198E-07  0.490E-04    2.07      18.9  T
   7   -191.2044106 -0.120549E-07  0.195E-04    2.07      47.5  T
   8   -191.2044106 -0.882238E-09  0.111E-04    2.07      83.0  T
     SCC iter.                  ...        0 min,  0.358 sec
     gradient                   ...        0 min,  0.403 sec
 * total energy  :  -188.2376911 Eh     change       -0.3967543E-03 Eh
   gradient norm :     0.0071194 Eh/α   predicted    -0.3391473E-03 ( -14.52%)
   displ. norm   :     0.7295548 α      lambda       -0.4227315E-03
   maximum displ.:     0.4167798 α      in ANC's #5, #2, #6, ...

........................................................................
.............................. CYCLE   78 ..............................
........................................................................

 iter      E             dE          RMSdq      gap      omega  full diag
   1   -191.2011231 -0.191201E+03  0.682E-02    2.07       0.0  T
   2   -191.2011275 -0.443296E-05  0.398E-02    2.07       1.0  T
   3   -191.2011056  0.218938E-04  0.135E-02    2.07       1.0  T
   4   -191.2011307 -0.251145E-04  0.210E-03    2.06       4.4  T
   5   -191.2011310 -0.298294E-06  0.112E-03    2.06       8.2  T
   6   -191.2011310 -0.360923E-07  0.548E-04    2.06      16.9  T
   7   -191.2011311 -0.128043E-07  0.223E-04    2.06      41.5  T
   8   -191.2011311 -0.265447E-08  0.116E-04    2.06      79.9  T
   9   -191.2011311 -0.875986E-09  0.463E-05    2.06     199.5  T
     SCC iter.                  ...        0 min,  0.366 sec
     gradient                   ...        0 min,  0.386 sec
 * total energy  :  -188.2380390 Eh     change       -0.3478182E-03 Eh
   gradient norm :     0.0079344 Eh/α   predicted    -0.3238666E-03 (  -6.89%)
   displ. norm   :     0.6244514 α      lambda       -0.4295796E-03
   maximum displ.:     0.3488401 α      in ANC's #5, #2, #6, ...

........................................................................
.............................. CYCLE   79 ..............................
........................................................................

 iter      E             dE          RMSdq      gap      omega  full diag
   1   -191.2087646 -0.191209E+03  0.667E-02    2.07       0.0  T
   2   -191.2087718 -0.715127E-05  0.389E-02    2.06       1.0  T
   3   -191.2087495  0.222472E-04  0.138E-02    2.06       1.0  T
   4   -191.2087750 -0.254261E-04  0.250E-03    2.06       3.7  T
   5   -191.2087756 -0.625934E-06  0.117E-03    2.06       7.9  T
   6   -191.2087756 -0.410060E-07  0.649E-04    2.06      14.2  T
   7   -191.2087757 -0.120045E-07  0.251E-04    2.06      36.8  T
   8   -191.2087757 -0.471906E-08  0.117E-04    2.06      78.7  T
   9   -191.2087757 -0.921119E-09  0.512E-05    2.06     180.6  T
     SCC iter.                  ...        0 min,  0.357 sec
     gradient                   ...        0 min,  0.341 sec
 * total energy  :  -188.2383122 Eh     change       -0.2732807E-03 Eh
   gradient norm :     0.0089973 Eh/α   predicted    -0.2985576E-03 (   9.25%)
   displ. norm   :     0.6161356 α      lambda       -0.3217927E-03
   maximum displ.:     0.3537764 α      in ANC's #5, #2, #6, ...

........................................................................
.............................. CYCLE   80 ..............................
........................................................................

 iter      E             dE          RMSdq      gap      omega  full diag
   1   -191.2022652 -0.191202E+03  0.594E-02    2.07       0.0  T
   2   -191.2022695 -0.430548E-05  0.345E-02    2.06       1.0  T
   3   -191.2022569  0.126678E-04  0.106E-02    2.07       1.0  T
   4   -191.2022714 -0.145396E-04  0.230E-03    2.06       4.0  T
   5   -191.2022718 -0.394589E-06  0.104E-03    2.06       8.9  T
   6   -191.2022718 -0.212336E-07  0.570E-04    2.06      16.2  T
   7   -191.2022718 -0.137058E-07  0.241E-04    2.06      38.3  T
   8   -191.2022718 -0.400667E-08  0.114E-04    2.06      81.3  T
   9   -191.2022718 -0.535920E-09  0.494E-05    2.06     187.3  T
     SCC iter.                  ...        0 min,  0.316 sec
     gradient                   ...        0 min,  0.317 sec
 * total energy  :  -188.2385523 Eh     change       -0.2400919E-03 Eh
   gradient norm :     0.0075717 Eh/α   predicted    -0.2219842E-03 (  -7.54%)
   displ. norm   :     0.4231633 α      lambda       -0.2763229E-03
   maximum displ.:     0.2266006 α      in ANC's #5, #2, #6, ...

........................................................................
.............................. CYCLE   81 ..............................
........................................................................

 iter      E             dE          RMSdq      gap      omega  full diag
   1   -191.2040123 -0.191204E+03  0.481E-02    2.06       0.0  T
   2   -191.2040151 -0.283601E-05  0.278E-02    2.06       1.0  T
   3   -191.2040091  0.597007E-05  0.767E-03    2.06       1.2  T
   4   -191.2040161 -0.699660E-05  0.204E-03    2.06       4.5  T
   5   -191.2040163 -0.211582E-06  0.959E-04    2.06       9.6  T
   6   -191.2040164 -0.261713E-07  0.507E-04    2.06      18.2  T
   7   -191.2040164 -0.169267E-07  0.207E-04    2.06      44.6  T
   8   -191.2040164 -0.168149E-08  0.119E-04    2.06      77.4  T
   9   -191.2040164 -0.806693E-09  0.349E-05    2.06     264.9  T
     SCC iter.                  ...        0 min,  0.371 sec
     gradient                   ...        0 min,  0.337 sec
 * total energy  :  -188.2387679 Eh     change       -0.2155243E-03 Eh
   gradient norm :     0.0055404 Eh/α   predicted    -0.1629028E-03 ( -24.42%)
   displ. norm   :     0.4590888 α      lambda       -0.2983147E-03
   maximum displ.:     0.2519915 α      in ANC's #2, #5, #6, ...

........................................................................
.............................. CYCLE   82 ..............................
........................................................................

 iter      E             dE          RMSdq      gap      omega  full diag
   1   -191.2060323 -0.191206E+03  0.577E-02    2.07       0.0  T
   2   -191.2060373 -0.504402E-05  0.337E-02    2.07       1.0  T
   3   -191.2060250  0.123950E-04  0.111E-02    2.07       1.0  T
   4   -191.2060395 -0.145414E-04  0.249E-03    2.07       3.7  T
   5   -191.2060398 -0.305042E-06  0.116E-03    2.07       8.0  T
   6   -191.2060398 -0.391879E-07  0.560E-04    2.07      16.5  T
   7   -191.2060399 -0.135578E-07  0.246E-04    2.07      37.5  T
   8   -191.2060399 -0.201220E-08  0.143E-04    2.07      64.7  T
   9   -191.2060399 -0.112632E-08  0.499E-05    2.07     185.2  T
     SCC iter.                  ...        0 min,  0.398 sec
     gradient                   ...        0 min,  0.495 sec
 * total energy  :  -188.2389661 Eh     change       -0.1981892E-03 Eh
   gradient norm :     0.0064393 Eh/α   predicted    -0.1805954E-03 (  -8.88%)
   displ. norm   :     0.3691767 α      lambda       -0.1876232E-03
   maximum displ.:     0.2090686 α      in ANC's #2, #5, #6, ...

........................................................................
.............................. CYCLE   83 ..............................
........................................................................

 iter      E             dE          RMSdq      gap      omega  full diag
   1   -191.2089247 -0.191209E+03  0.475E-02    2.07       0.0  T
   2   -191.2089283 -0.362671E-05  0.281E-02    2.06       1.0  T
   3   -191.2089149  0.133792E-04  0.105E-02    2.07       1.0  T
   4   -191.2089301 -0.151748E-04  0.199E-03    2.07       4.6  T
   5   -191.2089304 -0.322846E-06  0.813E-04    2.07      11.4  T
   6   -191.2089304 -0.212392E-07  0.378E-04    2.07      24.5  T
   7   -191.2089305 -0.318758E-08  0.180E-04    2.07      51.4  T
   8   -191.2089305 -0.183709E-08  0.797E-05    2.07     115.9  T
     SCC iter.                  ...        0 min,  0.450 sec
     gradient                   ...        0 min,  0.433 sec
 * total energy  :  -188.2390875 Eh     change       -0.1214810E-03 Eh
   gradient norm :     0.0068341 Eh/α   predicted    -0.1065975E-03 ( -12.25%)
   displ. norm   :     0.4047860 α      lambda       -0.1515600E-03
   maximum displ.:     0.2296717 α      in ANC's #2, #5, #6, ...

........................................................................
.............................. CYCLE   84 ..............................
........................................................................

 iter      E             dE          RMSdq      gap      omega  full diag
   1   -191.2062294 -0.191206E+03  0.482E-02    2.07       0.0  T
   2   -191.2062317 -0.231716E-05  0.285E-02    2.07       1.0  T
   3   -191.2062197  0.120616E-04  0.997E-03    2.07       1.0  T
   4   -191.2062335 -0.137756E-04  0.153E-03    2.07       6.1  T
   5   -191.2062336 -0.141682E-06  0.756E-04    2.07      12.2  T
   6   -191.2062336 -0.125776E-07  0.380E-04    2.07      24.3  T
   7   -191.2062336 -0.296677E-08  0.174E-04    2.07      53.3  T
   8   -191.2062336 -0.248804E-08  0.677E-05    2.07     136.5  T
     SCC iter.                  ...        0 min,  0.459 sec
     gradient                   ...        0 min,  0.450 sec
 * total energy  :  -188.2392049 Eh     change       -0.1173263E-03 Eh
   gradient norm :     0.0064154 Eh/α   predicted    -0.8819755E-04 ( -24.83%)
   displ. norm   :     0.3519347 α      lambda       -0.1898872E-03
   maximum displ.:     0.2055841 α      in ANC's #2, #7, #6, ...

........................................................................
.............................. CYCLE   85 ..............................
........................................................................

 iter      E             dE          RMSdq      gap      omega  full diag
   1   -191.2072938 -0.191207E+03  0.461E-02    2.07       0.0  T
   2   -191.2072964 -0.261731E-05  0.273E-02    2.07       1.0  T
   3   -191.2072860  0.104502E-04  0.918E-03    2.07       1.0  T
   4   -191.2072979 -0.118882E-04  0.186E-03    2.07       5.0  T
   5   -191.2072981 -0.247068E-06  0.841E-04    2.07      11.0  T
   6   -191.2072981 -0.269108E-07  0.400E-04    2.07      23.1  T
   7   -191.2072981 -0.577293E-08  0.187E-04    2.07      49.4  T
   8   -191.2072981 -0.223349E-08  0.891E-05    2.07     103.8  T
     SCC iter.                  ...        0 min,  0.392 sec
     gradient                   ...        0 min,  0.421 sec
 * total energy  :  -188.2393464 Eh     change       -0.1415319E-03 Eh
   gradient norm :     0.0046661 Eh/α   predicted    -0.1067040E-03 ( -24.61%)
   displ. norm   :     0.3462286 α      lambda       -0.1552223E-03
   maximum displ.:     0.2049466 α      in ANC's #2, #7, #6, ...

........................................................................
.............................. CYCLE   86 ..............................
........................................................................

 iter      E             dE          RMSdq      gap      omega  full diag
   1   -191.2065142 -0.191207E+03  0.457E-02    2.08       0.0  T
   2   -191.2065161 -0.193405E-05  0.268E-02    2.08       1.0  T
   3   -191.2065078  0.826281E-05  0.820E-03    2.08       1.1  T
   4   -191.2065173 -0.945740E-05  0.176E-03    2.08       5.2  T
   5   -191.2065174 -0.142517E-06  0.895E-04    2.08      10.3  T
   6   -191.2065175 -0.467984E-07  0.380E-04    2.08      24.3  T
   7   -191.2065175 -0.669277E-08  0.193E-04    2.08      47.8  T
   8   -191.2065175 -0.230600E-08  0.901E-05    2.08     102.6  T
     SCC iter.                  ...        0 min,  0.368 sec
     gradient                   ...        0 min,  0.464 sec
 * total energy  :  -188.2394569 Eh     change       -0.1104666E-03 Eh
   gradient norm :     0.0050297 Eh/α   predicted    -0.8691533E-04 ( -21.32%)
   displ. norm   :     0.3031030 α      lambda       -0.1156565E-03
   maximum displ.:     0.1842126 α      in ANC's #2, #7, #6, ...

........................................................................
.............................. CYCLE   87 ..............................
........................................................................

 iter      E             dE          RMSdq      gap      omega  full diag
   1   -191.2052445 -0.191205E+03  0.369E-02    2.08       0.0  T
   2   -191.2052467 -0.219413E-05  0.216E-02    2.08       1.0  T
   3   -191.2052414  0.530056E-05  0.668E-03    2.08       1.4  T
   4   -191.2052473 -0.591140E-05  0.171E-03    2.08       5.4  T
   5   -191.2052476 -0.265415E-06  0.693E-04    2.08      13.3  T
   6   -191.2052476 -0.206560E-07  0.337E-04    2.08      27.5  T
   7   -191.2052476 -0.574690E-08  0.152E-04    2.08      61.0  T
   8   -191.2052476 -0.158599E-08  0.699E-05    2.08     132.3  T
     SCC iter.                  ...        0 min,  0.422 sec
     gradient                   ...        0 min,  0.502 sec
 * total energy  :  -188.2395390 Eh     change       -0.8212539E-04 Eh
   gradient norm :     0.0048257 Eh/α   predicted    -0.6314578E-04 ( -23.11%)
   displ. norm   :     0.2936000 α      lambda       -0.1258366E-03
   maximum displ.:     0.1718522 α      in ANC's #2, #7, #6, ...

........................................................................
.............................. CYCLE   88 ..............................
........................................................................

 iter      E             dE          RMSdq      gap      omega  full diag
   1   -191.2061999 -0.191206E+03  0.371E-02    2.08       0.0  T
   2   -191.2062011 -0.112931E-05  0.218E-02    2.08       1.0  T
   3   -191.2061960  0.510231E-05  0.660E-03    2.08       1.4  T
   4   -191.2062017 -0.570293E-05  0.132E-03    2.08       7.0  T
   5   -191.2062018 -0.153908E-06  0.569E-04    2.08      16.2  T
   6   -191.2062018 -0.983522E-08  0.300E-04    2.08      30.8  T
   7   -191.2062018 -0.491468E-08  0.125E-04    2.08      73.7  T
   8   -191.2062018 -0.113704E-08  0.516E-05    2.08     179.1  T
     SCC iter.                  ...        0 min,  0.406 sec
     gradient                   ...        0 min,  0.383 sec
 * total energy  :  -188.2396282 Eh     change       -0.8920234E-04 Eh
   gradient norm :     0.0053516 Eh/α   predicted    -0.6834357E-04 ( -23.38%)
   displ. norm   :     0.3353487 α      lambda       -0.1386017E-03
   maximum displ.:     0.2026807 α      in ANC's #2, #7, #6, ...

........................................................................
.............................. CYCLE   89 ..............................
........................................................................

 iter      E             dE          RMSdq      gap      omega  full diag
   1   -191.2057645 -0.191206E+03  0.401E-02    2.08       0.0  T
   2   -191.2057659 -0.137617E-05  0.236E-02    2.08       1.0  T
   3   -191.2057605  0.540270E-05  0.673E-03    2.08       1.4  T
   4   -191.2057665 -0.598323E-05  0.127E-03    2.08       7.3  T
   5   -191.2057666 -0.158097E-06  0.519E-04    2.08      17.8  T
   6   -191.2057666 -0.899465E-08  0.296E-04    2.08      31.2  T
   7   -191.2057666 -0.256716E-08  0.126E-04    2.08      73.4  T
   8   -191.2057666 -0.126880E-08  0.492E-05    2.08     187.9  T
     SCC iter.                  ...        0 min,  0.315 sec
     gradient                   ...        0 min,  0.388 sec
 * total energy  :  -188.2397334 Eh     change       -0.1051884E-03 Eh
   gradient norm :     0.0049283 Eh/α   predicted    -0.7709664E-04 ( -26.71%)
   displ. norm   :     0.3752670 α      lambda       -0.1605148E-03
   maximum displ.:     0.2223824 α      in ANC's #2, #7, #6, ...

........................................................................
.............................. CYCLE   90 ..............................
........................................................................

 iter      E             dE          RMSdq      gap      omega  full diag
   1   -191.2061617 -0.191206E+03  0.451E-02    2.08       0.0  T
   2   -191.2061638 -0.206852E-05  0.264E-02    2.08       1.0  T
   3   -191.2061575  0.625057E-05  0.735E-03    2.08       1.3  T
   4   -191.2061644 -0.690266E-05  0.170E-03    2.08       5.4  T
   5   -191.2061647 -0.287860E-06  0.641E-04    2.08      14.4  T
   6   -191.2061647 -0.936200E-08  0.354E-04    2.08      26.1  T
   7   -191.2061647 -0.576824E-08  0.136E-04    2.08      68.0  T
   8   -191.2061647 -0.770001E-09  0.753E-05    2.08     122.8  T
     SCC iter.                  ...        0 min,  0.391 sec
     gradient                   ...        0 min,  0.420 sec
 * total energy  :  -188.2398497 Eh     change       -0.1163744E-03 Eh
   gradient norm :     0.0053513 Eh/α   predicted    -0.9156145E-04 ( -21.32%)
   displ. norm   :     0.4144990 α      lambda       -0.1549219E-03
   maximum displ.:     0.2473474 α      in ANC's #2, #7, #6, ...

........................................................................
.............................. CYCLE   91 ..............................
........................................................................

 iter      E             dE          RMSdq      gap      omega  full diag
   1   -191.2072738 -0.191207E+03  0.494E-02    2.08       0.0  T
   2   -191.2072757 -0.193369E-05  0.289E-02    2.08       1.0  T
   3   -191.2072703  0.540697E-05  0.675E-03    2.08       1.4  T
   4   -191.2072763 -0.600684E-05  0.166E-03    2.08       5.6  T
   5   -191.2072766 -0.258718E-06  0.719E-04    2.08      12.9  T
   6   -191.2072766 -0.141966E-07  0.364E-04    2.08      25.4  T
   7   -191.2072766 -0.653438E-08  0.134E-04    2.08      68.8  T
   8   -191.2072766 -0.483169E-09  0.754E-05    2.08     122.6  T
     SCC iter.                  ...        0 min,  0.299 sec
     gradient                   ...        0 min,  0.361 sec
 * total energy  :  -188.2399658 Eh     change       -0.1160346E-03 Eh
   gradient norm :     0.0050199 Eh/α   predicted    -0.9077069E-04 ( -21.77%)
   displ. norm   :     0.4308077 α      lambda       -0.1478664E-03
   maximum displ.:     0.2573307 α      in ANC's #2, #7, #4, ...

........................................................................
.............................. CYCLE   92 ..............................
........................................................................

 iter      E             dE          RMSdq      gap      omega  full diag
   1   -191.2066534 -0.191207E+03  0.513E-02    2.08       0.0  T
   2   -191.2066550 -0.163862E-05  0.301E-02    2.08       1.0  T
   3   -191.2066498  0.520390E-05  0.660E-03    2.08       1.4  T
   4   -191.2066557 -0.584980E-05  0.146E-03    2.08       6.3  T
   5   -191.2066558 -0.170244E-06  0.691E-04    2.08      13.4  T
   6   -191.2066559 -0.118301E-07  0.350E-04    2.08      26.4  T
   7   -191.2066559 -0.614170E-08  0.131E-04    2.08      70.4  T
   8   -191.2066559 -0.702499E-09  0.706E-05    2.08     131.0  T
     SCC iter.                  ...        0 min,  0.357 sec
     gradient                   ...        0 min,  0.390 sec
 * total energy  :  -188.2400823 Eh     change       -0.1164943E-03 Eh
   gradient norm :     0.0048115 Eh/α   predicted    -0.8766017E-04 ( -24.75%)
   displ. norm   :     0.4381987 α      lambda       -0.1622812E-03
   maximum displ.:     0.2591531 α      in ANC's #2, #7, #4, ...
 * RMSD in coord.:     0.8944939 α      energy gain  -0.5371986E-02 Eh

generating ANC from exact Hessian ...
Using Lindh-Hessian (1995)
 Shifting diagonal of input Hessian by    1.0077306744719464E-002
 Lowest  eigenvalues of input Hessian
    0.010000    0.000000    0.000000    0.000000    0.000000    0.000000
    0.000000    0.010131    0.010191    0.010217    0.010331    0.010405
    0.010462    0.010492    0.010680    0.010762    0.010774    0.010864
 Highest eigenvalues
    2.164119    2.183853    2.310621    2.328677    2.349324    3.154975


........................................................................
.............................. CYCLE   93 ..............................
........................................................................

 iter      E             dE          RMSdq      gap      omega  full diag
   1   -191.2089150 -0.191209E+03  0.535E-02    2.08       0.0  T
   2   -191.2089177 -0.262969E-05  0.315E-02    2.08       1.0  T
   3   -191.2089035  0.141580E-04  0.108E-02    2.08       1.0  T
   4   -191.2089194 -0.159393E-04  0.163E-03    2.08       5.7  T
   5   -191.2089196 -0.171790E-06  0.717E-04    2.08      12.9  T
   6   -191.2089196 -0.883892E-08  0.351E-04    2.08      26.3  T
   7   -191.2089196 -0.482549E-08  0.168E-04    2.08      55.0  T
   8   -191.2089196 -0.206728E-08  0.691E-05    2.08     133.9  T
     SCC iter.                  ...        0 min,  0.386 sec
     gradient                   ...        0 min,  0.410 sec
 * total energy  :  -188.2401932 Eh     change       -0.1109174E-03 Eh
   gradient norm :     0.0048601 Eh/α   predicted     0.0000000E+00 (-100.00%)
   displ. norm   :     0.0481797 α      lambda       -0.3705624E-04
   maximum displ.:     0.0157882 α      in ANC's #5, #2, #36, ...

........................................................................
.............................. CYCLE   94 ..............................
........................................................................

 iter      E             dE          RMSdq      gap      omega  full diag
   1   -191.2083798 -0.191208E+03  0.101E-02    2.08       0.0  T
   2   -191.2083801 -0.263391E-06  0.597E-03    2.08       1.5  T
   3   -191.2083793  0.760512E-06  0.263E-03    2.08       3.5  T
   4   -191.2083802 -0.881024E-06  0.593E-04    2.08      15.6  T
   5   -191.2083802 -0.266002E-07  0.246E-04    2.08      37.6  T
   6   -191.2083802 -0.203207E-08  0.117E-04    2.08      78.7  T
   7   -191.2083802 -0.981913E-09  0.572E-05    2.08     161.6  T
     SCC iter.                  ...        0 min,  0.315 sec
     gradient                   ...        0 min,  0.382 sec
 * total energy  :  -188.2402428 Eh     change       -0.4964566E-04 Eh
   gradient norm :     0.0025280 Eh/α   predicted    -0.3125577E-04 ( -37.04%)
   displ. norm   :     0.1385706 α      lambda       -0.1013359E-03
   maximum displ.:     0.0498423 α      in ANC's #5, #2, #36, ...

........................................................................
.............................. CYCLE   95 ..............................
........................................................................

 iter      E             dE          RMSdq      gap      omega  full diag
   1   -191.2075591 -0.191208E+03  0.248E-02    2.08       0.0  T
   2   -191.2075601 -0.109329E-05  0.146E-02    2.08       1.0  T
   3   -191.2075559  0.422088E-05  0.598E-03    2.08       1.5  T
   4   -191.2075608 -0.485004E-05  0.120E-03    2.08       7.7  T
   5   -191.2075609 -0.907467E-07  0.537E-04    2.08      17.2  T
   6   -191.2075609 -0.115054E-07  0.243E-04    2.08      38.0  T
   7   -191.2075609 -0.401073E-08  0.118E-04    2.08      78.4  T
   8   -191.2075609 -0.936808E-09  0.615E-05    2.08     150.4  T
     SCC iter.                  ...        0 min,  0.351 sec
     gradient                   ...        0 min,  0.423 sec
 * total energy  :  -188.2403066 Eh     change       -0.6375522E-04 Eh
   gradient norm :     0.0026419 Eh/α   predicted    -0.5164137E-04 ( -19.00%)
   displ. norm   :     0.1066724 α      lambda       -0.4133032E-04
   maximum displ.:     0.0427492 α      in ANC's #5, #2, #36, ...

........................................................................
.............................. CYCLE   96 ..............................
........................................................................

 iter      E             dE          RMSdq      gap      omega  full diag
   1   -191.2075466 -0.191208E+03  0.172E-02    2.07       0.0  T
   2   -191.2075469 -0.293699E-06  0.101E-02    2.07       1.0  T
   3   -191.2075452  0.169979E-05  0.364E-03    2.07       2.5  T
   4   -191.2075471 -0.193158E-05  0.578E-04    2.07      16.0  T
   5   -191.2075471 -0.173052E-07  0.290E-04    2.07      31.9  T
   6   -191.2075471 -0.368021E-08  0.135E-04    2.07      68.6  T
   7   -191.2075471 -0.920750E-09  0.542E-05    2.07     170.6  T
     SCC iter.                  ...        0 min,  0.298 sec
     gradient                   ...        0 min,  0.443 sec
 * total energy  :  -188.2403390 Eh     change       -0.3238807E-04 Eh
   gradient norm :     0.0032742 Eh/α   predicted    -0.2090175E-04 ( -35.46%)
   displ. norm   :     0.1777816 α      lambda       -0.6106609E-04
   maximum displ.:     0.0746347 α      in ANC's #5, #2, #10, ...

........................................................................
.............................. CYCLE   97 ..............................
........................................................................

 iter      E             dE          RMSdq      gap      omega  full diag
   1   -191.2077998 -0.191208E+03  0.267E-02    2.07       0.0  T
   2   -191.2078004 -0.613915E-06  0.157E-02    2.07       1.0  T
   3   -191.2077970  0.333235E-05  0.496E-03    2.07       1.9  T
   4   -191.2078008 -0.374489E-05  0.789E-04    2.07      11.7  T
   5   -191.2078008 -0.483623E-07  0.393E-04    2.07      23.5  T
   6   -191.2078008 -0.631920E-08  0.210E-04    2.07      44.1  T
   7   -191.2078008 -0.152096E-08  0.882E-05    2.07     104.8  T
   8   -191.2078008 -0.516934E-09  0.419E-05    2.07     220.6  T
     SCC iter.                  ...        0 min,  0.385 sec
     gradient                   ...        0 min,  0.410 sec
 * total energy  :  -188.2403847 Eh     change       -0.4568935E-04 Eh
   gradient norm :     0.0030587 Eh/α   predicted    -0.3149871E-04 ( -31.06%)
   displ. norm   :     0.1858033 α      lambda       -0.5178934E-04
   maximum displ.:     0.0826570 α      in ANC's #5, #2, #10, ...

........................................................................
.............................. CYCLE   98 ..............................
........................................................................

 iter      E             dE          RMSdq      gap      omega  full diag
   1   -191.2081606 -0.191208E+03  0.259E-02    2.06       0.0  T
   2   -191.2081613 -0.649662E-06  0.152E-02    2.06       1.0  T
   3   -191.2081586  0.261933E-05  0.434E-03    2.06       2.1  T
   4   -191.2081615 -0.289894E-05  0.887E-04    2.06      10.4  T
   5   -191.2081616 -0.854637E-07  0.367E-04    2.06      25.2  T
   6   -191.2081616 -0.560590E-08  0.215E-04    2.06      43.1  T
   7   -191.2081616 -0.135017E-08  0.901E-05    2.06     102.6  T
   8   -191.2081616 -0.673111E-09  0.332E-05    2.06     278.8  T
     SCC iter.                  ...        0 min,  0.354 sec
     gradient                   ...        0 min,  0.407 sec
 * total energy  :  -188.2404243 Eh     change       -0.3967520E-04 Eh
   gradient norm :     0.0024234 Eh/α   predicted    -0.2679019E-04 ( -32.48%)
   displ. norm   :     0.2045639 α      lambda       -0.4994995E-04
   maximum displ.:     0.0939095 α      in ANC's #5, #2, #10, ...

........................................................................
.............................. CYCLE   99 ..............................
........................................................................

 iter      E             dE          RMSdq      gap      omega  full diag
   1   -191.2084275 -0.191208E+03  0.265E-02    2.06       0.0  T
   2   -191.2084283 -0.789019E-06  0.156E-02    2.06       1.0  T
   3   -191.2084258  0.252383E-05  0.432E-03    2.06       2.1  T
   4   -191.2084286 -0.278393E-05  0.103E-03    2.06       9.0  T
   5   -191.2084287 -0.115592E-06  0.397E-04    2.06      23.3  T
   6   -191.2084287 -0.510099E-08  0.240E-04    2.06      38.5  T
   7   -191.2084287 -0.260283E-08  0.981E-05    2.06      94.3  T
   8   -191.2084287 -0.630251E-09  0.435E-05    2.06     212.4  T
     SCC iter.                  ...        0 min,  0.415 sec
     gradient                   ...        0 min,  0.458 sec
 * total energy  :  -188.2404646 Eh     change       -0.4027086E-04 Eh
   gradient norm :     0.0021770 Eh/α   predicted    -0.2602764E-04 ( -35.37%)
   displ. norm   :     0.2541398 α      lambda       -0.5950005E-04
   maximum displ.:     0.1196382 α      in ANC's #2, #5, #4, ...

........................................................................
.............................. CYCLE  100 ..............................
........................................................................

 iter      E             dE          RMSdq      gap      omega  full diag
   1   -191.2085409 -0.191209E+03  0.311E-02    2.06       0.0  T
   2   -191.2085419 -0.101712E-05  0.182E-02    2.06       1.0  T
   3   -191.2085387  0.316443E-05  0.495E-03    2.06       1.9  T
   4   -191.2085423 -0.354311E-05  0.114E-03    2.06       8.1  T
   5   -191.2085424 -0.119153E-06  0.472E-04    2.06      19.6  T
   6   -191.2085424 -0.477638E-08  0.286E-04    2.06      32.3  T
   7   -191.2085424 -0.483342E-08  0.114E-04    2.06      80.7  T
   8   -191.2085424 -0.756984E-09  0.565E-05    2.06     163.6  T
     SCC iter.                  ...        0 min,  0.384 sec
     gradient                   ...        0 min,  0.405 sec
 * total energy  :  -188.2405128 Eh     change       -0.4816664E-04 Eh
   gradient norm :     0.0024982 Eh/α   predicted    -0.3167215E-04 ( -34.24%)
   displ. norm   :     0.3004058 α      lambda       -0.6598519E-04
   maximum displ.:     0.1443831 α      in ANC's #2, #5, #4, ...

........................................................................
.............................. CYCLE  101 ..............................
........................................................................

 iter      E             dE          RMSdq      gap      omega  full diag
   1   -191.2084196 -0.191208E+03  0.353E-02    2.05       0.0  T
   2   -191.2084206 -0.997263E-06  0.207E-02    2.05       1.0  T
   3   -191.2084170  0.361870E-05  0.534E-03    2.05       1.7  T
   4   -191.2084211 -0.411816E-05  0.105E-03    2.05       8.8  T
   5   -191.2084212 -0.741234E-07  0.481E-04    2.05      19.2  T
   6   -191.2084212 -0.361518E-08  0.274E-04    2.05      33.8  T
   7   -191.2084212 -0.410211E-08  0.113E-04    2.05      81.6  T
   8   -191.2084212 -0.682462E-09  0.591E-05    2.05     156.5  T
     SCC iter.                  ...        0 min,  0.418 sec
     gradient                   ...        0 min,  0.429 sec
 * total energy  :  -188.2405657 Eh     change       -0.5295694E-04 Eh
   gradient norm :     0.0029144 Eh/α   predicted    -0.3597575E-04 ( -32.07%)
   displ. norm   :     0.3156899 α      lambda       -0.6460837E-04
   maximum displ.:     0.1547856 α      in ANC's #2, #5, #4, ...

........................................................................
.............................. CYCLE  102 ..............................
........................................................................

 iter      E             dE          RMSdq      gap      omega  full diag
   1   -191.2083240 -0.191208E+03  0.361E-02    2.05       0.0  T
   2   -191.2083247 -0.640958E-06  0.212E-02    2.05       1.0  T
   3   -191.2083216  0.312234E-05  0.494E-03    2.04       1.9  T
   4   -191.2083251 -0.357598E-05  0.785E-04    2.04      11.8  T
   5   -191.2083252 -0.259431E-07  0.426E-04    2.05      21.7  T
   6   -191.2083252 -0.464840E-08  0.195E-04    2.05      47.4  T
   7   -191.2083252 -0.170715E-08  0.770E-05    2.05     120.0  T
     SCC iter.                  ...        0 min,  0.271 sec
     gradient                   ...        0 min,  0.381 sec
 * total energy  :  -188.2406174 Eh     change       -0.5167714E-04 Eh
   gradient norm :     0.0030358 Eh/α   predicted    -0.3552514E-04 ( -31.26%)
   displ. norm   :     0.3143773 α      lambda       -0.6135702E-04
   maximum displ.:     0.1569997 α      in ANC's #2, #5, #4, ...

........................................................................
.............................. CYCLE  103 ..............................
........................................................................

 iter      E             dE          RMSdq      gap      omega  full diag
   1   -191.2083749 -0.191208E+03  0.354E-02    2.04       0.0  T
   2   -191.2083753 -0.430022E-06  0.208E-02    2.04       1.0  T
   3   -191.2083729  0.243192E-05  0.434E-03    2.04       2.1  T
   4   -191.2083756 -0.277176E-05  0.651E-04    2.04      14.2  T
   5   -191.2083756 -0.195083E-07  0.391E-04    2.04      23.6  T
   6   -191.2083757 -0.578589E-08  0.158E-04    2.04      58.6  T
   7   -191.2083757 -0.131044E-08  0.675E-05    2.04     137.0  T
     SCC iter.                  ...        0 min,  0.298 sec
     gradient                   ...        0 min,  0.441 sec
 * total energy  :  -188.2406672 Eh     change       -0.4973372E-04 Eh
   gradient norm :     0.0029062 Eh/α   predicted    -0.3371131E-04 ( -32.22%)
   displ. norm   :     0.3261472 α      lambda       -0.6324045E-04
   maximum displ.:     0.1655322 α      in ANC's #2, #5, #4, ...

........................................................................
.............................. CYCLE  104 ..............................
........................................................................

 iter      E             dE          RMSdq      gap      omega  full diag
   1   -191.2085676 -0.191209E+03  0.365E-02    2.04       0.0  T
   2   -191.2085681 -0.474530E-06  0.214E-02    2.04       1.0  T
   3   -191.2085660  0.209348E-05  0.405E-03    2.04       2.3  T
   4   -191.2085684 -0.236482E-05  0.772E-04    2.04      12.0  T
   5   -191.2085684 -0.419505E-07  0.415E-04    2.04      22.3  T
   6   -191.2085684 -0.912598E-08  0.180E-04    2.04      51.3  T
   7   -191.2085684 -0.110384E-08  0.791E-05    2.04     116.9  T
     SCC iter.                  ...        0 min,  0.297 sec
     gradient                   ...        0 min,  0.401 sec
 * total energy  :  -188.2407192 Eh     change       -0.5207950E-04 Eh
   gradient norm :     0.0027464 Eh/α   predicted    -0.3498450E-04 ( -32.82%)
   displ. norm   :     0.3529326 α      lambda       -0.6977244E-04
   maximum displ.:     0.1813668 α      in ANC's #2, #5, #4, ...

........................................................................
.............................. CYCLE  105 ..............................
........................................................................

 iter      E             dE          RMSdq      gap      omega  full diag
   1   -191.2088126 -0.191209E+03  0.396E-02    2.04       0.0  T
   2   -191.2088132 -0.616331E-06  0.232E-02    2.04       1.0  T
   3   -191.2088112  0.202440E-05  0.403E-03    2.04       2.3  T
   4   -191.2088135 -0.227276E-05  0.989E-04    2.04       9.3  T
   5   -191.2088135 -0.765108E-07  0.477E-04    2.04      19.4  T
   6   -191.2088135 -0.126833E-07  0.207E-04    2.04      44.6  T
   7   -191.2088135 -0.198398E-08  0.889E-05    2.04     104.0  T
   8   -191.2088135 -0.436899E-09  0.459E-05    2.04     201.5  T
     SCC iter.                  ...        0 min,  0.361 sec
     gradient                   ...        0 min,  0.374 sec
 * total energy  :  -188.2407773 Eh     change       -0.5804658E-04 Eh
   gradient norm :     0.0027187 Eh/α   predicted    -0.3923800E-04 ( -32.40%)
   displ. norm   :     0.3898807 α      lambda       -0.7966714E-04
   maximum displ.:     0.2022234 α      in ANC's #2, #4, #5, ...

........................................................................
.............................. CYCLE  106 ..............................
........................................................................

 iter      E             dE          RMSdq      gap      omega  full diag
   1   -191.2090587 -0.191209E+03  0.439E-02    2.04       0.0  T
   2   -191.2090594 -0.731821E-06  0.257E-02    2.04       1.0  T
   3   -191.2090573  0.216010E-05  0.419E-03    2.04       2.2  T
   4   -191.2090597 -0.244075E-05  0.110E-03    2.04       8.4  T
   5   -191.2090598 -0.886565E-07  0.519E-04    2.04      17.8  T
   6   -191.2090598 -0.138066E-07  0.231E-04    2.04      40.0  T
   7   -191.2090598 -0.297018E-08  0.996E-05    2.04      92.8  T
   8   -191.2090598 -0.512927E-09  0.528E-05    2.04     175.2  T
     SCC iter.                  ...        0 min,  0.336 sec
     gradient                   ...        0 min,  0.436 sec
 * total energy  :  -188.2408442 Eh     change       -0.6693105E-04 Eh
   gradient norm :     0.0028923 Eh/α   predicted    -0.4588898E-04 ( -31.44%)
   displ. norm   :     0.4319641 α      lambda       -0.9168775E-04
   maximum displ.:     0.2256274 α      in ANC's #2, #4, #5, ...

........................................................................
.............................. CYCLE  107 ..............................
........................................................................

 iter      E             dE          RMSdq      gap      omega  full diag
   1   -191.2092020 -0.191209E+03  0.486E-02    2.04       0.0  T
   2   -191.2092028 -0.750865E-06  0.285E-02    2.04       1.0  T
   3   -191.2092003  0.251406E-05  0.452E-03    2.04       2.0  T
   4   -191.2092031 -0.288614E-05  0.104E-03    2.04       8.9  T
   5   -191.2092032 -0.618578E-07  0.523E-04    2.04      17.7  T
   6   -191.2092032 -0.130073E-07  0.233E-04    2.04      39.7  T
   7   -191.2092032 -0.272158E-08  0.105E-04    2.04      88.1  T
   8   -191.2092032 -0.636959E-09  0.533E-05    2.04     173.4  T
     SCC iter.                  ...        0 min,  0.328 sec
     gradient                   ...        0 min,  0.448 sec
 * total energy  :  -188.2409221 Eh     change       -0.7785142E-04 Eh
   gradient norm :     0.0031513 Eh/α   predicted    -0.5439921E-04 ( -30.12%)
   displ. norm   :     0.4808509 α      lambda       -0.1048695E-03
   maximum displ.:     0.2525555 α      in ANC's #2, #4, #5, ...

........................................................................
.............................. CYCLE  108 ..............................
........................................................................

 iter      E             dE          RMSdq      gap      omega  full diag
   1   -191.2091649 -0.191209E+03  0.537E-02    2.03       0.0  T
   2   -191.2091657 -0.789036E-06  0.315E-02    2.03       1.0  T
   3   -191.2091624  0.323268E-05  0.511E-03    2.03       1.8  T
   4   -191.2091662 -0.372507E-05  0.930E-04    2.03       9.9  T
   5   -191.2091662 -0.430008E-07  0.507E-04    2.03      18.2  T
   6   -191.2091662 -0.107042E-07  0.229E-04    2.03      40.4  T
   7   -191.2091662 -0.161631E-08  0.100E-04    2.03      92.5  T
   8   -191.2091662 -0.789896E-09  0.452E-05    2.03     204.5  T
     SCC iter.                  ...        0 min,  0.402 sec
     gradient                   ...        0 min,  0.466 sec
 * total energy  :  -188.2410117 Eh     change       -0.8959913E-04 Eh
   gradient norm :     0.0034046 Eh/α   predicted    -0.6456004E-04 ( -27.95%)
   displ. norm   :     0.5187138 α      lambda       -0.1138407E-03
   maximum displ.:     0.2743114 α      in ANC's #2, #4, #5, ...

........................................................................
.............................. CYCLE  109 ..............................
........................................................................

 iter      E             dE          RMSdq      gap      omega  full diag
   1   -191.2089321 -0.191209E+03  0.566E-02    2.02       0.0  T
   2   -191.2089330 -0.867940E-06  0.332E-02    2.02       1.0  T
   3   -191.2089292  0.377113E-05  0.552E-03    2.02       1.7  T
   4   -191.2089335 -0.433792E-05  0.868E-04    2.02      10.6  T
   5   -191.2089336 -0.427798E-07  0.489E-04    2.02      18.9  T
   6   -191.2089336 -0.837201E-08  0.245E-04    2.02      37.8  T
   7   -191.2089336 -0.127795E-08  0.841E-05    2.02     109.9  T
   8   -191.2089336 -0.728335E-09  0.333E-05    2.02     278.0  T
     SCC iter.                  ...        0 min,  0.475 sec
     gradient                   ...        0 min,  0.458 sec
 * total energy  :  -188.2411092 Eh     change       -0.9755907E-04 Eh
   gradient norm :     0.0034665 Eh/α   predicted    -0.7223872E-04 ( -25.95%)
   displ. norm   :     0.5417338 α      lambda       -0.1190946E-03
   maximum displ.:     0.2893882 α      in ANC's #2, #4, #5, ...

........................................................................
.............................. CYCLE  110 ..............................
........................................................................

 iter      E             dE          RMSdq      gap      omega  full diag
   1   -191.2086455 -0.191209E+03  0.570E-02    2.01       0.0  T
   2   -191.2086465 -0.957295E-06  0.335E-02    2.01       1.0  T
   3   -191.2086426  0.384469E-05  0.557E-03    2.01       1.7  T
   4   -191.2086471 -0.441931E-05  0.908E-04    2.01      10.2  T
   5   -191.2086471 -0.509511E-07  0.506E-04    2.01      18.3  T
   6   -191.2086471 -0.866879E-08  0.268E-04    2.01      34.5  T
   7   -191.2086471 -0.215448E-08  0.858E-05    2.01     107.7  T
   8   -191.2086471 -0.532509E-09  0.406E-05    2.01     228.0  T
     SCC iter.                  ...        0 min,  0.365 sec
     gradient                   ...        0 min,  0.442 sec
 * total energy  :  -188.2412133 Eh     change       -0.1040965E-03 Eh
   gradient norm :     0.0033018 Eh/α   predicted    -0.7702926E-04 ( -26.00%)
   displ. norm   :     0.5704754 α      lambda       -0.1282549E-03
   maximum displ.:     0.3080699 α      in ANC's #2, #4, #5, ...

........................................................................
.............................. CYCLE  111 ..............................
........................................................................

 iter      E             dE          RMSdq      gap      omega  full diag
   1   -191.2084636 -0.191208E+03  0.576E-02    2.00       0.0  T
   2   -191.2084647 -0.109337E-05  0.339E-02    2.00       1.0  T
   3   -191.2084609  0.375279E-05  0.547E-03    2.00       1.7  T
   4   -191.2084653 -0.431125E-05  0.104E-03    2.00       8.9  T
   5   -191.2084653 -0.719990E-07  0.553E-04    2.00      16.7  T
   6   -191.2084653 -0.104978E-07  0.294E-04    2.00      31.4  T
   7   -191.2084653 -0.338028E-08  0.967E-05    2.00      95.6  T
   8   -191.2084653 -0.457277E-09  0.511E-05    2.00     180.8  T
     SCC iter.                  ...        0 min,  0.405 sec
     gradient                   ...        0 min,  0.437 sec
 * total energy  :  -188.2413270 Eh     change       -0.1136628E-03 Eh
   gradient norm :     0.0031178 Eh/α   predicted    -0.8500356E-04 ( -25.21%)
   displ. norm   :     0.6076357 α      lambda       -0.1395608E-03
   maximum displ.:     0.3316051 α      in ANC's #2, #4, #5, ...

........................................................................
.............................. CYCLE  112 ..............................
........................................................................

 iter      E             dE          RMSdq      gap      omega  full diag
   1   -191.2083047 -0.191208E+03  0.593E-02    2.00       0.0  T
   2   -191.2083059 -0.124172E-05  0.348E-02    1.99       1.0  T
   3   -191.2083021  0.384927E-05  0.545E-03    2.00       1.7  T
   4   -191.2083065 -0.441751E-05  0.115E-03    1.99       8.0  T
   5   -191.2083066 -0.952360E-07  0.603E-04    1.99      15.3  T
   6   -191.2083066 -0.131813E-07  0.315E-04    1.99      29.3  T
   7   -191.2083066 -0.360848E-08  0.106E-04    1.99      87.5  T
   8   -191.2083066 -0.561215E-09  0.569E-05    1.99     162.5  T
     SCC iter.                  ...        0 min,  0.394 sec
     gradient                   ...        0 min,  0.412 sec
 * total energy  :  -188.2414521 Eh     change       -0.1250930E-03 Eh
   gradient norm :     0.0031104 Eh/α   predicted    -0.9554795E-04 ( -23.62%)
   displ. norm   :     0.6435002 α      lambda       -0.1480788E-03
   maximum displ.:     0.3544973 α      in ANC's #2, #4, #5, ...

........................................................................
.............................. CYCLE  113 ..............................
........................................................................

 iter      E             dE          RMSdq      gap      omega  full diag
   1   -191.2082661 -0.191208E+03  0.613E-02    1.99       0.0  T
   2   -191.2082675 -0.137663E-05  0.360E-02    1.99       1.0  T
   3   -191.2082634  0.406830E-05  0.554E-03    1.99       1.7  T
   4   -191.2082681 -0.466496E-05  0.122E-03    1.99       7.6  T
   5   -191.2082682 -0.118134E-06  0.635E-04    1.99      14.6  T
   6   -191.2082682 -0.146470E-07  0.335E-04    1.99      27.6  T
   7   -191.2082682 -0.303746E-08  0.109E-04    1.99      84.6  T
   8   -191.2082682 -0.831733E-09  0.537E-05    1.99     172.1  T
     SCC iter.                  ...        0 min,  0.382 sec
     gradient                   ...        0 min,  0.329 sec
 * total energy  :  -188.2415825 Eh     change       -0.1304321E-03 Eh
   gradient norm :     0.0033425 Eh/α   predicted    -0.1047033E-03 ( -19.73%)
   displ. norm   :     0.6448372 α      lambda       -0.1433391E-03
   maximum displ.:     0.3586571 α      in ANC's #2, #4, #5, ...

........................................................................
.............................. CYCLE  114 ..............................
........................................................................

 iter      E             dE          RMSdq      gap      omega  full diag
   1   -191.2082805 -0.191208E+03  0.607E-02    1.99       0.0  T
   2   -191.2082819 -0.137296E-05  0.355E-02    1.98       1.0  T
   3   -191.2082779  0.401253E-05  0.553E-03    1.99       1.7  T
   4   -191.2082825 -0.461655E-05  0.121E-03    1.98       7.6  T
   5   -191.2082826 -0.116764E-06  0.644E-04    1.98      14.4  T
   6   -191.2082826 -0.143497E-07  0.337E-04    1.98      27.4  T
   7   -191.2082826 -0.267201E-08  0.104E-04    1.98      89.2  T
   8   -191.2082826 -0.966935E-09  0.447E-05    1.98     206.6  T
     SCC iter.                  ...        0 min,  0.353 sec
     gradient                   ...        0 min,  0.388 sec
 * total energy  :  -188.2417092 Eh     change       -0.1266484E-03 Eh
   gradient norm :     0.0034296 Eh/α   predicted    -0.1014764E-03 ( -19.88%)
   displ. norm   :     0.6526654 α      lambda       -0.1426974E-03
   maximum displ.:     0.3659292 α      in ANC's #2, #4, #5, ...

........................................................................
.............................. CYCLE  115 ..............................
........................................................................

 iter      E             dE          RMSdq      gap      omega  full diag
   1   -191.2085538 -0.191209E+03  0.608E-02    1.98       0.0  T
   2   -191.2085552 -0.137550E-05  0.356E-02    1.98       1.0  T
   3   -191.2085512  0.401044E-05  0.562E-03    1.98       1.6  T
   4   -191.2085558 -0.462837E-05  0.127E-03    1.98       7.3  T
   5   -191.2085559 -0.118730E-06  0.668E-04    1.98      13.8  T
   6   -191.2085559 -0.138224E-07  0.333E-04    1.98      27.8  T
   7   -191.2085559 -0.307793E-08  0.965E-05    1.98      95.8  T
   8   -191.2085559 -0.615131E-09  0.475E-05    1.98     194.8  T
     SCC iter.                  ...        0 min,  0.329 sec
     gradient                   ...        0 min,  0.366 sec
 * total energy  :  -188.2418355 Eh     change       -0.1263107E-03 Eh
   gradient norm :     0.0032356 Eh/α   predicted    -0.1017473E-03 ( -19.45%)
   displ. norm   :     0.6774104 α      lambda       -0.1481689E-03
   maximum displ.:     0.3823392 α      in ANC's #2, #4, #3, ...

........................................................................
.............................. CYCLE  116 ..............................
........................................................................

 iter      E             dE          RMSdq      gap      omega  full diag
   1   -191.2082734 -0.191208E+03  0.635E-02    1.98       0.0  T
   2   -191.2082748 -0.141697E-05  0.371E-02    1.97       1.0  T
   3   -191.2082705  0.427324E-05  0.585E-03    1.98       1.6  T
   4   -191.2082755 -0.493538E-05  0.137E-03    1.97       6.7  T
   5   -191.2082756 -0.125464E-06  0.717E-04    1.97      12.9  T
   6   -191.2082756 -0.155394E-07  0.328E-04    1.97      28.2  T
   7   -191.2082756 -0.358790E-08  0.106E-04    1.97      87.0  T
   8   -191.2082756 -0.468788E-09  0.572E-05    1.97     161.6  T
     SCC iter.                  ...        0 min,  0.355 sec
     gradient                   ...        0 min,  0.390 sec
 * total energy  :  -188.2419686 Eh     change       -0.1330924E-03 Eh
   gradient norm :     0.0029852 Eh/α   predicted    -0.1080826E-03 ( -18.79%)
   displ. norm   :     0.7086225 α      lambda       -0.1692528E-03
   maximum displ.:     0.4026470 α      in ANC's #2, #4, #3, ...

........................................................................
.............................. CYCLE  117 ..............................
........................................................................

 iter      E             dE          RMSdq      gap      omega  full diag
   1   -191.2105281 -0.191211E+03  0.652E-02    1.97       0.0  T
   2   -191.2105298 -0.174516E-05  0.382E-02    1.97       1.0  T
   3   -191.2105247  0.519206E-05  0.655E-03    1.97       1.4  T
   4   -191.2105306 -0.593259E-05  0.154E-03    1.97       6.0  T
   5   -191.2105308 -0.170483E-06  0.776E-04    1.97      11.9  T
   6   -191.2105308 -0.180243E-07  0.369E-04    1.97      25.0  T
   7   -191.2105308 -0.495828E-08  0.160E-04    1.97      58.0  T
   8   -191.2105308 -0.198469E-08  0.770E-05    1.97     120.1  T
     SCC iter.                  ...        0 min,  0.332 sec
     gradient                   ...        0 min,  0.447 sec
 * total energy  :  -188.2421116 Eh     change       -0.1429989E-03 Eh
   gradient norm :     0.0032819 Eh/α   predicted    -0.1271268E-03 ( -11.10%)
   displ. norm   :     0.7745467 α      lambda       -0.1837050E-03
   maximum displ.:     0.4387494 α      in ANC's #2, #4, #3, ...

........................................................................
.............................. CYCLE  118 ..............................
........................................................................

 iter      E             dE          RMSdq      gap      omega  full diag
   1   -191.2054129 -0.191205E+03  0.768E-02    1.96       0.0  T
   2   -191.2054149 -0.193237E-05  0.450E-02    1.96       1.0  T
   3   -191.2054079  0.700776E-05  0.747E-03    1.96       1.2  T
   4   -191.2054159 -0.800680E-05  0.157E-03    1.96       5.9  T
   5   -191.2054160 -0.145038E-06  0.813E-04    1.96      11.4  T
   6   -191.2054160 -0.220280E-07  0.374E-04    1.96      24.7  T
   7   -191.2054160 -0.606661E-08  0.167E-04    1.96      55.4  T
   8   -191.2054160 -0.210960E-08  0.797E-05    1.96     116.1  T
     SCC iter.                  ...        0 min,  0.306 sec
     gradient                   ...        0 min,  0.438 sec
 * total energy  :  -188.2422474 Eh     change       -0.1358652E-03 Eh
   gradient norm :     0.0049607 Eh/α   predicted    -0.1469592E-03 (   8.17%)
   displ. norm   :     0.5777693 α      lambda       -0.1880380E-03
   maximum displ.:     0.3275501 α      in ANC's #2, #4, #3, ...

........................................................................
.............................. CYCLE  119 ..............................
........................................................................

 iter      E             dE          RMSdq      gap      omega  full diag
   1   -191.2100750 -0.191210E+03  0.556E-02    1.96       0.0  T
   2   -191.2100768 -0.180437E-05  0.327E-02    1.96       1.0  T
   3   -191.2100709  0.587548E-05  0.689E-03    1.96       1.3  T
   4   -191.2100775 -0.656909E-05  0.140E-03    1.96       6.6  T
   5   -191.2100776 -0.179503E-06  0.645E-04    1.96      14.3  T
   6   -191.2100777 -0.142455E-07  0.344E-04    1.96      26.8  T
   7   -191.2100777 -0.475868E-08  0.157E-04    1.96      58.9  T
   8   -191.2100777 -0.212444E-08  0.571E-05    1.96     161.9  T
     SCC iter.                  ...        0 min,  0.293 sec
     gradient                   ...        0 min,  0.344 sec
 * total energy  :  -188.2423809 Eh     change       -0.1334738E-03 Eh
   gradient norm :     0.0058158 Eh/α   predicted    -0.1254084E-03 (  -6.04%)
   displ. norm   :     0.6363694 α      lambda       -0.1885239E-03
   maximum displ.:     0.3640407 α      in ANC's #2, #4, #3, ...

........................................................................
.............................. CYCLE  120 ..............................
........................................................................

 iter      E             dE          RMSdq      gap      omega  full diag
   1   -191.2092251 -0.191209E+03  0.598E-02    1.95       0.0  T
   2   -191.2092264 -0.132238E-05  0.350E-02    1.95       1.0  T
   3   -191.2092214  0.499424E-05  0.615E-03    1.95       1.5  T
   4   -191.2092271 -0.564013E-05  0.111E-03    1.95       8.3  T
   5   -191.2092272 -0.100297E-06  0.560E-04    1.95      16.5  T
   6   -191.2092272 -0.101308E-07  0.307E-04    1.95      30.1  T
   7   -191.2092272 -0.346671E-08  0.132E-04    1.95      69.9  T
   8   -191.2092272 -0.158443E-08  0.472E-05    1.95     195.7  T
     SCC iter.                  ...        0 min,  0.258 sec
     gradient                   ...        0 min,  0.350 sec
 * total energy  :  -188.2425243 Eh     change       -0.1434206E-03 Eh
   gradient norm :     0.0049203 Eh/α   predicted    -0.1324427E-03 (  -7.65%)
   displ. norm   :     0.6415593 α      lambda       -0.1754820E-03
   maximum displ.:     0.3659404 α      in ANC's #2, #4, #3, ...
 * RMSD in coord.:     0.9264973 α      energy gain  -0.2442037E-02 Eh

generating ANC from exact Hessian ...
Using Lindh-Hessian (1995)
 Shifting diagonal of input Hessian by    1.0085238967825828E-002
 Lowest  eigenvalues of input Hessian
    0.010000    0.000000    0.000000    0.000000    0.000000    0.000000
    0.000000    0.010138    0.010199    0.010231    0.010322    0.010354
    0.010459    0.010517    0.010685    0.010768    0.010882    0.010932
 Highest eigenvalues
    2.171042    2.182281    2.320548    2.332810    2.346423    3.167161


........................................................................
.............................. CYCLE  121 ..............................
........................................................................

 iter      E             dE          RMSdq      gap      omega  full diag
   1   -191.2078520 -0.191208E+03  0.612E-02    1.94       0.0  T
   2   -191.2078537 -0.166411E-05  0.359E-02    1.94       1.0  T
   3   -191.2078480  0.567627E-05  0.660E-03    1.94       1.4  T
   4   -191.2078545 -0.644657E-05  0.122E-03    1.94       7.6  T
   5   -191.2078546 -0.108501E-06  0.603E-04    1.94      15.3  T
   6   -191.2078546 -0.105896E-07  0.333E-04    1.94      27.8  T
   7   -191.2078546 -0.553877E-08  0.144E-04    1.94      64.3  T
   8   -191.2078546 -0.145425E-08  0.654E-05    1.94     141.5  T
     SCC iter.                  ...        0 min,  0.304 sec
     gradient                   ...        0 min,  0.371 sec
 * total energy  :  -188.2426729 Eh     change       -0.1486329E-03 Eh
   gradient norm :     0.0047804 Eh/α   predicted     0.0000000E+00 (-100.00%)
   displ. norm   :     0.0459596 α      lambda       -0.5260625E-04
   maximum displ.:     0.0141617 α      in ANC's #31, #25, #15, ...

........................................................................
.............................. CYCLE  122 ..............................
........................................................................

 iter      E             dE          RMSdq      gap      omega  full diag
   1   -191.2104641 -0.191210E+03  0.107E-02    1.94       0.0  T
   2   -191.2104643 -0.214921E-06  0.639E-03    1.94       1.4  T
   3   -191.2104637  0.639869E-06  0.247E-03    1.94       3.7  T
   4   -191.2104644 -0.719550E-06  0.523E-04    1.94      17.7  T
   5   -191.2104644 -0.268502E-07  0.193E-04    1.94      47.9  T
   6   -191.2104644 -0.172153E-08  0.100E-04    1.94      92.3  T
     SCC iter.                  ...        0 min,  0.242 sec
     gradient                   ...        0 min,  0.410 sec
 * total energy  :  -188.2427206 Eh     change       -0.4768981E-04 Eh
   gradient norm :     0.0024225 Eh/α   predicted    -0.3055589E-04 ( -35.93%)
   displ. norm   :     0.1151730 α      lambda       -0.8193596E-04
   maximum displ.:     0.0341941 α      in ANC's #31, #15, #25, ...

........................................................................
.............................. CYCLE  123 ..............................
........................................................................

 iter      E             dE          RMSdq      gap      omega  full diag
   1   -191.2130967 -0.191213E+03  0.233E-02    1.94       0.0  T
   2   -191.2130975 -0.818137E-06  0.137E-02    1.94       1.0  T
   3   -191.2130951  0.236026E-05  0.464E-03    1.95       2.0  T
   4   -191.2130978 -0.261863E-05  0.108E-03    1.94       8.6  T
   5   -191.2130979 -0.118810E-06  0.403E-04    1.94      23.0  T
   6   -191.2130979 -0.801194E-08  0.206E-04    1.94      44.8  T
   7   -191.2130979 -0.174066E-08  0.976E-05    1.94      94.7  T
   8   -191.2130979 -0.701533E-09  0.380E-05    1.94     243.4  T
     SCC iter.                  ...        0 min,  0.332 sec
     gradient                   ...        0 min,  0.415 sec
 * total energy  :  -188.2427746 Eh     change       -0.5398293E-04 Eh
   gradient norm :     0.0022129 Eh/α   predicted    -0.4151183E-04 ( -23.10%)
   displ. norm   :     0.1059623 α      lambda       -0.3893980E-04
   maximum displ.:     0.0349452 α      in ANC's #15, #4, #5, ...

........................................................................
.............................. CYCLE  124 ..............................
........................................................................

 iter      E             dE          RMSdq      gap      omega  full diag
   1   -191.2130051 -0.191213E+03  0.202E-02    1.94       0.0  T
   2   -191.2130055 -0.347682E-06  0.119E-02    1.94       1.0  T
   3   -191.2130047  0.821163E-06  0.264E-03    1.95       3.5  T
   4   -191.2130056 -0.900054E-06  0.729E-04    1.95      12.7  T
   5   -191.2130056 -0.542476E-07  0.285E-04    1.94      32.5  T
   6   -191.2130056 -0.347495E-08  0.146E-04    1.94      63.4  T
   7   -191.2130056 -0.953435E-09  0.669E-05    1.94     138.1  T
     SCC iter.                  ...        0 min,  0.334 sec
     gradient                   ...        0 min,  0.371 sec
 * total energy  :  -188.2428054 Eh     change       -0.3075533E-04 Eh
   gradient norm :     0.0027556 Eh/α   predicted    -0.1993885E-04 ( -35.17%)
   displ. norm   :     0.1850946 α      lambda       -0.5808325E-04
   maximum displ.:     0.0654378 α      in ANC's #15, #4, #2, ...

........................................................................
.............................. CYCLE  125 ..............................
........................................................................

 iter      E             dE          RMSdq      gap      omega  full diag
   1   -191.2115306 -0.191212E+03  0.347E-02    1.94       0.0  T
   2   -191.2115312 -0.591100E-06  0.203E-02    1.94       1.0  T
   3   -191.2115302  0.105935E-05  0.300E-03    1.94       3.1  T
   4   -191.2115314 -0.119334E-05  0.921E-04    1.94      10.0  T
   5   -191.2115314 -0.778165E-07  0.401E-04    1.94      23.0  T
   6   -191.2115314 -0.618056E-08  0.209E-04    1.94      44.3  T
   7   -191.2115314 -0.226484E-08  0.877E-05    1.94     105.4  T
   8   -191.2115314 -0.422716E-09  0.402E-05    1.94     230.2  T
     SCC iter.                  ...        0 min,  0.241 sec
     gradient                   ...        0 min,  0.365 sec
 * total energy  :  -188.2428479 Eh     change       -0.4256234E-04 Eh
   gradient norm :     0.0028921 Eh/α   predicted    -0.3003751E-04 ( -29.43%)
   displ. norm   :     0.1996255 α      lambda       -0.5137553E-04
   maximum displ.:     0.0736398 α      in ANC's #15, #4, #2, ...

........................................................................
.............................. CYCLE  126 ..............................
........................................................................

 iter      E             dE          RMSdq      gap      omega  full diag
   1   -191.2098551 -0.191210E+03  0.368E-02    1.94       0.0  T
   2   -191.2098556 -0.441062E-06  0.215E-02    1.94       1.0  T
   3   -191.2098543  0.130074E-05  0.331E-03    1.94       2.8  T
   4   -191.2098557 -0.148992E-05  0.682E-04    1.94      13.5  T
   5   -191.2098558 -0.305325E-07  0.331E-04    1.94      27.9  T
   6   -191.2098558 -0.301395E-08  0.175E-04    1.94      52.8  T
   7   -191.2098558 -0.148765E-08  0.706E-05    1.94     131.0  T
     SCC iter.                  ...        0 min,  0.256 sec
     gradient                   ...        0 min,  0.419 sec
 * total energy  :  -188.2428863 Eh     change       -0.3834757E-04 Eh
   gradient norm :     0.0029196 Eh/α   predicted    -0.2671507E-04 ( -30.33%)
   displ. norm   :     0.2165398 α      lambda       -0.5494011E-04
   maximum displ.:     0.0790529 α      in ANC's #15, #4, #2, ...

........................................................................
.............................. CYCLE  127 ..............................
........................................................................

 iter      E             dE          RMSdq      gap      omega  full diag
   1   -191.2087926 -0.191209E+03  0.395E-02    1.93       0.0  T
   2   -191.2087931 -0.520674E-06  0.232E-02    1.93       1.0  T
   3   -191.2087905  0.263372E-05  0.467E-03    1.94       2.0  T
   4   -191.2087935 -0.295678E-05  0.657E-04    1.93      14.1  T
   5   -191.2087935 -0.290528E-07  0.319E-04    1.93      29.0  T
   6   -191.2087935 -0.346517E-08  0.160E-04    1.93      58.0  T
   7   -191.2087935 -0.779494E-09  0.492E-05    1.93     187.9  T
     SCC iter.                  ...        0 min,  0.278 sec
     gradient                   ...        0 min,  0.327 sec
 * total energy  :  -188.2429279 Eh     change       -0.4156929E-04 Eh
   gradient norm :     0.0028653 Eh/α   predicted    -0.2878352E-04 ( -30.76%)
   displ. norm   :     0.2221297 α      lambda       -0.5890080E-04
   maximum displ.:     0.0865303 α      in ANC's #4, #2, #15, ...

........................................................................
.............................. CYCLE  128 ..............................
........................................................................

 iter      E             dE          RMSdq      gap      omega  full diag
   1   -191.2089849 -0.191209E+03  0.403E-02    1.93       0.0  T
   2   -191.2089856 -0.692331E-06  0.236E-02    1.93       1.0  T
   3   -191.2089822  0.334984E-05  0.527E-03    1.93       1.8  T
   4   -191.2089860 -0.374127E-05  0.784E-04    1.93      11.8  T
   5   -191.2089860 -0.477410E-07  0.359E-04    1.93      25.8  T
   6   -191.2089860 -0.516420E-08  0.178E-04    1.93      51.9  T
   7   -191.2089860 -0.806864E-09  0.695E-05    1.93     133.1  T
     SCC iter.                  ...        0 min,  0.278 sec
     gradient                   ...        0 min,  0.364 sec
 * total energy  :  -188.2429722 Eh     change       -0.4439343E-04 Eh
   gradient norm :     0.0027070 Eh/α   predicted    -0.3090389E-04 ( -30.39%)
   displ. norm   :     0.2268818 α      lambda       -0.5672764E-04
   maximum displ.:     0.0949771 α      in ANC's #4, #2, #22, ...

........................................................................
.............................. CYCLE  129 ..............................
........................................................................

 iter      E             dE          RMSdq      gap      omega  full diag
   1   -191.2101752 -0.191210E+03  0.411E-02    1.93       0.0  T
   2   -191.2101758 -0.681767E-06  0.241E-02    1.93       1.0  T
   3   -191.2101732  0.261974E-05  0.460E-03    1.93       2.0  T
   4   -191.2101762 -0.294447E-05  0.848E-04    1.93      10.9  T
   5   -191.2101762 -0.517309E-07  0.395E-04    1.93      23.4  T
   6   -191.2101762 -0.540021E-08  0.196E-04    1.93      47.2  T
   7   -191.2101762 -0.135546E-08  0.762E-05    1.93     121.4  T
     SCC iter.                  ...        0 min,  0.322 sec
     gradient                   ...        0 min,  0.387 sec
 * total energy  :  -188.2430159 Eh     change       -0.4360244E-04 Eh
   gradient norm :     0.0027002 Eh/α   predicted    -0.2982424E-04 ( -31.60%)
   displ. norm   :     0.2634021 α      lambda       -0.6002901E-04
   maximum displ.:     0.1156448 α      in ANC's #4, #2, #22, ...

........................................................................
.............................. CYCLE  130 ..............................
........................................................................

 iter      E             dE          RMSdq      gap      omega  full diag
   1   -191.2114762 -0.191211E+03  0.477E-02    1.93       0.0  T
   2   -191.2114769 -0.707367E-06  0.280E-02    1.93       1.0  T
   3   -191.2114745  0.248768E-05  0.438E-03    1.92       2.1  T
   4   -191.2114773 -0.284889E-05  0.893E-04    1.92      10.4  T
   5   -191.2114774 -0.456236E-07  0.449E-04    1.92      20.6  T
   6   -191.2114774 -0.660535E-08  0.221E-04    1.92      41.9  T
   7   -191.2114774 -0.206001E-08  0.828E-05    1.92     111.6  T
   8   -191.2114774 -0.262958E-09  0.441E-05    1.92     209.5  T
     SCC iter.                  ...        0 min,  0.328 sec
     gradient                   ...        0 min,  0.361 sec
 * total energy  :  -188.2430643 Eh     change       -0.4840903E-04 Eh
   gradient norm :     0.0030310 Eh/α   predicted    -0.3210274E-04 ( -33.68%)
   displ. norm   :     0.3364143 α      lambda       -0.7501802E-04
   maximum displ.:     0.1524437 α      in ANC's #4, #2, #22, ...

........................................................................
.............................. CYCLE  131 ..............................
........................................................................

 iter      E             dE          RMSdq      gap      omega  full diag
   1   -191.2122978 -0.191212E+03  0.607E-02    1.93       0.0  T
   2   -191.2122988 -0.105014E-05  0.356E-02    1.93       1.0  T
   3   -191.2122951  0.376853E-05  0.530E-03    1.93       1.7  T
   4   -191.2122994 -0.435357E-05  0.107E-03    1.93       8.7  T
   5   -191.2122995 -0.593539E-07  0.560E-04    1.93      16.5  T
   6   -191.2122995 -0.101892E-07  0.272E-04    1.93      34.0  T
   7   -191.2122995 -0.295913E-08  0.104E-04    1.93      88.6  T
   8   -191.2122995 -0.505850E-09  0.543E-05    1.93     170.4  T
     SCC iter.                  ...        0 min,  0.255 sec
     gradient                   ...        0 min,  0.340 sec
 * total energy  :  -188.2431252 Eh     change       -0.6092948E-04 Eh
   gradient norm :     0.0033445 Eh/α   predicted    -0.4175460E-04 ( -31.47%)
   displ. norm   :     0.3912691 α      lambda       -0.8676703E-04
   maximum displ.:     0.1819016 α      in ANC's #4, #2, #22, ...

........................................................................
.............................. CYCLE  132 ..............................
........................................................................

 iter      E             dE          RMSdq      gap      omega  full diag
   1   -191.2122600 -0.191212E+03  0.695E-02    1.93       0.0  T
   2   -191.2122614 -0.141681E-05  0.407E-02    1.93       1.0  T
   3   -191.2122563  0.511495E-05  0.616E-03    1.93       1.5  T
   4   -191.2122622 -0.591191E-05  0.120E-03    1.93       7.7  T
   5   -191.2122623 -0.795608E-07  0.628E-04    1.93      14.7  T
   6   -191.2122623 -0.105012E-07  0.312E-04    1.93      29.6  T
   7   -191.2122623 -0.387243E-08  0.123E-04    1.93      74.9  T
   8   -191.2122623 -0.844921E-09  0.624E-05    1.93     148.2  T
     SCC iter.                  ...        0 min,  0.297 sec
     gradient                   ...        0 min,  0.378 sec
 * total energy  :  -188.2431949 Eh     change       -0.6975529E-04 Eh
   gradient norm :     0.0033095 Eh/α   predicted    -0.5002636E-04 ( -28.28%)
   displ. norm   :     0.3962756 α      lambda       -0.8687994E-04
   maximum displ.:     0.1881657 α      in ANC's #4, #2, #22, ...

........................................................................
.............................. CYCLE  133 ..............................
........................................................................

 iter      E             dE          RMSdq      gap      omega  full diag
   1   -191.2116091 -0.191212E+03  0.682E-02    1.93       0.0  T
   2   -191.2116105 -0.140814E-05  0.400E-02    1.93       1.0  T
   3   -191.2116055  0.503050E-05  0.614E-03    1.93       1.5  T
   4   -191.2116113 -0.580640E-05  0.121E-03    1.93       7.7  T
   5   -191.2116114 -0.829066E-07  0.617E-04    1.93      15.0  T
   6   -191.2116114 -0.779616E-08  0.317E-04    1.93      29.2  T
   7   -191.2116114 -0.453542E-08  0.129E-04    1.93      71.9  T
   8   -191.2116114 -0.975177E-09  0.638E-05    1.93     144.9  T
     SCC iter.                  ...        0 min,  0.326 sec
     gradient                   ...        0 min,  0.390 sec
 * total energy  :  -188.2432626 Eh     change       -0.6765046E-04 Eh
   gradient norm :     0.0030944 Eh/α   predicted    -0.5027403E-04 ( -25.69%)
   displ. norm   :     0.3467414 α      lambda       -0.7779334E-04
   maximum displ.:     0.1673023 α      in ANC's #4, #2, #22, ...

........................................................................
.............................. CYCLE  134 ..............................
........................................................................

 iter      E             dE          RMSdq      gap      omega  full diag
   1   -191.2111656 -0.191211E+03  0.569E-02    1.94       0.0  T
   2   -191.2111667 -0.104660E-05  0.334E-02    1.94       1.0  T
   3   -191.2111626  0.402826E-05  0.557E-03    1.94       1.7  T
   4   -191.2111672 -0.460235E-05  0.110E-03    1.94       8.4  T
   5   -191.2111673 -0.678287E-07  0.545E-04    1.94      17.0  T
   6   -191.2111673 -0.529337E-08  0.283E-04    1.94      32.6  T
   7   -191.2111673 -0.457595E-08  0.115E-04    1.94      80.6  T
   8   -191.2111673 -0.696673E-09  0.588E-05    1.94     157.3  T
     SCC iter.                  ...        0 min,  0.309 sec
     gradient                   ...        0 min,  0.339 sec
 * total energy  :  -188.2433224 Eh     change       -0.5981120E-04 Eh
   gradient norm :     0.0030028 Eh/α   predicted    -0.4357358E-04 ( -27.15%)
   displ. norm   :     0.3425371 α      lambda       -0.7404318E-04
   maximum displ.:     0.1653915 α      in ANC's #4, #2, #22, ...

........................................................................
.............................. CYCLE  135 ..............................
........................................................................

 iter      E             dE          RMSdq      gap      omega  full diag
   1   -191.2099531 -0.191210E+03  0.557E-02    1.94       0.0  T
   2   -191.2099540 -0.944926E-06  0.327E-02    1.94       1.0  T
   3   -191.2099502  0.382756E-05  0.545E-03    1.94       1.7  T
   4   -191.2099545 -0.433948E-05  0.108E-03    1.94       8.5  T
   5   -191.2099546 -0.632245E-07  0.517E-04    1.94      17.9  T
   6   -191.2099546 -0.557822E-08  0.264E-04    1.94      35.1  T
   7   -191.2099546 -0.444794E-08  0.104E-04    1.94      88.9  T
   8   -191.2099546 -0.466230E-09  0.558E-05    1.94     165.7  T
     SCC iter.                  ...        0 min,  0.327 sec
     gradient                   ...        0 min,  0.351 sec
 * total energy  :  -188.2433791 Eh     change       -0.5666372E-04 Eh
   gradient norm :     0.0030989 Eh/α   predicted    -0.4136905E-04 ( -26.99%)
   displ. norm   :     0.2988163 α      lambda       -0.8736122E-04
   maximum displ.:     0.1361274 α      in ANC's #4, #2, #6, ...

........................................................................
.............................. CYCLE  136 ..............................
........................................................................

 iter      E             dE          RMSdq      gap      omega  full diag
   1   -191.2126681 -0.191213E+03  0.410E-02    1.95       0.0  T
   2   -191.2126693 -0.120114E-05  0.241E-02    1.94       1.0  T
   3   -191.2126646  0.473947E-05  0.621E-03    1.94       1.5  T
   4   -191.2126699 -0.526652E-05  0.123E-03    1.94       7.5  T
   5   -191.2126700 -0.120360E-06  0.529E-04    1.94      17.5  T
   6   -191.2126700 -0.911336E-08  0.257E-04    1.94      36.0  T
   7   -191.2126700 -0.303251E-08  0.105E-04    1.94      88.2  T
   8   -191.2126700 -0.631474E-09  0.536E-05    1.94     172.3  T
     SCC iter.                  ...        0 min,  0.284 sec
     gradient                   ...        0 min,  0.358 sec
 * total energy  :  -188.2434232 Eh     change       -0.4408266E-04 Eh
   gradient norm :     0.0044371 Eh/α   predicted    -0.4758272E-04 (   7.94%)
   displ. norm   :     0.3868795 α      lambda       -0.9190320E-04
   maximum displ.:     0.1830514 α      in ANC's #4, #2, #22, ...

........................................................................
.............................. CYCLE  137 ..............................
........................................................................

 iter      E             dE          RMSdq      gap      omega  full diag
   1   -191.2085937 -0.191209E+03  0.661E-02    1.94       0.0  T
   2   -191.2085950 -0.134770E-05  0.388E-02    1.94       1.0  T
   3   -191.2085907  0.432546E-05  0.608E-03    1.94       1.5  T
   4   -191.2085956 -0.491681E-05  0.114E-03    1.94       8.1  T
   5   -191.2085957 -0.866994E-07  0.538E-04    1.94      17.2  T
   6   -191.2085957 -0.100122E-07  0.258E-04    1.94      35.9  T
   7   -191.2085957 -0.229790E-08  0.936E-05    1.94      98.7  T
   8   -191.2085957 -0.513609E-09  0.407E-05    1.94     227.2  T
     SCC iter.                  ...        0 min,  0.324 sec
     gradient                   ...        0 min,  0.514 sec
 * total energy  :  -188.2434672 Eh     change       -0.4405417E-04 Eh
   gradient norm :     0.0045443 Eh/α   predicted    -0.5285555E-04 (  19.98%)
   displ. norm   :     0.0718977 α      lambda       -0.5073062E-04
   maximum displ.:     0.0234882 α      in ANC's #15, #17, #19, ...

........................................................................
.............................. CYCLE  138 ..............................
........................................................................

 iter      E             dE          RMSdq      gap      omega  full diag
   1   -191.2102915 -0.191210E+03  0.109E-02    1.94       0.0  T
   2   -191.2102917 -0.210676E-06  0.644E-03    1.94       1.4  T
   3   -191.2102909  0.791404E-06  0.251E-03    1.94       3.7  T
   4   -191.2102918 -0.910936E-06  0.502E-04    1.94      18.4  T
   5   -191.2102918 -0.175377E-07  0.241E-04    1.94      38.4  T
   6   -191.2102918 -0.204631E-08  0.133E-04    1.94      69.5  T
   7   -191.2102918 -0.772502E-09  0.583E-05    1.94     158.4  T
     SCC iter.                  ...        0 min,  0.350 sec
     gradient                   ...        0 min,  0.411 sec
 * total energy  :  -188.2435103 Eh     change       -0.4313492E-04 Eh
   gradient norm :     0.0033433 Eh/α   predicted    -0.2549813E-04 ( -40.89%)
   displ. norm   :     0.3277709 α      lambda       -0.1333956E-03
   maximum displ.:     0.1223781 α      in ANC's #4, #19, #3, ...

........................................................................
.............................. CYCLE  139 ..............................
........................................................................

 iter      E             dE          RMSdq      gap      omega  full diag
   1   -191.2126603 -0.191213E+03  0.427E-02    1.95       0.0  T
   2   -191.2126621 -0.175393E-05  0.252E-02    1.94       1.0  T
   3   -191.2126522  0.988027E-05  0.847E-03    1.94       1.1  T
   4   -191.2126633 -0.111002E-04  0.153E-03    1.94       6.1  T
   5   -191.2126635 -0.169161E-06  0.744E-04    1.94      12.4  T
   6   -191.2126635 -0.199520E-07  0.394E-04    1.94      23.5  T
   7   -191.2126635 -0.621506E-08  0.171E-04    1.94      54.0  T
   8   -191.2126635 -0.185062E-08  0.774E-05    1.94     119.5  T
     SCC iter.                  ...        0 min,  0.310 sec
     gradient                   ...        0 min,  0.429 sec
 * total energy  :  -188.2435992 Eh     change       -0.8884146E-04 Eh
   gradient norm :     0.0027692 Eh/α   predicted    -0.7386418E-04 ( -16.86%)
   displ. norm   :     0.3307887 α      lambda       -0.6069549E-04
   maximum displ.:     0.1492932 α      in ANC's #4, #2, #3, ...

........................................................................
.............................. CYCLE  140 ..............................
........................................................................

 iter      E             dE          RMSdq      gap      omega  full diag
   1   -191.2121155 -0.191212E+03  0.449E-02    1.95       0.0  T
   2   -191.2121164 -0.885311E-06  0.264E-02    1.95       1.0  T
   3   -191.2121112  0.523259E-05  0.598E-03    1.95       1.5  T
   4   -191.2121170 -0.578714E-05  0.109E-03    1.95       8.5  T
   5   -191.2121171 -0.100864E-06  0.513E-04    1.95      18.0  T
   6   -191.2121171 -0.101056E-07  0.259E-04    1.95      35.6  T
   7   -191.2121171 -0.192844E-08  0.110E-04    1.95      84.1  T
   8   -191.2121171 -0.921858E-09  0.456E-05    1.95     202.5  T
     SCC iter.                  ...        0 min,  0.341 sec
     gradient                   ...        0 min,  0.356 sec
 * total energy  :  -188.2436474 Eh     change       -0.4822884E-04 Eh
   gradient norm :     0.0029426 Eh/α   predicted    -0.3367047E-04 ( -30.19%)
   displ. norm   :     0.4169917 α      lambda       -0.7537526E-04
   maximum displ.:     0.1916879 α      in ANC's #4, #2, #3, ...

........................................................................
.............................. CYCLE  141 ..............................
........................................................................

 iter      E             dE          RMSdq      gap      omega  full diag
   1   -191.2108377 -0.191211E+03  0.574E-02    1.96       0.0  T
   2   -191.2108392 -0.148109E-05  0.337E-02    1.96       1.0  T
   3   -191.2108318  0.744779E-05  0.721E-03    1.96       1.3  T
   4   -191.2108400 -0.819629E-05  0.140E-03    1.96       6.6  T
   5   -191.2108402 -0.194498E-06  0.622E-04    1.96      14.9  T
   6   -191.2108402 -0.164175E-07  0.316E-04    1.96      29.2  T
   7   -191.2108402 -0.240180E-08  0.132E-04    1.96      70.3  T
   8   -191.2108402 -0.138380E-08  0.537E-05    1.96     172.2  T
     SCC iter.                  ...        0 min,  0.348 sec
     gradient                   ...        0 min,  0.384 sec
 * total energy  :  -188.2437035 Eh     change       -0.5609513E-04 Eh
   gradient norm :     0.0025924 Eh/α   predicted    -0.4424193E-04 ( -21.13%)
   displ. norm   :     0.3522877 α      lambda       -0.5765360E-04
   maximum displ.:     0.1623805 α      in ANC's #4, #2, #3, ...

........................................................................
.............................. CYCLE  142 ..............................
........................................................................

 iter      E             dE          RMSdq      gap      omega  full diag
   1   -191.2096606 -0.191210E+03  0.481E-02    1.97       0.0  T
   2   -191.2096616 -0.102780E-05  0.283E-02    1.96       1.0  T
   3   -191.2096568  0.479818E-05  0.584E-03    1.97       1.6  T
   4   -191.2096621 -0.529906E-05  0.114E-03    1.97       8.1  T
   5   -191.2096623 -0.128313E-06  0.516E-04    1.97      17.9  T
   6   -191.2096623 -0.113727E-07  0.262E-04    1.97      35.3  T
   7   -191.2096623 -0.137271E-08  0.112E-04    1.97      82.7  T
   8   -191.2096623 -0.109739E-08  0.419E-05    1.97     220.8  T
     SCC iter.                  ...        0 min,  0.273 sec
     gradient                   ...        0 min,  0.310 sec
 * total energy  :  -188.2437444 Eh     change       -0.4085624E-04 Eh
   gradient norm :     0.0027022 Eh/α   predicted    -0.3240558E-04 ( -20.68%)
   displ. norm   :     0.2452888 α      lambda       -0.4586487E-04
   maximum displ.:     0.1067818 α      in ANC's #4, #2, #3, ...

........................................................................
.............................. CYCLE  143 ..............................
........................................................................

 iter      E             dE          RMSdq      gap      omega  full diag
   1   -191.2102301 -0.191210E+03  0.332E-02    1.97       0.0  T
   2   -191.2102306 -0.538155E-06  0.195E-02    1.97       1.0  T
   3   -191.2102276  0.301143E-05  0.460E-03    1.97       2.0  T
   4   -191.2102310 -0.334527E-05  0.819E-04    1.97      11.3  T
   5   -191.2102310 -0.626260E-07  0.399E-04    1.97      23.2  T
   6   -191.2102310 -0.529167E-08  0.210E-04    1.97      44.0  T
   7   -191.2102310 -0.104740E-08  0.905E-05    1.97     102.1  T
   8   -191.2102310 -0.800611E-09  0.332E-05    1.97     278.9  T
     SCC iter.                  ...        0 min,  0.325 sec
     gradient                   ...        0 min,  0.415 sec
 * total energy  :  -188.2437749 Eh     change       -0.3049706E-04 Eh
   gradient norm :     0.0027249 Eh/α   predicted    -0.2431514E-04 ( -20.27%)
   displ. norm   :     0.2593886 α      lambda       -0.4187979E-04
   maximum displ.:     0.1146720 α      in ANC's #4, #2, #3, ...

........................................................................
.............................. CYCLE  144 ..............................
........................................................................

 iter      E             dE          RMSdq      gap      omega  full diag
   1   -191.2100442 -0.191210E+03  0.362E-02    1.98       0.0  T
   2   -191.2100447 -0.483167E-06  0.213E-02    1.98       1.0  T
   3   -191.2100415  0.316949E-05  0.469E-03    1.98       2.0  T
   4   -191.2100451 -0.355107E-05  0.732E-04    1.98      12.6  T
   5   -191.2100451 -0.335285E-07  0.395E-04    1.98      23.4  T
   6   -191.2100451 -0.491085E-08  0.185E-04    1.98      50.0  T
   7   -191.2100451 -0.111274E-08  0.819E-05    1.98     112.9  T
     SCC iter.                  ...        0 min,  0.316 sec
     gradient                   ...        0 min,  0.366 sec
 * total energy  :  -188.2437994 Eh     change       -0.2456095E-04 Eh
   gradient norm :     0.0026108 Eh/α   predicted    -0.2235109E-04 (  -9.00%)
   displ. norm   :     0.1049195 α      lambda       -0.2747730E-04
   maximum displ.:     0.0406646 α      in ANC's #36, #10, #17, ...

........................................................................
.............................. CYCLE  145 ..............................
........................................................................

 iter      E             dE          RMSdq      gap      omega  full diag
   1   -191.2116257 -0.191212E+03  0.154E-02    1.98       0.0  T
   2   -191.2116260 -0.313849E-06  0.899E-03    1.98       1.0  T
   3   -191.2116244  0.155806E-05  0.347E-03    1.98       2.7  T
   4   -191.2116262 -0.178156E-05  0.545E-04    1.98      17.0  T
   5   -191.2116262 -0.259685E-07  0.256E-04    1.98      36.2  T
   6   -191.2116262 -0.292715E-08  0.124E-04    1.98      74.3  T
   7   -191.2116262 -0.425104E-09  0.561E-05    1.98     164.7  T
     SCC iter.                  ...        0 min,  0.197 sec
     gradient                   ...        0 min,  0.335 sec
 * total energy  :  -188.2438168 Eh     change       -0.1734096E-04 Eh
   gradient norm :     0.0016839 Eh/α   predicted    -0.1389146E-04 ( -19.89%)
   displ. norm   :     0.2109227 α      lambda       -0.2013430E-04
   maximum displ.:     0.0863439 α      in ANC's #4, #2, #10, ...

........................................................................
.............................. CYCLE  146 ..............................
........................................................................

 iter      E             dE          RMSdq      gap      omega  full diag
   1   -191.2111555 -0.191211E+03  0.321E-02    1.98       0.0  T
   2   -191.2111560 -0.540244E-06  0.187E-02    1.98       1.0  T
   3   -191.2111517  0.429867E-05  0.556E-03    1.98       1.7  T
   4   -191.2111566 -0.480488E-05  0.698E-04    1.98      13.2  T
   5   -191.2111566 -0.340069E-07  0.368E-04    1.98      25.1  T
   6   -191.2111566 -0.566530E-08  0.183E-04    1.98      50.6  T
   7   -191.2111566 -0.677147E-09  0.844E-05    1.98     109.5  T
     SCC iter.                  ...        0 min,  0.266 sec
     gradient                   ...        0 min,  0.391 sec
 * total energy  :  -188.2438275 Eh     change       -0.1070997E-04 Eh
   gradient norm :     0.0028649 Eh/α   predicted    -0.1026671E-04 (  -4.14%)
   displ. norm   :     0.0888687 α      lambda       -0.1932934E-04
   maximum displ.:     0.0357773 α      in ANC's #4, #14, #3, ...

........................................................................
.............................. CYCLE  147 ..............................
........................................................................

 iter      E             dE          RMSdq      gap      omega  full diag
   1   -191.2130718 -0.191213E+03  0.140E-02    1.98       0.0  T
   2   -191.2130721 -0.273422E-06  0.824E-03    1.98       1.1  T
   3   -191.2130715  0.580193E-06  0.233E-03    1.98       4.0  T
   4   -191.2130722 -0.655041E-06  0.468E-04    1.98      19.7  T
   5   -191.2130722 -0.257533E-07  0.164E-04    1.98      56.4  T
   6   -191.2130722 -0.103378E-08  0.922E-05    1.98     100.3  T
     SCC iter.                  ...        0 min,  0.253 sec
     gradient                   ...        0 min,  0.374 sec
 * total energy  :  -188.2438372 Eh     change       -0.9767847E-05 Eh
   gradient norm :     0.0018269 Eh/α   predicted    -0.9742879E-05 (  -0.26%)
   displ. norm   :     0.1236774 α      lambda       -0.1479826E-04
   maximum displ.:     0.0510208 α      in ANC's #4, #2, #22, ...

........................................................................
.............................. CYCLE  148 ..............................
........................................................................

 iter      E             dE          RMSdq      gap      omega  full diag
   1   -191.2108209 -0.191211E+03  0.203E-02    1.99       0.0  T
   2   -191.2108213 -0.398512E-06  0.119E-02    1.99       1.0  T
   3   -191.2108202  0.111477E-05  0.311E-03    1.99       3.0  T
   4   -191.2108214 -0.122129E-05  0.753E-04    1.99      12.3  T
   5   -191.2108215 -0.572627E-07  0.299E-04    1.99      30.9  T
   6   -191.2108215 -0.370801E-08  0.164E-04    1.99      56.5  T
   7   -191.2108215 -0.100579E-08  0.677E-05    1.99     136.5  T
     SCC iter.                  ...        0 min,  0.310 sec
     gradient                   ...        0 min,  0.380 sec
 * total energy  :  -188.2438423 Eh     change       -0.5056488E-05 Eh
   gradient norm :     0.0029440 Eh/α   predicted    -0.7452847E-05 (  47.39%)
   displ. norm   :     0.0317226 α      lambda       -0.1293743E-04
   maximum displ.:     0.0114302 α      in ANC's #15, #3, #19, ...

........................................................................
.............................. CYCLE  149 ..............................
........................................................................

 iter      E             dE          RMSdq      gap      omega  full diag
   1   -191.2111668 -0.191211E+03  0.599E-03    1.98       0.0  T
   2   -191.2111668 -0.501250E-07  0.354E-03    1.98       2.6  T
   3   -191.2111667  0.999133E-07  0.940E-04    1.98       9.8  T
   4   -191.2111668 -0.111956E-06  0.208E-04    1.98      44.5  T
   5   -191.2111668 -0.411097E-08  0.886E-05    1.98     104.3  T
   6   -191.2111668 -0.320853E-09  0.515E-05    1.98     179.6  T
     SCC iter.                  ...        0 min,  0.288 sec
     gradient                   ...        0 min,  0.385 sec
 * total energy  :  -188.2438507 Eh     change       -0.8386991E-05 Eh
   gradient norm :     0.0014310 Eh/α   predicted    -0.6477449E-05 ( -22.77%)
   displ. norm   :     0.0778637 α      lambda       -0.7679528E-05
   maximum displ.:     0.0327198 α      in ANC's #10, #2, #21, ...

........................................................................
.............................. CYCLE  150 ..............................
........................................................................

 iter      E             dE          RMSdq      gap      omega  full diag
   1   -191.2116187 -0.191212E+03  0.138E-02    1.98       0.0  T
   2   -191.2116189 -0.149005E-06  0.809E-03    1.98       1.1  T
   3   -191.2116181  0.735068E-06  0.236E-03    1.98       3.9  T
   4   -191.2116190 -0.833179E-06  0.386E-04    1.98      24.0  T
   5   -191.2116190 -0.125826E-07  0.185E-04    1.98      49.9  T
   6   -191.2116190 -0.890481E-09  0.980E-05    1.98      94.3  T
     SCC iter.                  ...        0 min,  0.269 sec
     gradient                   ...        0 min,  0.409 sec
 * total energy  :  -188.2438556 Eh     change       -0.4866942E-05 Eh
   gradient norm :     0.0014120 Eh/α   predicted    -0.3854612E-05 ( -20.80%)
   displ. norm   :     0.0614103 α      lambda       -0.4802286E-05
   maximum displ.:     0.0268725 α      in ANC's #10, #2, #21, ...
 * RMSD in coord.:     0.4914559 α      energy gain  -0.1331236E-02 Eh

generating ANC from exact Hessian ...
Using Lindh-Hessian (1995)
 Shifting diagonal of input Hessian by    1.0087382494220328E-002
 Lowest  eigenvalues of input Hessian
    0.010000    0.000000    0.000000    0.000000    0.000000    0.000000
    0.000000    0.010155    0.010203    0.010226    0.010347    0.010373
    0.010458    0.010565    0.010702    0.010808    0.010908    0.010978
 Highest eigenvalues
    2.178715    2.187391    2.327504    2.332974    2.344976    3.170433


........................................................................
.............................. CYCLE  151 ..............................
........................................................................

 iter      E             dE          RMSdq      gap      omega  full diag
   1   -191.2116717 -0.191212E+03  0.110E-02    1.99       0.0  T
   2   -191.2116718 -0.700030E-07  0.646E-03    1.99       1.4  T
   3   -191.2116715  0.323331E-06  0.152E-03    1.98       6.1  T
   4   -191.2116718 -0.364013E-06  0.269E-04    1.99      34.4  T
   5   -191.2116718 -0.562923E-08  0.132E-04    1.99      70.2  T
   6   -191.2116719 -0.412484E-09  0.726E-05    1.99     127.3  T
     SCC iter.                  ...        0 min,  0.258 sec
     gradient                   ...        0 min,  0.390 sec
 * total energy  :  -188.2438596 Eh     change       -0.4071485E-05 Eh
   gradient norm :     0.0010890 Eh/α   predicted     0.0000000E+00 (-100.00%)
   displ. norm   :     0.0145096 α      lambda       -0.1177176E-05
   maximum displ.:     0.0046676 α      in ANC's #7, #3, #12, ...

........................................................................
.............................. CYCLE  152 ..............................
........................................................................

 iter      E             dE          RMSdq      gap      omega  full diag
   1   -191.2115333 -0.191212E+03  0.392E-03    1.99       0.0  T
   2   -191.2115333 -0.274023E-07  0.231E-03    1.99       4.0  T
   3   -191.2115333  0.278377E-07  0.532E-04    1.99      17.4  T
   4   -191.2115333 -0.314228E-07  0.167E-04    1.99      55.4  T
   5   -191.2115333 -0.273701E-08  0.610E-05    1.99     151.4  T
     SCC iter.                  ...        0 min,  0.229 sec
     gradient                   ...        0 min,  0.339 sec
 * total energy  :  -188.2438624 Eh     change       -0.2804617E-05 Eh
   gradient norm :     0.0003766 Eh/α   predicted    -0.1680821E-05 ( -40.07%)
   displ. norm   :     0.0195846 α      lambda       -0.1545827E-05
   maximum displ.:     0.0070246 α      in ANC's #7, #3, #12, ...

........................................................................
.............................. CYCLE  153 ..............................
........................................................................

 iter      E             dE          RMSdq      gap      omega  full diag
   1   -191.2114959 -0.191211E+03  0.339E-03    1.99       0.0  T
   2   -191.2114959 -0.992640E-08  0.200E-03    1.99       4.6  T
   3   -191.2114959  0.394862E-07  0.552E-04    1.99      16.8  T
   4   -191.2114959 -0.447044E-07  0.106E-04    1.99      87.2  T
   5   -191.2114959 -0.790976E-09  0.510E-05    1.99     181.2  T
     SCC iter.                  ...        0 min,  0.206 sec
     gradient                   ...        0 min,  0.383 sec
 * total energy  :  -188.2438643 Eh     change       -0.1898433E-05 Eh
   gradient norm :     0.0004927 Eh/α   predicted    -0.7757561E-06 ( -59.14%)
   displ. norm   :     0.0664131 α      lambda       -0.4002493E-05
   maximum displ.:     0.0238478 α      in ANC's #7, #3, #12, ...

........................................................................
.............................. CYCLE  154 ..............................
........................................................................

 iter      E             dE          RMSdq      gap      omega  full diag
   1   -191.2114867 -0.191211E+03  0.106E-02    1.99       0.0  T
   2   -191.2114867 -0.777283E-07  0.628E-03    1.99       1.5  T
   3   -191.2114863  0.418258E-06  0.172E-03    1.99       5.4  T
   4   -191.2114868 -0.470531E-06  0.299E-04    1.99      31.0  T
   5   -191.2114868 -0.586957E-08  0.151E-04    1.99      61.4  T
   6   -191.2114868 -0.411234E-09  0.808E-05    1.99     114.4  T
     SCC iter.                  ...        0 min,  0.279 sec
     gradient                   ...        0 min,  0.368 sec
 * total energy  :  -188.2438684 Eh     change       -0.4046049E-05 Eh
   gradient norm :     0.0005555 Eh/α   predicted    -0.2016395E-05 ( -50.16%)
   displ. norm   :     0.0527450 α      lambda       -0.1982101E-05
   maximum displ.:     0.0195798 α      in ANC's #3, #7, #4, ...

........................................................................
.............................. CYCLE  155 ..............................
........................................................................

 iter      E             dE          RMSdq      gap      omega  full diag
   1   -191.2115251 -0.191212E+03  0.753E-03    1.99       0.0  T
   2   -191.2115251 -0.335118E-07  0.445E-03    1.99       2.1  T
   3   -191.2115249  0.236639E-06  0.126E-03    1.99       7.4  T
   4   -191.2115251 -0.265244E-06  0.196E-04    1.99      47.1  T
   5   -191.2115251 -0.237782E-08  0.104E-04    1.99      88.6  T
   6   -191.2115251 -0.278391E-09  0.539E-05    1.99     171.4  T
     SCC iter.                  ...        0 min,  0.334 sec
     gradient                   ...        0 min,  0.394 sec
 * total energy  :  -188.2438706 Eh     change       -0.2250730E-05 Eh
   gradient norm :     0.0004313 Eh/α   predicted    -0.1020440E-05 ( -54.66%)
   displ. norm   :     0.0613919 α      lambda       -0.2113296E-05
   maximum displ.:     0.0240946 α      in ANC's #3, #7, #4, ...

........................................................................
.............................. CYCLE  156 ..............................
........................................................................

 iter      E             dE          RMSdq      gap      omega  full diag
   1   -191.2115521 -0.191212E+03  0.813E-03    1.99       0.0  T
   2   -191.2115522 -0.432804E-07  0.480E-03    1.98       1.9  T
   3   -191.2115517  0.403891E-06  0.166E-03    1.98       5.6  T
   4   -191.2115522 -0.452017E-06  0.205E-04    1.98      45.2  T
   5   -191.2115522 -0.244364E-08  0.110E-04    1.98      84.3  T
   6   -191.2115522 -0.399893E-09  0.553E-05    1.98     167.1  T
     SCC iter.                  ...        0 min,  0.277 sec
     gradient                   ...        0 min,  0.366 sec
 * total energy  :  -188.2438730 Eh     change       -0.2333523E-05 Eh
   gradient norm :     0.0003797 Eh/α   predicted    -0.1059355E-05 ( -54.60%)
   displ. norm   :     0.0740506 α      lambda       -0.2459836E-05
   maximum displ.:     0.0303758 α      in ANC's #3, #4, #7, ...

........................................................................
.............................. CYCLE  157 ..............................
........................................................................

 iter      E             dE          RMSdq      gap      omega  full diag
   1   -191.2115629 -0.191212E+03  0.931E-03    1.98       0.0  T
   2   -191.2115630 -0.683663E-07  0.546E-03    1.98       1.7  T
   3   -191.2115624  0.645409E-06  0.222E-03    1.98       4.2  T
   4   -191.2115631 -0.729185E-06  0.254E-04    1.98      36.5  T
   5   -191.2115631 -0.382880E-08  0.130E-04    1.98      71.2  T
   6   -191.2115631 -0.609930E-09  0.639E-05    1.98     144.7  T
     SCC iter.                  ...        0 min,  0.291 sec
     gradient                   ...        0 min,  0.433 sec
 * total energy  :  -188.2438755 Eh     change       -0.2544660E-05 Eh
   gradient norm :     0.0005032 Eh/α   predicted    -0.1234972E-05 ( -51.47%)
   displ. norm   :     0.0782218 α      lambda       -0.2441611E-05
   maximum displ.:     0.0327116 α      in ANC's #3, #4, #7, ...

........................................................................
.............................. CYCLE  158 ..............................
........................................................................

 iter      E             dE          RMSdq      gap      omega  full diag
   1   -191.2115381 -0.191212E+03  0.947E-03    1.99       0.0  T
   2   -191.2115382 -0.841835E-07  0.552E-03    1.98       1.7  T
   3   -191.2115374  0.778473E-06  0.249E-03    1.98       3.7  T
   4   -191.2115383 -0.887445E-06  0.286E-04    1.99      32.3  T
   5   -191.2115383 -0.502200E-08  0.142E-04    1.98      65.1  T
   6   -191.2115383 -0.769973E-09  0.719E-05    1.98     128.6  T
     SCC iter.                  ...        0 min,  0.255 sec
     gradient                   ...        0 min,  0.405 sec
 * total energy  :  -188.2438781 Eh     change       -0.2555498E-05 Eh
   gradient norm :     0.0005001 Eh/α   predicted    -0.1225283E-05 ( -52.05%)
   displ. norm   :     0.0719563 α      lambda       -0.2176979E-05
   maximum displ.:     0.0305283 α      in ANC's #3, #4, #10, ...

........................................................................
.............................. CYCLE  159 ..............................
........................................................................

 iter      E             dE          RMSdq      gap      omega  full diag
   1   -191.2115218 -0.191212E+03  0.873E-03    1.99       0.0  T
   2   -191.2115219 -0.833661E-07  0.507E-03    1.99       1.8  T
   3   -191.2115213  0.605851E-06  0.224E-03    1.99       4.1  T
   4   -191.2115220 -0.693726E-06  0.286E-04    1.99      32.3  T
   5   -191.2115220 -0.557517E-08  0.140E-04    1.99      66.1  T
   6   -191.2115220 -0.753857E-09  0.736E-05    1.99     125.6  T
     SCC iter.                  ...        0 min,  0.195 sec
     gradient                   ...        0 min,  0.349 sec
 * total energy  :  -188.2438805 Eh     change       -0.2403252E-05 Eh
   gradient norm :     0.0003838 Eh/α   predicted    -0.1092779E-05 ( -54.53%)
   displ. norm   :     0.0790497 α      lambda       -0.2111724E-05
   maximum displ.:     0.0334158 α      in ANC's #3, #4, #1, ...

........................................................................
.............................. CYCLE  160 ..............................
........................................................................

 iter      E             dE          RMSdq      gap      omega  full diag
   1   -191.2114812 -0.191211E+03  0.970E-03    1.99       0.0  T
   2   -191.2114813 -0.107368E-06  0.566E-03    1.99       1.6  T
   3   -191.2114806  0.658431E-06  0.231E-03    1.99       4.0  T
   4   -191.2114814 -0.751122E-06  0.327E-04    1.99      28.3  T
   5   -191.2114814 -0.803158E-08  0.163E-04    1.99      56.6  T
   6   -191.2114814 -0.100664E-08  0.891E-05    1.99     103.8  T
     SCC iter.                  ...        0 min,  0.267 sec
     gradient                   ...        0 min,  0.350 sec
 * total energy  :  -188.2438827 Eh     change       -0.2192355E-05 Eh
   gradient norm :     0.0003608 Eh/α   predicted    -0.1063214E-05 ( -51.50%)
   displ. norm   :     0.0618210 α      lambda       -0.1496074E-05
   maximum displ.:     0.0262827 α      in ANC's #3, #4, #1, ...

........................................................................
.............................. CYCLE  161 ..............................
........................................................................

 iter      E             dE          RMSdq      gap      omega  full diag
   1   -191.2114768 -0.191211E+03  0.798E-03    1.99       0.0  T
   2   -191.2114769 -0.668454E-07  0.469E-03    1.99       2.0  T
   3   -191.2114765  0.416179E-06  0.179E-03    1.99       5.2  T
   4   -191.2114769 -0.473067E-06  0.267E-04    1.99      34.7  T
   5   -191.2114769 -0.532134E-08  0.143E-04    1.99      64.7  T
   6   -191.2114769 -0.766164E-09  0.782E-05    1.99     118.2  T
     SCC iter.                  ...        0 min,  0.239 sec
     gradient                   ...        0 min,  0.387 sec
 * total energy  :  -188.2438842 Eh     change       -0.1528881E-05 Eh
   gradient norm :     0.0004158 Eh/α   predicted    -0.7523371E-06 ( -50.79%)
   displ. norm   :     0.0523325 α      lambda       -0.1267973E-05
   maximum displ.:     0.0222639 α      in ANC's #3, #4, #1, ...

........................................................................
.............................. CYCLE  162 ..............................
........................................................................

 iter      E             dE          RMSdq      gap      omega  full diag
   1   -191.2115173 -0.191212E+03  0.707E-03    1.99       0.0  T
   2   -191.2115174 -0.554128E-07  0.416E-03    1.99       2.2  T
   3   -191.2115171  0.314034E-06  0.153E-03    1.99       6.0  T
   4   -191.2115174 -0.356376E-06  0.247E-04    1.99      37.5  T
   5   -191.2115174 -0.422943E-08  0.136E-04    1.99      68.2  T
   6   -191.2115174 -0.683826E-09  0.741E-05    1.99     124.7  T
     SCC iter.                  ...        0 min,  0.241 sec
     gradient                   ...        0 min,  0.321 sec
 * total energy  :  -188.2438855 Eh     change       -0.1279589E-05 Eh
   gradient norm :     0.0003477 Eh/α   predicted    -0.6375351E-06 ( -50.18%)
   displ. norm   :     0.0382639 α      lambda       -0.9468175E-06
   maximum displ.:     0.0163955 α      in ANC's #3, #4, #1, ...

........................................................................
.............................. CYCLE  163 ..............................
........................................................................

 iter      E             dE          RMSdq      gap      omega  full diag
   1   -191.2115467 -0.191212E+03  0.559E-03    1.99       0.0  T
   2   -191.2115467 -0.297694E-07  0.330E-03    1.99       2.8  T
   3   -191.2115465  0.231661E-06  0.130E-03    1.99       7.1  T
   4   -191.2115467 -0.262511E-06  0.196E-04    1.99      47.1  T
   5   -191.2115467 -0.223142E-08  0.111E-04    1.99      83.3  T
   6   -191.2115467 -0.444601E-09  0.594E-05    1.99     155.7  T
     SCC iter.                  ...        0 min,  0.206 sec
     gradient                   ...        0 min,  0.280 sec
 * total energy  :  -188.2438864 Eh     change       -0.9619719E-06 Eh
   gradient norm :     0.0002222 Eh/α   predicted    -0.4765607E-06 ( -50.46%)
   displ. norm   :     0.0329808 α      lambda       -0.7186156E-06
   maximum displ.:     0.0142455 α      in ANC's #3, #4, #1, ...

........................................................................
.............................. CYCLE  164 ..............................
........................................................................

 iter      E             dE          RMSdq      gap      omega  full diag
   1   -191.2115676 -0.191212E+03  0.445E-03    1.99       0.0  T
   2   -191.2115676 -0.232769E-07  0.262E-03    1.99       3.5  T
   3   -191.2115675  0.183281E-06  0.115E-03    1.99       8.0  T
   4   -191.2115677 -0.208126E-06  0.164E-04    1.99      56.4  T
   5   -191.2115677 -0.155811E-08  0.914E-05    1.99     101.2  T
   6   -191.2115677 -0.412172E-09  0.469E-05    1.99     197.3  T
     SCC iter.                  ...        0 min,  0.138 sec
     gradient                   ...        0 min,  0.228 sec
 * total energy  :  -188.2438872 Eh     change       -0.7991733E-06 Eh
   gradient norm :     0.0002067 Eh/α   predicted    -0.3626555E-06 ( -54.62%)
   displ. norm   :     0.0400176 α      lambda       -0.8220310E-06
   maximum displ.:     0.0176249 α      in ANC's #1, #3, #4, ...

........................................................................
.............................. CYCLE  165 ..............................
........................................................................

 iter      E             dE          RMSdq      gap      omega  full diag
   1   -191.2115841 -0.191212E+03  0.491E-03    1.99       0.0  T
   2   -191.2115841 -0.331560E-07  0.290E-03    1.99       3.2  T
   3   -191.2115838  0.284288E-06  0.145E-03    1.99       6.4  T
   4   -191.2115841 -0.325538E-06  0.189E-04    1.99      49.0  T
   5   -191.2115841 -0.219902E-08  0.102E-04    1.99      90.5  T
   6   -191.2115841 -0.562153E-09  0.520E-05    1.99     177.7  T
     SCC iter.                  ...        0 min,  0.131 sec
     gradient                   ...        0 min,  0.219 sec
 * total energy  :  -188.2438881 Eh     change       -0.9187771E-06 Eh
   gradient norm :     0.0002792 Eh/α   predicted    -0.4130843E-06 ( -55.04%)
   displ. norm   :     0.0445054 α      lambda       -0.8062147E-06
   maximum displ.:     0.0202317 α      in ANC's #1, #3, #4, ...

........................................................................
.............................. CYCLE  166 ..............................
........................................................................

 iter      E             dE          RMSdq      gap      omega  full diag
   1   -191.2115779 -0.191212E+03  0.496E-03    1.99       0.0  T
   2   -191.2115779 -0.391088E-07  0.294E-03    1.99       3.1  T
   3   -191.2115776  0.316121E-06  0.158E-03    1.99       5.9  T
   4   -191.2115780 -0.365966E-06  0.204E-04    1.99      45.3  T
   5   -191.2115780 -0.310069E-08  0.101E-04    1.99      91.8  T
   6   -191.2115780 -0.527621E-09  0.524E-05    1.99     176.3  T
     SCC iter.                  ...        0 min,  0.150 sec
     gradient                   ...        0 min,  0.209 sec
 * total energy  :  -188.2438890 Eh     change       -0.8909506E-06 Eh
   gradient norm :     0.0002939 Eh/α   predicted    -0.4073059E-06 ( -54.28%)
   displ. norm   :     0.0396636 α      lambda       -0.6214539E-06
   maximum displ.:     0.0188380 α      in ANC's #1, #3, #4, ...

........................................................................
.............................. CYCLE  167 ..............................
........................................................................

 iter      E             dE          RMSdq      gap      omega  full diag
   1   -191.2115896 -0.191212E+03  0.414E-03    2.00       0.0  T
   2   -191.2115897 -0.271873E-07  0.245E-03    2.00       3.8  T
   3   -191.2115895  0.200163E-06  0.127E-03    2.00       7.3  T
   4   -191.2115897 -0.231113E-06  0.182E-04    2.00      50.9  T
   5   -191.2115897 -0.294364E-08  0.818E-05    2.00     113.0  T
   6   -191.2115897 -0.337252E-09  0.426E-05    2.00     216.8  T
     SCC iter.                  ...        0 min,  0.141 sec
     gradient                   ...        0 min,  0.209 sec
 * total energy  :  -188.2438897 Eh     change       -0.6833062E-06 Eh
   gradient norm :     0.0002321 Eh/α   predicted    -0.3146344E-06 ( -53.95%)
   displ. norm   :     0.0308752 α      lambda       -0.4403006E-06
   maximum displ.:     0.0154529 α      in ANC's #1, #3, #4, ...

........................................................................
.............................. CYCLE  168 ..............................
........................................................................

 iter      E             dE          RMSdq      gap      omega  full diag
   1   -191.2116020 -0.191212E+03  0.312E-03    2.00       0.0  T
   2   -191.2116020 -0.127258E-07  0.184E-03    2.00       5.0  T
   3   -191.2116019  0.830040E-07  0.817E-04    2.00      11.3  T
   4   -191.2116020 -0.940441E-07  0.135E-04    2.00      68.6  T
   5   -191.2116020 -0.185150E-08  0.587E-05    2.00     157.4  T
     SCC iter.                  ...        0 min,  0.110 sec
     gradient                   ...        0 min,  0.231 sec
 * total energy  :  -188.2438902 Eh     change       -0.4987167E-06 Eh
   gradient norm :     0.0001708 Eh/α   predicted    -0.2224109E-06 ( -55.40%)
   displ. norm   :     0.0292255 α      lambda       -0.3832576E-06
   maximum displ.:     0.0151050 α      in ANC's #1, #3, #4, ...

........................................................................
.............................. CYCLE  169 ..............................
........................................................................

 iter      E             dE          RMSdq      gap      omega  full diag
   1   -191.2116161 -0.191212E+03  0.287E-03    2.00       0.0  T
   2   -191.2116162 -0.859805E-08  0.170E-03    2.00       5.4  T
   3   -191.2116161  0.408313E-07  0.576E-04    2.00      16.1  T
   4   -191.2116162 -0.459157E-07  0.106E-04    2.00      87.5  T
   5   -191.2116162 -0.108022E-08  0.492E-05    2.00     188.1  T
     SCC iter.                  ...        0 min,  0.121 sec
     gradient                   ...        0 min,  0.237 sec
 * total energy  :  -188.2438907 Eh     change       -0.4489751E-06 Eh
   gradient norm :     0.0001673 Eh/α   predicted    -0.1935634E-06 ( -56.89%)
   displ. norm   :     0.0303206 α      lambda       -0.3566098E-06
   maximum displ.:     0.0160033 α      in ANC's #1, #3, #4, ...

........................................................................
.............................. CYCLE  170 ..............................
........................................................................

 iter      E             dE          RMSdq      gap      omega  full diag
   1   -191.2116328 -0.191212E+03  0.289E-03    2.00       0.0  T
   2   -191.2116328 -0.698981E-08  0.172E-03    2.00       5.4  T
   3   -191.2116328  0.208966E-07  0.413E-04    2.00      22.4  T
   4   -191.2116328 -0.237033E-07  0.889E-05    2.00     103.9  T
   5   -191.2116328 -0.639204E-09  0.425E-05    2.00     217.6  T
     SCC iter.                  ...        0 min,  0.116 sec
     gradient                   ...        0 min,  0.222 sec
 * total energy  :  -188.2438911 Eh     change       -0.4204913E-06 Eh
   gradient norm :     0.0001862 Eh/α   predicted    -0.1803955E-06 ( -57.10%)
   displ. norm   :     0.0282797 α      lambda       -0.3005539E-06
   maximum displ.:     0.0152261 α      in ANC's #1, #3, #4, ...

........................................................................
.............................. CYCLE  171 ..............................
........................................................................

 iter      E             dE          RMSdq      gap      omega  full diag
   1   -191.2116413 -0.191212E+03  0.264E-03    2.00       0.0  T
   2   -191.2116413 -0.538182E-08  0.156E-03    2.00       5.9  T
   3   -191.2116412  0.106008E-07  0.295E-04    2.00      31.3  T
   4   -191.2116413 -0.122827E-07  0.705E-05    2.00     131.1  T
   5   -191.2116413 -0.387928E-09  0.345E-05    2.00     268.0  T
     SCC iter.                  ...        0 min,  0.115 sec
     gradient                   ...        0 min,  0.229 sec
 * total energy  :  -188.2438914 Eh     change       -0.3504032E-06 Eh
   gradient norm :     0.0001741 Eh/α   predicted    -0.1524549E-06 ( -56.49%)
   displ. norm   :     0.0243863 α      lambda       -0.2409922E-06
   maximum displ.:     0.0134318 α      in ANC's #1, #4, #3, ...

........................................................................
.............................. CYCLE  172 ..............................
........................................................................

 iter      E             dE          RMSdq      gap      omega  full diag
   1   -191.2116473 -0.191212E+03  0.229E-03    2.00       0.0  T
   2   -191.2116473 -0.417305E-08  0.135E-03    2.00       6.9  T
   3   -191.2116472  0.654350E-08  0.246E-04    2.00      37.5  T
   4   -191.2116473 -0.765704E-08  0.610E-05    2.00     151.5  T
   5   -191.2116473 -0.287713E-09  0.281E-05    2.00     329.3  T
     SCC iter.                  ...        0 min,  0.124 sec
     gradient                   ...        0 min,  0.213 sec
 * total energy  :  -188.2438917 Eh     change       -0.2797731E-06 Eh
   gradient norm :     0.0001348 Eh/α   predicted    -0.1224236E-06 ( -56.24%)
   displ. norm   :     0.0218854 α      lambda       -0.2090037E-06
   maximum displ.:     0.0122508 α      in ANC's #1, #4, #3, ...

........................................................................
.............................. CYCLE  173 ..............................
........................................................................

 iter      E             dE          RMSdq      gap      omega  full diag
   1   -191.2116459 -0.191212E+03  0.209E-03    2.00       0.0  T
   2   -191.2116459 -0.365566E-08  0.123E-03    2.00       7.5  T
   3   -191.2116459  0.715318E-08  0.259E-04    2.00      35.7  T
   4   -191.2116459 -0.819423E-08  0.677E-05    2.00     136.5  T
   5   -191.2116459 -0.360302E-09  0.307E-05    2.00     300.8  T
     SCC iter.                  ...        0 min,  0.109 sec
     gradient                   ...        0 min,  0.227 sec
 * total energy  :  -188.2438920 Eh     change       -0.2436880E-06 Eh
   gradient norm :     0.0001124 Eh/α   predicted    -0.1061942E-06 ( -56.42%)
   displ. norm   :     0.0221280 α      lambda       -0.2023788E-06
   maximum displ.:     0.0125611 α      in ANC's #1, #4, #7, ...

........................................................................
.............................. CYCLE  174 ..............................
........................................................................

 iter      E             dE          RMSdq      gap      omega  full diag
   1   -191.2116387 -0.191212E+03  0.212E-03    2.00       0.0  T
   2   -191.2116387 -0.316788E-08  0.124E-03    2.00       7.4  T
   3   -191.2116387  0.909077E-08  0.283E-04    2.00      32.7  T
   4   -191.2116387 -0.103379E-07  0.706E-05    2.00     131.0  T
   5   -191.2116387 -0.341629E-09  0.339E-05    2.00     273.1  T
     SCC iter.                  ...        0 min,  0.124 sec
     gradient                   ...        0 min,  0.238 sec
 * total energy  :  -188.2438922 Eh     change       -0.2446349E-06 Eh
   gradient norm :     0.0001358 Eh/α   predicted    -0.1027562E-06 ( -58.00%)
   displ. norm   :     0.0229756 α      lambda       -0.2054473E-06
   maximum displ.:     0.0131662 α      in ANC's #1, #2, #7, ...

........................................................................
.............................. CYCLE  175 ..............................
........................................................................

 iter      E             dE          RMSdq      gap      omega  full diag
   1   -191.2116327 -0.191212E+03  0.212E-03    2.00       0.0  T
   2   -191.2116327 -0.258720E-08  0.125E-03    2.00       7.4  T
   3   -191.2116327  0.104625E-07  0.289E-04    2.00      32.0  T
   4   -191.2116327 -0.119761E-07  0.645E-05    2.00     143.3  T
   5   -191.2116327 -0.204693E-09  0.348E-05    2.00     265.4  T
     SCC iter.                  ...        0 min,  0.147 sec
     gradient                   ...        0 min,  0.241 sec
 * total energy  :  -188.2438925 Eh     change       -0.2574568E-06 Eh
   gradient norm :     0.0001538 Eh/α   predicted    -0.1044868E-06 ( -59.42%)
   displ. norm   :     0.0235146 α      lambda       -0.2027168E-06
   maximum displ.:     0.0136970 α      in ANC's #1, #2, #7, ...

........................................................................
.............................. CYCLE  176 ..............................
........................................................................

 iter      E             dE          RMSdq      gap      omega  full diag
   1   -191.2116215 -0.191212E+03  0.202E-03    2.00       0.0  T
   2   -191.2116215 -0.233285E-08  0.118E-03    2.00       7.8  T
   3   -191.2116214  0.756737E-08  0.248E-04    2.00      37.3  T
   4   -191.2116215 -0.887849E-08  0.557E-05    2.00     166.0  T
   5   -191.2116215 -0.974012E-10  0.328E-05    2.00     282.0  T
     SCC iter.                  ...        0 min,  0.117 sec
     gradient                   ...        0 min,  0.221 sec
 * total energy  :  -188.2438927 Eh     change       -0.2550235E-06 Eh
   gradient norm :     0.0001308 Eh/α   predicted    -0.1061386E-06 ( -58.38%)
   displ. norm   :     0.0234677 α      lambda       -0.1916325E-06
   maximum displ.:     0.0139680 α      in ANC's #1, #2, #7, ...

........................................................................
.............................. CYCLE  177 ..............................
........................................................................

 iter      E             dE          RMSdq      gap      omega  full diag
   1   -191.2116236 -0.191212E+03  0.189E-03    2.00       0.0  T
   2   -191.2116236 -0.264635E-08  0.110E-03    2.00       8.4  T
   3   -191.2116236  0.504809E-08  0.217E-04    2.00      42.7  T
   4   -191.2116236 -0.617405E-08  0.546E-05    2.00     169.5  T
   5   -191.2116236 -0.631246E-10  0.319E-05    2.00     290.0  T
     SCC iter.                  ...        0 min,  0.127 sec
     gradient                   ...        0 min,  0.230 sec
 * total energy  :  -188.2438929 Eh     change       -0.2303024E-06 Eh
   gradient norm :     0.0000896 Eh/α   predicted    -0.9700677E-07 ( -57.88%)
   displ. norm   :     0.0187618 α      lambda       -0.1426516E-06
   maximum displ.:     0.0114080 α      in ANC's #1, #2, #7, ...

........................................................................
.............................. CYCLE  178 ..............................
........................................................................

 iter      E             dE          RMSdq      gap      omega  full diag
   1   -191.2116207 -0.191212E+03  0.146E-03    2.00       0.0  T
   2   -191.2116207 -0.197284E-08  0.848E-04    2.00      10.9  T
   3   -191.2116207  0.313801E-08  0.180E-04    2.00      51.4  T
   4   -191.2116207 -0.383346E-08  0.467E-05    2.00     197.8  T
     SCC iter.                  ...        0 min,  0.090 sec
     gradient                   ...        0 min,  0.213 sec
 * total energy  :  -188.2438931 Eh     change       -0.1734826E-06 Eh
   gradient norm :     0.0000793 Eh/α   predicted    -0.7236610E-07 ( -58.29%)
   displ. norm   :     0.0173010 α      lambda       -0.1306505E-06
   maximum displ.:     0.0107588 α      in ANC's #1, #2, #7, ...

........................................................................
.............................. CYCLE  179 ..............................
........................................................................

 iter      E             dE          RMSdq      gap      omega  full diag
   1   -191.2116236 -0.191212E+03  0.140E-03    2.00       0.0  T
   2   -191.2116236 -0.142856E-08  0.813E-04    2.00      11.4  T
   3   -191.2116236  0.643482E-08  0.235E-04    2.00      39.4  T
   4   -191.2116236 -0.728758E-08  0.456E-05    2.00     202.6  T
   5   -191.2116236 -0.107406E-09  0.242E-05    2.00     382.3  T
     SCC iter.                  ...        0 min,  0.125 sec
     gradient                   ...        0 min,  0.216 sec
 * total energy  :  -188.2438933 Eh     change       -0.1607777E-06 Eh
   gradient norm :     0.0000933 Eh/α   predicted    -0.6618449E-07 ( -58.83%)
   displ. norm   :     0.0157255 α      lambda       -0.1165245E-06
   maximum displ.:     0.0099077 α      in ANC's #1, #2, #7, ...

........................................................................
.............................. CYCLE  180 ..............................
........................................................................

 iter      E             dE          RMSdq      gap      omega  full diag
   1   -191.2116289 -0.191212E+03  0.135E-03    2.00       0.0  T
   2   -191.2116289 -0.112288E-08  0.787E-04    2.00      11.7  T
   3   -191.2116289  0.644403E-08  0.230E-04    2.00      40.1  T
   4   -191.2116289 -0.731779E-08  0.382E-05    2.00     241.8  T
   5   -191.2116289 -0.608793E-10  0.213E-05    2.00     433.2  T
     SCC iter.                  ...        0 min,  0.123 sec
     gradient                   ...        0 min,  0.233 sec
 * total energy  :  -188.2438934 Eh     change       -0.1436531E-06 Eh
   gradient norm :     0.0000969 Eh/α   predicted    -0.5919563E-07 ( -58.79%)
   displ. norm   :     0.0144822 α      lambda       -0.9408334E-07
   maximum displ.:     0.0093432 α      in ANC's #1, #2, #7, ...

........................................................................
.............................. CYCLE  181 ..............................
........................................................................

 iter      E             dE          RMSdq      gap      omega  full diag
   1   -191.2116294 -0.191212E+03  0.123E-03    2.00       0.0  T
   2   -191.2116294 -0.871495E-09  0.715E-04    2.00      12.9  T
   3   -191.2116294  0.439857E-08  0.188E-04    2.00      49.1  T
   4   -191.2116294 -0.499847E-08  0.344E-05    2.00     268.7  T
     SCC iter.                  ...        0 min,  0.100 sec
     gradient                   ...        0 min,  0.210 sec
 * total energy  :  -188.2438935 Eh     change       -0.1271295E-06 Eh
   gradient norm :     0.0000756 Eh/α   predicted    -0.5161809E-07 ( -59.40%)
   displ. norm   :     0.0131006 α      lambda       -0.8372882E-07
   maximum displ.:     0.0085581 α      in ANC's #1, #2, #7, ...

........................................................................
.............................. CYCLE  182 ..............................
........................................................................

 iter      E             dE          RMSdq      gap      omega  full diag
   1   -191.2116320 -0.191212E+03  0.106E-03    2.00       0.0  T
   2   -191.2116320 -0.827669E-09  0.623E-04    2.00      14.8  T
   3   -191.2116320  0.206037E-08  0.134E-04    2.00      69.1  T
   4   -191.2116320 -0.234047E-08  0.365E-05    2.00     253.5  T
     SCC iter.                  ...        0 min,  0.092 sec
     gradient                   ...        0 min,  0.225 sec
 * total energy  :  -188.2438937 Eh     change       -0.1184326E-06 Eh
   gradient norm :     0.0000509 Eh/α   predicted    -0.4592835E-07 ( -61.22%)
   displ. norm   :     0.0141728 α      lambda       -0.9305793E-07
   maximum displ.:     0.0091593 α      in ANC's #1, #2, #5, ...

........................................................................
.............................. CYCLE  183 ..............................
........................................................................

 iter      E             dE          RMSdq      gap      omega  full diag
   1   -191.2116302 -0.191212E+03  0.113E-03    2.00       0.0  T
   2   -191.2116302 -0.117919E-08  0.669E-04    2.00      13.8  T
   3   -191.2116302  0.203221E-08  0.140E-04    2.00      66.1  T
   4   -191.2116302 -0.232023E-08  0.425E-05    2.00     217.4  T
     SCC iter.                  ...        0 min,  0.102 sec
     gradient                   ...        0 min,  0.323 sec
 * total energy  :  -188.2438938 Eh     change       -0.1261129E-06 Eh
   gradient norm :     0.0000629 Eh/α   predicted    -0.4932244E-07 ( -60.89%)
   displ. norm   :     0.0166965 α      lambda       -0.1043636E-06
   maximum displ.:     0.0106996 α      in ANC's #1, #2, #5, ...
 * RMSD in coord.:     0.0734110 α      energy gain  -0.3824231E-04 Eh

generating ANC from exact Hessian ...
Using Lindh-Hessian (1995)
 Shifting diagonal of input Hessian by    1.0087321524140278E-002
 Lowest  eigenvalues of input Hessian
    0.010000    0.000000    0.000000    0.000000    0.000000    0.000000
    0.000000    0.010156    0.010209    0.010232    0.010347    0.010377
    0.010460    0.010576    0.010712    0.010813    0.010915    0.010982
 Highest eigenvalues
    2.176407    2.187909    2.324565    2.333453    2.345951    3.173842


........................................................................
.............................. CYCLE  184 ..............................
........................................................................

 iter      E             dE          RMSdq      gap      omega  full diag
   1   -191.2116263 -0.191212E+03  0.134E-03    2.00       0.0  T
   2   -191.2116263 -0.143933E-08  0.795E-04    2.00      11.6  T
   3   -191.2116263  0.326307E-08  0.175E-04    2.00      52.7  T
   4   -191.2116263 -0.371935E-08  0.437E-05    2.00     211.7  T
     SCC iter.                  ...        0 min,  0.142 sec
     gradient                   ...        0 min,  0.270 sec
 * total energy  :  -188.2438939 Eh     change       -0.1337486E-06 Eh
   gradient norm :     0.0000906 Eh/α   predicted     0.0000000E+00 (-100.00%)
   displ. norm   :     0.0001358 α      lambda        0.0000000E+00
   maximum displ.:     0.0001016 α      in ANC's #342, #340, #277, ...

........................................................................
.............................. CYCLE  185 ..............................
........................................................................

 iter      E             dE          RMSdq      gap      omega  full diag
   1   -191.2116255 -0.191212E+03  0.158E-04    2.00       0.0  T
   2   -191.2116255 -0.410637E-09  0.810E-05    2.00     114.2  T
   3   -191.2116255  0.369482E-12  0.411E-05    2.00     224.9  T
     SCC iter.                  ...        0 min,  0.084 sec
     gradient                   ...        0 min,  0.298 sec
 * total energy  :  -188.2438939 Eh     change       -0.7352838E-08 Eh
   gradient norm :     0.0000435 Eh/α   predicted    -0.5758851E-09 ( -92.17%)
   displ. norm   :     0.0001358 α      lambda        0.0000000E+00
   maximum displ.:     0.0001016 α      in ANC's #342, #340, #277, ...

   *** GEOMETRY OPTIMIZATION CONVERGED AFTER 185 ITERATIONS ***

------------------------------------------------------------------------
 total energy gain   :        -0.5400939 Eh     -338.9141 kcal/mol
 total RMSD          :         3.1546407 a0        1.6694 Å
 total power (kW/mol):        -7.6649536 (step)  -10.7290 (real)
------------------------------------------------------------------------

 ANCopt (total)                0 d,  0 h,  2 min, 12.167 sec
 optimizer setup                ...        0 min,  0.001 sec (  0.001%)
 model hessian                  ...        0 min,  1.002 sec (  0.758%)
 ANC generation                 ...        0 min,  0.231 sec (  0.175%)
 coordinate transformation      ...        0 min,  0.042 sec (  0.032%)
 single point calculation       ...        2 min, 10.565 sec ( 98.788%)
 optimization log               ...        0 min,  0.172 sec (  0.130%)
 hessian update                 ...        0 min,  0.037 sec (  0.028%)
 rational function              ...        0 min,  0.086 sec (  0.065%)

================
 final structure:
================
117
 xtb: 6.7.1 (edcfbbe)
O            1.24245441795882        2.92614168235795       -1.16089803933712
P            0.45939366011632        2.31877018064236       -0.08211690103444
O           -0.27116506304331        3.21411869691794        0.96689221545040
O           -0.67261565848050        1.36264223477759       -0.75135371745875
C           -1.38023783989565        0.54058679415092        0.10816898108167
C           -2.74741807355894        0.81012315944135        0.36875806114000
C           -3.40701622727117       -0.00208152154542        1.26274253919496
C           -2.75946813423146       -1.05229556302071        1.93937901416635
C           -3.43348019613043       -1.84038174494990        2.89741652872536
C           -2.78370506215467       -2.84321697741809        3.56018872273124
C           -1.42776268522879       -3.09465540283619        3.29948250550578
C           -0.75027324479262       -2.35817829677923        2.36707189728517
C           -1.39850453026493       -1.33034044017819        1.64922014281502
C           -0.73278920806755       -0.53502162759294        0.67735202175538
C            0.65506593379615       -0.83227426686283        0.26171323149950
C            1.62383257167781        0.13479932224194        0.42088036387109
O            1.25039346757297        1.36496713657620        0.94156800215428
C            2.97326129425556       -0.09868792260634        0.06805526859086
C            3.30596833909926       -1.32170742085485       -0.46360933594607
C            2.34291126066462       -2.32350897550273       -0.68848567612845
C            2.68988790255752       -3.56280346254329       -1.26868413360994
C            1.73846116873613       -4.51217110795764       -1.51489254535375
C            0.39422210794025       -4.25472419547299       -1.20536841520835
C            0.02724943519561       -3.06873750769395       -0.63126844267294
C            0.98988446643246       -2.07971537317788       -0.33458314563759
C           -3.48348775298476        1.87583154033531       -0.33267855892098
C           -4.44549975565768        2.62766302758905        0.34079674981075
C           -5.21415926191928        3.55707315764126       -0.33402705540124
C           -5.03395592064716        3.75469209109188       -1.69276940220643
C           -4.06747448698226        3.02872247494568       -2.36796304073754
C           -3.29902157697772        2.09618750636432       -1.69654583783022
C            4.01200438842297        0.92331784993026        0.27797851635492
C            4.88921853379704        1.24168532577856       -0.75546399215300
C            5.90602285755598        2.15588174301988       -0.55304864584368
C            6.06571293836211        2.75354546895882        0.68656435496698
C            5.19643633044407        2.44220440273521        1.71792847173815
C            4.17150819304801        1.53698202044090        1.51574663657715
H           -0.88772029088648        3.97985568615673        0.70971184764071
H           -4.45865646780351        0.15929165772976        1.45235924139477
H           -4.47330729019228       -1.62758169052417        3.10160094852642
H           -3.30419968531547       -3.44133842839146        4.29373071103142
H           -0.91849640103859       -3.87558947843410        3.84500608561825
H            0.29563639532244       -2.55095217408620        2.18019394160979
H            4.33624850340580       -1.52365208874891       -0.72114650879979
H            3.72564474208779       -3.74125424650731       -1.52058688643038
H            2.01101849504854       -5.45859636155888       -1.95845821217309
H           -0.35412801972846       -5.00142767436303       -1.42745678635322
H           -1.01174411617902       -2.87723439035514       -0.40851620640667
H           -4.59412761254395        2.48642337513773        1.40163607180312
H           -5.96331464463668        4.12046610376497        0.20406159715317
H           -5.64696805275127        4.46649300048079       -2.22650687929146
H           -3.91652369273168        3.18251724230256       -3.42653887712582
H           -2.56564904000621        1.51798441212700       -2.23719402017162
H            4.75769479946454        0.78070668229494       -1.72461828774303
H            6.57718366381354        2.40231868875501       -1.36375252577013
H            6.86475602086480        3.46388361986892        0.84601961902958
H            5.31278776961686        2.91098978262157        2.68378521797789
H            3.49510080061880        1.29594940135711        2.32172649954204
C           -3.82332067094383        6.68070783297199        0.26834757459387
C           -2.66150008613553        5.80159829240613       -0.09143036155456
N           -1.99272953437173        5.13672155111390        0.77138267833541
C           -2.15026743944865        5.25622778102411        2.14949658539065
C           -1.99664057885681        6.48705582484776        2.79040535951913
C           -2.06661173895392        6.56399771183491        4.16879449020948
C           -2.30275613454183        5.42666748634645        4.92409134319120
C           -2.44766427147730        4.20158242480646        4.29112756456457
C           -2.36036593800769        4.10948192753818        2.91563350716099
C           -2.27811158172298        5.70672437327810       -1.50665096691034
C           -3.07506563216785        6.23989421337915       -2.52335913028144
C           -2.68641723826110        6.15871822311124       -3.84698859360464
C           -1.49658358560080        5.53788205234225       -4.19196798462545
C           -0.68853042923424        5.01819176576022       -3.19453229070957
C           -1.06873272216705        5.11199848091450       -1.87043730491554
H           -3.53624584682138        7.71919799425695        0.10439026785447
H           -4.68796081602309        6.44916766880346       -0.34784856947451
H           -4.09354598816838        6.55178872445070        1.31386717294711
H           -1.79992331368530        7.37014944422020        2.19994897676590
H           -1.94012100953339        7.52082554522209        4.65485352457472
H           -2.36563932557437        5.49226497281531        6.00047912439838
H           -2.62283698941364        3.30935833075123        4.87520890778127
H           -2.46064439633222        3.15444460543269        2.42326361422314
H           -4.01327807698481        6.71946802973401       -2.29290570831998
H           -3.31885777966777        6.57935736091776       -4.61583661291693
H           -1.20291139946810        5.46547317724050       -5.22938833232671
H            0.24553560383772        4.53138378484133       -3.43098592467000
H           -0.40287638249959        4.73158521788541       -1.11726197568068
C            1.20075285932613        4.81121929128274        3.38900560456431
O            1.16260086292090        5.60337979959644        2.21454339017119
C            2.01318932791953        5.22800537748300        1.22718651733966
O            2.77980621604701        4.29546153470726        1.36743616236401
C            1.90720062936622        6.09912555651661        0.06209376189183
C            2.69230794463875        5.93204948182599       -1.02635998446605
C            3.74786011857158        4.89360275718108       -1.17534966510165
N            2.51070238684535        6.74912724847824       -2.12223478480232
C            1.40992847742064        7.54621402531739       -2.30448501087298
C            1.24419179915145        8.07801379493210       -3.69105527152259
C            0.58101553364327        7.77729778049413       -1.25653414152541
C           -0.66434296735454        8.52331492356652       -1.31075757507408
O           -1.39967179854508        8.68298169525924       -0.35026670927897
O           -0.96698584902417        9.04899609459887       -2.52024946217963
C           -2.17911014849953        9.78189858749250       -2.60000754626483
C            0.91810315717863        7.23784381812187        0.11803313322815
H            0.47257102583017        5.24383365533484        4.07045321578508
H            0.93973234627652        3.77759447782037        3.15265012314818
H            2.20245317960382        4.83107152036060        3.82689905512337
H            4.38052988659695        4.85666314803135       -0.29300875474389
H            3.26570590641877        3.91931913215119       -1.24723252902656
H            4.35579933206660        5.06756254104350       -2.06061962808091
H            3.09129963584632        6.56392782164394       -2.92825906017256
H            1.17973195624024        9.16340788490153       -3.67768427145557
H            2.07933617419236        7.77996412315296       -4.32149997025108
H            0.31961641147011        7.70317793161511       -4.12567400890301
H           -2.21137279626658       10.55629523903558       -1.82970109116345
H           -2.19629671789760       10.22704542468943       -3.59182294867606
H           -3.03458618537683        9.11603816871869       -2.46652273497851
H            0.00062559245720        6.90710206681526        0.60557497314836
H            1.32245631911142        8.04778713464163        0.74224380241442

 Bond Distances (Angstroems)
 ---------------------------
O1-P2=1.4649         P2-O1=1.4649         P2-O3=1.5607         P2-O4=1.6259         P2-O17=1.6073        O3-P2=1.5607         
O3-H38=1.0162        O4-P2=1.6259         O4-C5=1.3839         C5-O4=1.3839         C5-C6=1.4177         C5-C14=1.3784        
C6-C5=1.4177         C6-C7=1.3762         C6-C26=1.4729        C7-C6=1.3762         C7-C8=1.4072         C7-H39=1.0807        
C8-C7=1.4072         C8-C9=1.4118         C8-C13=1.4191        C9-C8=1.4118         C9-C10=1.3664        C9-H40=1.0808        
C10-C9=1.3664        C10-C11=1.4035       C10-H41=1.0802       C11-C10=1.4035       C11-C12=1.3678       C11-H42=1.0802       
C12-C11=1.3678       C12-C13=1.4114       C12-H43=1.0798       C13-C8=1.4191        C13-C12=1.4114       C13-C14=1.4214       
C14-C5=1.3784        C14-C13=1.4214       C14-C15=1.4789       C15-C14=1.4789       C15-C16=1.3781       C15-C25=1.4226       
C16-C15=1.3781       C16-O17=1.3870       C16-C18=1.4142       O17-P2=1.6073        O17-C16=1.3870       C18-C16=1.4142       
C18-C19=1.3745       C18-C32=1.4723       C19-C18=1.3745       C19-C20=1.4077       C19-H44=1.0810       C20-C19=1.4077       
C20-C21=1.4117       C20-C25=1.4196       C21-C20=1.4117       C21-C22=1.3664       C21-H45=1.0808       C22-C21=1.3664       
C22-C23=1.4032       C22-H46=1.0802       C23-C22=1.4032       C23-C24=1.3678       C23-H47=1.0802       C24-C23=1.3678       
C24-C25=1.4117       C24-H48=1.0797       C25-C15=1.4226       C25-C20=1.4196       C25-C24=1.4117       C26-C6=1.4729        
C26-C27=1.3944       C26-C31=1.3938       C27-C26=1.3944       C27-C28=1.3820       C27-H49=1.0805       C28-C27=1.3820       
C28-C29=1.3848       C28-H50=1.0808       C29-C28=1.3848       C29-C30=1.3846       C29-H51=1.0804       C30-C29=1.3846       
C30-C31=1.3824       C30-H52=1.0803       C31-C26=1.3938       C31-C30=1.3824       C31-H53=1.0791       C32-C18=1.4723       
C32-C33=1.3924       C32-C37=1.3907       C33-C32=1.3924       C33-C34=1.3823       C33-H54=1.0812       C34-C33=1.3823       
C34-C35=1.3854       C34-H55=1.0809       C35-C34=1.3854       C35-C36=1.3843       C35-H56=1.0810       C36-C35=1.3843       
C36-C37=1.3823       C36-H57=1.0799       C37-C32=1.3907       C37-C36=1.3823       C37-H58=1.0795       H38-O3=1.0162        
H39-C7=1.0807        H40-C9=1.0808        H41-C10=1.0802       H42-C11=1.0802       H43-C12=1.0798       H44-C19=1.0810       
H45-C21=1.0808       H46-C22=1.0802       H47-C23=1.0802       H48-C24=1.0797       H49-C27=1.0805       H50-C28=1.0808       
H51-C29=1.0804       H52-C30=1.0803       H53-C31=1.0791       H54-C33=1.0812       H55-C34=1.0809       H56-C35=1.0810       
H57-C36=1.0799       H58-C37=1.0795       C59-C60=1.5007       C59-H74=1.0898       C59-H75=1.0867       C59-H76=1.0875       
C60-C59=1.5007       C60-N61=1.2782       C60-C68=1.4693       N61-C60=1.2782       N61-C62=1.3922       C62-N61=1.3922       
C62-C63=1.3962       C62-C67=1.3950       C63-C62=1.3962       C63-C64=1.3823       C63-H77=1.0804       C64-C63=1.3823       
C64-C65=1.3856       C64-H78=1.0806       C65-C64=1.3856       C65-C66=1.3865       C65-H79=1.0802       C66-C65=1.3865       
C66-C67=1.3813       C66-H80=1.0807       C67-C62=1.3950       C67-C66=1.3813       C67-H81=1.0792       C68-C60=1.4693       
C68-C69=1.3975       C68-C73=1.3959       C69-C68=1.3975       C69-C70=1.3819       C69-H82=1.0786       C70-C69=1.3819       
C70-C71=1.3857       C70-H83=1.0808       C71-C70=1.3857       C71-C72=1.3849       C71-H84=1.0806       C72-C71=1.3849       
C72-C73=1.3808       C72-H85=1.0795       C73-C68=1.3959       C73-C72=1.3808       C73-H86=1.0749       H74-C59=1.0898       
H75-C59=1.0867       H76-C59=1.0875       H77-C63=1.0804       H78-C64=1.0806       H79-C65=1.0802       H80-C66=1.0807       
H81-C67=1.0792       H82-C69=1.0786       H83-C70=1.0808       H84-C71=1.0806       H85-C72=1.0795       H86-C73=1.0749       
C87-O88=1.4172       C87-H103=1.0871      C87-H104=1.0920      C87-H105=1.0934      O88-C87=1.4172       O88-C89=1.3562       
C89-O88=1.3562       C89-O90=1.2153       C89-C91=1.4586       O90-C89=1.2153       C91-C89=1.4586       C91-C92=1.3524       
C91-C102=1.5093      C92-C91=1.3524       C92-C93=1.4882       C92-N94=1.3790       C93-C92=1.4882       C93-H106=1.0864      
C93-H107=1.0894      C93-H108=1.0879      N94-C92=1.3790       N94-C95=1.3712       N94-H109=1.0105      C95-N94=1.3712       
C95-C96=1.4943       C95-C97=1.3560       C96-C95=1.4943       C96-H110=1.0874      C96-H111=1.0880      C96-H112=1.0882      
C97-C95=1.3560       C97-C98=1.4527       C97-C102=1.5146      C98-C97=1.4527       C98-O99=1.2201       C98-O100=1.3531      
O99-C98=1.2201       O100-C98=1.3531      O100-C101=1.4187     C101-O100=1.4187     C101-H113=1.0928     C101-H114=1.0873     
C101-H115=1.0923     C102-C91=1.5093      C102-C97=1.5146      C102-H116=1.0903     C102-H117=1.0996     H103-C87=1.0871      
H104-C87=1.0920      H105-C87=1.0934      H106-C93=1.0864      H107-C93=1.0894      H108-C93=1.0879      H109-N94=1.0105      
H110-C96=1.0874      H111-C96=1.0880      H112-C96=1.0882      H113-C101=1.0928     H114-C101=1.0873     H115-C101=1.0923     
H116-C102=1.0903     H117-C102=1.0996     
 C  H  Rav=1.0836 sigma=0.0051  Rmin=1.0749  Rmax=1.0996    47
 C  C  Rav=1.4080 sigma=0.0400  Rmin=1.3524  Rmax=1.5146    59
 N  H  Rav=1.0105 sigma=0.0000  Rmin=1.0105  Rmax=1.0105     1
 N  C  Rav=1.3552 sigma=0.0451  Rmin=1.2782  Rmax=1.3922     4
 O  H  Rav=1.0162 sigma=0.0000  Rmin=1.0162  Rmax=1.0162     1
 O  C  Rav=1.3439 sigma=0.0762  Rmin=1.2153  Rmax=1.4187     8
 P  O  Rav=1.5647 sigma=0.0623  Rmin=1.4649  Rmax=1.6259     4

 selected bond angles (degree)
 --------------------
O3-P2-O1=120.49                O4-P2-O1=108.23                O4-P2-O3=106.75                O17-P2-O1=116.87               
O17-P2-O3= 98.21               O17-P2-O4=104.82               H38-O3-P2=123.11               C5-O4-P2=116.72                
C6-C5-O4=119.63                C14-C5-O4=118.67               C14-C5-C6=121.70               C7-C6-C5=118.00                
C26-C6-C5=122.14               C26-C6-C7=119.79               C8-C7-C6=122.16                H39-C7-C6=119.49               
H39-C7-C8=118.35               C9-C8-C7=121.55                C13-C8-C7=119.29               C13-C8-C9=119.16               
C10-C9-C8=120.78               H40-C9-C8=118.53               H40-C9-C10=120.69              C11-C10-C9=120.05              
H41-C10-C9=120.44              H41-C10-C11=119.50             

 selected dihedral angles (degree)
 ---------------------------------
H38-O3-P2-O1= 51.27           H38-O3-P2-O4=287.47           H38-O3-P2-O17=179.21          C5-O4-P2-O1=170.33            
C5-O4-P2-O3=301.40            C5-O4-P2-O17= 44.92           C6-C5-O4-P2=109.70            C14-C5-O4-P2=288.90           
C7-C6-C5-O4=182.11            C7-C6-C5-C14=  2.94           C26-C6-C5-O4=  5.25           C26-C6-C5-C14=186.07          
C8-C7-C6-C5=  1.72            C8-C7-C6-C26=178.67           H39-C7-C6-C5=182.20           H39-C7-C6-C26=359.14          
C9-C8-C7-C6=177.18            C9-C8-C7-H39=356.70           C13-C8-C7-C6=356.93           C13-C8-C7-H39=176.45          
C10-C9-C8-C7=181.01           C10-C9-C8-C13=  1.26          H40-C9-C8-C7=  0.50           H40-C9-C8-C13=180.75          
C11-C10-C9-C8=  0.45          C11-C10-C9-H40=180.98         H41-C10-C9-C8=179.86          H41-C10-C9-H40=  0.39         
           -------------------------------------------------
          |                Final Singlepoint                |
           -------------------------------------------------

          ...................................................
          :                      SETUP                      :
          :.................................................:
          :  # basis functions                 327          :
          :  # atomic orbitals                 326          :
          :  # shells                          186          :
          :  # electrons                       340          :
          :  max. iterations                   250          :
          :  Hamiltonian                  GFN2-xTB          :
          :  restarted?                      false          :
          :  GBSA solvation                   true          :
          :  PC potential                    false          :
          :  electronic temp.          300.0000000     K    :
          :  accuracy                    0.2000000          :
          :  -> integral cutoff          0.3198970E+02      :
          :  -> integral neglect         0.2000000E-08      :
          :  -> SCF convergence          0.2000000E-06 Eh   :
          :  -> wf. convergence          0.2000000E-04 e    :
          :  Broyden damping             0.4000000          :
          :  net charge                          0          :
          :  unpaired electrons                  0          :
          ...................................................

 iter      E             dE          RMSdq      gap      omega  full diag
   1   -191.2116255 -0.191212E+03  0.209E-05    2.00       0.0  T
   2   -191.2116255 -0.264322E-11  0.163E-05    2.00     567.0  T
   3   -191.2116255 -0.244427E-10  0.752E-06    2.00    1230.1  T

   *** convergence criteria satisfied after 3 iterations ***

         #    Occupation            Energy/Eh            Energy/eV
      -------------------------------------------------------------
         1        2.0000           -0.7287904             -19.8314
       ...           ...                  ...                  ...
       164        2.0000           -0.3898982             -10.6097
       165        2.0000           -0.3881260             -10.5614
       166        2.0000           -0.3856772             -10.4948
       167        2.0000           -0.3806981             -10.3593
       168        2.0000           -0.3728768             -10.1465
       169        2.0000           -0.3705935             -10.0844
       170        2.0000           -0.3499980              -9.5239 (HOMO)
       171                         -0.2765636              -7.5257 (LUMO)
       172                         -0.2734829              -7.4418
       173                         -0.2647736              -7.2049
       174                         -0.2610945              -7.1047
       175                         -0.2452080              -6.6724
       ...                                ...                  ...
       326                          1.2915396              35.1446
      -------------------------------------------------------------
                  HL-Gap            0.0734344 Eh            1.9983 eV
             Fermi-level           -0.3132808 Eh           -8.5248 eV

 SCC (total)                   0 d,  0 h,  0 min,  0.436 sec
 SCC setup                      ...        0 min,  0.006 sec (  1.377%)
 Dispersion                     ...        0 min,  0.006 sec (  1.372%)
 classical contributions        ...        0 min,  0.001 sec (  0.219%)
 integral evaluation            ...        0 min,  0.068 sec ( 15.565%)
 iterations                     ...        0 min,  0.090 sec ( 20.730%)
 molecular gradient             ...        0 min,  0.260 sec ( 59.632%)
 printout                       ...        0 min,  0.005 sec (  1.093%)

         :::::::::::::::::::::::::::::::::::::::::::::::::::::
         ::                     SUMMARY                     ::
         :::::::::::::::::::::::::::::::::::::::::::::::::::::
         :: total energy            -188.243893933712 Eh    ::
         :: total w/o Gsasa/hb      -188.167152710041 Eh    ::
         :: gradient norm              0.000050368835 Eh/a0 ::
         :: HOMO-LUMO gap              1.998251609694 eV    ::
         ::.................................................::
         :: SCC energy              -191.200018909573 Eh    ::
         :: -> isotropic ES            0.240701951508 Eh    ::
         :: -> anisotropic ES         -0.014426808810 Eh    ::
         :: -> anisotropic XC          0.083085959715 Eh    ::
         :: -> dispersion             -0.193465367999 Eh    ::
         :: -> Gsolv                  -0.086806144943 Eh    ::
         ::    -> Gelec               -0.010064921271 Eh    ::
         ::    -> Gsasa               -0.078949366810 Eh    ::
         ::    -> Ghb                  0.000000000000 Eh    ::
         ::    -> Gshift               0.002208143139 Eh    ::
         :: repulsion energy           2.956124975860 Eh    ::
         :: add. restraining           0.000000000000 Eh    ::
         :: total charge               0.000000000000 e     ::
         :::::::::::::::::::::::::::::::::::::::::::::::::::::

           -------------------------------------------------
          |                Property Printout                |
           -------------------------------------------------

    * Orbital Energies and Occupations

         #    Occupation            Energy/Eh            Energy/eV
      -------------------------------------------------------------
         1        2.0000           -0.7287904             -19.8314
       ...           ...                  ...                  ...
       158        2.0000           -0.4059976             -11.0478
       159        2.0000           -0.4030127             -10.9665
       160        2.0000           -0.4020539             -10.9404
       161        2.0000           -0.4007054             -10.9038
       162        2.0000           -0.3970301             -10.8037
       163        2.0000           -0.3923435             -10.6762
       164        2.0000           -0.3898982             -10.6097
       165        2.0000           -0.3881260             -10.5614
       166        2.0000           -0.3856772             -10.4948
       167        2.0000           -0.3806981             -10.3593
       168        2.0000           -0.3728768             -10.1465
       169        2.0000           -0.3705935             -10.0844
       170        2.0000           -0.3499980              -9.5239 (HOMO)
       171                         -0.2765636              -7.5257 (LUMO)
       172                         -0.2734829              -7.4418
       173                         -0.2647736              -7.2049
       174                         -0.2610945              -7.1047
       175                         -0.2452080              -6.6724
       176                         -0.2379291              -6.4744
       177                         -0.2283714              -6.2143
       178                         -0.2243215              -6.1041
       179                         -0.2239941              -6.0952
       180                         -0.2187814              -5.9533
       181                         -0.2145008              -5.8369
       ...                                ...                  ...
       326                          1.2915396              35.1446
      -------------------------------------------------------------
                  HL-Gap            0.0734344 Eh            1.9983 eV
             Fermi-level           -0.3132808 Eh           -8.5248 eV

     #   Z          covCN         q      C6AA      α(0)
     1   8 O        0.808    -0.532    24.536     6.640
     2  15 P        3.931     0.737   131.436    20.594
     3   8 O        1.603    -0.457    22.019     6.333
     4   8 O        1.661    -0.321    19.386     5.944
     5   6 C        3.163     0.141    24.635     8.112
     6   6 C        2.967    -0.009    28.232     8.715
     7   6 C        2.927    -0.049    29.222     8.865
     8   6 C        2.983     0.007    27.857     8.658
     9   6 C        2.919    -0.035    28.859     8.809
    10   6 C        2.915    -0.030    28.737     8.791
    11   6 C        2.916    -0.029    28.727     8.789
    12   6 C        2.917    -0.033    28.817     8.803
    13   6 C        2.987     0.011    27.769     8.644
    14   6 C        2.973    -0.010    28.252     8.719
    15   6 C        2.973    -0.012    28.305     8.727
    16   6 C        3.223     0.142    24.243     8.002
    17   8 O        1.661    -0.292    18.866     5.864
    18   6 C        2.969    -0.004    28.115     8.697
    19   6 C        2.927    -0.050    29.250     8.869
    20   6 C        2.983     0.008    27.844     8.656
    21   6 C        2.920    -0.035    28.868     8.811
    22   6 C        2.915    -0.030    28.752     8.793
    23   6 C        2.916    -0.030    28.755     8.793
    24   6 C        2.917    -0.034    28.853     8.808
    25   6 C        2.986     0.009    27.801     8.649
    26   6 C        2.976     0.017    27.627     8.622
    27   6 C        2.925    -0.036    28.892     8.815
    28   6 C        2.918    -0.031    28.782     8.798
    29   6 C        2.920    -0.032    28.790     8.799
    30   6 C        2.919    -0.030    28.737     8.791
    31   6 C        2.924    -0.031    28.762     8.795
    32   6 C        2.979     0.023    27.479     8.599
    33   6 C        2.925    -0.035    28.864     8.811
    34   6 C        2.919    -0.032    28.791     8.799
    35   6 C        2.920    -0.031    28.762     8.795
    36   6 C        2.919    -0.019    28.473     8.750
    37   6 C        2.924    -0.017    28.429     8.744
    38   1 H        0.844     0.367     0.546     1.158
    39   1 H        0.926     0.047     2.358     2.401
    40   1 H        0.926     0.038     2.472     2.459
    41   1 H        0.926     0.038     2.479     2.462
    42   1 H        0.926     0.036     2.498     2.471
    43   1 H        0.926     0.034     2.537     2.491
    44   1 H        0.926     0.046     2.367     2.406
    45   1 H        0.926     0.038     2.475     2.460
    46   1 H        0.926     0.037     2.483     2.464
    47   1 H        0.926     0.036     2.505     2.475
    48   1 H        0.926     0.033     2.546     2.495
    49   1 H        0.926     0.036     2.508     2.477
    50   1 H        0.926     0.035     2.523     2.484
    51   1 H        0.926     0.032     2.557     2.501
    52   1 H        0.926     0.031     2.569     2.506
    53   1 H        0.926     0.038     2.479     2.462
    54   1 H        0.925     0.029     2.598     2.521
    55   1 H        0.926     0.032     2.559     2.502
    56   1 H        0.926     0.030     2.586     2.515
    57   1 H        0.926     0.033     2.541     2.493
    58   1 H        0.926     0.034     2.529     2.487
    59   6 C        3.756    -0.122    22.892     6.822
    60   6 C        2.901     0.122    25.328     8.252
    61   7 N        1.876    -0.239    27.103     7.717
    62   6 C        2.927     0.082    26.173     8.390
    63   6 C        2.921    -0.043    29.077     8.843
    64   6 C        2.919    -0.031    28.768     8.795
    65   6 C        2.918    -0.039    28.967     8.826
    66   6 C        2.919    -0.031    28.765     8.795
    67   6 C        2.923    -0.046    29.136     8.852
    68   6 C        2.977     0.005    27.916     8.667
    69   6 C        2.924    -0.029    28.726     8.789
    70   6 C        2.918    -0.030    28.750     8.793
    71   6 C        2.919    -0.026    28.658     8.779
    72   6 C        2.918    -0.026    28.647     8.777
    73   6 C        2.927    -0.028    28.711     8.787
    74   1 H        0.925     0.085     1.933     2.174
    75   1 H        0.925     0.058     2.228     2.334
    76   1 H        0.925     0.050     2.319     2.382
    77   1 H        0.926     0.047     2.353     2.399
    78   1 H        0.926     0.033     2.541     2.493
    79   1 H        0.926     0.031     2.570     2.507
    80   1 H        0.926     0.032     2.561     2.503
    81   1 H        0.926     0.035     2.510     2.478
    82   1 H        0.926     0.042     2.427     2.436
    83   1 H        0.926     0.041     2.429     2.437
    84   1 H        0.926     0.042     2.427     2.436
    85   1 H        0.926     0.046     2.375     2.410
    86   1 H        0.926     0.054     2.271     2.357
    87   6 C        3.655     0.037    20.250     6.460
    88   8 O        1.705    -0.277    18.604     5.823
    89   6 C        2.730     0.345    21.134     7.526
    90   8 O        0.856    -0.453    22.768     6.397
    91   6 C        2.956    -0.061    29.514     8.911
    92   6 C        2.892     0.087    26.054     8.369
    93   6 C        3.759    -0.132    23.094     6.851
    94   7 N        2.713    -0.115    23.516     7.202
    95   6 C        2.888     0.080    26.210     8.393
    96   6 C        3.759    -0.128    22.998     6.837
    97   6 C        2.955    -0.067    29.675     8.935
    98   6 C        2.726     0.341    21.205     7.539
    99   8 O        0.857    -0.476    23.258     6.466
   100   8 O        1.704    -0.281    18.667     5.833
   101   6 C        3.652     0.038    20.244     6.461
   102   6 C        3.816    -0.053    21.518     6.602
   103   1 H        0.925     0.063     2.164     2.300
   104   1 H        0.924     0.061     2.192     2.315
   105   1 H        0.924     0.053     2.285     2.364
   106   1 H        0.925     0.079     1.994     2.208
   107   1 H        0.925     0.100     1.781     2.087
   108   1 H        0.925     0.052     2.289     2.366
   109   1 H        0.860     0.194     1.136     1.670
   110   1 H        0.925     0.080     1.980     2.201
   111   1 H        0.925     0.061     2.190     2.314
   112   1 H        0.925     0.079     1.992     2.207
   113   1 H        0.924     0.059     2.216     2.328
   114   1 H        0.925     0.069     2.098     2.265
   115   1 H        0.924     0.055     2.262     2.352
   116   1 H        0.924     0.067     2.113     2.273
   117   1 H        0.923     0.040     2.449     2.447

 Mol. C6AA /au·bohr⁶  :     183905.449118
 Mol. C8AA /au·bohr⁸  :    4623878.683907
 Mol. α(0) /au        :        682.425570


Wiberg/Mayer (AO) data.
largest (>0.10) Wiberg bond orders for each atom

 ---------------------------------------------------------------------------
     #   Z sym  total        # sym  WBO       # sym  WBO       # sym  WBO
 ---------------------------------------------------------------------------
     1   8 O    2.034 --     2 P    1.801
     2  15 P    5.442 --     1 O    1.801     3 O    1.293    17 O    1.126
                             4 O    1.088
     3   8 O    2.204 --     2 P    1.293    38 H    0.682
     4   8 O    2.305 --     2 P    1.088     5 C    0.971
     5   6 C    3.913 --    14 C    1.463     6 C    1.244     4 O    0.971
     6   6 C    3.985 --     7 C    1.493     5 C    1.244    26 C    1.048
     7   6 C    3.984 --     6 C    1.493     8 C    1.285    39 H    0.964
                            14 C    0.102
     8   6 C    3.988 --     7 C    1.285     9 C    1.276    13 C    1.250
     9   6 C    3.985 --    10 C    1.557     8 C    1.276    40 H    0.968
                            12 C    0.117
    10   6 C    3.988 --     9 C    1.557    11 C    1.322    41 H    0.970
    11   6 C    3.984 --    12 C    1.552    10 C    1.322    42 H    0.971
    12   6 C    3.990 --    11 C    1.552    13 C    1.286    43 H    0.966
                             9 C    0.117
    13   6 C    3.985 --    12 C    1.286     8 C    1.250    14 C    1.236
    14   6 C    3.985 --     5 C    1.463    13 C    1.236    15 C    1.028
                             7 C    0.102
    15   6 C    3.984 --    16 C    1.463    25 C    1.234    14 C    1.028
                            19 C    0.103
    16   6 C    3.908 --    15 C    1.463    18 C    1.248    17 O    0.959
    17   8 O    2.326 --     2 P    1.126    16 C    0.959
    18   6 C    3.985 --    19 C    1.498    16 C    1.248    32 C    1.037
    19   6 C    3.984 --    18 C    1.498    20 C    1.283    44 H    0.965
                            15 C    0.103
    20   6 C    3.988 --    19 C    1.283    21 C    1.277    25 C    1.251
    21   6 C    3.984 --    22 C    1.556    20 C    1.277    45 H    0.968
                            24 C    0.117
    22   6 C    3.988 --    21 C    1.556    23 C    1.322    46 H    0.970
    23   6 C    3.986 --    24 C    1.551    22 C    1.322    47 H    0.971
    24   6 C    3.990 --    23 C    1.551    25 C    1.286    48 H    0.966
                            21 C    0.117
    25   6 C    3.985 --    24 C    1.286    20 C    1.251    15 C    1.234
    26   6 C    3.988 --    31 C    1.387    27 C    1.387     6 C    1.048
                            29 C    0.105
    27   6 C    3.989 --    28 C    1.451    26 C    1.387    49 H    0.967
                            30 C    0.108
    28   6 C    3.992 --    27 C    1.451    29 C    1.433    50 H    0.970
                            31 C    0.108
    29   6 C    3.986 --    30 C    1.434    28 C    1.433    51 H    0.970
                            26 C    0.105
    30   6 C    3.992 --    31 C    1.451    29 C    1.434    52 H    0.970
                            27 C    0.108
    31   6 C    3.987 --    30 C    1.451    26 C    1.387    53 H    0.969
                            28 C    0.108
    32   6 C    3.988 --    37 C    1.395    33 C    1.389    18 C    1.037
                            35 C    0.106
    33   6 C    3.987 --    34 C    1.451    32 C    1.389    54 H    0.970
                            36 C    0.109
    34   6 C    3.992 --    33 C    1.451    35 C    1.432    55 H    0.971
                            37 C    0.110
    35   6 C    3.988 --    36 C    1.438    34 C    1.432    56 H    0.971
                            32 C    0.106
    36   6 C    3.991 --    37 C    1.445    35 C    1.438    57 H    0.970
                            33 C    0.109
    37   6 C    3.987 --    36 C    1.445    32 C    1.395    58 H    0.970
                            34 C    0.110
    38   1 H    0.865 --     3 O    0.682    61 N    0.138
    39   1 H    0.997 --     7 C    0.964
    40   1 H    0.998 --     9 C    0.968
    41   1 H    0.998 --    10 C    0.970
    42   1 H    0.998 --    11 C    0.971
    43   1 H    0.998 --    12 C    0.966
    44   1 H    0.997 --    19 C    0.965
    45   1 H    0.998 --    21 C    0.968
    46   1 H    0.998 --    22 C    0.970
    47   1 H    0.998 --    23 C    0.971
    48   1 H    0.998 --    24 C    0.966
    49   1 H    0.999 --    27 C    0.967
    50   1 H    0.998 --    28 C    0.970
    51   1 H    0.998 --    29 C    0.970
    52   1 H    0.998 --    30 C    0.970
    53   1 H    0.999 --    31 C    0.969
    54   1 H    0.999 --    33 C    0.970
    55   1 H    0.998 --    34 C    0.971
    56   1 H    0.999 --    35 C    0.971
    57   1 H    0.998 --    36 C    0.970
    58   1 H    0.999 --    37 C    0.970
    59   6 C    3.993 --    60 C    1.021    76 H    0.978    75 H    0.962
                            74 H    0.950
    60   6 C    3.958 --    61 N    1.718    68 C    1.066    59 C    1.021
    61   7 N    3.279 --    60 C    1.718    62 C    1.090    38 H    0.138
    62   6 C    3.973 --    67 C    1.359    63 C    1.357    61 N    1.090
    63   6 C    3.984 --    64 C    1.450    62 C    1.357    77 H    0.966
                            66 C    0.105
    64   6 C    3.991 --    63 C    1.450    65 C    1.433    78 H    0.970
                            67 C    0.107
    65   6 C    3.987 --    64 C    1.433    66 C    1.426    79 H    0.972
    66   6 C    3.991 --    67 C    1.459    65 C    1.426    80 H    0.971
                            63 C    0.105
    67   6 C    3.986 --    66 C    1.459    62 C    1.359    81 H    0.966
                            64 C    0.107
    68   6 C    3.988 --    73 C    1.375    69 C    1.373    60 C    1.066
                            71 C    0.100
    69   6 C    3.984 --    70 C    1.459    68 C    1.373    82 H    0.963
                            72 C    0.106
    70   6 C    3.991 --    69 C    1.459    71 C    1.426    83 H    0.970
                            73 C    0.105
    71   6 C    3.985 --    72 C    1.433    70 C    1.426    84 H    0.970
                            68 C    0.100
    72   6 C    3.991 --    73 C    1.454    71 C    1.433    85 H    0.969
                            69 C    0.106
    73   6 C    3.988 --    72 C    1.454    68 C    1.375    86 H    0.953
                            70 C    0.105
    74   1 H    0.992 --    59 C    0.950
    75   1 H    0.996 --    59 C    0.962
    76   1 H    0.997 --    59 C    0.978
    77   1 H    0.998 --    63 C    0.966
    78   1 H    0.998 --    64 C    0.970
    79   1 H    0.999 --    65 C    0.972
    80   1 H    0.998 --    66 C    0.971
    81   1 H    0.999 --    67 C    0.966
    82   1 H    0.998 --    69 C    0.963
    83   1 H    0.998 --    70 C    0.970
    84   1 H    0.998 --    71 C    0.970
    85   1 H    0.997 --    72 C    0.969
    86   1 H    0.997 --    73 C    0.953
    87   6 C    3.932 --   103 H    0.979   105 H    0.977   104 H    0.975
                            88 O    0.966
    88   8 O    2.273 --    89 C    1.085    87 C    0.966    90 O    0.152
    89   6 C    3.920 --    90 O    1.666    88 O    1.085    91 C    1.073
    90   8 O    1.997 --    89 C    1.666    88 O    0.152
    91   6 C    3.972 --    92 C    1.624    89 C    1.073   102 C    1.000
    92   6 C    3.967 --    91 C    1.624    94 N    1.141    93 C    1.037
    93   6 C    3.986 --    92 C    1.037   108 H    0.979   106 H    0.961
                           107 H    0.941
    94   7 N    3.521 --    95 C    1.169    92 C    1.141   109 H    0.924
    95   6 C    3.967 --    97 C    1.601    94 N    1.169    96 C    1.030
    96   6 C    3.989 --    95 C    1.030   111 H    0.978   110 H    0.963
                           112 H    0.957
    97   6 C    3.970 --    95 C    1.601    98 C    1.093   102 C    0.997
    98   6 C    3.923 --    99 O    1.642    97 C    1.093   100 O    1.085
    99   8 O    1.967 --    98 C    1.642   100 O    0.147
   100   8 O    2.271 --    98 C    1.085   101 C    0.963    99 O    0.147
   101   6 C    3.930 --   114 H    0.981   113 H    0.977   115 H    0.975
                           100 O    0.963
   102   6 C    3.994 --    91 C    1.000    97 C    0.997   116 H    0.958
                           117 H    0.955
   103   1 H    0.996 --    87 C    0.979
   104   1 H    0.996 --    87 C    0.975
   105   1 H    0.997 --    87 C    0.977
   106   1 H    0.993 --    93 C    0.961
   107   1 H    0.990 --    93 C    0.941
   108   1 H    0.997 --    93 C    0.979
   109   1 H    0.961 --    94 N    0.924
   110   1 H    0.993 --    96 C    0.963
   111   1 H    0.996 --    96 C    0.978
   112   1 H    0.993 --    96 C    0.957
   113   1 H    0.996 --   101 C    0.977
   114   1 H    0.995 --   101 C    0.981
   115   1 H    0.996 --   101 C    0.975
   116   1 H    0.995 --   102 C    0.958
   117   1 H    0.998 --   102 C    0.955
 ---------------------------------------------------------------------------

Topologies differ in total number of bonds
Writing topology from bond orders to xtbtopo.mol

molecular dipole:
                 x           y           z       tot (Debye)
 q only:       -0.849       0.430      -1.787
   full:       -1.124       0.669      -1.754       5.562
molecular quadrupole (traceless):
                xx          xy          yy          xz          yz          zz
 q only:       -4.610      -7.168       7.897     -10.772     -49.383      -3.287
  q+dip:       -5.348     -11.179       6.074     -15.758     -47.551      -0.726
   full:       -6.298      -8.479       9.336     -10.695     -46.677      -3.038

           -------------------------------------------------
          |                Geometry Summary                 |
           -------------------------------------------------

      molecular mass/u    :      920.9834508
   center of mass at/Å    :       -0.1704288       3.0274666       0.0541130
  moments of inertia/u·Å² :        0.9906821E+04   0.1585816E+05   0.1907696E+05
rotational constants/cm⁻¹ :        0.1701619E-02   0.1063026E-02   0.8836647E-03

 * 111 selected distances

     #   Z          #   Z                                           value/Å
     1   8 O        2  15 P                                       1.4648732
     2  15 P        3   8 O                                       1.5607004
     2  15 P        4   8 O                                       1.6258857 (max)
     4   8 O        5   6 C                                       1.3839378
     5   6 C        6   6 C                                       1.4176525
     6   6 C        7   6 C                                       1.3762103
     7   6 C        8   6 C                                       1.4071622
     8   6 C        9   6 C                                       1.4118103
     9   6 C       10   6 C                                       1.3664383
    10   6 C       11   6 C                                       1.4034846
    11   6 C       12   6 C                                       1.3677647
     8   6 C       13   6 C                                       1.4190572
    12   6 C       13   6 C                                       1.4113702
     5   6 C       14   6 C                                       1.3784386
    13   6 C       14   6 C                                       1.4213504
    15   6 C       16   6 C                                       1.3780692
     2  15 P       17   8 O                                       1.6072810
    16   6 C       17   8 O                                       1.3870420
    16   6 C       18   6 C                                       1.4141995
    18   6 C       19   6 C                                       1.3744593
    19   6 C       20   6 C                                       1.4077127
    20   6 C       21   6 C                                       1.4116920
    21   6 C       22   6 C                                       1.3664299
    22   6 C       23   6 C                                       1.4032331
    23   6 C       24   6 C                                       1.3677809
    15   6 C       25   6 C                                       1.4225971
    20   6 C       25   6 C                                       1.4196352
    24   6 C       25   6 C                                       1.4116846
    26   6 C       27   6 C                                       1.3943769
    27   6 C       28   6 C                                       1.3820377
    28   6 C       29   6 C                                       1.3848132
    29   6 C       30   6 C                                       1.3845595
    26   6 C       31   6 C                                       1.3938145
    30   6 C       31   6 C                                       1.3823685
    32   6 C       33   6 C                                       1.3924318
    33   6 C       34   6 C                                       1.3822512
    34   6 C       35   6 C                                       1.3854038
    35   6 C       36   6 C                                       1.3843003
    32   6 C       37   6 C                                       1.3907176
    36   6 C       37   6 C                                       1.3823108
     7   6 C       39   1 H                                       1.0807142
     9   6 C       40   1 H                                       1.0808403
    10   6 C       41   1 H                                       1.0801611
    11   6 C       42   1 H                                       1.0801881
    12   6 C       43   1 H                                       1.0798205
    19   6 C       44   1 H                                       1.0810109
    21   6 C       45   1 H                                       1.0807831
    22   6 C       46   1 H                                       1.0801662
    23   6 C       47   1 H                                       1.0802395
    24   6 C       48   1 H                                       1.0797221
    27   6 C       49   1 H                                       1.0804717
    28   6 C       50   1 H                                       1.0808261
    29   6 C       51   1 H                                       1.0804260
    30   6 C       52   1 H                                       1.0802879
    31   6 C       53   1 H                                       1.0790991
    33   6 C       54   1 H                                       1.0812308
    34   6 C       55   1 H                                       1.0809389
    35   6 C       56   1 H                                       1.0809608
    36   6 C       57   1 H                                       1.0798967
    37   6 C       58   1 H                                       1.0794570
    60   6 C       61   7 N                                       1.2781869
    62   6 C       63   6 C                                       1.3961745
    63   6 C       64   6 C                                       1.3823071
    64   6 C       65   6 C                                       1.3855533
    65   6 C       66   6 C                                       1.3865335
    62   6 C       67   6 C                                       1.3950389
    66   6 C       67   6 C                                       1.3813355
    68   6 C       69   6 C                                       1.3975341
    69   6 C       70   6 C                                       1.3818945
    70   6 C       71   6 C                                       1.3856958
    71   6 C       72   6 C                                       1.3848849
    68   6 C       73   6 C                                       1.3959359
    72   6 C       73   6 C                                       1.3807901
    59   6 C       74   1 H                                       1.0898422
    59   6 C       75   1 H                                       1.0866974
    59   6 C       76   1 H                                       1.0875446
    63   6 C       77   1 H                                       1.0803661
    64   6 C       78   1 H                                       1.0806355
    65   6 C       79   1 H                                       1.0802167
    66   6 C       80   1 H                                       1.0806945
    67   6 C       81   1 H                                       1.0791573
    69   6 C       82   1 H                                       1.0785836
    70   6 C       83   1 H                                       1.0807617
    71   6 C       84   1 H                                       1.0806145
    72   6 C       85   1 H                                       1.0795239
    73   6 C       86   1 H                                       1.0748731
    87   6 C       88   8 O                                       1.4171576
    88   8 O       89   6 C                                       1.3562008
    89   6 C       90   8 O                                       1.2153229
    91   6 C       92   6 C                                       1.3524200
    92   6 C       94   7 N                                       1.3789629
    94   7 N       95   6 C                                       1.3712279
    95   6 C       97   6 C                                       1.3559859
    98   6 C       99   8 O                                       1.2201414
    98   6 C      100   8 O                                       1.3530722
   100   8 O      101   6 C                                       1.4187153
    87   6 C      103   1 H                                       1.0870948
    87   6 C      104   1 H                                       1.0919598
    87   6 C      105   1 H                                       1.0934114
    93   6 C      106   1 H                                       1.0863523
    93   6 C      107   1 H                                       1.0894350
    93   6 C      108   1 H                                       1.0879132
    94   7 N      109   1 H                                       1.0104788 (min)
    96   6 C      110   1 H                                       1.0873888
    96   6 C      111   1 H                                       1.0880076
    96   6 C      112   1 H                                       1.0882257
   101   6 C      113   1 H                                       1.0927503
   101   6 C      114   1 H                                       1.0872668
   101   6 C      115   1 H                                       1.0922581
   102   6 C      116   1 H                                       1.0903451
   102   6 C      117   1 H                                       1.0996130
Note: The following floating-point exceptions are signalling: IEEE_DIVIDE_BY_ZERO IEEE_UNDERFLOW_FLAG IEEE_DENORMAL
normal termination of xtb

 * 6 distinct bonds (by element types)

   Z      Z             #   av. dist./Å        max./Å        min./Å
   1 H    6 C          47     1.0835909     1.0996130     1.0748731
   6 C    6 C          48     1.3908271     1.4225971     1.3524200
   1 H    7 N           1     1.0104788     1.0104788     1.0104788
   6 C    7 N           3     1.3427926     1.3789629     1.2781869
   6 C    8 O           8     1.3439488     1.4187153     1.2153229
   8 O   15 P           4     1.5646850     1.6258857     1.4648732


optimized geometry written to: xtbopt.xyz


           -------------------------------------------------
          | TOTAL ENERGY             -188.243893933712 Eh   |
          | GRADIENT NORM               0.000050368835 Eh/α |
          | HOMO-LUMO GAP               1.998251609694 eV   |
           -------------------------------------------------

------------------------------------------------------------------------
 * finished run on 2026/09/10 at 23:16:50.046     
------------------------------------------------------------------------
 total:
 * wall-time:     0 d,  0 h,  2 min, 13.296 sec
 *  cpu-time:     0 d,  0 h,  0 min, 23.344 sec
 * ratio c/w:     0.175 speedup
 SCF:
 * wall-time:     0 d,  0 h,  0 min,  0.570 sec
 *  cpu-time:     0 d,  0 h,  0 min,  0.078 sec
 * ratio c/w:     0.137 speedup
 ANC optimizer:
 * wall-time:     0 d,  0 h,  2 min, 12.616 sec
 *  cpu-time:     0 d,  0 h,  0 min, 23.250 sec
 * ratio c/w:     0.175 speedup

