117
 energy: -188.243893933712 gnorm: 0.000050368835 xtb: 6.7.1 (edcfbbe)
O            1.24245441795882        2.92614168235795       -1.16089803933712
P            0.45939366011632        2.31877018064236       -0.08211690103444
O           -0.27116506304331        3.21411869691794        0.96689221545040
O           -0.67261565848050        1.36264223477759       -0.75135371745875
C           -1.38023783989565        0.54058679415092        0.10816898108167
C           -2.74741807355894        0.81012315944135        0.36875806114000
C           -3.40701622727117       -0.00208152154542        1.26274253919496
C           -2.75946813423146       -1.05229556302071        1.93937901416635
C           -3.43348019613043       -1.84038174494990        2.89741652872536
C           -2.78370506215467       -2.84321697741809        3.56018872273124
C           -1.42776268522879       -3.09465540283619        3.29948250550578
C           -0.75027324479262       -2.35817829677923        2.36707189728517
C           -1.39850453026493       -1.33034044017819        1.64922014281502
C           -0.73278920806755       -0.53502162759294        0.67735202175538
C            0.65506593379615       -0.83227426686283        0.26171323149950
C            1.62383257167781        0.13479932224194        0.42088036387109
O            1.25039346757297        1.36496713657620        0.94156800215428
C            2.97326129425556       -0.09868792260634        0.06805526859086
C            3.30596833909926       -1.32170742085485       -0.46360933594607
C            2.34291126066462       -2.32350897550273       -0.68848567612845
C            2.68988790255752       -3.56280346254329       -1.26868413360994
C            1.73846116873613       -4.51217110795764       -1.51489254535375
C            0.39422210794025       -4.25472419547299       -1.20536841520835
C            0.02724943519561       -3.06873750769395       -0.63126844267294
C            0.98988446643246       -2.07971537317788       -0.33458314563759
C           -3.48348775298476        1.87583154033531       -0.33267855892098
C           -4.44549975565768        2.62766302758905        0.34079674981075
C           -5.21415926191928        3.55707315764126       -0.33402705540124
C           -5.03395592064716        3.75469209109188       -1.69276940220643
C           -4.06747448698226        3.02872247494568       -2.36796304073754
C           -3.29902157697772        2.09618750636432       -1.69654583783022
C            4.01200438842297        0.92331784993026        0.27797851635492
C            4.88921853379704        1.24168532577856       -0.75546399215300
C            5.90602285755598        2.15588174301988       -0.55304864584368
C            6.06571293836211        2.75354546895882        0.68656435496698
C            5.19643633044407        2.44220440273521        1.71792847173815
C            4.17150819304801        1.53698202044090        1.51574663657715
H           -0.88772029088648        3.97985568615673        0.70971184764071
H           -4.45865646780351        0.15929165772976        1.45235924139477
H           -4.47330729019228       -1.62758169052417        3.10160094852642
H           -3.30419968531547       -3.44133842839146        4.29373071103142
H           -0.91849640103859       -3.87558947843410        3.84500608561825
H            0.29563639532244       -2.55095217408620        2.18019394160979
H            4.33624850340580       -1.52365208874891       -0.72114650879979
H            3.72564474208779       -3.74125424650731       -1.52058688643038
H            2.01101849504854       -5.45859636155888       -1.95845821217309
H           -0.35412801972846       -5.00142767436303       -1.42745678635322
H           -1.01174411617902       -2.87723439035514       -0.40851620640667
H           -4.59412761254395        2.48642337513773        1.40163607180312
H           -5.96331464463668        4.12046610376497        0.20406159715317
H           -5.64696805275127        4.46649300048079       -2.22650687929146
H           -3.91652369273168        3.18251724230256       -3.42653887712582
H           -2.56564904000621        1.51798441212700       -2.23719402017162
H            4.75769479946454        0.78070668229494       -1.72461828774303
H            6.57718366381354        2.40231868875501       -1.36375252577013
H            6.86475602086480        3.46388361986892        0.84601961902958
H            5.31278776961686        2.91098978262157        2.68378521797789
H            3.49510080061880        1.29594940135711        2.32172649954204
C           -3.82332067094383        6.68070783297199        0.26834757459387
C           -2.66150008613553        5.80159829240613       -0.09143036155456
N           -1.99272953437173        5.13672155111390        0.77138267833541
C           -2.15026743944865        5.25622778102411        2.14949658539065
C           -1.99664057885681        6.48705582484776        2.79040535951913
C           -2.06661173895392        6.56399771183491        4.16879449020948
C           -2.30275613454183        5.42666748634645        4.92409134319120
C           -2.44766427147730        4.20158242480646        4.29112756456457
C           -2.36036593800769        4.10948192753818        2.91563350716099
C           -2.27811158172298        5.70672437327810       -1.50665096691034
C           -3.07506563216785        6.23989421337915       -2.52335913028144
C           -2.68641723826110        6.15871822311124       -3.84698859360464
C           -1.49658358560080        5.53788205234225       -4.19196798462545
C           -0.68853042923424        5.01819176576022       -3.19453229070957
C           -1.06873272216705        5.11199848091450       -1.87043730491554
H           -3.53624584682138        7.71919799425695        0.10439026785447
H           -4.68796081602309        6.44916766880346       -0.34784856947451
H           -4.09354598816838        6.55178872445070        1.31386717294711
H           -1.79992331368530        7.37014944422020        2.19994897676590
H           -1.94012100953339        7.52082554522209        4.65485352457472
H           -2.36563932557437        5.49226497281531        6.00047912439838
H           -2.62283698941364        3.30935833075123        4.87520890778127
H           -2.46064439633222        3.15444460543269        2.42326361422314
H           -4.01327807698481        6.71946802973401       -2.29290570831998
H           -3.31885777966777        6.57935736091776       -4.61583661291693
H           -1.20291139946810        5.46547317724050       -5.22938833232671
H            0.24553560383772        4.53138378484133       -3.43098592467000
H           -0.40287638249959        4.73158521788541       -1.11726197568068
C            1.20075285932613        4.81121929128274        3.38900560456431
O            1.16260086292090        5.60337979959644        2.21454339017119
C            2.01318932791953        5.22800537748300        1.22718651733966
O            2.77980621604701        4.29546153470726        1.36743616236401
C            1.90720062936622        6.09912555651661        0.06209376189183
C            2.69230794463875        5.93204948182599       -1.02635998446605
C            3.74786011857158        4.89360275718108       -1.17534966510165
N            2.51070238684535        6.74912724847824       -2.12223478480232
C            1.40992847742064        7.54621402531739       -2.30448501087298
C            1.24419179915145        8.07801379493210       -3.69105527152259
C            0.58101553364327        7.77729778049413       -1.25653414152541
C           -0.66434296735454        8.52331492356652       -1.31075757507408
O           -1.39967179854508        8.68298169525924       -0.35026670927897
O           -0.96698584902417        9.04899609459887       -2.52024946217963
C           -2.17911014849953        9.78189858749250       -2.60000754626483
C            0.91810315717863        7.23784381812187        0.11803313322815
H            0.47257102583017        5.24383365533484        4.07045321578508
H            0.93973234627652        3.77759447782037        3.15265012314818
H            2.20245317960382        4.83107152036060        3.82689905512337
H            4.38052988659695        4.85666314803135       -0.29300875474389
H            3.26570590641877        3.91931913215119       -1.24723252902656
H            4.35579933206660        5.06756254104350       -2.06061962808091
H            3.09129963584632        6.56392782164394       -2.92825906017256
H            1.17973195624024        9.16340788490153       -3.67768427145557
H            2.07933617419236        7.77996412315296       -4.32149997025108
H            0.31961641147011        7.70317793161511       -4.12567400890301
H           -2.21137279626658       10.55629523903558       -1.82970109116345
H           -2.19629671789760       10.22704542468943       -3.59182294867606
H           -3.03458618537683        9.11603816871869       -2.46652273497851
H            0.00062559245720        6.90710206681526        0.60557497314836
H            1.32245631911142        8.04778713464163        0.74224380241442
