117
Exact reflection of optimized complete ternary; mirror-energy control
O -0.865058861285 3.165427319145 -1.656610139042
P -0.007955064467 2.783950225428 -0.514585907079
O 0.764960616473 3.836252287475 0.219199046705
O 0.997149672228 1.589189556623 -1.018103925322
C 1.662292896562 0.911237792444 -0.031010611502
C 3.025225627081 1.196748752490 0.246458123040
C 3.655466453478 0.457596184402 1.220941962518
C 2.978332585698 -0.508718096191 1.985437403233
C 3.628429166536 -1.215350154425 3.020115684983
C 2.942903337712 -2.103934616836 3.799287563710
C 1.572203454218 -2.313061904310 3.582990622584
C 0.918158288559 -1.657032673904 2.576675811600
C 1.603970571749 -0.756249184941 1.733259233745
C 0.970227258957 -0.053347124257 0.672418149793
C -0.450657209250 -0.295415761116 0.344222499576
C -1.341534124811 0.758706944302 0.410660435139
O -0.876062428708 2.018121758757 0.687244220282
C -2.739011258154 0.537739417066 0.303173924010
C -3.190201769174 -0.731035288342 0.037512712504
C -2.304372681363 -1.803389369037 -0.180643289744
C -2.767914182005 -3.085590199270 -0.543682981200
C -1.890877427043 -4.110176386199 -0.764741474637
C -0.510517921389 -3.891672951398 -0.639165792471
C -0.030912938715 -2.663617472296 -0.275248681933
C -0.910782501285 -1.589338053136 -0.021915143716
C 3.757911771423 2.259945698743 -0.459833659588
C 4.675511183744 3.043137675626 0.242962032016
C 5.393949734207 4.037325036835 -0.393365878827
C 5.194749465795 4.287812204388 -1.740876139558
C 4.287802338581 3.518234385652 -2.448609798321
C 3.584828445607 2.505430462072 -1.820372512170
C -3.710688289987 1.621943169511 0.547729914027
C -3.676548875327 2.814278959236 -0.169029510542
C -4.610051710686 3.806446674574 0.086173014622
C -5.581952429847 3.624545303208 1.056759971294
C -5.623188571065 2.437799908344 1.770735447888
C -4.697228062051 1.442153328585 1.515821666752
H 2.077319928856 4.530828414906 0.889483081937
H 4.706250445432 0.617794136496 1.416595097753
H 4.679525995181 -1.028938908213 3.189488442504
H 3.444908418623 -2.640663326875 4.591050961340
H 1.032050133026 -2.997611237084 4.220777455499
H -0.138671258335 -1.820176326847 2.426507387820
H -4.253900502603 -0.909030354614 -0.041669001854
H -3.832607738645 -3.237190637806 -0.653593708110
H -2.251747847349 -5.088474679001 -1.047086894108
H 0.175345255603 -4.702577316188 -0.837556591554
H 1.033897330266 -2.501027546540 -0.193636681654
H 4.818259943613 2.871627758064 1.301075017891
H 6.115644881586 4.618983758255 0.161982902900
H 5.745814043413 5.073765488862 -2.235573932192
H 4.131741011845 3.699245532368 -3.502188059130
H 2.903647090884 1.895588516231 -2.392794685548
H -2.927270582721 2.955106537911 -0.932228569306
H -4.584168212799 4.722063109568 -0.487921990504
H -6.307052654687 4.401247286008 1.251671495050
H -6.380300197171 2.286367129821 2.526702315622
H -4.726068224761 0.519290942369 2.077989361758
C 3.904424729346 6.173175797369 3.217184933373
C 3.153657940139 5.102269377734 2.503571131328
N 2.764820994949 5.226150724387 1.267473455090
C 3.046928544912 6.213174147915 0.312688984496
C 4.208587236809 6.983956993801 0.297015136405
C 4.422663314793 7.890947868349 -0.726337034097
C 3.495807955651 8.042053011559 -1.743313510635
C 2.350638519735 7.258880803478 -1.745230917231
C 2.130098384739 6.347394984453 -0.732693535132
C 2.855648501384 3.875011178125 3.235255565731
C 3.733424187605 3.444654393869 4.242149543074
C 3.495301397930 2.271363648264 4.928836024807
C 2.362741796838 1.516286455874 4.658282669636
C 1.482665191107 1.935738366428 3.675891665886
C 1.728824219092 3.092054376882 2.960646436603
H 4.981716434048 6.063064547971 3.091935672973
H 3.682921058614 6.126459293957 4.281566544686
H 3.598676275982 7.147991654264 2.837578592463
H 4.972856568531 6.862378105906 1.043375296843
H 5.326868027973 8.480941862955 -0.727868252593
H 3.668457068747 8.755529548459 -2.535010141779
H 1.626992635583 7.353689527069 -2.540728076406
H 1.250773519018 5.724550351503 -0.741382257910
H 4.626152917364 4.008598597178 4.464871696435
H 4.192572482957 1.945915696009 5.686806755168
H 2.167260433849 0.609481161111 5.209772270881
H 0.594227259424 1.361949303679 3.464591845037
H 1.025097060261 3.395733091184 2.206695100238
C 1.520917662695 4.747981788664 6.925973405567
O 0.983328761378 5.181343907410 5.686335125199
C -0.049311190707 4.448944342260 5.196903902607
O -0.467775792112 3.478154796510 5.800812633467
C -0.524660610740 4.988105777011 3.930300374710
C -1.470273513607 4.388227660868 3.163550945451
C -2.208484300610 3.136044210564 3.495659868389
N -1.818870125350 4.930929266290 1.955984719882
C -1.183923939513 5.997692426416 1.366135820804
C -1.622156412144 6.230706789757 -0.040347506240
C -0.255850787145 6.688305039397 2.067898050458
C 0.520325398771 7.835642668756 1.605209562624
O 1.574353181308 8.173990613229 2.117464400671
O -0.024370001551 8.542391681335 0.595921695891
C 0.678957960128 9.711885128795 0.198633598488
C 0.102790101501 6.287661519174 3.485551740591
H 2.301795606411 5.460480972828 7.180217641240
H 1.931080238237 3.739758235605 6.831132346639
H 0.745946824560 4.739228449515 7.695736957945
H -1.941389089380 2.781890549268 4.484484095708
H -1.965834571972 2.372686143314 2.758142098155
H -3.282108290063 3.317011261356 3.447721334048
H -2.419625447532 4.372490878306 1.360709769738
H -1.092249539002 7.056865614814 -0.495745378030
H -2.690480741785 6.443041382310 -0.059476582571
H -1.443098554896 5.324098939484 -0.621117275586
H 0.742545502920 10.414471444216 1.032621830318
H 0.106474322758 10.141084632033 -0.619614897031
H 1.689904053824 9.458637692175 -0.127753259896
H 1.191237468738 6.218778596885 3.568883905614
H -0.195722135673 7.090792409754 4.173010453651
