      -----------------------------------------------------------      
     |                   =====================                   |     
     |                           x T B                           |     
     |                   =====================                   |     
     |                         S. Grimme                         |     
     |          Mulliken Center for Theoretical Chemistry        |     
     |                    University of Bonn                     |     
      -----------------------------------------------------------      

   * xtb version 6.7.1 (edcfbbe) compiled by 'VssAdministrator@runnervm171ch' on 2026-06-10

   xtb is free software: you can redistribute it and/or modify it under
   the terms of the GNU Lesser General Public License as published by
   the Free Software Foundation, either version 3 of the License, or
   (at your option) any later version.
   
   xtb is distributed in the hope that it will be useful,
   but WITHOUT ANY WARRANTY; without even the implied warranty of
   MERCHANTABILITY or FITNESS FOR A PARTICULAR PURPOSE.  See the
   GNU Lesser General Public License for more details.
   
   Cite this work as:
   * C. Bannwarth, E. Caldeweyher, S. Ehlert, A. Hansen, P. Pracht,
     J. Seibert, S. Spicher, S. Grimme, WIREs Comput. Mol. Sci., 2020, 11,
     e01493. DOI: 10.1002/wcms.1493
   
   for GFN2-xTB:
   * C. Bannwarth, S. Ehlert and S. Grimme., J. Chem. Theory Comput., 2019,
     15, 1652-1671. DOI: 10.1021/acs.jctc.8b01176
   for GFN1-xTB:
   * S. Grimme, C. Bannwarth, P. Shushkov, J. Chem. Theory Comput., 2017,
     13, 1989-2009. DOI: 10.1021/acs.jctc.7b00118
   for GFN0-xTB:
   * P. Pracht, E. Caldeweyher, S. Ehlert, S. Grimme, ChemRxiv, 2019, preprint.
     DOI: 10.26434/chemrxiv.8326202.v1
   for GFN-FF:
   * S. Spicher and S. Grimme, Angew. Chem. Int. Ed., 2020, 59, 15665-15673.
     DOI: 10.1002/anie.202004239
   
   for ALPB and GBSA implicit solvation:
   * S. Ehlert, M. Stahn, S. Spicher, S. Grimme, J. Chem. Theory Comput.,
     2021, 17, 4250-4261. DOI: 10.1021/acs.jctc.1c00471
   
   for ddCOSMO and CPCM-X implicit solvation:
   * M. Stahn, S. Ehlert, S. Grimme, J. Phys. Chem. A,
     2023, XX, XXXX-XXXX. DOI: 10.1021/acs.jpca.3c04382
   
   for DFT-D4:
   * E. Caldeweyher, C. Bannwarth and S. Grimme, J. Chem. Phys., 2017,
     147, 034112. DOI: 10.1063/1.4993215
   * E. Caldeweyher, S. Ehlert, A. Hansen, H. Neugebauer, S. Spicher,
     C. Bannwarth and S. Grimme, J. Chem. Phys., 2019, 150, 154122.
     DOI: 10.1063/1.5090222
   * E. Caldeweyher, J.-M. Mewes, S. Ehlert and S. Grimme, Phys. Chem. Chem. Phys.
     2020, 22, 8499-8512. DOI: 10.1039/D0CP00502A
   
   for sTDA-xTB:
   * S. Grimme and C. Bannwarth, J. Chem. Phys., 2016, 145, 054103.
     DOI: 10.1063/1.4959605
   
   in the mass-spec context:
   * V. Asgeirsson, C. Bauer and S. Grimme, Chem. Sci., 2017, 8, 4879.
     DOI: 10.1039/c7sc00601b
   * J. Koopman and S. Grimme, ACS Omega 2019, 4, 12, 15120-15133.
     DOI: 10.1021/acsomega.9b02011
   
   for metadynamics refer to:
   * S. Grimme, J. Chem. Theory Comput., 2019, 155, 2847-2862
     DOI: 10.1021/acs.jctc.9b00143
   
   for SPH calculations refer to:
   * S. Spicher and S. Grimme, J. Chem. Theory Comput., 2021, 17, 1701-1714
     DOI: 10.1021/acs.jctc.0c01306
   
   for ONIOM refer to:
   * C. Plett, A. Katbashev, S. Ehlert, S. Grimme, M. Bursch,
     Phys. Chem. Chem. Phys., 2023, 25, 17860-17868. DOI: 10.1039/D3CP02178E
   
   for DIPRO refer to:
   * J. Kohn, N. Gildemeister, S. Grimme, D. Fazzi, A. Hansen,
     J. Chem. Phys., 2023, just accepted.
   
   for PTB refer to:
   * S. Grimme, M. Mueller, A. Hansen, J. Chem. Phys., 2023, 158, 124111.
     DOI: 10.1063/5.0137838
   
   with help from (in alphabetical order)
   P. Atkinson, C. Bannwarth, F. Bohle, G. Brandenburg, E. Caldeweyher
   M. Checinski, S. Dohm, S. Ehlert, S. Ehrlich, I. Gerasimov, C. Hölzer
   A. Katbashev, J. Kohn, J. Koopman, C. Lavigne, S. Lehtola, F. März, M. Müller,
   F. Musil, H. Neugebauer, J. Pisarek, C. Plett, P. Pracht, F. Pultar,
   J. Seibert, P. Shushkov, S. Spicher, M. Stahn, M. Steiner, T. Strunk,
   J. Stückrath, T. Rose, and J. Unsleber
   
 * started run on 2026/09/10 at 23:10:24.569     
   ID    Z sym.   atoms
    1    8 O      1, 3, 4, 17, 88, 90, 99, 100
    2   15 P      2
    3    6 C      5-16, 18-37, 59, 60, 62-73, 87, 89, 91-93, 95-98, 101, 102
    4    1 H      38-58, 74-86, 103-117
    5    7 N      61, 94

           -------------------------------------------------
          |                Calculation Setup                |
           -------------------------------------------------

          program call               : C:\Users\HUIWEI\miniconda3\envs\phase2ff\Library\bin\xtb.exe input.xyz --gfn 2 --chrg 0 --uhf 0 --alpb toluene --acc 0.2
          coordinate file            : input.xyz
          omp threads                :                     1


molecular fragmentation (1/2 indicates fragments):
111111111111111111111111111111111111121111111111111111111122222222222222
222222222222222222222222222222222222222222222
# atoms in fragment 1/2:    57    60
 fragment masses (1/2) :      499.47      421.51
CMA distance (Bohr)    :   9.951
constraining FC (au)   :  0.0500

           -------------------------------------------------
          |                 G F N 2 - x T B                 |
           -------------------------------------------------

        Reference                      10.1021/acs.jctc.8b01176
      * Hamiltonian:
        H0-scaling (s, p, d)           1.850000    2.230000    2.230000
        zeta-weighting                 0.500000
      * Dispersion:
        s8                             2.700000
        a1                             0.520000
        a2                             5.000000
        s9                             5.000000
      * Repulsion:
        kExp                           1.500000    1.000000
        rExp                           1.000000
      * Coulomb:
        alpha                          2.000000
        third order                    shell-resolved
        anisotropic                    true
        a3                             3.000000
        a5                             4.000000
        cn-shift                       1.200000
        cn-exp                         4.000000
        max-rad                        5.000000

      * Solvation model:               ALPB
        Solvent                        toluene
        Parameter file                 internal GFN2-xTB/ALPB
        Dielectric constant                7.0000E+00
        Reference state                gsolv [1 M gas/solution]
        Free energy shift                  2.2081E-03 Eh       1.3856E+00 kcal/mol
        Temperature                        2.9815E+02 K
        Density                            8.6700E-01 kg/L
        Solvent mass                       7.8110E+01 g/mol
        Interaction kernel             P16
        Born radius scaling (c1)           1.7172E+00
        Born radii integrator          GBOBC
        Born offset                        0.0000E+00 a0       0.0000E+00 AA
        H-bond correction              false
        Ion screening                  false
        Surface tension                    1.0000E-05 Eh       1.5569E+01 dyn/cm
        Grid points                               230 per atom

          ...................................................
          :                      SETUP                      :
          :.................................................:
          :  # basis functions                 327          :
          :  # atomic orbitals                 326          :
          :  # shells                          186          :
          :  # electrons                       340          :
          :  max. iterations                   250          :
          :  Hamiltonian                  GFN2-xTB          :
          :  restarted?                      false          :
          :  GBSA solvation                   true          :
          :  PC potential                    false          :
          :  electronic temp.          300.0000000     K    :
          :  accuracy                    0.2000000          :
          :  -> integral cutoff          0.3198970E+02      :
          :  -> integral neglect         0.2000000E-08      :
          :  -> SCF convergence          0.2000000E-06 Eh   :
          :  -> wf. convergence          0.2000000E-04 e    :
          :  Broyden damping             0.4000000          :
          :  net charge                          0          :
          :  unpaired electrons                  0          :
          ...................................................

 iter      E             dE          RMSdq      gap      omega  full diag
   1   -190.8715651 -0.190872E+03  0.477E+00    2.10       0.0  T
   2   -191.1662390 -0.294674E+00  0.278E+00    1.24       1.0  T
   3   -191.1258396  0.403994E-01  0.135E+00    1.17       1.0  T
   4   -191.2039862 -0.781466E-01  0.526E-01    0.93       1.0  T
   5   -191.2231673 -0.191811E-01  0.192E-01    1.01       1.0  T
   6   -191.2248150 -0.164770E-02  0.919E-02    1.06       1.0  T
   7   -191.2254662 -0.651220E-03  0.448E-02    1.04       1.0  T
   8   -191.2255345 -0.682728E-04  0.261E-02    1.04       1.0  T
   9   -191.2255633 -0.288308E-04  0.133E-02    1.05       1.0  T
  10   -191.2255696 -0.625998E-05  0.570E-03    1.05       1.6  T
  11   -191.2255720 -0.239526E-05  0.250E-03    1.05       3.7  T
  12   -191.2255721 -0.121440E-06  0.116E-03    1.05       7.9  T
  13   -191.2255722 -0.822948E-07  0.402E-04    1.05      23.0  T
  14   -191.2255722 -0.635293E-08  0.139E-04    1.05      66.4  T
  15   -191.2255722 -0.655291E-09  0.739E-05    1.05     125.1  T

   *** convergence criteria satisfied after 15 iterations ***

         #    Occupation            Energy/Eh            Energy/eV
      -------------------------------------------------------------
         1        2.0000           -0.7369343             -20.0530
       ...           ...                  ...                  ...
       164        2.0000           -0.4025561             -10.9541
       165        2.0000           -0.3981999             -10.8356
       166        2.0000           -0.3871855             -10.5359
       167        2.0000           -0.3845640             -10.4645
       168        2.0000           -0.3798881             -10.3373
       169        2.0000           -0.3678954             -10.0109
       170        2.0000           -0.3585476              -9.7566 (HOMO)
       171                         -0.3200803              -8.7098 (LUMO)
       172                         -0.2735704              -7.4442
       173                         -0.2713091              -7.3827
       174                         -0.2596640              -7.0658
       175                         -0.2447221              -6.6592
       ...                                ...                  ...
       326                          1.3135733              35.7441
      -------------------------------------------------------------
                  HL-Gap            0.0384673 Eh            1.0467 eV
             Fermi-level           -0.3393140 Eh           -9.2332 eV

 SCC (total)                   0 d,  0 h,  0 min,  0.704 sec
 SCC setup                      ...        0 min,  0.008 sec (  1.094%)
 Dispersion                     ...        0 min,  0.004 sec (  0.571%)
 classical contributions        ...        0 min,  0.001 sec (  0.160%)
 integral evaluation            ...        0 min,  0.074 sec ( 10.476%)
 iterations                     ...        0 min,  0.370 sec ( 52.584%)
 molecular gradient             ...        0 min,  0.243 sec ( 34.553%)
 printout                       ...        0 min,  0.004 sec (  0.556%)

         :::::::::::::::::::::::::::::::::::::::::::::::::::::
         ::                     SUMMARY                     ::
         :::::::::::::::::::::::::::::::::::::::::::::::::::::
         :: total energy            -188.258157678542 Eh    ::
         :: total w/o Gsasa/hb      -188.182457508596 Eh    ::
         :: gradient norm              0.000065459780 Eh/a0 ::
         :: HOMO-LUMO gap              1.046748880621 eV    ::
         ::.................................................::
         :: SCC energy              -191.210836040982 Eh    ::
         :: -> isotropic ES            0.281733044781 Eh    ::
         :: -> anisotropic ES         -0.036572211120 Eh    ::
         :: -> anisotropic XC          0.083068856613 Eh    ::
         :: -> dispersion             -0.201794033843 Eh    ::
         :: -> Gsolv                  -0.090998762253 Eh    ::
         ::    -> Gelec               -0.015298592307 Eh    ::
         ::    -> Gsasa               -0.077908313085 Eh    ::
         ::    -> Ghb                  0.000000000000 Eh    ::
         ::    -> Gshift               0.002208143139 Eh    ::
         :: repulsion energy           2.952678362440 Eh    ::
         :: add. restraining           0.000000000000 Eh    ::
         :: total charge               0.000000000000 e     ::
         :::::::::::::::::::::::::::::::::::::::::::::::::::::

           -------------------------------------------------
          |                Property Printout                |
           -------------------------------------------------

    * Orbital Energies and Occupations

         #    Occupation            Energy/Eh            Energy/eV
      -------------------------------------------------------------
         1        2.0000           -0.7369343             -20.0530
       ...           ...                  ...                  ...
       158        2.0000           -0.4101281             -11.1602
       159        2.0000           -0.4086420             -11.1197
       160        2.0000           -0.4076249             -11.0920
       161        2.0000           -0.4074125             -11.0863
       162        2.0000           -0.4059140             -11.0455
       163        2.0000           -0.4027671             -10.9599
       164        2.0000           -0.4025561             -10.9541
       165        2.0000           -0.3981999             -10.8356
       166        2.0000           -0.3871855             -10.5359
       167        2.0000           -0.3845640             -10.4645
       168        2.0000           -0.3798881             -10.3373
       169        2.0000           -0.3678954             -10.0109
       170        2.0000           -0.3585476              -9.7566 (HOMO)
       171                         -0.3200803              -8.7098 (LUMO)
       172                         -0.2735704              -7.4442
       173                         -0.2713091              -7.3827
       174                         -0.2596640              -7.0658
       175                         -0.2447221              -6.6592
       176                         -0.2437589              -6.6330
       177                         -0.2431368              -6.6161
       178                         -0.2420103              -6.5854
       179                         -0.2369858              -6.4487
       180                         -0.2343481              -6.3769
       181                         -0.2273583              -6.1867
       ...                                ...                  ...
       326                          1.3135733              35.7441
      -------------------------------------------------------------
                  HL-Gap            0.0384673 Eh            1.0467 eV
             Fermi-level           -0.3393140 Eh           -9.2332 eV

     #   Z          covCN         q      C6AA      α(0)
     1   8 O        0.808    -0.565    25.298     6.742
     2  15 P        3.827     0.632   135.101    20.879
     3   8 O        0.809    -0.592    25.941     6.827
     4   8 O        1.662    -0.316    19.285     5.928
     5   6 C        3.177     0.151    24.360     8.059
     6   6 C        2.967    -0.013    28.343     8.733
     7   6 C        2.927    -0.054    29.349     8.884
     8   6 C        2.984     0.002    27.966     8.675
     9   6 C        2.920    -0.037    28.912     8.818
    10   6 C        2.915    -0.032    28.791     8.799
    11   6 C        2.916    -0.031    28.772     8.796
    12   6 C        2.917    -0.035    28.863     8.810
    13   6 C        2.986     0.008    27.828     8.653
    14   6 C        2.973    -0.012    28.306     8.727
    15   6 C        2.973    -0.012    28.318     8.729
    16   6 C        3.119     0.149    24.606     8.124
    17   8 O        1.661    -0.338    19.690     5.990
    18   6 C        2.970    -0.011    28.296     8.725
    19   6 C        2.926    -0.050    29.249     8.869
    20   6 C        2.984     0.006    27.892     8.663
    21   6 C        2.919    -0.036    28.888     8.814
    22   6 C        2.915    -0.032    28.793     8.799
    23   6 C        2.916    -0.031    28.780     8.797
    24   6 C        2.917    -0.034    28.853     8.808
    25   6 C        2.987     0.010    27.790     8.647
    26   6 C        2.975     0.019    27.570     8.613
    27   6 C        2.926    -0.044    29.096     8.846
    28   6 C        2.918    -0.037    28.913     8.818
    29   6 C        2.919    -0.034    28.844     8.807
    30   6 C        2.919    -0.030    28.747     8.792
    31   6 C        2.923    -0.026    28.652     8.778
    32   6 C        2.977     0.019    27.575     8.614
    33   6 C        2.922    -0.041    29.018     8.834
    34   6 C        2.919    -0.036    28.885     8.813
    35   6 C        2.918    -0.035    28.860     8.809
    36   6 C        2.918    -0.032    28.798     8.800
    37   6 C        2.925    -0.037    28.926     8.820
    38   1 H        0.858     0.272     0.803     1.404
    39   1 H        0.926     0.041     2.441     2.443
    40   1 H        0.926     0.035     2.510     2.477
    41   1 H        0.926     0.036     2.497     2.471
    42   1 H        0.926     0.034     2.524     2.484
    43   1 H        0.926     0.031     2.578     2.511
    44   1 H        0.925     0.039     2.456     2.451
    45   1 H        0.926     0.034     2.532     2.489
    46   1 H        0.926     0.033     2.538     2.491
    47   1 H        0.926     0.032     2.559     2.502
    48   1 H        0.926     0.029     2.602     2.522
    49   1 H        0.925     0.024     2.671     2.556
    50   1 H        0.926     0.033     2.549     2.497
    51   1 H        0.926     0.035     2.521     2.483
    52   1 H        0.926     0.033     2.548     2.496
    53   1 H        0.926     0.040     2.444     2.445
    54   1 H        0.926     0.059     2.209     2.324
    55   1 H        0.926     0.029     2.598     2.521
    56   1 H        0.926     0.032     2.551     2.498
    57   1 H        0.926     0.033     2.541     2.493
    58   1 H        0.926     0.031     2.566     2.505
    59   6 C        3.757    -0.133    23.115     6.855
    60   6 C        2.884     0.116    25.446     8.270
    61   7 N        2.697    -0.059    22.377     7.026
    62   6 C        2.907     0.070    26.439     8.431
    63   6 C        2.919    -0.037    28.908     8.817
    64   6 C        2.920    -0.026    28.659     8.779
    65   6 C        2.918    -0.026    28.654     8.778
    66   6 C        2.919    -0.022    28.565     8.764
    67   6 C        2.927    -0.041    29.031     8.836
    68   6 C        2.975    -0.000    28.033     8.685
    69   6 C        2.924    -0.029    28.725     8.789
    70   6 C        2.917    -0.026    28.662     8.779
    71   6 C        2.919    -0.013    28.345     8.731
    72   6 C        2.918    -0.014    28.363     8.733
    73   6 C        2.922    -0.032    28.795     8.800
    74   1 H        0.925     0.095     1.832     2.117
    75   1 H        0.925     0.089     1.887     2.148
    76   1 H        0.925     0.109     1.708     2.044
    77   1 H        0.926     0.061     2.191     2.315
    78   1 H        0.926     0.057     2.238     2.339
    79   1 H        0.926     0.054     2.271     2.357
    80   1 H        0.926     0.051     2.311     2.377
    81   1 H        0.926     0.075     2.032     2.229
    82   1 H        0.926     0.058     2.217     2.329
    83   1 H        0.926     0.055     2.260     2.351
    84   1 H        0.926     0.051     2.307     2.375
    85   1 H        0.926     0.044     2.390     2.418
    86   1 H        0.926     0.083     1.950     2.184
    87   6 C        3.652     0.036    20.270     6.466
    88   8 O        1.705    -0.285    18.729     5.843
    89   6 C        2.725     0.341    21.204     7.538
    90   8 O        0.856    -0.466    23.045     6.436
    91   6 C        2.954    -0.069    29.708     8.940
    92   6 C        2.889     0.091    25.976     8.356
    93   6 C        3.760    -0.135    23.144     6.858
    94   7 N        2.716    -0.102    23.245     7.161
    95   6 C        2.886     0.091    25.978     8.356
    96   6 C        3.761    -0.135    23.148     6.859
    97   6 C        2.953    -0.068    29.704     8.939
    98   6 C        2.728     0.343    21.174     7.533
    99   8 O        0.857    -0.471    23.147     6.450
   100   8 O        1.704    -0.277    18.601     5.823
   101   6 C        3.653     0.034    20.301     6.470
   102   6 C        3.818    -0.054    21.522     6.602
   103   1 H        0.925     0.070     2.090     2.261
   104   1 H        0.924     0.055     2.260     2.351
   105   1 H        0.924     0.060     2.196     2.318
   106   1 H        0.925     0.092     1.860     2.133
   107   1 H        0.925     0.070     2.091     2.261
   108   1 H        0.925     0.064     2.157     2.297
   109   1 H        0.860     0.193     1.141     1.673
   110   1 H        0.925     0.079     1.987     2.205
   111   1 H        0.925     0.067     2.115     2.274
   112   1 H        0.924     0.082     1.962     2.190
   113   1 H        0.924     0.064     2.158     2.297
   114   1 H        0.925     0.072     2.061     2.245
   115   1 H        0.924     0.059     2.216     2.328
   116   1 H        0.924     0.062     2.176     2.307
   117   1 H        0.923     0.048     2.342     2.393

 Mol. C6AA /au·bohr⁶  :     183413.706285
 Mol. C8AA /au·bohr⁸  :    4619429.754691
 Mol. α(0) /au        :        681.520696


Wiberg/Mayer (AO) data.
largest (>0.10) Wiberg bond orders for each atom

 ---------------------------------------------------------------------------
     #   Z sym  total        # sym  WBO       # sym  WBO       # sym  WBO
 ---------------------------------------------------------------------------
     1   8 O    2.003 --     2 P    1.763
     2  15 P    5.548 --     1 O    1.763     3 O    1.627     4 O    1.047
                            17 O    1.007
     3   8 O    1.986 --     2 P    1.627
     4   8 O    2.303 --     2 P    1.047     5 C    1.002
     5   6 C    3.924 --    14 C    1.451     6 C    1.237     4 O    1.002
     6   6 C    3.986 --     7 C    1.493     5 C    1.237    26 C    1.052
     7   6 C    3.984 --     6 C    1.493     8 C    1.286    39 H    0.964
     8   6 C    3.988 --     7 C    1.286     9 C    1.276    13 C    1.248
     9   6 C    3.985 --    10 C    1.556     8 C    1.276    40 H    0.968
                            12 C    0.116
    10   6 C    3.987 --     9 C    1.556    11 C    1.321    41 H    0.971
    11   6 C    3.985 --    12 C    1.551    10 C    1.321    42 H    0.971
    12   6 C    3.990 --    11 C    1.551    13 C    1.286    43 H    0.966
                             9 C    0.116
    13   6 C    3.985 --    12 C    1.286     8 C    1.248    14 C    1.237
    14   6 C    3.984 --     5 C    1.451    13 C    1.237    15 C    1.034
    15   6 C    3.984 --    16 C    1.448    25 C    1.237    14 C    1.034
                            19 C    0.101
    16   6 C    3.927 --    15 C    1.448    18 C    1.239    17 O    1.006
    17   8 O    2.274 --     2 P    1.007    16 C    1.006
    18   6 C    3.986 --    19 C    1.509    16 C    1.239    32 C    1.030
    19   6 C    3.984 --    18 C    1.509    20 C    1.278    44 H    0.966
                            15 C    0.101
    20   6 C    3.987 --    21 C    1.279    19 C    1.278    25 C    1.251
    21   6 C    3.985 --    22 C    1.554    20 C    1.279    45 H    0.968
                            24 C    0.117
    22   6 C    3.987 --    21 C    1.554    23 C    1.323    46 H    0.971
    23   6 C    3.985 --    24 C    1.551    22 C    1.323    47 H    0.971
    24   6 C    3.990 --    23 C    1.551    25 C    1.286    48 H    0.967
                            21 C    0.117
    25   6 C    3.986 --    24 C    1.286    20 C    1.251    15 C    1.237
    26   6 C    3.988 --    31 C    1.390    27 C    1.380     6 C    1.052
                            29 C    0.105
    27   6 C    3.989 --    28 C    1.456    26 C    1.380    49 H    0.967
                            30 C    0.108
    28   6 C    3.991 --    27 C    1.456    29 C    1.429    50 H    0.970
                            31 C    0.108
    29   6 C    3.986 --    30 C    1.439    28 C    1.429    51 H    0.971
                            26 C    0.105
    30   6 C    3.991 --    31 C    1.447    29 C    1.439    52 H    0.971
                            27 C    0.108
    31   6 C    3.986 --    30 C    1.447    26 C    1.390    53 H    0.968
                            28 C    0.108
    32   6 C    3.988 --    33 C    1.395    37 C    1.392    18 C    1.030
                            35 C    0.107
    33   6 C    3.985 --    34 C    1.440    32 C    1.395    54 H    0.958
                            36 C    0.109
    34   6 C    3.992 --    33 C    1.440    35 C    1.437    55 H    0.970
                            37 C    0.109
    35   6 C    3.988 --    34 C    1.437    36 C    1.434    56 H    0.971
                            32 C    0.107
    36   6 C    3.991 --    37 C    1.449    35 C    1.434    57 H    0.970
                            33 C    0.109
    37   6 C    3.987 --    36 C    1.449    32 C    1.392    58 H    0.970
                            34 C    0.109
    38   1 H    0.926 --    61 N    0.799
    39   1 H    0.997 --     7 C    0.964
    40   1 H    0.998 --     9 C    0.968
    41   1 H    0.998 --    10 C    0.971
    42   1 H    0.998 --    11 C    0.971
    43   1 H    0.999 --    12 C    0.966
    44   1 H    0.997 --    19 C    0.966
    45   1 H    0.998 --    21 C    0.968
    46   1 H    0.998 --    22 C    0.971
    47   1 H    0.998 --    23 C    0.971
    48   1 H    0.999 --    24 C    0.967
    49   1 H    0.999 --    27 C    0.967
    50   1 H    0.998 --    28 C    0.970
    51   1 H    0.998 --    29 C    0.971
    52   1 H    0.998 --    30 C    0.971
    53   1 H    0.998 --    31 C    0.968
    54   1 H    0.996 --    33 C    0.958
    55   1 H    0.998 --    34 C    0.970
    56   1 H    0.998 --    35 C    0.971
    57   1 H    0.998 --    36 C    0.970
    58   1 H    0.999 --    37 C    0.970
    59   6 C    3.978 --    60 C    1.046    75 H    0.966    76 H    0.952
                            74 H    0.937
    60   6 C    3.937 --    61 N    1.544    68 C    1.103    59 C    1.046
    61   7 N    3.660 --    60 C    1.544    62 C    1.061    38 H    0.799
    62   6 C    3.953 --    63 C    1.368    67 C    1.355    61 N    1.061
    63   6 C    3.976 --    64 C    1.447    62 C    1.368    77 H    0.962
                            66 C    0.103
    64   6 C    3.990 --    63 C    1.447    65 C    1.436    78 H    0.969
                            67 C    0.106
    65   6 C    3.976 --    64 C    1.436    66 C    1.420    79 H    0.969
    66   6 C    3.990 --    67 C    1.464    65 C    1.420    80 H    0.969
                            63 C    0.103
    67   6 C    3.977 --    66 C    1.464    62 C    1.355    81 H    0.954
                            64 C    0.106
    68   6 C    3.983 --    73 C    1.355    69 C    1.345    60 C    1.103
    69   6 C    3.976 --    70 C    1.472    68 C    1.345    82 H    0.966
                            72 C    0.105
    70   6 C    3.989 --    69 C    1.472    71 C    1.415    83 H    0.968
    71   6 C    3.976 --    72 C    1.434    70 C    1.415    84 H    0.969
    72   6 C    3.991 --    73 C    1.452    71 C    1.434    85 H    0.968
                            69 C    0.105
    73   6 C    3.974 --    72 C    1.452    68 C    1.355    86 H    0.945
    74   1 H    0.987 --    59 C    0.937
    75   1 H    0.991 --    59 C    0.966
    76   1 H    0.987 --    59 C    0.952
    77   1 H    0.996 --    63 C    0.962
    78   1 H    0.996 --    64 C    0.969
    79   1 H    0.997 --    65 C    0.969
    80   1 H    0.997 --    66 C    0.969
    81   1 H    0.994 --    67 C    0.954
    82   1 H    0.997 --    69 C    0.966
    83   1 H    0.996 --    70 C    0.968
    84   1 H    0.997 --    71 C    0.969
    85   1 H    0.997 --    72 C    0.968
    86   1 H    0.993 --    73 C    0.945
    87   6 C    3.929 --   103 H    0.981   105 H    0.977   104 H    0.976
                            88 O    0.963
    88   8 O    2.266 --    89 C    1.082    87 C    0.963    90 O    0.148
    89   6 C    3.923 --    90 O    1.651    91 C    1.086    88 O    1.082
    90   8 O    1.985 --    89 C    1.651    88 O    0.148
    91   6 C    3.967 --    92 C    1.593    89 C    1.086   102 C    1.003
    92   6 C    3.965 --    91 C    1.593    94 N    1.175    93 C    1.032
    93   6 C    3.985 --    92 C    1.032   106 H    0.968   108 H    0.963
                           107 H    0.955
    94   7 N    3.539 --    92 C    1.175    95 C    1.156   109 H    0.916
    95   6 C    3.964 --    97 C    1.619    94 N    1.156    96 C    1.032
    96   6 C    3.986 --    95 C    1.032   110 H    0.972   111 H    0.961
                           112 H    0.953
    97   6 C    3.966 --    95 C    1.619    98 C    1.074   102 C    0.995
    98   6 C    3.921 --    99 O    1.649   100 O    1.099    97 C    1.074
    99   8 O    1.968 --    98 C    1.649   100 O    0.149
   100   8 O    2.284 --    98 C    1.099   101 C    0.957    99 O    0.149
   101   6 C    3.924 --   114 H    0.981   113 H    0.976   115 H    0.974
                           100 O    0.957
   102   6 C    3.994 --    91 C    1.003    97 C    0.995   117 H    0.956
                           116 H    0.946
   103   1 H    0.995 --    87 C    0.981
   104   1 H    0.996 --    87 C    0.976
   105   1 H    0.996 --    87 C    0.977
   106   1 H    0.991 --    93 C    0.968
   107   1 H    0.995 --    93 C    0.955
   108   1 H    0.996 --    93 C    0.963
   109   1 H    0.962 --    94 N    0.916
   110   1 H    0.993 --    96 C    0.972
   111   1 H    0.995 --    96 C    0.961
   112   1 H    0.993 --    96 C    0.953
   113   1 H    0.995 --   101 C    0.976
   114   1 H    0.994 --   101 C    0.981
   115   1 H    0.996 --   101 C    0.974
   116   1 H    0.996 --   102 C    0.946
   117   1 H    0.997 --   102 C    0.956
 ---------------------------------------------------------------------------

Topologies differ in total number of bonds
Writing topology from bond orders to xtbtopo.mol

molecular dipole:
                 x           y           z       tot (Debye)
 q only:        3.135       2.119       2.185
   full:        2.787       1.663       1.821       9.458
molecular quadrupole (traceless):
                xx          xy          yy          xz          yz          zz
 q only:        9.538      48.733      29.671      24.504       7.578     -39.209
  q+dip:       18.736      47.602      22.158      25.623       0.345     -40.894
   full:       15.015      41.718      22.715      21.028       5.704     -37.730


           -------------------------------------------------
          | TOTAL ENERGY             -188.258157678542 Eh   |
          | GRADIENT NORM               0.000065459780 Eh/α |
          | HOMO-LUMO GAP               1.046748880621 eV   |
           -------------------------------------------------

------------------------------------------------------------------------
 * finished run on 2026/09/10 at 23:10:25.376     
------------------------------------------------------------------------
Note: The following floating-point exceptions are signalling: IEEE_DIVIDE_BY_ZERO IEEE_UNDERFLOW_FLAG IEEE_DENORMAL
normal termination of xtb
 total:
 * wall-time:     0 d,  0 h,  0 min,  0.808 sec
 *  cpu-time:     0 d,  0 h,  0 min,  0.141 sec
 * ratio c/w:     0.174 speedup
 SCF:
 * wall-time:     0 d,  0 h,  0 min,  0.706 sec
 *  cpu-time:     0 d,  0 h,  0 min,  0.109 sec
 * ratio c/w:     0.155 speedup

