 Entering Gaussian System
 *********************************************
 Gaussian 98:
 frequency output generated by the xtb code
 *********************************************
                         Standard orientation:
 --------------------------------------------------------------------
  Center     Atomic     Atomic              Coordinates (Angstroms)
  Number     Number      Type              X           Y           Z
 --------------------------------------------------------------------
    1          6             0        1.187332   -0.562269    1.700918
    2          6             0        0.768168   -0.007166    0.365913
    3          7             0        1.580042    0.440678   -0.499595
    4          6             0        2.953106    0.432468   -0.448708
    5          6             0        3.647763    1.643489   -0.382361
    6          6             0        5.026633    1.659462   -0.444909
    7          6             0        5.738705    0.479511   -0.595214
    8          6             0        5.056282   -0.723046   -0.679513
    9          6             0        3.677587   -0.753392   -0.601795
   10          6             0       -0.665283    0.049106    0.044336
   11          6             0       -1.078770    0.751058   -1.114200
   12          6             0       -2.394910    0.827582   -1.458096
   13          6             0       -3.388632    0.203017   -0.671534
   14          6             0       -4.758442    0.260028   -0.998439
   15          6             0       -5.690312   -0.360978   -0.212884
   16          6             0       -5.294312   -1.066513    0.934706
   17          6             0       -3.973244   -1.139603    1.278443
   18          6             0       -2.986630   -0.509063    0.489229
   19          6             0       -1.619271   -0.566775    0.823529
   20          1             0        0.634451   -0.077241    2.503135
   21          1             0        0.988966   -1.632760    1.739793
   22          1             0        2.253126   -0.400886    1.853730
   23          1             0        3.089369    2.561229   -0.265760
   24          1             0        5.551719    2.602182   -0.379383
   25          1             0        6.817345    0.498019   -0.649553
   26          1             0        5.602913   -1.648173   -0.799392
   27          1             0        3.142937   -1.690477   -0.673529
   28          1             0       -0.316661    1.225121   -1.712985
   29          1             0       -2.699095    1.369424   -2.342731
   30          1             0       -5.059334    0.803384   -1.883272
   31          1             0       -6.738843   -0.313955   -0.469927
   32          1             0       -6.044221   -1.551261    1.543289
   33          1             0       -3.664924   -1.681661    2.161658
   34          1             0       -1.343558   -1.120540    1.708450
 --------------------------------------------------------------------
     1 basis functions        1 primitive gaussians
     1 alpha electrons        1 beta electrons

 Harmonic frequencies (cm**-1), IR intensities (km*mol⁻¹),
 Raman scattering activities (A**4/amu), Raman depolarization ratios,
 reduced masses (AMU), force constants (mDyne/A) and normal coordinates:
                      1                      2                      3
                        a                      a                      a 
 Frequencies --    20.5186                34.0469                43.7936
 Red. masses --    10.1489                 9.9377                10.7473
 Frc consts  --     0.0000                 0.0000                 0.0000
 IR Inten    --     0.2431                 0.6520                 0.9859
 Raman Activ --     0.0000                 0.0000                 0.0000
 Depolar     --     0.0000                 0.0000                 0.0000
 Atom AN      X      Y      Z        X      Y      Z        X      Y      Z
   1   6     0.02  -0.32  -0.13     0.00   0.35   0.09    -0.00  -0.28   0.06
   2   6     0.01  -0.16  -0.06    -0.01   0.18   0.02    -0.00   0.03   0.19
   3   7     0.01  -0.02   0.01    -0.01   0.01  -0.06    -0.01   0.27   0.31
   4   6     0.01   0.03   0.02    -0.00  -0.03  -0.04    -0.02   0.14   0.15
   5   6    -0.04   0.04   0.21     0.06  -0.09   0.31     0.10   0.08   0.02
   6   6    -0.04   0.11   0.23     0.06  -0.14   0.33     0.09  -0.04  -0.21
   7   6     0.01   0.16   0.06     0.00  -0.13   0.02    -0.03  -0.10  -0.31
   8   6     0.05   0.15  -0.13    -0.06  -0.08  -0.32    -0.15  -0.04  -0.18
   9   6     0.05   0.08  -0.15    -0.06  -0.02  -0.35    -0.14   0.07   0.06
  10   6     0.01  -0.15  -0.07    -0.01   0.14   0.02     0.00   0.07   0.17
  11   6     0.04  -0.28  -0.16    -0.03   0.05  -0.02     0.06   0.00   0.10
  12   6     0.04  -0.25  -0.16    -0.03  -0.04  -0.04     0.09  -0.06   0.00
  13   6     0.01  -0.08  -0.05    -0.01  -0.05  -0.02     0.05  -0.04  -0.04
  14   6     0.01  -0.03  -0.04    -0.01  -0.17  -0.06     0.08  -0.14  -0.17
  15   6    -0.02   0.15   0.07     0.02  -0.19  -0.04     0.04  -0.13  -0.21
  16   6    -0.05   0.29   0.16     0.04  -0.08   0.01    -0.03  -0.01  -0.11
  17   6    -0.05   0.24   0.15     0.04   0.04   0.05    -0.06   0.09   0.02
  18   6    -0.02   0.06   0.04     0.01   0.05   0.03    -0.02   0.07   0.05
  19   6    -0.02   0.02   0.03     0.01   0.15   0.06    -0.04   0.12   0.16
  20   1     0.04  -0.09  -0.02    -0.00   0.12   0.01     0.04  -0.10   0.05
  21   1    -0.04  -0.09  -0.06     0.01   0.10   0.06    -0.05  -0.08  -0.04
  22   1     0.01  -0.14  -0.05    -0.00   0.12   0.02     0.01  -0.14   0.01
  23   1    -0.02   0.00   0.10     0.03  -0.02   0.16     0.06   0.04   0.03
  24   1    -0.02   0.03   0.11     0.03  -0.05   0.17     0.05  -0.02  -0.09
  25   1     0.00   0.06   0.02     0.00  -0.05   0.01    -0.01  -0.06  -0.15
  26   1     0.03   0.05  -0.08    -0.03  -0.02  -0.16    -0.07  -0.03  -0.08
  27   1     0.03   0.02  -0.09    -0.03   0.01  -0.17    -0.07   0.03   0.04
  28   1     0.02  -0.12  -0.07    -0.01   0.02  -0.01     0.03  -0.01   0.04
  29   1     0.02  -0.11  -0.07    -0.01  -0.03  -0.02     0.04  -0.04  -0.02
  30   1     0.01  -0.04  -0.03    -0.01  -0.07  -0.03     0.04  -0.07  -0.07
  31   1    -0.01   0.05   0.02     0.01  -0.08  -0.02     0.02  -0.06  -0.09
  32   1    -0.02   0.12   0.07     0.02  -0.03   0.01    -0.02   0.00  -0.04
  33   1    -0.02   0.10   0.06     0.02   0.04   0.03    -0.03   0.05   0.03
  34   1    -0.01   0.04   0.03     0.01   0.07   0.03    -0.03   0.06   0.06
                      4                      5                      6
                        a                      a                      a 
 Frequencies --    53.6893                95.6349               146.9133
 Red. masses --    10.6260                10.4963                10.4703
 Frc consts  --     0.0000                 0.0000                 0.0000
 IR Inten    --     1.2564                 0.2367                 2.6736
 Raman Activ --     0.0000                 0.0000                 0.0000
 Depolar     --     0.0000                 0.0000                 0.0000
 Atom AN      X      Y      Z        X      Y      Z        X      Y      Z
   1   6    -0.05   0.18   0.31    -0.08   0.22   0.13    -0.32  -0.07  -0.00
   2   6    -0.00  -0.10   0.18    -0.01   0.09   0.06    -0.06  -0.00  -0.07
   3   7     0.01  -0.35   0.10     0.02   0.21   0.15     0.15  -0.08   0.10
   4   6     0.01  -0.18   0.05     0.01   0.17   0.15     0.14  -0.10   0.23
   5   6    -0.15  -0.09   0.05     0.13   0.09   0.13     0.12  -0.08   0.21
   6   6    -0.16   0.11  -0.10     0.13  -0.04  -0.02     0.11   0.01  -0.05
   7   6    -0.01   0.22  -0.26     0.00  -0.10  -0.15     0.16   0.07  -0.25
   8   6     0.14   0.13  -0.23    -0.12  -0.04  -0.09     0.20   0.03  -0.04
   9   6     0.15  -0.07  -0.08    -0.11   0.10   0.07     0.21  -0.06   0.22
  10   6     0.01  -0.10   0.12     0.01  -0.12  -0.08    -0.04   0.09  -0.18
  11   6     0.09  -0.06   0.12     0.01  -0.18  -0.12    -0.13   0.09  -0.16
  12   6     0.11   0.00   0.06     0.01  -0.19  -0.12    -0.16   0.09  -0.07
  13   6     0.05   0.03  -0.00     0.01  -0.12  -0.07    -0.13   0.07  -0.03
  14   6     0.07   0.11  -0.06    -0.02   0.14   0.10    -0.17  -0.05   0.06
  15   6     0.00   0.13  -0.13    -0.04   0.28   0.19    -0.07  -0.14   0.10
  16   6    -0.08   0.07  -0.13    -0.01   0.08   0.06     0.04  -0.10   0.10
  17   6    -0.10  -0.00  -0.07     0.02  -0.19  -0.12     0.06   0.04   0.03
  18   6    -0.03  -0.02  -0.00     0.02  -0.23  -0.15    -0.04   0.10  -0.05
  19   6    -0.05  -0.08   0.07     0.03  -0.24  -0.16    -0.03   0.13  -0.14
  20   1    -0.04   0.08   0.06    -0.07   0.05   0.01    -0.08   0.02  -0.02
  21   1     0.00   0.05   0.14     0.03   0.05   0.05    -0.16  -0.01   0.00
  22   1    -0.02   0.08   0.10    -0.03   0.12   0.07    -0.09  -0.09   0.03
  23   1    -0.08  -0.05   0.05     0.07   0.04   0.06     0.03  -0.03   0.09
  24   1    -0.08   0.05  -0.03     0.07  -0.03  -0.02     0.02   0.01  -0.04
  25   1    -0.01   0.11  -0.11    -0.00  -0.06  -0.08     0.04   0.04  -0.15
  26   1     0.07   0.06  -0.10    -0.07  -0.03  -0.05     0.07   0.01  -0.03
  27   1     0.08  -0.04  -0.02    -0.06   0.04   0.03     0.08  -0.03   0.09
  28   1     0.04  -0.02   0.05     0.00  -0.05  -0.03    -0.05   0.03  -0.06
  29   1     0.05   0.01   0.02     0.00  -0.06  -0.04    -0.06   0.03  -0.02
  30   1     0.04   0.04  -0.02    -0.01   0.08   0.05    -0.08  -0.02   0.02
  31   1     0.00   0.06  -0.05    -0.02   0.15   0.10    -0.02  -0.07   0.04
  32   1    -0.04   0.03  -0.05    -0.01   0.05   0.03     0.03  -0.05   0.04
  33   1    -0.05  -0.01  -0.02     0.01  -0.09  -0.06     0.05   0.02   0.01
  34   1    -0.03  -0.03   0.02     0.01  -0.08  -0.05    -0.00   0.04  -0.04
                      7                      8                      9
                        a                      a                      a 
 Frequencies --   162.5769               191.1712               212.0742
 Red. masses --     8.9487                 2.2318                10.8964
 Frc consts  --     0.0000                 0.0000                 0.0000
 IR Inten    --     0.0942                 1.1372                 0.1480
 Raman Activ --     0.0000                 0.0000                 0.0000
 Depolar     --     0.0000                 0.0000                 0.0000
 Atom AN      X      Y      Z        X      Y      Z        X      Y      Z
   1   6     0.02   0.02   0.01    -0.07   0.02   0.05     0.12   0.12  -0.03
   2   6     0.01  -0.01  -0.00     0.01  -0.03   0.00     0.06  -0.06  -0.09
   3   7    -0.00   0.02  -0.00    -0.00   0.02   0.02     0.10   0.06  -0.04
   4   6    -0.01   0.03  -0.02    -0.00   0.03  -0.04     0.13   0.12  -0.04
   5   6     0.01   0.02  -0.02     0.00   0.02  -0.06     0.26   0.07  -0.07
   6   6     0.01  -0.00   0.00     0.01   0.00  -0.00     0.28  -0.01  -0.02
   7   6    -0.00  -0.01   0.02    -0.00  -0.01   0.06     0.25  -0.04   0.04
   8   6    -0.02  -0.00   0.00    -0.01   0.00   0.01     0.15   0.02  -0.02
   9   6    -0.02   0.02  -0.02    -0.02   0.02  -0.06     0.14   0.12  -0.07
  10   6     0.01  -0.03   0.00     0.01  -0.01   0.01    -0.03  -0.22   0.01
  11   6     0.04  -0.36  -0.21     0.00   0.11   0.08    -0.10  -0.13   0.09
  12   6     0.02  -0.12  -0.06     0.01   0.04   0.03    -0.12   0.02   0.19
  13   6    -0.02   0.19   0.13     0.02  -0.09  -0.05    -0.15   0.02   0.14
  14   6    -0.03   0.31   0.20     0.02  -0.08  -0.05    -0.12  -0.00  -0.02
  15   6     0.00   0.01  -0.01     0.01   0.04   0.03    -0.20  -0.07  -0.18
  16   6     0.03  -0.33  -0.23    -0.00   0.09   0.06    -0.27   0.04  -0.08
  17   6     0.00  -0.12  -0.08     0.01  -0.04  -0.02    -0.29   0.08   0.07
  18   6    -0.02   0.17   0.12     0.02  -0.11  -0.06    -0.15  -0.03   0.12
  19   6    -0.03   0.26   0.19     0.02  -0.10  -0.05    -0.10  -0.17   0.02
  20   1     0.12   0.13   0.00     0.32   0.42   0.01     0.03   0.07  -0.03
  21   1    -0.15   0.04   0.08    -0.52   0.11   0.25     0.04   0.04   0.04
  22   1     0.03  -0.13  -0.06     0.07  -0.45  -0.18     0.03   0.05  -0.02
  23   1     0.00   0.01  -0.01     0.00   0.01  -0.02     0.10   0.04  -0.03
  24   1     0.01  -0.00   0.00     0.01  -0.00   0.00     0.09  -0.01  -0.00
  25   1    -0.00  -0.01   0.01     0.00  -0.01   0.04     0.07  -0.03   0.03
  26   1    -0.01  -0.00   0.00    -0.01  -0.00   0.01     0.02  -0.01  -0.00
  27   1    -0.01   0.01  -0.01    -0.01   0.01  -0.02     0.03   0.04  -0.03
  28   1     0.03  -0.21  -0.13    -0.00   0.07   0.05    -0.04  -0.04   0.02
  29   1     0.01  -0.07  -0.04     0.00   0.04   0.03    -0.03   0.04   0.07
  30   1    -0.01   0.15   0.09     0.01  -0.03  -0.02    -0.00  -0.00  -0.02
  31   1     0.00   0.00  -0.01     0.00   0.03   0.02    -0.05  -0.05  -0.10
  32   1     0.02  -0.20  -0.14    -0.00   0.06   0.04    -0.09   0.01  -0.03
  33   1     0.00  -0.08  -0.05     0.00  -0.01  -0.01    -0.12   0.04   0.04
  34   1    -0.02   0.14   0.10     0.00  -0.03  -0.01    -0.03  -0.07  -0.00
                     10                     11                     12
                        a                      a                      a 
 Frequencies --   222.6792               250.2483               329.2788
 Red. masses --    10.4209                 9.6703                10.0403
 Frc consts  --     0.0000                 0.0000                 0.0000
 IR Inten    --     0.1403                 0.9100                 0.4480
 Raman Activ --     0.0000                 0.0000                 0.0000
 Depolar     --     0.0000                 0.0000                 0.0000
 Atom AN      X      Y      Z        X      Y      Z        X      Y      Z
   1   6    -0.01  -0.13   0.03    -0.42  -0.08   0.25     0.46  -0.02   0.15
   2   6    -0.00   0.19   0.15    -0.04  -0.08   0.12     0.07  -0.09   0.21
   3   7     0.06   0.02   0.10     0.02  -0.00   0.25     0.02  -0.03   0.21
   4   6     0.08  -0.08  -0.10     0.01   0.07  -0.09     0.00  -0.02   0.06
   5   6     0.08  -0.06  -0.19     0.04   0.07  -0.31    -0.03  -0.00  -0.04
   6   6     0.08   0.00  -0.03     0.05   0.01  -0.05    -0.03   0.00  -0.02
   7   6     0.17   0.03   0.15     0.05  -0.04   0.28    -0.03  -0.01   0.07
   8   6     0.19   0.03  -0.02    -0.01   0.02  -0.09    -0.02  -0.01  -0.02
   9   6     0.16  -0.03  -0.18    -0.02   0.08  -0.31    -0.01  -0.02  -0.04
  10   6    -0.05   0.30   0.20     0.02  -0.10  -0.08     0.05  -0.05   0.03
  11   6    -0.08   0.11   0.09     0.05  -0.06  -0.07    -0.00  -0.05   0.00
  12   6    -0.06  -0.21  -0.10     0.04   0.08  -0.00    -0.01   0.07  -0.11
  13   6    -0.08  -0.20  -0.12     0.02   0.12   0.01    -0.19   0.16  -0.22
  14   6    -0.10  -0.04  -0.02     0.01   0.03   0.04    -0.28   0.03   0.01
  15   6    -0.14   0.21   0.14     0.08  -0.13  -0.00    -0.11  -0.15   0.10
  16   6    -0.10  -0.01  -0.01     0.09  -0.03   0.05     0.05  -0.06   0.10
  17   6    -0.07  -0.22  -0.15     0.08   0.10   0.07     0.10   0.14  -0.09
  18   6    -0.06  -0.09  -0.06     0.02   0.06  -0.02    -0.07   0.14  -0.27
  19   6    -0.08   0.21   0.12     0.01  -0.08  -0.10    -0.09  -0.03  -0.18
  20   1    -0.01  -0.11   0.05    -0.23  -0.05   0.02     0.21   0.00   0.09
  21   1     0.01  -0.04  -0.09    -0.08  -0.03   0.04     0.15  -0.01   0.09
  22   1    -0.00  -0.04   0.02    -0.15   0.02   0.19     0.15   0.01  -0.07
  23   1     0.01  -0.02  -0.08     0.02   0.03  -0.14    -0.01  -0.00  -0.02
  24   1     0.01   0.01  -0.01     0.02  -0.00  -0.01    -0.01   0.00  -0.02
  25   1     0.05   0.02   0.11     0.02  -0.03   0.19    -0.01  -0.00   0.04
  26   1     0.06   0.01   0.00    -0.01   0.00  -0.03    -0.00   0.00  -0.02
  27   1     0.07  -0.02  -0.08    -0.02   0.03  -0.14    -0.01  -0.00  -0.02
  28   1    -0.03   0.05   0.03     0.02  -0.03  -0.02    -0.00  -0.01   0.00
  29   1    -0.01  -0.10  -0.06     0.01   0.03   0.01     0.05   0.03  -0.04
  30   1    -0.03   0.00   0.00    -0.01   0.01   0.01    -0.15   0.00   0.02
  31   1    -0.05   0.14   0.09     0.02  -0.08  -0.02    -0.04  -0.09   0.06
  32   1    -0.03   0.00   0.00     0.03  -0.02   0.02     0.05  -0.03   0.06
  33   1    -0.02  -0.10  -0.07     0.04   0.05   0.03     0.09   0.07  -0.03
  34   1    -0.03   0.09   0.06    -0.01  -0.05  -0.04    -0.07  -0.03  -0.05
                     13                     14                     15
                        a                      a                      a 
 Frequencies --   350.2519               368.6351               398.4869
 Red. masses --     9.2466                 9.0826                10.3582
 Frc consts  --     0.0000                 0.0000                 0.0000
 IR Inten    --     0.0966                 1.4439                 1.9966
 Raman Activ --     0.0000                 0.0000                 0.0000
 Depolar     --     0.0000                 0.0000                 0.0000
 Atom AN      X      Y      Z        X      Y      Z        X      Y      Z
   1   6     0.00   0.01   0.04    -0.01  -0.01   0.01     0.11   0.02  -0.04
   2   6     0.02  -0.19  -0.05    -0.01   0.00   0.01    -0.05   0.31   0.13
   3   7     0.00  -0.07  -0.01    -0.02  -0.03  -0.01     0.05   0.24   0.21
   4   6    -0.00   0.07   0.01    -0.01   0.01  -0.01     0.02  -0.19   0.12
   5   6     0.02   0.06  -0.01     0.03  -0.03   0.42    -0.08  -0.14  -0.03
   6   6     0.03  -0.00   0.01    -0.01   0.04  -0.42    -0.11   0.03  -0.06
   7   6     0.00  -0.02   0.01     0.01  -0.00  -0.00    -0.05   0.05   0.09
   8   6    -0.04  -0.00  -0.02     0.02  -0.04   0.43     0.05  -0.00  -0.04
   9   6    -0.03   0.06   0.01    -0.03   0.06  -0.43     0.03  -0.18  -0.06
  10   6     0.02  -0.17  -0.07    -0.01  -0.01   0.00    -0.00   0.13  -0.11
  11   6     0.03  -0.19  -0.09     0.00  -0.01   0.00    -0.02  -0.18  -0.30
  12   6    -0.02   0.35   0.20     0.01   0.01   0.00    -0.11   0.14   0.13
  13   6    -0.02   0.05  -0.04     0.00   0.01  -0.01     0.01   0.10   0.23
  14   6    -0.01  -0.29  -0.20     0.00  -0.01  -0.01     0.08  -0.01   0.01
  15   6    -0.02   0.11   0.12     0.01  -0.00   0.01     0.01  -0.10  -0.16
  16   6     0.01   0.14   0.13     0.01   0.00   0.01    -0.07   0.21   0.05
  17   6     0.06  -0.27  -0.21     0.01  -0.00  -0.01    -0.05  -0.12  -0.00
  18   6    -0.01   0.02  -0.06    -0.00   0.00  -0.01     0.05  -0.22   0.02
  19   6    -0.07   0.30   0.19    -0.01   0.00   0.01     0.10  -0.06  -0.11
  20   1    -0.04   0.01  -0.02    -0.01  -0.01   0.00     0.11  -0.04   0.07
  21   1     0.05  -0.01   0.05     0.00  -0.00  -0.01     0.01   0.01  -0.08
  22   1    -0.01   0.06   0.03    -0.00   0.00   0.00     0.05  -0.04  -0.08
  23   1     0.02   0.03  -0.01     0.02  -0.02   0.25    -0.06  -0.06  -0.04
  24   1     0.02  -0.01   0.01    -0.01   0.02  -0.26    -0.06   0.02  -0.05
  25   1     0.00  -0.02   0.00     0.00  -0.00   0.00    -0.01   0.03   0.05
  26   1    -0.02  -0.01  -0.01     0.01  -0.03   0.27     0.05   0.02  -0.04
  27   1    -0.02   0.02   0.01    -0.02   0.03  -0.24     0.03  -0.06  -0.05
  28   1     0.02  -0.10  -0.05     0.00  -0.01   0.00    -0.02  -0.12  -0.16
  29   1    -0.00   0.21   0.12     0.00   0.01   0.00    -0.08   0.05   0.06
  30   1    -0.01  -0.18  -0.11    -0.00  -0.00  -0.00     0.06  -0.03  -0.02
  31   1    -0.01   0.06   0.06     0.00  -0.00   0.00     0.01  -0.08  -0.10
  32   1     0.00   0.08   0.07     0.00   0.00   0.00    -0.04   0.13   0.05
  33   1     0.04  -0.17  -0.12     0.01  -0.00  -0.00    -0.05  -0.05   0.00
  34   1    -0.05   0.19   0.13    -0.01   0.00   0.00     0.07   0.02  -0.02
                     16                     17                     18
                        a                      a                      a 
 Frequencies --   435.3675               445.7048               473.4730
 Red. masses --     9.9860                 8.6421                10.6659
 Frc consts  --     0.0000                 0.0000                 0.0000
 IR Inten    --     4.3811                 4.0453                 4.2159
 Raman Activ --     0.0000                 0.0000                 0.0000
 Depolar     --     0.0000                 0.0000                 0.0000
 Atom AN      X      Y      Z        X      Y      Z        X      Y      Z
   1   6    -0.15  -0.01  -0.04    -0.03   0.00  -0.02     0.02  -0.13   0.24
   2   6     0.01   0.27   0.07    -0.02   0.08   0.02     0.21   0.00   0.15
   3   7    -0.13   0.08  -0.20    -0.03   0.05  -0.02     0.13  -0.29  -0.06
   4   6    -0.06  -0.00  -0.29    -0.02  -0.02  -0.05     0.08   0.15  -0.31
   5   6     0.03  -0.07   0.01     0.00  -0.04  -0.00    -0.02   0.20   0.00
   6   6     0.05  -0.04   0.13     0.00  -0.01   0.02    -0.01   0.02   0.14
   7   6     0.09   0.03  -0.19     0.03   0.01  -0.03    -0.15  -0.03  -0.19
   8   6     0.07   0.03   0.11     0.02   0.01   0.02    -0.08  -0.09   0.13
   9   6     0.05   0.01   0.05     0.01  -0.01   0.00    -0.05   0.06  -0.01
  10   6    -0.04   0.02   0.31    -0.01  -0.11  -0.01     0.21   0.19  -0.08
  11   6     0.05  -0.26   0.14     0.02  -0.12  -0.02     0.03   0.04  -0.14
  12   6     0.11   0.04  -0.00     0.00   0.20   0.12    -0.07  -0.07   0.11
  13   6    -0.05   0.27  -0.01     0.04  -0.34  -0.26    -0.08  -0.05   0.12
  14   6    -0.08   0.03  -0.02    -0.03   0.21   0.13    -0.09   0.02   0.08
  15   6     0.03  -0.16  -0.01     0.03  -0.11  -0.05    -0.18  -0.06  -0.10
  16   6     0.05   0.12   0.15     0.02  -0.08  -0.04    -0.09   0.10  -0.03
  17   6     0.09  -0.04  -0.12    -0.01   0.20   0.12    -0.06  -0.01  -0.05
  18   6    -0.02   0.01  -0.18     0.04  -0.37  -0.27     0.08  -0.12   0.00
  19   6    -0.09  -0.18   0.06    -0.05   0.16   0.15     0.17   0.13  -0.15
  20   1    -0.06  -0.05   0.00    -0.01  -0.02   0.00    -0.02  -0.06   0.06
  21   1    -0.11   0.01  -0.12    -0.01   0.00  -0.04    -0.03  -0.04   0.01
  22   1    -0.04  -0.08   0.06    -0.01  -0.00   0.01     0.00  -0.08   0.12
  23   1     0.02  -0.02   0.06     0.00  -0.01   0.01     0.00   0.05   0.08
  24   1    -0.00  -0.01   0.11    -0.01   0.00   0.02     0.05  -0.03   0.13
  25   1     0.02   0.02  -0.09     0.01   0.01  -0.01    -0.04  -0.01  -0.07
  26   1     0.02  -0.00   0.10     0.01   0.00   0.02    -0.02  -0.04   0.13
  27   1     0.04  -0.02   0.08     0.01  -0.01   0.01    -0.06   0.04   0.09
  28   1     0.06  -0.16   0.03     0.01   0.02   0.04    -0.05   0.02  -0.11
  29   1     0.11  -0.02  -0.04    -0.00   0.22   0.14    -0.05  -0.03   0.03
  30   1    -0.06  -0.04  -0.02    -0.03   0.23   0.15     0.01   0.03   0.02
  31   1     0.01  -0.12  -0.03     0.00   0.02   0.02    -0.05  -0.04  -0.04
  32   1     0.03   0.07   0.09     0.00   0.04   0.03    -0.02   0.05   0.03
  33   1     0.07  -0.02  -0.05    -0.01   0.23   0.15    -0.06   0.01   0.01
  34   1    -0.09  -0.10   0.01    -0.05   0.22   0.16     0.08   0.05  -0.04
                     19                     20                     21
                        a                      a                      a 
 Frequencies --   486.6364               499.0555               504.4724
 Red. masses --    11.2501                11.1625                10.6404
 Frc consts  --     0.0000                 0.0000                 0.0000
 IR Inten    --     2.2411                 0.7698                 0.4313
 Raman Activ --     0.0000                 0.0000                 0.0000
 Depolar     --     0.0000                 0.0000                 0.0000
 Atom AN      X      Y      Z        X      Y      Z        X      Y      Z
   1   6     0.11  -0.04   0.04    -0.01  -0.01  -0.03    -0.07   0.04  -0.14
   2   6    -0.25  -0.05   0.12    -0.02   0.04   0.00     0.11   0.12  -0.10
   3   7    -0.24  -0.37  -0.03     0.01  -0.28  -0.11     0.19  -0.21  -0.21
   4   6    -0.18   0.14   0.02     0.01   0.08   0.23     0.15   0.05   0.31
   5   6     0.05   0.03  -0.01    -0.00   0.11   0.04    -0.02   0.16   0.07
   6   6     0.11  -0.13  -0.01     0.01  -0.01  -0.11    -0.04   0.07  -0.15
   7   6     0.24  -0.05  -0.01     0.00  -0.06   0.14    -0.15  -0.06   0.21
   8   6     0.04   0.07  -0.01    -0.03  -0.02  -0.11    -0.07  -0.08  -0.16
   9   6     0.03   0.27   0.04    -0.00   0.11   0.05    -0.03  -0.00   0.05
  10   6    -0.21   0.15  -0.04    -0.03   0.03   0.12     0.07   0.09   0.12
  11   6     0.03   0.10  -0.19    -0.31  -0.12   0.13     0.23   0.01   0.05
  12   6     0.03   0.07  -0.14    -0.28  -0.09   0.05     0.24  -0.01  -0.02
  13   6     0.14   0.07   0.03    -0.17  -0.02   0.08     0.06   0.10  -0.04
  14   6     0.18   0.07   0.07    -0.10   0.16  -0.13    -0.03   0.00   0.17
  15   6     0.21  -0.10  -0.03     0.03   0.00  -0.17    -0.09  -0.18   0.02
  16   6    -0.06   0.03   0.14     0.32   0.22  -0.13    -0.23   0.00   0.17
  17   6    -0.07  -0.14   0.09     0.27   0.00  -0.05    -0.15  -0.04  -0.10
  18   6    -0.11  -0.14  -0.01     0.18  -0.06  -0.05    -0.06  -0.08  -0.11
  19   6    -0.14   0.03  -0.06     0.11  -0.06   0.16    -0.05   0.05  -0.00
  20   1     0.12  -0.04   0.09     0.02  -0.03   0.02    -0.05  -0.01  -0.05
  21   1     0.07  -0.02   0.01    -0.01  -0.00  -0.05    -0.07   0.02  -0.11
  22   1     0.05   0.01  -0.12     0.00  -0.03  -0.02    -0.02  -0.04   0.02
  23   1     0.09   0.06  -0.00     0.02   0.05  -0.05    -0.03   0.05  -0.08
  24   1     0.02  -0.03   0.01     0.02  -0.01  -0.10     0.03   0.01  -0.16
  25   1     0.07  -0.02   0.00     0.00  -0.02   0.05    -0.04  -0.02   0.06
  26   1    -0.05  -0.02  -0.00    -0.03  -0.01  -0.10    -0.02  -0.00  -0.15
  27   1     0.02   0.07   0.02    -0.03   0.05  -0.04    -0.06   0.04  -0.07
  28   1     0.03  -0.01  -0.05    -0.10  -0.04   0.01     0.09  -0.04   0.01
  29   1    -0.04  -0.02  -0.05    -0.06  -0.04  -0.00     0.10  -0.03  -0.03
  30   1     0.03   0.02   0.03     0.02   0.07  -0.04    -0.04   0.01   0.06
  31   1     0.07  -0.04  -0.06    -0.01  -0.07  -0.00    -0.01  -0.06  -0.05
  32   1    -0.06   0.07   0.04     0.10   0.09  -0.01    -0.06   0.04   0.09
  33   1    -0.00  -0.02   0.03     0.04   0.01  -0.00    -0.02   0.01  -0.02
  34   1     0.02   0.02  -0.02     0.00  -0.02   0.05    -0.03   0.01   0.00
                     22                     23                     24
                        a                      a                      a 
 Frequencies --   539.3125               580.8532               590.0114
 Red. masses --     9.8096                11.3741                11.2551
 Frc consts  --     0.0000                 0.0000                 0.0000
 IR Inten    --     0.9756                 5.1381                 0.4319
 Raman Activ --     0.0000                 0.0000                 0.0000
 Depolar     --     0.0000                 0.0000                 0.0000
 Atom AN      X      Y      Z        X      Y      Z        X      Y      Z
   1   6     0.01  -0.00   0.01    -0.02  -0.03   0.06    -0.01   0.03  -0.06
   2   6    -0.03   0.46   0.22    -0.04  -0.06   0.03    -0.03  -0.04  -0.05
   3   7    -0.01  -0.25  -0.12    -0.22   0.03  -0.08     0.04   0.15   0.13
   4   6     0.00   0.06   0.04    -0.20  -0.03   0.04     0.02   0.13   0.00
   5   6    -0.03   0.07   0.01     0.02  -0.18   0.04    -0.32   0.26  -0.00
   6   6    -0.02  -0.04  -0.02     0.04  -0.08  -0.07    -0.34  -0.31   0.03
   7   6     0.00  -0.04   0.03     0.20   0.02   0.06    -0.03  -0.16  -0.06
   8   6     0.02  -0.04  -0.03    -0.03   0.16  -0.04     0.35  -0.34  -0.00
   9   6     0.03   0.08   0.03    -0.05   0.08   0.07     0.32   0.23  -0.04
  10   6     0.01  -0.12  -0.07     0.06   0.02  -0.01    -0.04  -0.02   0.01
  11   6     0.03  -0.14  -0.08    -0.00   0.01  -0.04    -0.05   0.00   0.02
  12   6    -0.00   0.16   0.09     0.01   0.07  -0.08    -0.02   0.04  -0.08
  13   6     0.02  -0.06  -0.05     0.12  -0.02   0.04     0.05   0.01  -0.01
  14   6     0.03  -0.21  -0.12     0.00  -0.20   0.29     0.03  -0.03   0.08
  15   6    -0.03   0.24   0.17    -0.36  -0.05   0.02    -0.04  -0.02   0.01
  16   6     0.01  -0.24  -0.14    -0.13   0.03  -0.08    -0.04   0.01   0.00
  17   6    -0.03   0.19   0.11    -0.01   0.23  -0.34    -0.01   0.04  -0.09
  18   6    -0.02   0.15   0.09     0.31   0.05  -0.02     0.06   0.01  -0.01
  19   6     0.02  -0.17  -0.10     0.29  -0.06   0.14     0.04  -0.04   0.09
  20   1     0.07  -0.13   0.13    -0.01   0.00   0.01    -0.00   0.03  -0.03
  21   1    -0.08   0.00  -0.22     0.00  -0.01   0.04     0.02   0.01   0.03
  22   1     0.02  -0.13  -0.02    -0.01   0.00   0.01    -0.01   0.04  -0.03
  23   1     0.01   0.03  -0.02     0.04  -0.03  -0.02    -0.05   0.09   0.02
  24   1     0.01  -0.02  -0.02    -0.04   0.01  -0.05    -0.04  -0.12   0.03
  25   1     0.00   0.00   0.01     0.05  -0.01   0.01    -0.01   0.11   0.00
  26   1    -0.01  -0.02  -0.03    -0.05   0.03  -0.05     0.06  -0.12   0.02
  27   1    -0.01   0.03   0.00     0.04  -0.00  -0.02     0.04   0.09   0.01
  28   1     0.01  -0.01  -0.00     0.01  -0.00  -0.01     0.00  -0.01   0.02
  29   1    -0.01   0.12   0.07    -0.00   0.02  -0.02    -0.00   0.01  -0.02
  30   1     0.01  -0.09  -0.05     0.03  -0.05   0.08     0.01  -0.01   0.02
  31   1    -0.02   0.13   0.09    -0.09   0.02  -0.04    -0.01   0.00  -0.02
  32   1     0.01  -0.16  -0.10     0.05  -0.03   0.06     0.01  -0.00   0.02
  33   1    -0.00   0.03   0.02    -0.03   0.06  -0.09    -0.00   0.01  -0.02
  34   1     0.00  -0.04  -0.02     0.09  -0.02   0.03     0.01  -0.01   0.03
                     25                     26                     27
                        a                      a                      a 
 Frequencies --   604.2302               625.9181               655.5082
 Red. masses --    11.2812                 9.7081                10.3581
 Frc consts  --     0.0000                 0.0000                 0.0000
 IR Inten    --     3.5191                 0.8288                 2.1597
 Raman Activ --     0.0000                 0.0000                 0.0000
 Depolar     --     0.0000                 0.0000                 0.0000
 Atom AN      X      Y      Z        X      Y      Z        X      Y      Z
   1   6     0.01   0.03  -0.07     0.00   0.03   0.02     0.04  -0.06   0.13
   2   6    -0.10   0.06  -0.01    -0.01   0.26   0.13     0.08   0.00   0.03
   3   7     0.22  -0.18   0.18    -0.04  -0.00  -0.01     0.01   0.08  -0.03
   4   6     0.20  -0.01  -0.01    -0.05  -0.01   0.01     0.04   0.04  -0.46
   5   6     0.11   0.12  -0.12    -0.03  -0.05  -0.01     0.02   0.02   0.29
   6   6     0.12   0.20   0.14    -0.03  -0.05   0.01    -0.02   0.07  -0.33
   7   6    -0.20   0.05  -0.14     0.04   0.00  -0.01    -0.05  -0.03   0.30
   8   6    -0.09  -0.06   0.12     0.01   0.02   0.01     0.02  -0.03  -0.34
   9   6    -0.07  -0.16  -0.13     0.01   0.02  -0.01     0.05  -0.08   0.28
  10   6    -0.19  -0.11   0.01     0.09  -0.50  -0.34    -0.03  -0.05  -0.01
  11   6    -0.25   0.00   0.02     0.03   0.18   0.11    -0.15   0.00  -0.01
  12   6    -0.14   0.16  -0.33     0.05  -0.23  -0.08    -0.11   0.07  -0.16
  13   6     0.17   0.05  -0.05    -0.02  -0.04  -0.01     0.05   0.02  -0.03
  14   6     0.17  -0.06   0.16    -0.05   0.17   0.10     0.09   0.01   0.02
  15   6     0.04  -0.04   0.02    -0.01  -0.14  -0.10     0.10  -0.00   0.01
  16   6    -0.09  -0.00   0.04    -0.01   0.19   0.11    -0.05  -0.02   0.04
  17   6    -0.04   0.06  -0.15     0.03  -0.16  -0.10    -0.04  -0.02   0.00
  18   6     0.09   0.03  -0.01    -0.02   0.16   0.11    -0.03   0.01   0.01
  19   6     0.01  -0.14   0.25    -0.00   0.14   0.04    -0.02  -0.03   0.04
  20   1     0.06  -0.02   0.04     0.04  -0.08   0.09    -0.01  -0.01   0.02
  21   1     0.03   0.00  -0.04    -0.04   0.01  -0.14    -0.00  -0.01   0.03
  22   1     0.01   0.02  -0.09     0.01  -0.06  -0.00     0.01  -0.02   0.07
  23   1    -0.01   0.00   0.01     0.00  -0.01  -0.00    -0.00  -0.01   0.22
  24   1     0.08   0.03   0.10    -0.02  -0.01   0.01     0.02   0.00  -0.01
  25   1    -0.05  -0.04  -0.02     0.01   0.01  -0.00    -0.01  -0.01   0.20
  26   1     0.03   0.01   0.10    -0.00  -0.00   0.00     0.03  -0.01  -0.01
  27   1    -0.05  -0.03   0.02     0.01  -0.00  -0.00     0.01  -0.03   0.21
  28   1    -0.01  -0.01   0.07    -0.02   0.25   0.15    -0.03   0.01   0.02
  29   1    -0.05   0.05  -0.09     0.00   0.05   0.05    -0.04   0.03  -0.03
  30   1     0.04  -0.02   0.04    -0.00  -0.01  -0.01     0.02  -0.01   0.00
  31   1     0.03   0.01  -0.05     0.00  -0.13  -0.08     0.04   0.01  -0.03
  32   1    -0.01  -0.01   0.03     0.00   0.02   0.01    -0.03  -0.00  -0.01
  33   1     0.00   0.01  -0.05     0.01  -0.14  -0.09     0.00  -0.01  -0.01
  34   1    -0.00  -0.03   0.08    -0.01   0.15   0.08    -0.02   0.00   0.02
                     28                     29                     30
                        a                      a                      a 
 Frequencies --   700.0319               724.2865               754.1149
 Red. masses --     8.3737                11.2394                 3.7274
 Frc consts  --     0.0000                 0.0000                 0.0000
 IR Inten    --    32.8841                 0.0481                 9.0781
 Raman Activ --     0.0000                 0.0000                 0.0000
 Depolar     --     0.0000                 0.0000                 0.0000
 Atom AN      X      Y      Z        X      Y      Z        X      Y      Z
   1   6     0.11  -0.13   0.30    -0.00   0.00  -0.01    -0.02  -0.02  -0.02
   2   6     0.29   0.00   0.02    -0.01  -0.02  -0.01    -0.04  -0.07  -0.02
   3   7    -0.07   0.17  -0.31     0.00  -0.01   0.01    -0.02  -0.01   0.01
   4   6     0.00  -0.02   0.11     0.00   0.00   0.00     0.01   0.01  -0.05
   5   6    -0.02  -0.04   0.02     0.00   0.01  -0.00     0.02   0.03   0.02
   6   6    -0.03  -0.04   0.13     0.01   0.01  -0.00     0.03   0.04   0.02
   7   6     0.02   0.00  -0.00    -0.00  -0.00  -0.00    -0.03  -0.00   0.02
   8   6     0.03  -0.01   0.13    -0.00  -0.00  -0.00     0.01  -0.03   0.01
   9   6     0.01   0.01   0.00     0.00   0.00  -0.00     0.01  -0.02   0.02
  10   6     0.08  -0.03   0.02    -0.02   0.18   0.12    -0.04   0.18   0.11
  11   6    -0.24  -0.03   0.00     0.02  -0.16  -0.10     0.04  -0.09  -0.07
  12   6    -0.19   0.11  -0.21    -0.01   0.16   0.11     0.03  -0.06  -0.02
  13   6     0.05   0.02  -0.06     0.05  -0.47  -0.31     0.01  -0.10  -0.06
  14   6     0.14   0.03   0.00    -0.02   0.14   0.09    -0.03   0.16   0.11
  15   6     0.20   0.00   0.02     0.02  -0.18  -0.12    -0.04   0.12   0.07
  16   6    -0.12  -0.05   0.08    -0.02   0.16   0.10     0.01   0.12   0.06
  17   6    -0.09  -0.04   0.03     0.02  -0.17  -0.11    -0.01   0.18   0.11
  18   6    -0.06   0.02   0.00    -0.05   0.47   0.31     0.01  -0.09  -0.06
  19   6    -0.01   0.00  -0.01     0.02  -0.13  -0.08     0.01  -0.12  -0.07
  20   1    -0.07  -0.01   0.00    -0.00   0.01  -0.01    -0.01   0.03  -0.03
  21   1    -0.04  -0.02   0.06     0.00   0.00   0.01     0.03  -0.01   0.05
  22   1     0.01  -0.09   0.24    -0.00   0.00  -0.01    -0.01   0.04  -0.02
  23   1    -0.02   0.01  -0.25     0.00   0.00   0.00     0.00   0.01  -0.04
  24   1    -0.03   0.01  -0.19     0.00   0.00   0.00     0.02   0.01  -0.05
  25   1    -0.01   0.04  -0.24    -0.00  -0.00   0.00    -0.01   0.00  -0.06
  26   1    -0.01   0.02  -0.19     0.00  -0.00   0.00     0.01   0.00  -0.05
  27   1    -0.01   0.03  -0.24    -0.00   0.00   0.00    -0.01   0.00  -0.04
  28   1    -0.08   0.01  -0.00     0.01  -0.02  -0.01    -0.00   0.12   0.08
  29   1    -0.06   0.04  -0.05    -0.01   0.07   0.05    -0.02   0.19   0.13
  30   1     0.02  -0.00   0.00    -0.02   0.13   0.08     0.03  -0.30  -0.20
  31   1     0.07   0.02  -0.04    -0.01   0.03   0.02     0.03  -0.35  -0.22
  32   1    -0.07  -0.01  -0.01    -0.00   0.03   0.02     0.05  -0.34  -0.23
  33   1    -0.00  -0.01  -0.00     0.01  -0.07  -0.04     0.04  -0.31  -0.20
  34   1    -0.03   0.00   0.01     0.02  -0.14  -0.09    -0.02   0.18   0.12
                     31                     32                     33
                        a                      a                      a 
 Frequencies --   761.9114               801.6827               812.2817
 Red. masses --     6.4268                10.5047                10.9828
 Frc consts  --     0.0000                 0.0000                 0.0000
 IR Inten    --    23.7868                 0.6038                33.1230
 Raman Activ --     0.0000                 0.0000                 0.0000
 Depolar     --     0.0000                 0.0000                 0.0000
 Atom AN      X      Y      Z        X      Y      Z        X      Y      Z
   1   6     0.05  -0.01   0.02    -0.02   0.05  -0.10     0.04  -0.10   0.21
   2   6     0.19   0.01  -0.04    -0.03  -0.01   0.02    -0.10  -0.01   0.02
   3   7     0.08   0.02  -0.12     0.04  -0.05   0.11    -0.37   0.14  -0.31
   4   6    -0.03  -0.04   0.37    -0.01   0.01  -0.08     0.02  -0.02   0.23
   5   6    -0.07  -0.09  -0.16    -0.01  -0.00   0.02     0.12   0.10  -0.03
   6   6    -0.09  -0.13  -0.10    -0.01  -0.02   0.01     0.16   0.28  -0.01
   7   6     0.11   0.02  -0.16     0.02  -0.00   0.03    -0.24   0.01  -0.08
   8   6    -0.08   0.14  -0.08    -0.02   0.03   0.02     0.20  -0.28  -0.07
   9   6    -0.07   0.10  -0.14    -0.01   0.01   0.02     0.13  -0.11  -0.08
  10   6     0.13   0.04   0.05     0.05   0.01   0.01    -0.13  -0.02  -0.02
  11   6    -0.13  -0.07   0.05    -0.14  -0.12   0.15     0.06   0.04  -0.06
  12   6    -0.09   0.02  -0.06    -0.11  -0.24   0.34     0.03  -0.07   0.10
  13   6     0.01  -0.00  -0.04     0.03  -0.08   0.12     0.03  -0.03   0.08
  14   6     0.06   0.05  -0.00     0.29  -0.07   0.16     0.06  -0.08   0.11
  15   6     0.13   0.02   0.03     0.25  -0.00   0.05    -0.07  -0.00  -0.02
  16   6    -0.10  -0.03   0.08    -0.07  -0.05   0.06     0.10   0.05  -0.07
  17   6    -0.07   0.03   0.01    -0.01   0.22  -0.35     0.07   0.05  -0.08
  18   6    -0.01  -0.01  -0.04    -0.06   0.13  -0.20    -0.04   0.03  -0.03
  19   6     0.04   0.02  -0.05    -0.18   0.15  -0.28    -0.14   0.01  -0.07
  20   1    -0.06   0.01  -0.05     0.01   0.00  -0.01     0.02  -0.02   0.06
  21   1    -0.04   0.01  -0.02     0.00   0.01  -0.03     0.02  -0.03   0.09
  22   1     0.00  -0.05   0.12    -0.00   0.02  -0.06     0.01  -0.01   0.05
  23   1     0.01  -0.04   0.24     0.00   0.00  -0.02     0.01   0.01   0.01
  24   1    -0.05  -0.04   0.29    -0.01   0.00  -0.04     0.13   0.03   0.09
  25   1     0.05  -0.04   0.40     0.00   0.00  -0.07    -0.05  -0.01   0.20
  26   1    -0.05  -0.02   0.29    -0.02   0.01  -0.04     0.14  -0.04   0.09
  27   1     0.01  -0.01   0.24    -0.00   0.00  -0.03     0.02  -0.03   0.06
  28   1    -0.06   0.01   0.00    -0.13   0.01  -0.03     0.01   0.03  -0.01
  29   1    -0.02   0.04   0.00    -0.06  -0.07   0.11    -0.04  -0.01   0.05
  30   1     0.01  -0.05  -0.04     0.11  -0.01   0.04     0.06   0.00   0.03
  31   1     0.05  -0.04  -0.06     0.10   0.06  -0.08    -0.02   0.02   0.00
  32   1    -0.04  -0.06  -0.04     0.02  -0.02   0.05     0.06   0.02   0.02
  33   1     0.01  -0.05  -0.04     0.09   0.09  -0.12     0.03   0.03  -0.02
  34   1    -0.02   0.02   0.01    -0.12   0.03  -0.06    -0.05   0.02  -0.01
                     34                     35                     36
                        a                      a                      a 
 Frequencies --   837.5724               864.2045               867.0246
 Red. masses --     4.7032                 3.7071                 3.3580
 Frc consts  --     0.0000                 0.0000                 0.0000
 IR Inten    --    32.7862                 1.2523                 2.6331
 Raman Activ --     0.0000                 0.0000                 0.0000
 Depolar     --     0.0000                 0.0000                 0.0000
 Atom AN      X      Y      Z        X      Y      Z        X      Y      Z
   1   6    -0.01  -0.02  -0.04     0.01  -0.01  -0.00     0.01   0.00   0.01
   2   6     0.00  -0.04  -0.02     0.03  -0.00  -0.01     0.01   0.00  -0.00
   3   7     0.02  -0.02   0.01     0.04  -0.00  -0.00     0.01   0.00  -0.02
   4   6     0.00  -0.00   0.00     0.02  -0.00  -0.00    -0.01   0.00   0.02
   5   6    -0.00   0.00  -0.00    -0.01  -0.00   0.01    -0.01   0.03  -0.28
   6   6    -0.00  -0.01  -0.00    -0.02  -0.03   0.00    -0.01   0.02  -0.18
   7   6     0.01  -0.00   0.00     0.02  -0.00   0.00    -0.00   0.00   0.01
   8   6    -0.01   0.01   0.00    -0.02   0.03  -0.00     0.01  -0.02   0.19
   9   6    -0.01   0.01   0.00    -0.01   0.01  -0.01     0.01  -0.03   0.24
  10   6    -0.00   0.18   0.11    -0.03  -0.01   0.01    -0.01  -0.01   0.01
  11   6     0.02  -0.19  -0.11    -0.01   0.13   0.08     0.00   0.00  -0.00
  12   6     0.03  -0.23  -0.16    -0.01   0.11   0.04     0.00   0.01  -0.01
  13   6    -0.03   0.20   0.12     0.02   0.01   0.03     0.01  -0.00   0.01
  14   6    -0.00  -0.05  -0.06     0.03  -0.14  -0.01     0.01  -0.02   0.03
  15   6     0.02  -0.05  -0.03    -0.04  -0.10  -0.08    -0.03   0.00  -0.01
  16   6    -0.00  -0.11  -0.05     0.05   0.09  -0.00     0.03   0.02  -0.02
  17   6    -0.00  -0.08  -0.05     0.01   0.09   0.09     0.02  -0.01   0.01
  18   6    -0.00   0.11   0.08    -0.04   0.04   0.03    -0.02  -0.00   0.00
  19   6     0.04  -0.20  -0.11    -0.03  -0.29  -0.21    -0.04  -0.00  -0.02
  20   1    -0.02   0.03  -0.04    -0.02   0.01  -0.02    -0.00  -0.00   0.00
  21   1     0.02  -0.01   0.04    -0.00  -0.00   0.00    -0.00   0.00  -0.00
  22   1    -0.01   0.03  -0.00    -0.00   0.01   0.03     0.00  -0.01   0.01
  23   1     0.00   0.00   0.01    -0.00  -0.00  -0.01     0.03  -0.05   0.54
  24   1    -0.00  -0.00   0.00    -0.01  -0.00  -0.01     0.02  -0.03   0.34
  25   1     0.00  -0.00  -0.00     0.01   0.00  -0.01    -0.00   0.00  -0.01
  26   1    -0.01   0.00  -0.00    -0.01   0.00   0.01    -0.01   0.04  -0.37
  27   1    -0.00   0.00  -0.00    -0.00  -0.00   0.02    -0.03   0.05  -0.49
  28   1    -0.05   0.37   0.24     0.03  -0.16  -0.10     0.00  -0.00   0.00
  29   1    -0.04   0.39   0.25     0.02  -0.25  -0.17    -0.00  -0.01  -0.01
  30   1    -0.01   0.05   0.03    -0.00   0.22   0.16     0.01  -0.00   0.01
  31   1    -0.02   0.17   0.11    -0.03   0.16   0.10    -0.01   0.00  -0.00
  32   1    -0.03   0.22   0.14     0.03  -0.05  -0.05     0.01   0.00  -0.00
  33   1    -0.02   0.12   0.08     0.02  -0.23  -0.14    -0.00  -0.00   0.00
  34   1    -0.03   0.27   0.18    -0.10   0.54   0.36    -0.02   0.01   0.00
                     37                     38                     39
                        a                      a                      a 
 Frequencies --   868.9264               877.8807               879.7290
 Red. masses --    10.4102                 3.9449                 3.9137
 Frc consts  --     0.0000                 0.0000                 0.0000
 IR Inten    --     0.3637                 0.1573                 1.3820
 Raman Activ --     0.0000                 0.0000                 0.0000
 Depolar     --     0.0000                 0.0000                 0.0000
 Atom AN      X      Y      Z        X      Y      Z        X      Y      Z
   1   6     0.09   0.01   0.02     0.01   0.00  -0.00     0.01  -0.01   0.02
   2   6     0.12   0.02  -0.04     0.00   0.00   0.00    -0.00   0.01  -0.01
   3   7     0.17   0.01   0.00     0.01  -0.00   0.00    -0.05   0.02  -0.06
   4   6     0.07   0.00  -0.02     0.00   0.00  -0.00    -0.01  -0.01   0.12
   5   6    -0.05  -0.01   0.01    -0.00   0.00  -0.00     0.00   0.01  -0.24
   6   6    -0.08  -0.12   0.01    -0.00  -0.00  -0.00     0.02   0.02   0.03
   7   6     0.10  -0.00   0.02     0.00  -0.00   0.00    -0.01  -0.03   0.34
   8   6    -0.08   0.12  -0.00    -0.00   0.00   0.00     0.02  -0.03   0.01
   9   6    -0.05   0.02  -0.03    -0.00   0.00   0.00     0.00   0.03  -0.26
  10   6    -0.11  -0.03   0.06    -0.00   0.01   0.02     0.00   0.00  -0.00
  11   6    -0.00  -0.02  -0.02     0.00  -0.08  -0.05     0.00   0.00  -0.01
  12   6     0.01   0.06  -0.13     0.01  -0.10  -0.08    -0.00  -0.00   0.01
  13   6     0.13  -0.03   0.06    -0.00   0.09   0.06    -0.01   0.00  -0.00
  14   6     0.13  -0.17   0.34     0.03  -0.22  -0.12    -0.01   0.01  -0.01
  15   6    -0.31   0.05  -0.07    -0.00  -0.12  -0.09     0.01  -0.00   0.00
  16   6     0.29   0.16  -0.25     0.00   0.14   0.07    -0.01  -0.01   0.01
  17   6     0.15  -0.11   0.12    -0.02   0.21   0.15    -0.01   0.00  -0.01
  18   6    -0.19  -0.02  -0.00    -0.00  -0.10  -0.06     0.01   0.00   0.00
  19   6    -0.35   0.09  -0.12    -0.04   0.17   0.10     0.01  -0.00   0.01
  20   1    -0.05   0.00  -0.05    -0.00   0.00  -0.00    -0.01  -0.00  -0.00
  21   1    -0.05   0.01  -0.04    -0.00   0.00   0.00    -0.00  -0.00   0.01
  22   1     0.02  -0.05   0.12     0.00  -0.01   0.00     0.00  -0.01   0.02
  23   1    -0.01  -0.00  -0.02     0.00  -0.00   0.01     0.03  -0.04   0.43
  24   1    -0.05  -0.01  -0.04    -0.00  -0.00  -0.00     0.00   0.02  -0.12
  25   1     0.02   0.00  -0.04     0.00   0.00  -0.00    -0.04   0.05  -0.54
  26   1    -0.05   0.01   0.03    -0.00   0.00  -0.00     0.01   0.00  -0.09
  27   1    -0.01  -0.00   0.06    -0.00   0.00  -0.00     0.03  -0.05   0.48
  28   1     0.04   0.01   0.05    -0.01   0.11   0.07    -0.00   0.00  -0.00
  29   1    -0.04   0.07   0.01    -0.02   0.19   0.12    -0.00  -0.00   0.00
  30   1     0.14  -0.10   0.03    -0.04   0.40   0.27    -0.01   0.00  -0.00
  31   1    -0.08  -0.03  -0.05    -0.02   0.17   0.11     0.00  -0.00   0.00
  32   1     0.11   0.06  -0.01     0.03  -0.17  -0.12    -0.00  -0.00   0.00
  33   1    -0.01   0.04   0.09     0.04  -0.40  -0.26     0.00   0.00  -0.00
  34   1    -0.15  -0.08  -0.08     0.03  -0.28  -0.19     0.01   0.00   0.00
                     40                     41                     42
                        a                      a                      a 
 Frequencies --   914.5431               920.9241               923.5689
 Red. masses --     3.8532                 3.9195                 2.8155
 Frc consts  --     0.0000                 0.0000                 0.0000
 IR Inten    --     0.6145                 0.5216                 0.0060
 Raman Activ --     0.0000                 0.0000                 0.0000
 Depolar     --     0.0000                 0.0000                 0.0000
 Atom AN      X      Y      Z        X      Y      Z        X      Y      Z
   1   6    -0.00  -0.00  -0.01     0.00  -0.00   0.00     0.00  -0.00   0.01
   2   6     0.00  -0.00   0.00    -0.00   0.00   0.00    -0.00  -0.00  -0.00
   3   7    -0.00  -0.00   0.00    -0.00   0.00  -0.01     0.00   0.00  -0.01
   4   6    -0.00  -0.00   0.00    -0.01  -0.00   0.02     0.01  -0.01   0.08
   5   6     0.00   0.00  -0.00    -0.00   0.02  -0.20     0.00  -0.01   0.09
   6   6     0.00   0.00   0.00     0.02  -0.01   0.25    -0.01   0.03  -0.27
   7   6    -0.00  -0.00  -0.00    -0.01  -0.00   0.04     0.01  -0.02   0.22
   8   6     0.00  -0.00  -0.00    -0.01   0.02  -0.33    -0.01   0.02  -0.15
   9   6     0.00   0.00   0.00     0.02  -0.02   0.22     0.00  -0.00   0.02
  10   6     0.01   0.01   0.01     0.00  -0.00  -0.00    -0.01   0.00  -0.00
  11   6     0.01  -0.09  -0.05    -0.00  -0.01  -0.00     0.00   0.01  -0.00
  12   6    -0.01   0.05   0.02    -0.00   0.01   0.00     0.00  -0.01   0.00
  13   6    -0.00   0.04   0.03     0.00  -0.00  -0.00    -0.00  -0.00   0.00
  14   6     0.03  -0.23  -0.15     0.00   0.00   0.00    -0.00  -0.00  -0.00
  15   6    -0.03   0.20   0.13    -0.00  -0.00  -0.00     0.00  -0.00   0.00
  16   6    -0.02   0.18   0.11     0.00  -0.00  -0.00    -0.00   0.00   0.00
  17   6     0.02  -0.21  -0.13    -0.00   0.00   0.00     0.00   0.00  -0.01
  18   6    -0.00   0.03   0.02    -0.00  -0.00  -0.00    -0.00   0.00   0.00
  19   6     0.00  -0.02  -0.02    -0.00   0.00  -0.00    -0.00  -0.01   0.01
  20   1    -0.00   0.00  -0.01    -0.00   0.00  -0.00     0.00  -0.00   0.00
  21   1     0.00  -0.00   0.01     0.00  -0.00   0.00     0.00  -0.00   0.00
  22   1    -0.00   0.01  -0.00     0.00  -0.00   0.00     0.00  -0.00   0.00
  23   1     0.00   0.00   0.00     0.02  -0.03   0.29    -0.02   0.02  -0.28
  24   1     0.00   0.00  -0.01    -0.02   0.04  -0.39     0.03  -0.06   0.58
  25   1    -0.00  -0.00   0.00    -0.01   0.01  -0.09    -0.02   0.05  -0.47
  26   1     0.00  -0.00   0.01     0.03  -0.06   0.57     0.02  -0.04   0.39
  27   1    -0.00   0.00  -0.00    -0.02   0.04  -0.38    -0.01   0.02  -0.17
  28   1    -0.02   0.17   0.11    -0.00   0.01   0.01     0.00  -0.01  -0.01
  29   1     0.01  -0.10  -0.07     0.00  -0.02  -0.01    -0.00   0.01   0.01
  30   1    -0.04   0.38   0.25     0.00  -0.01  -0.00    -0.00   0.00   0.00
  31   1     0.04  -0.35  -0.23    -0.00   0.00   0.00     0.00  -0.00   0.00
  32   1     0.03  -0.31  -0.20    -0.00   0.01   0.00     0.00  -0.01  -0.00
  33   1    -0.04   0.33   0.22     0.00  -0.01  -0.00     0.00   0.01   0.00
  34   1    -0.01   0.06   0.04     0.00  -0.00  -0.00    -0.00  -0.00   0.00
                     43                     44                     45
                        a                      a                      a 
 Frequencies --   926.1476               928.8402               931.4223
 Red. masses --     3.4953                 3.5055                10.4516
 Frc consts  --     0.0000                 0.0000                 0.0000
 IR Inten    --     0.2605                 0.1233                 3.2753
 Raman Activ --     0.0000                 0.0000                 0.0000
 Depolar     --     0.0000                 0.0000                 0.0000
 Atom AN      X      Y      Z        X      Y      Z        X      Y      Z
   1   6    -0.01   0.01  -0.03     0.02  -0.01   0.03     0.10  -0.09   0.19
   2   6    -0.00  -0.01   0.02     0.00   0.01  -0.02     0.01   0.07  -0.14
   3   7    -0.02  -0.01   0.01     0.03   0.01  -0.01     0.18   0.05  -0.09
   4   6    -0.02  -0.00   0.00     0.02   0.00  -0.00     0.14   0.00  -0.01
   5   6     0.01  -0.01   0.01    -0.01   0.01  -0.00    -0.07   0.08   0.01
   6   6     0.01   0.02  -0.01    -0.01  -0.02   0.00    -0.09  -0.14  -0.01
   7   6    -0.02  -0.00   0.01     0.02   0.00  -0.00     0.14   0.00  -0.01
   8   6     0.01  -0.02   0.00    -0.01   0.02   0.00    -0.08   0.13   0.02
   9   6     0.01   0.01  -0.01    -0.01  -0.01   0.00    -0.07  -0.09  -0.00
  10   6     0.04  -0.00   0.00    -0.05  -0.00  -0.01    -0.32  -0.00  -0.03
  11   6     0.00  -0.26  -0.11     0.01   0.18   0.04     0.19   0.16  -0.35
  12   6    -0.03   0.23   0.11     0.02  -0.13  -0.04     0.02  -0.08   0.21
  13   6     0.01  -0.02  -0.03    -0.00  -0.08  -0.03    -0.06  -0.04   0.08
  14   6     0.01  -0.00   0.02     0.00  -0.09  -0.09    -0.06   0.07  -0.09
  15   6    -0.02   0.08   0.04    -0.00   0.21   0.15     0.11  -0.05   0.04
  16   6     0.02  -0.16  -0.12     0.02  -0.20  -0.12     0.02  -0.01   0.05
  17   6    -0.01   0.09   0.10    -0.01   0.08   0.00     0.01   0.15  -0.22
  18   6     0.00  -0.02  -0.01    -0.01   0.09   0.05    -0.03  -0.00  -0.04
  19   6     0.00   0.07  -0.00    -0.01  -0.07   0.03    -0.12  -0.20   0.32
  20   1    -0.00   0.01  -0.01     0.00  -0.01   0.01    -0.01  -0.01   0.02
  21   1     0.00   0.00   0.00    -0.00  -0.00  -0.00    -0.00  -0.02   0.05
  22   1    -0.00   0.01  -0.02     0.00  -0.01   0.02     0.02  -0.05   0.13
  23   1     0.00   0.00  -0.02    -0.00   0.00   0.01    -0.02   0.02   0.01
  24   1     0.01   0.00   0.03    -0.01  -0.00  -0.01    -0.04  -0.03  -0.01
  25   1    -0.00   0.00  -0.01     0.01   0.00   0.00     0.04   0.00   0.01
  26   1     0.00  -0.00  -0.00    -0.01   0.00   0.00    -0.03   0.03   0.00
  27   1     0.00   0.00   0.01    -0.00  -0.00  -0.00    -0.02  -0.02  -0.00
  28   1    -0.06   0.45   0.30     0.04  -0.27  -0.19     0.04   0.17  -0.01
  29   1     0.06  -0.39  -0.27    -0.05   0.21   0.16    -0.15  -0.14   0.03
  30   1     0.00   0.03   0.03    -0.03   0.24   0.15    -0.03  -0.02  -0.04
  31   1     0.01  -0.15  -0.11     0.05  -0.42  -0.27     0.02   0.01   0.08
  32   1    -0.04   0.32   0.20    -0.04   0.37   0.26     0.05  -0.05   0.03
  33   1     0.02  -0.23  -0.14     0.03  -0.16  -0.12     0.06   0.06  -0.07
  34   1     0.01  -0.02  -0.03    -0.01   0.01   0.02    -0.05  -0.08   0.08
                     46                     47                     48
                        a                      a                      a 
 Frequencies --   975.5575               992.3095              1006.5908
 Red. masses --     8.9319                 5.7522                 8.0662
 Frc consts  --     0.0000                 0.0000                 0.0000
 IR Inten    --    10.7446                 9.0456                 7.3431
 Raman Activ --     0.0000                 0.0000                 0.0000
 Depolar     --     0.0000                 0.0000                 0.0000
 Atom AN      X      Y      Z        X      Y      Z        X      Y      Z
   1   6     0.16   0.18  -0.14    -0.02   0.36   0.17    -0.20  -0.06   0.31
   2   6     0.13  -0.13   0.07     0.01  -0.39  -0.14    -0.06   0.03  -0.29
   3   7     0.02  -0.05   0.16    -0.07   0.10   0.01     0.25   0.09  -0.13
   4   6    -0.14   0.00  -0.03    -0.00   0.01   0.01     0.09   0.00  -0.02
   5   6     0.14  -0.39  -0.03    -0.05   0.16   0.01     0.10  -0.33  -0.03
   6   6     0.05   0.14   0.01     0.00  -0.03   0.00    -0.06  -0.02  -0.00
   7   6    -0.30  -0.00   0.01     0.11   0.01  -0.00    -0.19  -0.00   0.01
   8   6     0.04  -0.14  -0.01     0.02   0.02  -0.00    -0.05   0.01   0.00
   9   6     0.13   0.39   0.04    -0.05  -0.19  -0.02     0.08   0.33   0.03
  10   6    -0.04  -0.01   0.04     0.01   0.07   0.05    -0.05   0.05  -0.03
  11   6     0.06   0.11  -0.17    -0.00  -0.02  -0.01    -0.02  -0.06   0.09
  12   6    -0.04  -0.01   0.00    -0.01   0.00  -0.02     0.04  -0.02   0.03
  13   6    -0.02  -0.02   0.04    -0.00   0.01   0.00     0.02   0.02  -0.02
  14   6    -0.01   0.01  -0.02    -0.00   0.00  -0.01     0.01  -0.01   0.02
  15   6     0.03  -0.01   0.02     0.00  -0.00  -0.00    -0.02   0.00  -0.01
  16   6     0.02   0.00  -0.00    -0.01  -0.00   0.01     0.01   0.00  -0.00
  17   6     0.00   0.04  -0.06    -0.00  -0.00   0.01     0.00  -0.01   0.01
  18   6    -0.03  -0.00  -0.00     0.02  -0.01  -0.00    -0.01   0.00  -0.01
  19   6    -0.04  -0.08   0.11     0.03  -0.00  -0.03    -0.03   0.00  -0.02
  20   1    -0.13  -0.01  -0.12     0.11  -0.28   0.34     0.24  -0.14   0.35
  21   1    -0.17   0.07  -0.26    -0.14   0.09  -0.52     0.15  -0.06   0.07
  22   1     0.03  -0.14   0.23     0.05  -0.20  -0.02    -0.00   0.05  -0.26
  23   1    -0.00  -0.13  -0.03     0.01   0.06   0.01    -0.03  -0.13  -0.01
  24   1    -0.04   0.06   0.01     0.03  -0.02  -0.01    -0.10   0.03   0.00
  25   1    -0.08  -0.00   0.01     0.03   0.01  -0.00    -0.06   0.00   0.01
  26   1    -0.04  -0.06  -0.01     0.04   0.02   0.01    -0.09  -0.03  -0.00
  27   1    -0.00   0.13   0.00     0.02  -0.07  -0.00    -0.04   0.13   0.02
  28   1     0.00   0.05  -0.05    -0.01   0.03   0.01     0.01  -0.02   0.05
  29   1    -0.11  -0.02   0.02     0.00   0.01  -0.00     0.07   0.01   0.00
  30   1    -0.01   0.00  -0.00    -0.00   0.00  -0.00     0.01  -0.00   0.00
  31   1     0.01  -0.01   0.02     0.00   0.00  -0.00    -0.00   0.01  -0.01
  32   1     0.02  -0.01   0.01    -0.00  -0.00  -0.00     0.00  -0.00   0.00
  33   1     0.01   0.01  -0.02    -0.00  -0.00   0.00     0.01  -0.00   0.00
  34   1    -0.08  -0.03   0.05     0.01   0.03   0.01     0.04   0.02  -0.01
                     49                     50                     51
                        a                      a                      a 
 Frequencies --  1078.5368              1079.9804              1095.6085
 Red. masses --     6.9283                 6.6571                 6.9203
 Frc consts  --     0.0000                 0.0000                 0.0000
 IR Inten    --     2.8117                 0.4211                14.0057
 Raman Activ --     0.0000                 0.0000                 0.0000
 Depolar     --     0.0000                 0.0000                 0.0000
 Atom AN      X      Y      Z        X      Y      Z        X      Y      Z
   1   6    -0.08   0.01  -0.03    -0.00  -0.00   0.01     0.27  -0.03   0.12
   2   6     0.06  -0.02   0.05     0.01   0.01  -0.01    -0.23   0.06  -0.20
   3   7    -0.01   0.01  -0.02     0.02  -0.00   0.00     0.05  -0.03   0.07
   4   6    -0.00   0.00   0.01     0.01  -0.00  -0.00     0.02  -0.01  -0.03
   5   6    -0.00   0.00  -0.00    -0.16   0.00   0.01     0.00  -0.01   0.00
   6   6     0.00   0.01   0.00     0.05   0.36   0.03    -0.00   0.00   0.00
   7   6     0.01   0.00  -0.00     0.45   0.00  -0.02    -0.00  -0.01  -0.00
   8   6     0.00  -0.01  -0.00     0.06  -0.35  -0.04    -0.01   0.00   0.00
   9   6    -0.01  -0.01  -0.00    -0.16  -0.00   0.01     0.01   0.02   0.01
  10   6     0.10  -0.02   0.04    -0.00   0.00  -0.00    -0.33   0.10  -0.21
  11   6     0.03   0.03  -0.04     0.00  -0.00  -0.00    -0.09  -0.16   0.22
  12   6    -0.00   0.01  -0.01     0.00  -0.00   0.00     0.08  -0.03   0.06
  13   6    -0.09   0.02  -0.05     0.00  -0.00   0.00     0.02   0.01  -0.02
  14   6    -0.04  -0.13   0.20     0.00   0.00  -0.00    -0.04  -0.00  -0.00
  15   6     0.34  -0.12   0.24    -0.01   0.00  -0.01     0.08  -0.03   0.06
  16   6     0.14   0.24  -0.35    -0.00  -0.00   0.01     0.01   0.04  -0.05
  17   6    -0.16   0.06  -0.13     0.00  -0.00   0.00    -0.05   0.05  -0.08
  18   6    -0.06  -0.04   0.05    -0.00   0.00  -0.00     0.09  -0.06   0.10
  19   6     0.01  -0.01   0.02    -0.00  -0.00   0.00     0.04   0.10  -0.15
  20   1     0.03  -0.01   0.03     0.01  -0.01   0.01    -0.11   0.02  -0.10
  21   1     0.03  -0.01   0.01     0.00  -0.00   0.00    -0.10   0.02  -0.05
  22   1    -0.01   0.04  -0.10     0.00   0.00  -0.01     0.04  -0.14   0.34
  23   1    -0.00  -0.00   0.00    -0.31  -0.16   0.01    -0.01  -0.01  -0.01
  24   1    -0.00   0.00   0.00    -0.23   0.24   0.03    -0.00   0.00  -0.00
  25   1     0.00   0.00   0.00     0.14  -0.00  -0.01    -0.00  -0.01  -0.00
  26   1    -0.00  -0.00   0.00    -0.23  -0.25  -0.02    -0.02  -0.01  -0.00
  27   1    -0.00  -0.00   0.00    -0.30   0.14   0.03    -0.00   0.01  -0.01
  28   1    -0.03   0.02  -0.05     0.00   0.00   0.00     0.12  -0.11   0.20
  29   1    -0.02  -0.00  -0.00    -0.00  -0.00   0.00     0.26   0.04  -0.03
  30   1    -0.37  -0.13   0.13     0.01   0.00  -0.00    -0.10  -0.02   0.02
  31   1     0.07  -0.12   0.19    -0.00   0.00  -0.00     0.01  -0.04   0.07
  32   1    -0.08   0.13  -0.21     0.00  -0.00   0.00     0.01   0.01  -0.01
  33   1    -0.39  -0.06   0.03     0.01   0.00  -0.00    -0.11  -0.01  -0.00
  34   1    -0.04  -0.02   0.02    -0.00  -0.00   0.00     0.32   0.11  -0.10
                     52                     53                     54
                        a                      a                      a 
 Frequencies --  1115.5136              1139.6375              1166.8736
 Red. masses --     4.0738                 5.3049                 2.1964
 Frc consts  --     0.0000                 0.0000                 0.0000
 IR Inten    --     0.4305                24.8058                 8.0295
 Raman Activ --     0.0000                 0.0000                 0.0000
 Depolar     --     0.0000                 0.0000                 0.0000
 Atom AN      X      Y      Z        X      Y      Z        X      Y      Z
   1   6    -0.00   0.00   0.01    -0.08   0.01  -0.04    -0.00   0.00   0.00
   2   6     0.00  -0.00  -0.00     0.11  -0.03   0.09    -0.00  -0.00   0.01
   3   7    -0.01   0.04  -0.00    -0.03   0.02  -0.03    -0.01   0.00  -0.01
   4   6     0.01  -0.17  -0.01     0.04  -0.00   0.01     0.03  -0.00   0.00
   5   6    -0.20   0.15   0.02    -0.00  -0.01  -0.00    -0.00  -0.00  -0.00
   6   6     0.10   0.15   0.01    -0.00  -0.01  -0.00    -0.00  -0.01  -0.00
   7   6    -0.00  -0.22  -0.02    -0.00  -0.00  -0.00    -0.00  -0.00   0.00
   8   6    -0.11   0.16   0.02    -0.01   0.01   0.00    -0.00   0.01   0.00
   9   6     0.20   0.16   0.01     0.00   0.01  -0.00     0.00   0.00   0.00
  10   6     0.01  -0.01   0.00     0.03  -0.03   0.06    -0.03  -0.01   0.01
  11   6     0.00   0.00  -0.01     0.04  -0.02   0.03     0.09  -0.00   0.01
  12   6     0.00  -0.00   0.00    -0.06   0.11  -0.18    -0.10  -0.01   0.00
  13   6    -0.00   0.00  -0.00     0.07  -0.15   0.24    -0.06  -0.02   0.02
  14   6     0.00  -0.00   0.00    -0.05   0.13  -0.20    -0.08  -0.08   0.10
  15   6    -0.00   0.00  -0.00     0.02  -0.04   0.06     0.04   0.05  -0.07
  16   6    -0.00   0.00  -0.00     0.03  -0.02   0.04    -0.06   0.01  -0.02
  17   6     0.00  -0.00   0.01    -0.10   0.12  -0.20     0.11  -0.05   0.09
  18   6    -0.00   0.00  -0.00    -0.01  -0.10   0.16     0.06   0.07  -0.09
  19   6    -0.00  -0.00   0.01    -0.07   0.11  -0.18     0.08   0.04  -0.05
  20   1     0.00  -0.00   0.01     0.03  -0.00   0.02     0.00   0.00   0.00
  21   1     0.00   0.00  -0.00     0.02  -0.00   0.01     0.00  -0.00  -0.00
  22   1     0.00  -0.00  -0.00    -0.01   0.04  -0.10     0.00  -0.00   0.00
  23   1    -0.40  -0.16   0.01    -0.02  -0.02   0.00    -0.01  -0.01   0.00
  24   1     0.26  -0.08  -0.02     0.00  -0.00   0.00    -0.00  -0.00   0.00
  25   1     0.00  -0.45  -0.04    -0.00  -0.01   0.00    -0.00  -0.00   0.00
  26   1    -0.25  -0.08   0.00    -0.01   0.00   0.00    -0.00   0.00   0.00
  27   1     0.41  -0.15  -0.04    -0.00   0.00   0.00    -0.01   0.01   0.00
  28   1    -0.01   0.01  -0.01     0.35  -0.16   0.31     0.40  -0.17   0.34
  29   1    -0.00  -0.00  -0.00    -0.27  -0.03  -0.00    -0.41  -0.09   0.07
  30   1    -0.00  -0.00   0.00     0.15   0.07  -0.09    -0.29  -0.09   0.08
  31   1     0.00   0.00  -0.00    -0.07  -0.20   0.29     0.08   0.19  -0.27
  32   1    -0.00   0.00  -0.00     0.21  -0.10   0.18    -0.26   0.11  -0.21
  33   1     0.00  -0.00   0.00    -0.14   0.01  -0.03     0.26   0.04  -0.02
  34   1    -0.01  -0.00   0.00    -0.02   0.03  -0.05     0.04   0.02  -0.02
                     55                     56                     57
                        a                      a                      a 
 Frequencies --  1180.0219              1180.3520              1189.5657
 Red. masses --     1.6586                 1.3597                 2.2960
 Frc consts  --     0.0000                 0.0000                 0.0000
 IR Inten    --     0.7104                 0.2154                32.2713
 Raman Activ --     0.0000                 0.0000                 0.0000
 Depolar     --     0.0000                 0.0000                 0.0000
 Atom AN      X      Y      Z        X      Y      Z        X      Y      Z
   1   6    -0.00   0.00  -0.00     0.00  -0.00   0.00    -0.02   0.02  -0.05
   2   6     0.00  -0.00   0.00     0.00   0.00  -0.01     0.03  -0.05   0.10
   3   7    -0.00  -0.00   0.00     0.01   0.01   0.00    -0.10   0.01  -0.02
   4   6     0.01  -0.00  -0.00    -0.01   0.07   0.01     0.16   0.01  -0.00
   5   6     0.00  -0.00  -0.00    -0.09  -0.00   0.01    -0.06  -0.07  -0.01
   6   6    -0.00  -0.00  -0.00    -0.03   0.03   0.01     0.06  -0.13  -0.02
   7   6    -0.00   0.00   0.00     0.00  -0.09  -0.01     0.02  -0.00  -0.00
   8   6    -0.00   0.00   0.00     0.03   0.02   0.00     0.06   0.13   0.01
   9   6    -0.00   0.00   0.00     0.09  -0.01  -0.01    -0.07   0.07   0.01
  10   6    -0.01  -0.02   0.03     0.00   0.00   0.00    -0.04  -0.01  -0.00
  11   6    -0.02   0.02  -0.03     0.00   0.00  -0.00    -0.01   0.00  -0.01
  12   6     0.03   0.02  -0.02     0.00   0.00  -0.00     0.01  -0.00   0.00
  13   6    -0.05  -0.06   0.08     0.00  -0.00   0.00    -0.02   0.00  -0.01
  14   6     0.01  -0.03   0.04     0.00  -0.00   0.00     0.01  -0.00   0.00
  15   6    -0.00  -0.05   0.08    -0.00  -0.00   0.00     0.00  -0.00   0.00
  16   6    -0.07   0.04  -0.08    -0.00   0.00  -0.00    -0.00   0.01  -0.01
  17   6     0.01   0.01  -0.02    -0.00  -0.00   0.00     0.01   0.01  -0.01
  18   6    -0.08   0.04  -0.07    -0.00   0.00  -0.00    -0.02  -0.02   0.02
  19   6     0.06  -0.01   0.02     0.00  -0.00   0.00     0.00  -0.00   0.00
  20   1     0.00   0.00  -0.00     0.00  -0.00   0.00    -0.01   0.00  -0.01
  21   1     0.00  -0.00  -0.00     0.00  -0.00   0.00    -0.01   0.01  -0.02
  22   1    -0.00  -0.00   0.00     0.00  -0.00   0.00    -0.00   0.01  -0.02
  23   1    -0.00  -0.00   0.00     0.14   0.10  -0.00    -0.42  -0.27   0.00
  24   1     0.01  -0.00  -0.00    -0.40   0.23   0.04     0.34  -0.21  -0.04
  25   1    -0.00   0.01   0.00     0.01  -0.72  -0.07     0.00  -0.02  -0.00
  26   1    -0.00  -0.00  -0.00     0.38   0.22   0.00     0.38   0.25   0.01
  27   1    -0.00   0.00   0.00    -0.11   0.07   0.01    -0.44   0.25   0.05
  28   1     0.01  -0.00   0.01     0.00  -0.00   0.00    -0.02   0.01  -0.02
  29   1     0.10   0.03  -0.02    -0.00  -0.00   0.00     0.05   0.01  -0.01
  30   1     0.35   0.08  -0.06     0.01   0.00  -0.00    -0.02  -0.01   0.01
  31   1    -0.11  -0.29   0.42    -0.00  -0.01   0.01     0.01   0.02  -0.03
  32   1    -0.42   0.20  -0.37    -0.01   0.00  -0.00     0.01  -0.00   0.01
  33   1     0.38   0.10  -0.08     0.00   0.00  -0.00     0.03   0.01  -0.01
  34   1     0.09   0.02  -0.01    -0.00  -0.00   0.00     0.08   0.02  -0.01
                     58                     59                     60
                        a                      a                      a 
 Frequencies --  1206.3998              1224.3196              1250.0185
 Red. masses --     5.2356                 5.5198                 9.8249
 Frc consts  --     0.0000                 0.0000                 0.0000
 IR Inten    --    66.9714                 3.3670               205.7749
 Raman Activ --     0.0000                 0.0000                 0.0000
 Depolar     --     0.0000                 0.0000                 0.0000
 Atom AN      X      Y      Z        X      Y      Z        X      Y      Z
   1   6     0.12  -0.03   0.10     0.01  -0.00   0.01     0.03  -0.05   0.09
   2   6    -0.24   0.07  -0.20    -0.01   0.02  -0.04    -0.09   0.15  -0.32
   3   7     0.05  -0.02   0.05     0.02  -0.01   0.01     0.27  -0.05   0.09
   4   6    -0.08  -0.02  -0.01    -0.05  -0.00  -0.00    -0.52  -0.05  -0.00
   5   6    -0.03  -0.00   0.00    -0.01   0.00   0.00    -0.14  -0.01   0.01
   6   6     0.03   0.01   0.00     0.01   0.01   0.00     0.09   0.15   0.01
   7   6     0.01   0.00  -0.00     0.01  -0.00  -0.00     0.07   0.00  -0.00
   8   6     0.03  -0.00  -0.00     0.01  -0.01  -0.00     0.11  -0.11  -0.01
   9   6    -0.03   0.01   0.00    -0.01  -0.00   0.00    -0.13   0.02   0.00
  10   6     0.10   0.05  -0.06     0.01   0.01  -0.01     0.21  -0.05   0.13
  11   6     0.02  -0.01   0.03    -0.02  -0.11   0.16     0.02   0.02  -0.03
  12   6    -0.04  -0.03   0.04     0.04  -0.03   0.05     0.04   0.07  -0.10
  13   6     0.10   0.02  -0.01     0.52   0.11  -0.08    -0.13  -0.06   0.07
  14   6    -0.06   0.00  -0.01    -0.03   0.06  -0.09     0.05   0.01  -0.00
  15   6    -0.02   0.01  -0.02    -0.13   0.06  -0.11     0.03  -0.02   0.04
  16   6    -0.02  -0.07   0.10     0.02  -0.01   0.02    -0.01   0.05  -0.08
  17   6    -0.04  -0.07   0.11    -0.10  -0.03   0.03     0.00   0.03  -0.05
  18   6     0.33   0.15  -0.17     0.05   0.00   0.01    -0.22  -0.08   0.08
  19   6     0.03   0.03  -0.04    -0.12  -0.00  -0.02     0.06  -0.00   0.01
  20   1    -0.03  -0.03  -0.00     0.00   0.00   0.00     0.03  -0.01   0.04
  21   1    -0.04   0.01   0.03     0.00  -0.00   0.00     0.02  -0.01   0.05
  22   1     0.02  -0.03   0.09     0.00  -0.01   0.02     0.00  -0.03   0.07
  23   1    -0.05  -0.02  -0.00    -0.00   0.00  -0.00     0.07   0.07  -0.01
  24   1     0.10  -0.05  -0.01     0.03  -0.01  -0.00     0.27  -0.09  -0.02
  25   1     0.00   0.00  -0.00     0.00   0.00  -0.00     0.02  -0.01  -0.00
  26   1     0.09   0.05  -0.00     0.03   0.01  -0.00     0.21   0.07  -0.01
  27   1    -0.07   0.04   0.01    -0.00  -0.00   0.00     0.00  -0.03   0.00
  28   1     0.05  -0.02   0.05    -0.24   0.08  -0.17     0.02   0.00  -0.00
  29   1    -0.12  -0.03   0.03    -0.40  -0.11   0.10    -0.05   0.01  -0.02
  30   1     0.15   0.04  -0.04    -0.36  -0.07   0.04    -0.04  -0.01   0.01
  31   1    -0.04  -0.08   0.12    -0.12  -0.19   0.27     0.02   0.03  -0.04
  32   1    -0.16   0.05  -0.10    -0.00  -0.00  -0.00     0.11  -0.04   0.07
  33   1    -0.33  -0.10   0.10     0.17   0.04  -0.03     0.17   0.05  -0.05
  34   1    -0.56  -0.12   0.08     0.15   0.04  -0.04     0.02   0.00   0.01
                     61                     62                     63
                        a                      a                      a 
 Frequencies --  1263.9523              1277.0938              1286.7136
 Red. masses --     4.5909                 4.1078                 9.8519
 Frc consts  --     0.0000                 0.0000                 0.0000
 IR Inten    --     2.8626                 3.2492                18.1071
 Raman Activ --     0.0000                 0.0000                 0.0000
 Depolar     --     0.0000                 0.0000                 0.0000
 Atom AN      X      Y      Z        X      Y      Z        X      Y      Z
   1   6    -0.03   0.00  -0.01    -0.01  -0.01   0.00     0.12  -0.01   0.04
   2   6     0.05   0.01  -0.01     0.04   0.02  -0.02    -0.47   0.04  -0.16
   3   7     0.03  -0.01   0.01     0.05  -0.05   0.01    -0.14  -0.01   0.02
   4   6    -0.07   0.00   0.00    -0.10   0.40   0.04     0.32   0.05  -0.03
   5   6    -0.02  -0.00   0.00     0.08  -0.01  -0.00     0.13   0.04  -0.00
   6   6     0.01   0.02   0.00     0.14  -0.11  -0.02    -0.04  -0.12  -0.01
   7   6     0.01  -0.00  -0.00     0.01  -0.08  -0.01    -0.06  -0.02   0.00
   8   6     0.01  -0.02  -0.00    -0.11  -0.16  -0.01    -0.07   0.08   0.01
   9   6    -0.02   0.00   0.00    -0.13  -0.01   0.01     0.09  -0.02  -0.00
  10   6    -0.03  -0.03   0.05    -0.02   0.03  -0.03     0.27  -0.15   0.28
  11   6     0.05  -0.02   0.03    -0.00  -0.00   0.00     0.02   0.01  -0.01
  12   6    -0.00  -0.06   0.10    -0.01  -0.01   0.01     0.13   0.09  -0.12
  13   6    -0.11   0.18  -0.29     0.01   0.00   0.00    -0.14  -0.04   0.04
  14   6     0.08  -0.04   0.08    -0.01  -0.00   0.00     0.08   0.03  -0.03
  15   6    -0.02  -0.04   0.06     0.00   0.00  -0.01    -0.01  -0.05   0.08
  16   6     0.05  -0.00   0.01     0.01  -0.00   0.01    -0.08   0.05  -0.08
  17   6    -0.01  -0.06   0.08    -0.01   0.00  -0.00     0.06   0.01  -0.00
  18   6    -0.14   0.15  -0.26     0.01   0.00  -0.00    -0.16  -0.04   0.03
  19   6     0.08  -0.05   0.10    -0.02  -0.01   0.01     0.19   0.07  -0.09
  20   1     0.02   0.02   0.00     0.00   0.01  -0.00    -0.05  -0.02  -0.03
  21   1     0.02  -0.01  -0.01     0.01  -0.00   0.01    -0.06   0.01   0.01
  22   1    -0.01  -0.01   0.02    -0.00   0.01  -0.01     0.01  -0.04   0.14
  23   1     0.01   0.01  -0.00    -0.38  -0.24  -0.00    -0.12  -0.09  -0.00
  24   1     0.03  -0.01  -0.00    -0.26   0.14   0.03    -0.19   0.06   0.01
  25   1     0.00   0.00  -0.00     0.00   0.23   0.02    -0.02   0.04   0.00
  26   1     0.03   0.01  -0.00     0.33   0.17  -0.00    -0.09  -0.02   0.00
  27   1     0.01  -0.01  -0.00     0.41  -0.25  -0.05    -0.02   0.03  -0.00
  28   1     0.02  -0.01   0.02     0.02  -0.01   0.02    -0.12   0.06  -0.11
  29   1    -0.38  -0.11   0.10     0.03   0.01  -0.00    -0.24  -0.04   0.02
  30   1     0.39   0.08  -0.05    -0.00  -0.00   0.00     0.00   0.00  -0.00
  31   1    -0.00  -0.01   0.01     0.00  -0.00   0.00     0.01   0.01  -0.02
  32   1     0.04  -0.01   0.03    -0.01   0.00  -0.00     0.07  -0.03   0.06
  33   1    -0.34  -0.10   0.09     0.00   0.00  -0.00     0.05   0.01  -0.01
  34   1     0.45   0.09  -0.05    -0.01  -0.00   0.00    -0.01   0.01  -0.01
                     64                     65                     66
                        a                      a                      a 
 Frequencies --  1315.6357              1327.4764              1372.5916
 Red. masses --    11.3391                 7.4211                10.5143
 Frc consts  --     0.0000                 0.0000                 0.0000
 IR Inten    --     4.9447                 3.6221                10.1053
 Raman Activ --     0.0000                 0.0000                 0.0000
 Depolar     --     0.0000                 0.0000                 0.0000
 Atom AN      X      Y      Z        X      Y      Z        X      Y      Z
   1   6     0.00  -0.01  -0.00    -0.02   0.00  -0.02    -0.03  -0.01   0.01
   2   6    -0.01   0.01  -0.02     0.01   0.02  -0.03     0.15  -0.01   0.05
   3   7    -0.00  -0.00   0.01     0.07   0.01  -0.01     0.05   0.01  -0.01
   4   6    -0.01   0.41   0.04    -0.05   0.01  -0.00    -0.04   0.00   0.01
   5   6    -0.35  -0.24  -0.00    -0.02  -0.01   0.00    -0.03  -0.03  -0.00
   6   6     0.27  -0.16  -0.03     0.01   0.01   0.00    -0.01   0.03   0.00
   7   6    -0.00   0.45   0.04     0.01   0.01   0.00     0.02   0.00  -0.00
   8   6    -0.26  -0.16  -0.00     0.00  -0.02  -0.00     0.01  -0.03  -0.00
   9   6     0.36  -0.23  -0.04    -0.01   0.00   0.00    -0.04   0.02   0.00
  10   6     0.01   0.00   0.01    -0.07  -0.13   0.20    -0.27  -0.09   0.09
  11   6    -0.00  -0.00  -0.00     0.17  -0.03   0.08    -0.24   0.02  -0.08
  12   6     0.00   0.00  -0.00     0.03   0.13  -0.19     0.27  -0.02   0.07
  13   6    -0.00   0.00  -0.00     0.03  -0.11   0.18    -0.03   0.02  -0.03
  14   6     0.01   0.00  -0.00    -0.27   0.01  -0.07     0.32   0.16  -0.19
  15   6    -0.00  -0.00   0.00     0.01  -0.05   0.08    -0.23  -0.14   0.18
  16   6    -0.00   0.00  -0.00     0.09  -0.09   0.15    -0.26  -0.01  -0.04
  17   6    -0.00  -0.00   0.00     0.15   0.12  -0.15     0.44   0.05  -0.01
  18   6    -0.01  -0.00  -0.00     0.24  -0.06   0.14    -0.04  -0.05   0.07
  19   6     0.01   0.00  -0.00    -0.30   0.05  -0.14     0.15   0.10  -0.12
  20   1     0.00   0.00  -0.00     0.03  -0.01   0.02    -0.00   0.02  -0.01
  21   1    -0.00  -0.00   0.01     0.02  -0.01   0.03     0.00  -0.00  -0.02
  22   1    -0.00   0.01   0.01    -0.01  -0.01   0.03     0.00   0.03  -0.07
  23   1     0.03   0.01  -0.00     0.01   0.01  -0.00     0.03   0.02   0.00
  24   1     0.12  -0.07  -0.01     0.02  -0.01  -0.00     0.04  -0.01  -0.00
  25   1     0.00  -0.12  -0.01     0.00  -0.00  -0.00     0.01  -0.00  -0.00
  26   1    -0.13  -0.08   0.00     0.02   0.00  -0.00     0.03   0.01  -0.00
  27   1    -0.05   0.02   0.00     0.01  -0.01  -0.00     0.03  -0.02  -0.00
  28   1    -0.00   0.00   0.00    -0.20   0.11  -0.20    -0.04  -0.01   0.02
  29   1    -0.00  -0.00   0.00    -0.09   0.01  -0.03    -0.06  -0.04   0.05
  30   1    -0.00  -0.00   0.00     0.11   0.05  -0.05    -0.17  -0.02  -0.01
  31   1    -0.00  -0.00   0.00     0.07   0.16  -0.23    -0.06  -0.02   0.02
  32   1     0.01  -0.00   0.00    -0.26   0.11  -0.21    -0.13   0.02  -0.06
  33   1     0.00   0.00  -0.00    -0.19  -0.03   0.01    -0.19  -0.06   0.06
  34   1    -0.01  -0.00   0.00     0.20   0.08  -0.09    -0.12  -0.01  -0.01
                     67                     68                     69
                        a                      a                      a 
 Frequencies --  1375.6098              1400.9863              1425.0169
 Red. masses --     3.2861                 9.4213                10.4285
 Frc consts  --     0.0000                 0.0000                 0.0000
 IR Inten    --    19.8514                 0.4385                17.9637
 Raman Activ --     0.0000                 0.0000                 0.0000
 Depolar     --     0.0000                 0.0000                 0.0000
 Atom AN      X      Y      Z        X      Y      Z        X      Y      Z
   1   6    -0.08   0.19  -0.39     0.02   0.02  -0.02     0.00   0.01  -0.02
   2   6     0.03  -0.02   0.05     0.02  -0.02   0.03     0.08  -0.02   0.03
   3   7    -0.01   0.00  -0.00    -0.03   0.00  -0.00    -0.03  -0.01   0.01
   4   6     0.01  -0.00  -0.00     0.01  -0.00   0.00     0.02   0.01   0.00
   5   6    -0.00   0.00   0.00     0.01   0.01  -0.00    -0.00  -0.01  -0.00
   6   6     0.00   0.00   0.00     0.00  -0.01  -0.00    -0.01   0.01   0.00
   7   6     0.00  -0.00  -0.00    -0.00  -0.00   0.00     0.01   0.00   0.00
   8   6    -0.01  -0.00  -0.00     0.00   0.01   0.00     0.01  -0.01  -0.00
   9   6    -0.00   0.00   0.00     0.01  -0.01  -0.00    -0.02   0.00   0.00
  10   6    -0.03  -0.01   0.01     0.03   0.19  -0.29    -0.14   0.09  -0.17
  11   6    -0.02   0.02  -0.03     0.13  -0.12   0.21    -0.23  -0.08   0.09
  12   6    -0.01  -0.01   0.02    -0.02  -0.01   0.01     0.38   0.07  -0.04
  13   6    -0.00  -0.00   0.00    -0.07   0.22  -0.36     0.23  -0.11   0.21
  14   6     0.04   0.01  -0.00    -0.01   0.01  -0.02    -0.31  -0.01  -0.05
  15   6    -0.01   0.01  -0.02    -0.01  -0.16   0.25     0.02  -0.08   0.12
  16   6    -0.03  -0.00   0.00    -0.06   0.09  -0.15     0.23   0.02   0.01
  17   6     0.02  -0.01   0.02     0.05   0.05  -0.07    -0.18   0.01  -0.05
  18   6     0.01   0.02  -0.02     0.06  -0.26   0.41    -0.34   0.05  -0.14
  19   6     0.02   0.01  -0.01    -0.09  -0.03   0.03     0.33   0.01   0.04
  20   1     0.16  -0.39   0.32    -0.02  -0.06   0.02    -0.02  -0.04   0.01
  21   1     0.11   0.02   0.52    -0.03   0.01   0.05    -0.01   0.01   0.04
  22   1    -0.03  -0.25   0.41     0.01  -0.01  -0.00     0.00  -0.01  -0.02
  23   1     0.00   0.00   0.00    -0.00  -0.00   0.00     0.01   0.00   0.00
  24   1    -0.00   0.00   0.00    -0.01   0.00   0.00     0.01  -0.01  -0.00
  25   1     0.00   0.00   0.00    -0.00  -0.00   0.00     0.00  -0.01  -0.00
  26   1     0.00   0.00   0.00    -0.01  -0.00   0.00     0.00  -0.00  -0.00
  27   1     0.01  -0.00  -0.00    -0.01   0.00   0.00     0.01  -0.01  -0.00
  28   1     0.02  -0.01   0.01    -0.05   0.01  -0.02    -0.10  -0.01  -0.00
  29   1     0.03   0.00  -0.00    -0.22  -0.05   0.04    -0.12  -0.04   0.04
  30   1    -0.04  -0.01   0.01     0.23   0.06  -0.05     0.12   0.05  -0.05
  31   1    -0.01  -0.02   0.03     0.04   0.07  -0.11     0.07   0.13  -0.19
  32   1     0.00  -0.01   0.01     0.01   0.01  -0.02    -0.00   0.04  -0.06
  33   1    -0.01  -0.01   0.01     0.19   0.05  -0.05     0.01   0.02  -0.03
  34   1    -0.01   0.00  -0.00    -0.22  -0.06   0.05    -0.15  -0.05   0.05
                     70                     71                     72
                        a                      a                      a 
 Frequencies --  1432.2504              1448.6597              1466.7968
 Red. masses --     9.0141                 9.6283                 8.6433
 Frc consts  --     0.0000                 0.0000                 0.0000
 IR Inten    --     7.3069                18.3561                11.4355
 Raman Activ --     0.0000                 0.0000                 0.0000
 Depolar     --     0.0000                 0.0000                 0.0000
 Atom AN      X      Y      Z        X      Y      Z        X      Y      Z
   1   6    -0.00  -0.00   0.00    -0.02   0.00  -0.00     0.07  -0.03  -0.02
   2   6     0.01  -0.00   0.00     0.10  -0.02   0.05    -0.14  -0.03   0.03
   3   7    -0.01   0.05   0.00     0.02   0.02  -0.02    -0.07   0.02  -0.03
   4   6     0.01  -0.36  -0.03     0.10  -0.01  -0.00     0.41   0.02  -0.02
   5   6    -0.30   0.12   0.02    -0.09  -0.08  -0.00    -0.17  -0.24  -0.02
   6   6     0.40   0.02  -0.02    -0.04   0.08   0.01    -0.22   0.22   0.03
   7   6     0.01  -0.25  -0.02     0.08  -0.01  -0.00     0.23   0.02  -0.01
   8   6    -0.40   0.00   0.02    -0.07  -0.08  -0.00    -0.19  -0.24  -0.01
   9   6     0.29   0.14  -0.00    -0.07   0.08   0.01    -0.19   0.23   0.04
  10   6     0.01  -0.00  -0.01    -0.37  -0.08   0.06     0.14   0.01   0.01
  11   6    -0.01   0.00  -0.00     0.12  -0.06   0.12    -0.02   0.03  -0.04
  12   6     0.00  -0.00   0.00     0.18   0.09  -0.11    -0.08  -0.03   0.03
  13   6     0.02   0.00   0.00    -0.28  -0.08   0.07     0.08   0.04  -0.04
  14   6    -0.00   0.00  -0.01    -0.07  -0.08   0.11     0.01   0.01  -0.02
  15   6    -0.01  -0.01   0.01     0.20   0.06  -0.06    -0.05  -0.01   0.01
  16   6     0.01  -0.00   0.01    -0.22   0.10  -0.19     0.08  -0.03   0.05
  17   6     0.00   0.01  -0.01    -0.13  -0.13   0.17     0.01   0.03  -0.05
  18   6    -0.02  -0.00   0.00     0.33   0.10  -0.10    -0.09  -0.04   0.04
  19   6     0.00  -0.00   0.01     0.10   0.10  -0.13    -0.02  -0.02   0.03
  20   1     0.02   0.00   0.01    -0.00   0.00  -0.00    -0.01  -0.07   0.03
  21   1    -0.02   0.00  -0.01     0.00  -0.00  -0.00    -0.19   0.04   0.02
  22   1    -0.00   0.02   0.00     0.00   0.01  -0.03    -0.02   0.15   0.01
  23   1     0.08   0.14   0.01     0.09   0.04   0.00     0.22   0.09   0.00
  24   1    -0.15   0.16   0.02     0.08  -0.02  -0.01     0.22  -0.09  -0.02
  25   1    -0.00   0.35   0.04     0.02   0.01   0.00     0.07  -0.01  -0.00
  26   1     0.15   0.16   0.01     0.08   0.04  -0.00     0.21   0.09  -0.00
  27   1    -0.07   0.13   0.02     0.08  -0.03  -0.01     0.23  -0.09  -0.03
  28   1     0.00  -0.00   0.00    -0.15   0.07  -0.13     0.04  -0.01   0.03
  29   1     0.00  -0.00   0.00    -0.15  -0.02   0.01     0.05   0.01  -0.00
  30   1     0.00   0.00  -0.00     0.05  -0.01   0.02    -0.01   0.00  -0.01
  31   1     0.00   0.01  -0.01     0.03  -0.05   0.09    -0.01   0.01  -0.02
  32   1    -0.01   0.00  -0.01     0.18  -0.09   0.16    -0.04   0.02  -0.04
  33   1    -0.01  -0.00  -0.00     0.17   0.01   0.01    -0.03   0.00  -0.01
  34   1     0.00  -0.00   0.00    -0.08   0.00  -0.02     0.04   0.00   0.00
                     73                     74                     75
                        a                      a                      a 
 Frequencies --  1472.8997              1473.9534              1499.6839
 Red. masses --     2.1780                 1.7283                10.6963
 Frc consts  --     0.0000                 0.0000                 0.0000
 IR Inten    --    14.1583                 7.6938                 6.5889
 Raman Activ --     0.0000                 0.0000                 0.0000
 Depolar     --     0.0000                 0.0000                 0.0000
 Atom AN      X      Y      Z        X      Y      Z        X      Y      Z
   1   6    -0.16   0.12   0.06    -0.13  -0.16  -0.11    -0.00   0.00   0.00
   2   6    -0.05   0.01   0.00     0.02  -0.02  -0.02    -0.02   0.01  -0.01
   3   7    -0.06  -0.01   0.02    -0.05  -0.01   0.03     0.04   0.01  -0.01
   4   6     0.14  -0.00  -0.01     0.03   0.00  -0.00    -0.03   0.00  -0.00
   5   6    -0.05  -0.06  -0.00     0.01  -0.00  -0.00     0.00   0.01   0.00
   6   6    -0.05   0.05   0.01    -0.01  -0.00   0.00     0.01  -0.00  -0.00
   7   6     0.06   0.00  -0.00    -0.00   0.01   0.00    -0.01  -0.00   0.00
   8   6    -0.06  -0.06  -0.00     0.01   0.00  -0.00     0.01   0.00   0.00
   9   6    -0.04   0.06   0.01    -0.01  -0.00   0.00     0.01  -0.01  -0.00
  10   6     0.05   0.01  -0.02    -0.00   0.02  -0.02     0.02  -0.19   0.30
  11   6    -0.01   0.00  -0.00    -0.02  -0.00   0.00    -0.22   0.15  -0.27
  12   6    -0.01  -0.01   0.01     0.01  -0.00   0.01    -0.06  -0.12   0.17
  13   6     0.03   0.01  -0.01     0.02   0.00  -0.00     0.35   0.10  -0.10
  14   6    -0.00   0.01  -0.01    -0.01   0.01  -0.01    -0.22   0.04  -0.10
  15   6    -0.02  -0.02   0.02    -0.00  -0.02   0.03     0.02  -0.20   0.31
  16   6     0.01   0.00   0.00    -0.01   0.01  -0.02    -0.08   0.15  -0.25
  17   6     0.00   0.01  -0.01    -0.01  -0.00   0.01    -0.16  -0.10   0.13
  18   6    -0.02  -0.02   0.02     0.01  -0.01   0.01     0.23   0.04  -0.02
  19   6    -0.00  -0.00   0.00     0.01   0.01  -0.01    -0.06   0.07  -0.12
  20   1    -0.03   0.27  -0.16     0.57   0.39   0.14    -0.02  -0.01  -0.01
  21   1     0.64  -0.12  -0.13     0.08  -0.04  -0.29    -0.01   0.00   0.01
  22   1     0.07  -0.57   0.02    -0.13   0.30   0.49     0.00  -0.00  -0.02
  23   1     0.06   0.03   0.00    -0.00  -0.00   0.00    -0.01  -0.00  -0.00
  24   1     0.05  -0.02  -0.00     0.00  -0.00  -0.00    -0.00   0.00   0.00
  25   1     0.02   0.01  -0.00    -0.00  -0.01  -0.00    -0.00   0.00   0.00
  26   1     0.05   0.02  -0.00    -0.01  -0.01   0.00    -0.00  -0.00  -0.00
  27   1     0.05  -0.02  -0.00     0.00  -0.00  -0.00    -0.01   0.00   0.00
  28   1     0.01  -0.01   0.01     0.00  -0.00   0.01     0.10  -0.03   0.07
  29   1     0.01   0.00   0.00    -0.01  -0.00   0.00     0.12  -0.00   0.02
  30   1     0.00   0.00  -0.01     0.01   0.01  -0.01     0.13   0.06  -0.06
  31   1     0.00   0.01  -0.01     0.01   0.01  -0.01     0.06   0.09  -0.12
  32   1    -0.01   0.01  -0.01     0.01  -0.00   0.00     0.10  -0.02   0.04
  33   1    -0.00   0.00  -0.00     0.01   0.00  -0.00     0.14   0.02  -0.00
  34   1    -0.05  -0.01   0.01    -0.06  -0.02   0.00     0.05   0.03  -0.04
                     76                     77                     78
                        a                      a                      a 
 Frequencies --  1562.0163              1567.5444              1593.1623
 Red. masses --    11.6437                11.4173                11.4738
 Frc consts  --     0.0000                 0.0000                 0.0000
 IR Inten    --     0.6949                 2.6897               153.8288
 Raman Activ --     0.0000                 0.0000                 0.0000
 Depolar     --     0.0000                 0.0000                 0.0000
 Atom AN      X      Y      Z        X      Y      Z        X      Y      Z
   1   6    -0.01  -0.00   0.00     0.00   0.00   0.00     0.00  -0.00   0.01
   2   6     0.03   0.01  -0.01     0.00  -0.00   0.00     0.03   0.03  -0.07
   3   7     0.03   0.00  -0.00     0.00   0.02  -0.00    -0.06  -0.02   0.05
   4   6    -0.02   0.01   0.00     0.01  -0.43  -0.04     0.22   0.03  -0.01
   5   6    -0.02  -0.00   0.00     0.14   0.26   0.02    -0.40  -0.11   0.01
   6   6     0.02  -0.00  -0.00     0.14  -0.32  -0.04     0.41  -0.11  -0.03
   7   6    -0.01  -0.01  -0.00    -0.02   0.58   0.06    -0.20  -0.03   0.01
   8   6     0.02   0.02   0.00    -0.07  -0.31  -0.03     0.41   0.15  -0.01
   9   6    -0.01  -0.01  -0.00    -0.19   0.26   0.04    -0.38   0.07   0.03
  10   6    -0.16  -0.18   0.26    -0.00  -0.01   0.00    -0.10  -0.04   0.05
  11   6    -0.17   0.09  -0.17    -0.01   0.00  -0.00     0.18  -0.01   0.05
  12   6     0.13  -0.05   0.10     0.01  -0.00   0.00    -0.22  -0.02  -0.01
  13   6    -0.09   0.19  -0.31    -0.00   0.00  -0.01     0.10   0.01  -0.00
  14   6    -0.07  -0.12   0.17    -0.00  -0.00   0.00    -0.01   0.01  -0.02
  15   6     0.05   0.20  -0.29     0.00   0.00  -0.01    -0.01  -0.02   0.03
  16   6     0.26  -0.13   0.24     0.00  -0.00   0.00    -0.01   0.01  -0.02
  17   6    -0.18   0.06  -0.13    -0.00   0.00  -0.00     0.03   0.00  -0.00
  18   6     0.02  -0.20   0.31     0.00  -0.00   0.01    -0.10  -0.00  -0.02
  19   6     0.22   0.14  -0.18     0.00   0.00  -0.00     0.15   0.04  -0.04
  20   1     0.01   0.01   0.00    -0.00  -0.00   0.00    -0.01  -0.01   0.00
  21   1     0.02  -0.00  -0.01    -0.00   0.00  -0.00    -0.00   0.00   0.01
  22   1    -0.00  -0.00  -0.00     0.00  -0.00  -0.01     0.00   0.00  -0.01
  23   1    -0.00   0.00   0.00    -0.09  -0.01   0.00     0.06   0.07   0.01
  24   1    -0.00   0.00   0.00    -0.08  -0.02   0.00    -0.08   0.07   0.01
  25   1    -0.00   0.00   0.00    -0.00  -0.16  -0.01    -0.05   0.01   0.00
  26   1    -0.01  -0.00  -0.00     0.07  -0.03  -0.01    -0.08  -0.07  -0.00
  27   1    -0.00  -0.00   0.00     0.09  -0.02  -0.01     0.05  -0.07  -0.01
  28   1     0.01  -0.01   0.02    -0.00  -0.00   0.00    -0.01   0.03  -0.04
  29   1    -0.03  -0.03   0.04    -0.00  -0.00   0.00     0.04   0.02  -0.02
  30   1     0.05  -0.01   0.03     0.00  -0.00   0.00     0.00   0.00  -0.01
  31   1    -0.02  -0.03   0.05    -0.00  -0.00   0.00     0.00   0.01  -0.01
  32   1    -0.05   0.03  -0.05    -0.00   0.00  -0.00    -0.00   0.00  -0.00
  33   1     0.02   0.03  -0.05     0.00   0.00  -0.00    -0.01  -0.00   0.00
  34   1    -0.11  -0.00  -0.02    -0.00  -0.00  -0.00    -0.04  -0.01   0.00
                     79                     80                     81
                        a                      a                      a 
 Frequencies --  1600.2171              1607.0030              1698.4199
 Red. masses --    11.5173                11.3917                12.7982
 Frc consts  --     0.0000                 0.0000                 0.0000
 IR Inten    --     0.3119                 0.8165               325.2956
 Raman Activ --     0.0000                 0.0000                 0.0000
 Depolar     --     0.0000                 0.0000                 0.0000
 Atom AN      X      Y      Z        X      Y      Z        X      Y      Z
   1   6    -0.01  -0.01   0.01     0.00  -0.00   0.00    -0.00  -0.01   0.04
   2   6     0.06   0.03  -0.04    -0.01   0.01  -0.01     0.43   0.25  -0.50
   3   7    -0.00  -0.01   0.02    -0.02  -0.01   0.01    -0.50  -0.20   0.39
   4   6    -0.10  -0.02   0.01     0.01   0.00  -0.00     0.11  -0.01   0.00
   5   6     0.18   0.06  -0.00     0.00  -0.00  -0.00     0.06   0.01  -0.00
   6   6    -0.18   0.04   0.01    -0.00   0.00   0.00    -0.05   0.01   0.00
   7   6     0.08   0.02  -0.00     0.00  -0.00  -0.00     0.02   0.00  -0.00
   8   6    -0.18  -0.07   0.00    -0.00  -0.00   0.00    -0.05  -0.01   0.00
   9   6     0.17  -0.03  -0.01     0.00   0.00   0.00     0.05  -0.01   0.00
  10   6    -0.28  -0.11   0.12     0.08   0.02  -0.02     0.02  -0.01   0.02
  11   6     0.40  -0.03   0.12    -0.09   0.01  -0.03    -0.04   0.02  -0.03
  12   6    -0.48  -0.05  -0.01     0.05  -0.02   0.03     0.04  -0.00   0.01
  13   6     0.21   0.04  -0.02     0.22   0.04  -0.02    -0.03  -0.00  -0.00
  14   6    -0.02   0.02  -0.03    -0.44  -0.16   0.17     0.01   0.00  -0.00
  15   6    -0.02  -0.03   0.04     0.29   0.18  -0.22    -0.00  -0.00   0.00
  16   6    -0.01   0.01  -0.02    -0.40   0.01  -0.09     0.00  -0.00   0.00
  17   6     0.06   0.01  -0.01     0.49   0.06  -0.01    -0.01  -0.00   0.00
  18   6    -0.24  -0.02  -0.02    -0.18  -0.07   0.07     0.05  -0.00   0.01
  19   6     0.37   0.11  -0.11    -0.03  -0.02   0.03    -0.08  -0.01   0.01
  20   1     0.01   0.00   0.01     0.00  -0.00   0.00    -0.00  -0.05   0.03
  21   1     0.01  -0.00   0.00     0.00   0.00   0.00    -0.01   0.00   0.05
  22   1    -0.00   0.00  -0.01     0.00  -0.00   0.00     0.01   0.01  -0.05
  23   1    -0.03  -0.03  -0.00     0.00  -0.00  -0.00    -0.00  -0.01  -0.00
  24   1     0.03  -0.03  -0.00     0.00  -0.00  -0.00     0.00  -0.01   0.00
  25   1     0.02  -0.00  -0.00     0.00   0.00  -0.00     0.01  -0.00  -0.00
  26   1     0.03   0.03   0.00     0.00   0.00   0.00     0.00   0.01  -0.00
  27   1    -0.03   0.03   0.01     0.00   0.00  -0.00    -0.00   0.01  -0.00
  28   1    -0.02   0.05  -0.09     0.01  -0.02   0.03     0.01  -0.00   0.01
  29   1     0.09   0.04  -0.05     0.01  -0.01   0.01    -0.00  -0.00   0.00
  30   1     0.01   0.01  -0.01     0.12   0.01   0.01    -0.00  -0.00   0.00
  31   1    -0.00   0.01  -0.01     0.04  -0.06   0.10    -0.00   0.00  -0.00
  32   1    -0.00   0.00  -0.00     0.03  -0.06   0.10    -0.00   0.00  -0.00
  33   1    -0.03  -0.01   0.00    -0.09  -0.04   0.05     0.00   0.00  -0.00
  34   1    -0.11  -0.02   0.00     0.00  -0.00   0.01     0.02   0.00  -0.00
                     82                     83                     84
                        a                      a                      a 
 Frequencies --  3008.8957              3023.9829              3032.2212
 Red. masses --     1.8479                 1.7156                 1.5799
 Frc consts  --     0.0000                 0.0000                 0.0000
 IR Inten    --    14.0599                20.9275                26.0190
 Raman Activ --     0.0000                 0.0000                 0.0000
 Depolar     --     0.0000                 0.0000                 0.0000
 Atom AN      X      Y      Z        X      Y      Z        X      Y      Z
   1   6    -0.04  -0.27  -0.04    -0.18   0.06   0.17    -0.22  -0.02  -0.06
   2   6    -0.00  -0.01   0.00    -0.01  -0.00   0.01    -0.01   0.00  -0.00
   3   7     0.00   0.00  -0.00     0.00   0.00  -0.00     0.00  -0.00   0.00
   4   6     0.00  -0.00  -0.00     0.00   0.00   0.00     0.00   0.00  -0.00
   5   6    -0.00   0.00   0.00     0.00  -0.00  -0.00    -0.00   0.00   0.00
   6   6     0.00  -0.00   0.00    -0.00  -0.00  -0.00    -0.00  -0.00   0.00
   7   6    -0.00   0.00   0.00    -0.00   0.00   0.00    -0.00  -0.00   0.00
   8   6    -0.00   0.00   0.00    -0.00   0.00   0.00    -0.00   0.00   0.00
   9   6     0.00   0.00   0.00    -0.00  -0.00  -0.00    -0.00  -0.01   0.00
  10   6    -0.00   0.00   0.00    -0.00  -0.00  -0.00     0.00  -0.00  -0.00
  11   6     0.00   0.00  -0.00     0.00   0.00   0.00     0.00   0.00  -0.00
  12   6    -0.00   0.00  -0.00    -0.00   0.00  -0.00    -0.00   0.00  -0.00
  13   6    -0.00   0.00  -0.00    -0.00   0.00  -0.00     0.00  -0.00   0.00
  14   6    -0.00   0.00  -0.00    -0.00   0.00  -0.00    -0.00   0.00  -0.00
  15   6    -0.00   0.00  -0.00    -0.00   0.00  -0.00    -0.00   0.00  -0.00
  16   6    -0.00  -0.00   0.00    -0.00  -0.00   0.00    -0.00  -0.00   0.00
  17   6    -0.00   0.00  -0.00    -0.00   0.00  -0.00     0.00   0.00  -0.00
  18   6     0.00   0.00  -0.00     0.00   0.00  -0.00     0.00   0.00  -0.00
  19   6    -0.00   0.00  -0.00    -0.00   0.00  -0.01    -0.00   0.00  -0.00
  20   1    -0.12   0.06   0.15     0.47  -0.43  -0.68    -0.10   0.06   0.09
  21   1     0.18   0.92  -0.03     0.01   0.20   0.02    -0.06  -0.14  -0.00
  22   1     0.10  -0.02   0.01     0.13   0.03   0.04     0.93   0.15   0.12
  23   1     0.00  -0.00  -0.00    -0.00   0.00   0.00     0.00  -0.00  -0.00
  24   1     0.00   0.00   0.00     0.00   0.00   0.00     0.00   0.00  -0.00
  25   1     0.00   0.00  -0.00     0.00  -0.00  -0.00     0.00  -0.00  -0.00
  26   1     0.00  -0.00  -0.00     0.00  -0.00  -0.00     0.00  -0.01  -0.00
  27   1    -0.01  -0.01  -0.00     0.01   0.01   0.00     0.01   0.02   0.00
  28   1    -0.00  -0.00   0.00    -0.00  -0.00   0.00    -0.00  -0.00   0.00
  29   1    -0.00  -0.00   0.00    -0.00  -0.00   0.00     0.00  -0.00   0.00
  30   1     0.00  -0.00   0.00     0.00  -0.00   0.00     0.00  -0.00   0.00
  31   1     0.00  -0.00   0.00     0.00  -0.00   0.00     0.00  -0.00   0.00
  32   1     0.00   0.00  -0.00     0.00   0.00  -0.00     0.00   0.00  -0.00
  33   1     0.00  -0.00   0.00     0.00  -0.00   0.00     0.00  -0.00   0.00
  34   1     0.01  -0.01   0.01     0.01  -0.01   0.02     0.00  -0.00   0.00
                     85                     86                     87
                        a                      a                      a 
 Frequencies --  3060.5133              3064.0266              3064.8919
 Red. masses --     1.7589                 1.7686                 1.7653
 Frc consts  --     0.0000                 0.0000                 0.0000
 IR Inten    --    18.1744                14.2207                13.6675
 Raman Activ --     0.0000                 0.0000                 0.0000
 Depolar     --     0.0000                 0.0000                 0.0000
 Atom AN      X      Y      Z        X      Y      Z        X      Y      Z
   1   6     0.00  -0.00  -0.00     0.00  -0.00  -0.00    -0.00  -0.00  -0.00
   2   6     0.00  -0.00  -0.00    -0.00  -0.00   0.00     0.00   0.00  -0.00
   3   7    -0.00   0.00   0.00     0.00   0.00  -0.00    -0.00   0.00  -0.00
   4   6    -0.00  -0.00   0.00     0.00  -0.00  -0.00     0.00  -0.00   0.00
   5   6     0.00  -0.01  -0.00     0.05  -0.07  -0.01     0.00  -0.00  -0.00
   6   6    -0.00  -0.01  -0.00     0.11   0.20   0.01     0.00   0.00   0.00
   7   6     0.06   0.00  -0.00    -0.08   0.00   0.00    -0.00   0.00   0.00
   8   6    -0.11   0.18   0.02    -0.01   0.01   0.00     0.00  -0.00  -0.00
   9   6    -0.07  -0.12  -0.01    -0.02  -0.04  -0.00     0.00   0.00   0.00
  10   6    -0.00  -0.00   0.00     0.00   0.00  -0.00    -0.00  -0.00   0.00
  11   6    -0.00  -0.00   0.00    -0.00  -0.00   0.00     0.00   0.00  -0.00
  12   6    -0.00   0.00  -0.00     0.00  -0.00   0.00     0.00  -0.00   0.00
  13   6    -0.00   0.00  -0.00     0.00  -0.00   0.00    -0.00  -0.00   0.00
  14   6    -0.00  -0.00   0.00     0.00  -0.00   0.00     0.01  -0.03   0.04
  15   6    -0.00   0.00  -0.00     0.00  -0.00   0.00    -0.06   0.00  -0.02
  16   6    -0.00  -0.00  -0.00    -0.00  -0.00   0.00     0.09   0.06  -0.07
  17   6     0.00  -0.00   0.00    -0.00   0.00  -0.00     0.06  -0.11   0.17
  18   6    -0.00  -0.00   0.00    -0.00   0.00  -0.00     0.01  -0.00   0.00
  19   6     0.00  -0.00   0.00    -0.00   0.00  -0.00    -0.00   0.01  -0.01
  20   1    -0.00   0.00   0.00    -0.00   0.00   0.00    -0.00  -0.00   0.00
  21   1     0.00   0.01  -0.00     0.00   0.00  -0.00    -0.00  -0.00   0.00
  22   1    -0.02  -0.00  -0.00    -0.00  -0.00  -0.00     0.00   0.00   0.00
  23   1    -0.01   0.02   0.00    -0.18   0.29   0.04    -0.00   0.00   0.00
  24   1     0.02   0.04   0.00    -0.40  -0.72  -0.05    -0.00  -0.00  -0.00
  25   1    -0.25  -0.01   0.01     0.32   0.00  -0.02     0.00   0.00  -0.00
  26   1     0.39  -0.66  -0.09     0.02  -0.03  -0.00    -0.00   0.00   0.00
  27   1     0.26   0.45   0.03     0.07   0.13   0.01    -0.00  -0.00  -0.00
  28   1     0.00   0.00  -0.00    -0.00   0.00  -0.00    -0.00  -0.00   0.00
  29   1     0.00  -0.00   0.00    -0.00   0.00  -0.01    -0.01   0.01  -0.02
  30   1     0.00  -0.00   0.00    -0.00   0.00  -0.00    -0.05   0.09  -0.15
  31   1     0.00  -0.00   0.00    -0.00   0.00  -0.00     0.22  -0.01   0.06
  32   1    -0.00  -0.00   0.00     0.00   0.00  -0.00    -0.34  -0.22   0.27
  33   1    -0.00   0.00  -0.00     0.00  -0.00   0.00    -0.22   0.39  -0.63
  34   1    -0.00   0.00  -0.00     0.00  -0.00   0.00     0.01  -0.03   0.04
                     88                     89                     90
                        a                      a                      a 
 Frequencies --  3066.7852              3070.2461              3071.8136
 Red. masses --     1.7933                 1.7981                 1.8501
 Frc consts  --     0.0000                 0.0000                 0.0000
 IR Inten    --     3.2279                31.2221               100.8796
 Raman Activ --     0.0000                 0.0000                 0.0000
 Depolar     --     0.0000                 0.0000                 0.0000
 Atom AN      X      Y      Z        X      Y      Z        X      Y      Z
   1   6    -0.00  -0.00   0.00     0.00   0.00   0.00    -0.00   0.00   0.00
   2   6    -0.00   0.00  -0.00     0.00   0.00  -0.00    -0.00   0.00  -0.00
   3   7     0.00   0.00  -0.00    -0.00   0.00  -0.00    -0.00  -0.00   0.00
   4   6     0.00   0.00  -0.00     0.00  -0.00  -0.00     0.01  -0.00  -0.00
   5   6    -0.00  -0.00   0.00     0.00  -0.00  -0.00     0.01  -0.03  -0.00
   6   6     0.00   0.00   0.00     0.00   0.00   0.00     0.03   0.05   0.00
   7   6    -0.00  -0.00   0.00    -0.00  -0.00   0.00     0.11  -0.00  -0.01
   8   6     0.00  -0.00  -0.00    -0.00   0.00   0.00    -0.06   0.10   0.01
   9   6    -0.00  -0.00  -0.00     0.00   0.00   0.00     0.11   0.19   0.01
  10   6    -0.00  -0.00   0.00    -0.00  -0.00   0.00     0.00  -0.00  -0.00
  11   6    -0.01  -0.01   0.01    -0.02  -0.01   0.02     0.00   0.00  -0.00
  12   6    -0.04   0.06  -0.10    -0.07   0.12  -0.19     0.00  -0.00   0.00
  13   6    -0.00  -0.00   0.00    -0.01   0.00  -0.01     0.00  -0.00   0.00
  14   6     0.05  -0.10   0.16    -0.02   0.04  -0.06     0.00  -0.00   0.00
  15   6    -0.11   0.00  -0.03     0.08  -0.00   0.02    -0.00   0.00  -0.00
  16   6    -0.00  -0.00   0.00     0.00   0.00   0.00    -0.00  -0.00   0.00
  17   6    -0.02   0.04  -0.06     0.01  -0.02   0.04    -0.00   0.00  -0.00
  18   6    -0.00   0.00  -0.00     0.00  -0.00   0.00    -0.00   0.00  -0.00
  19   6     0.00  -0.00   0.01    -0.00   0.01  -0.01     0.00  -0.00   0.00
  20   1     0.00  -0.00  -0.00     0.00  -0.00   0.00     0.00  -0.00  -0.01
  21   1     0.00   0.00  -0.00     0.00  -0.00   0.00    -0.00  -0.01   0.00
  22   1    -0.00  -0.00  -0.00    -0.00  -0.00  -0.00     0.02   0.00   0.00
  23   1     0.00  -0.00  -0.00    -0.00   0.01   0.00    -0.06   0.11   0.01
  24   1    -0.00  -0.00  -0.00    -0.00  -0.01  -0.00    -0.10  -0.18  -0.01
  25   1     0.00   0.00  -0.00     0.00   0.00  -0.00    -0.38  -0.01   0.02
  26   1    -0.00   0.00   0.00     0.00  -0.01  -0.00     0.20  -0.34  -0.04
  27   1     0.00   0.00   0.00    -0.01  -0.02  -0.00    -0.37  -0.65  -0.05
  28   1     0.05   0.03  -0.04     0.11   0.07  -0.08    -0.01  -0.00   0.00
  29   1     0.12  -0.21   0.35     0.24  -0.42   0.69    -0.00   0.01  -0.01
  30   1    -0.20   0.35  -0.57     0.08  -0.14   0.23    -0.00   0.00  -0.00
  31   1     0.41  -0.02   0.10    -0.28   0.01  -0.07     0.01  -0.00   0.00
  32   1     0.01   0.00  -0.00    -0.00  -0.00   0.00     0.00   0.00  -0.00
  33   1     0.08  -0.14   0.22    -0.05   0.09  -0.14     0.00  -0.00   0.00
  34   1    -0.01   0.01  -0.02     0.01  -0.02   0.03    -0.00   0.00  -0.00
                     91                     92                     93
                        a                      a                      a 
 Frequencies --  3075.9585              3078.0519              3086.0058
 Red. masses --     1.8567                 1.8528                 1.9074
 Frc consts  --     0.0000                 0.0000                 0.0000
 IR Inten    --   116.9782               131.3858               196.6308
 Raman Activ --     0.0000                 0.0000                 0.0000
 Depolar     --     0.0000                 0.0000                 0.0000
 Atom AN      X      Y      Z        X      Y      Z        X      Y      Z
   1   6     0.00  -0.00   0.00    -0.00  -0.00  -0.00     0.00   0.00  -0.00
   2   6    -0.00   0.00  -0.00    -0.00  -0.00   0.00     0.00   0.00  -0.00
   3   7     0.00   0.00  -0.00    -0.00   0.00   0.00    -0.00  -0.00   0.00
   4   6    -0.00  -0.00  -0.00     0.01  -0.00  -0.00     0.00  -0.00  -0.00
   5   6     0.00  -0.00  -0.00     0.11  -0.19  -0.02     0.03  -0.05  -0.01
   6   6     0.00   0.00   0.00    -0.02  -0.04  -0.00    -0.03  -0.05  -0.00
   7   6    -0.00  -0.00   0.00     0.13   0.01  -0.01    -0.08  -0.00   0.00
   8   6     0.00  -0.00  -0.00     0.04  -0.07  -0.01    -0.02   0.03   0.00
   9   6    -0.00  -0.00  -0.00    -0.03  -0.04  -0.00     0.01   0.02   0.00
  10   6     0.00  -0.00   0.00     0.00   0.00   0.00    -0.00   0.00  -0.00
  11   6    -0.00  -0.00   0.00    -0.00  -0.00   0.00    -0.00  -0.00   0.00
  12   6    -0.01   0.01  -0.02     0.00  -0.00   0.00    -0.00   0.01  -0.01
  13   6     0.00   0.00  -0.00     0.00   0.00  -0.00     0.00   0.00  -0.00
  14   6    -0.04   0.07  -0.11     0.00   0.00   0.00    -0.02   0.04  -0.07
  15   6    -0.12   0.00  -0.03    -0.00   0.00  -0.00    -0.16   0.01  -0.04
  16   6     0.12   0.07  -0.09    -0.00  -0.00   0.00    -0.11  -0.07   0.08
  17   6    -0.03   0.06  -0.10     0.00   0.00   0.00     0.02  -0.03   0.05
  18   6    -0.00  -0.00   0.00     0.00  -0.00  -0.00     0.00   0.00  -0.00
  19   6     0.00  -0.00   0.01     0.00  -0.00   0.00    -0.02   0.04  -0.06
  20   1     0.00  -0.00  -0.00    -0.00   0.00   0.00    -0.00   0.00   0.01
  21   1     0.00   0.00  -0.00     0.00   0.00  -0.00    -0.00  -0.01   0.00
  22   1    -0.00  -0.00  -0.00     0.00  -0.00   0.00    -0.00  -0.00  -0.00
  23   1    -0.00   0.00   0.00    -0.39   0.65   0.08    -0.09   0.16   0.02
  24   1    -0.00  -0.00  -0.00     0.08   0.14   0.01     0.08   0.15   0.01
  25   1     0.00   0.00  -0.00    -0.45  -0.01   0.02     0.27   0.00  -0.01
  26   1    -0.00   0.00   0.00    -0.14   0.24   0.03     0.06  -0.11  -0.01
  27   1     0.00   0.00   0.00     0.08   0.14   0.01    -0.04  -0.07  -0.01
  28   1     0.01   0.01  -0.01     0.00   0.00  -0.00     0.01   0.01  -0.01
  29   1     0.02  -0.04   0.06    -0.00   0.00  -0.00     0.01  -0.02   0.03
  30   1     0.13  -0.23   0.38    -0.00   0.00  -0.00     0.08  -0.14   0.23
  31   1     0.44  -0.02   0.11     0.00  -0.00   0.00     0.55  -0.02   0.13
  32   1    -0.41  -0.27   0.33     0.00   0.00  -0.00     0.35   0.23  -0.29
  33   1     0.11  -0.20   0.32     0.00  -0.00   0.00    -0.06   0.10  -0.16
  34   1    -0.01   0.02  -0.03    -0.00   0.00  -0.00     0.07  -0.13   0.21
                     94                     95                     96
                        a                      a                      a 
 Frequencies --  3086.3793              3089.1050              3102.9653
 Red. masses --     1.9113                 1.8256                 1.8501
 Frc consts  --     0.0000                 0.0000                 0.0000
 IR Inten    --    22.5519                35.9899                23.2444
 Raman Activ --     0.0000                 0.0000                 0.0000
 Depolar     --     0.0000                 0.0000                 0.0000
 Atom AN      X      Y      Z        X      Y      Z        X      Y      Z
   1   6    -0.00  -0.00  -0.00    -0.00  -0.00   0.00     0.00   0.00   0.00
   2   6     0.00   0.00  -0.00     0.00  -0.00   0.00     0.00   0.00  -0.00
   3   7    -0.00  -0.00   0.00    -0.00   0.00  -0.00    -0.00  -0.00   0.00
   4   6     0.01  -0.00  -0.00     0.00  -0.00   0.00    -0.00   0.00  -0.00
   5   6     0.06  -0.10  -0.01    -0.00   0.01   0.00    -0.00   0.00   0.00
   6   6    -0.06  -0.10  -0.01     0.00   0.01   0.00     0.00   0.00   0.00
   7   6    -0.17  -0.00   0.01     0.01   0.00  -0.00     0.00   0.00  -0.00
   8   6    -0.04   0.07   0.01     0.00  -0.00  -0.00     0.00  -0.00  -0.00
   9   6     0.03   0.05   0.00    -0.00  -0.00  -0.00    -0.00  -0.00  -0.00
  10   6     0.00  -0.00   0.00     0.01  -0.00   0.00     0.01   0.00  -0.00
  11   6     0.00   0.00  -0.00    -0.01  -0.01   0.01     0.19   0.12  -0.15
  12   6     0.00  -0.00   0.01    -0.00   0.00  -0.01    -0.02   0.03  -0.05
  13   6    -0.00  -0.00   0.00     0.00   0.00  -0.00    -0.00  -0.00   0.00
  14   6     0.01  -0.02   0.03    -0.01   0.02  -0.03    -0.00   0.00  -0.00
  15   6     0.07  -0.00   0.02    -0.05   0.00  -0.01    -0.01   0.00  -0.00
  16   6     0.05   0.03  -0.04    -0.04  -0.02   0.03    -0.00  -0.00   0.00
  17   6    -0.01   0.01  -0.02     0.01  -0.02   0.03     0.00  -0.00   0.00
  18   6    -0.00  -0.00   0.00    -0.00  -0.01   0.01     0.00  -0.00   0.00
  19   6     0.01  -0.02   0.04     0.06  -0.13   0.21     0.00  -0.01   0.01
  20   1    -0.00   0.00   0.00     0.01  -0.01  -0.01     0.00   0.00   0.00
  21   1     0.00   0.00  -0.00     0.00   0.02  -0.00     0.00   0.00   0.00
  22   1     0.01   0.00   0.00     0.01   0.00   0.00    -0.00  -0.00  -0.00
  23   1    -0.21   0.35   0.04     0.01  -0.02  -0.00     0.00  -0.00  -0.00
  24   1     0.18   0.33   0.02    -0.01  -0.02  -0.00    -0.00  -0.00  -0.00
  25   1     0.58   0.01  -0.03    -0.03  -0.00   0.00    -0.01  -0.00   0.00
  26   1     0.14  -0.24  -0.03    -0.01   0.02   0.00    -0.00   0.00   0.00
  27   1    -0.09  -0.16  -0.01     0.01   0.01   0.00     0.00   0.01   0.00
  28   1    -0.01  -0.01   0.01     0.04   0.03  -0.03    -0.67  -0.42   0.53
  29   1    -0.01   0.01  -0.02     0.01  -0.01   0.02     0.04  -0.08   0.13
  30   1    -0.03   0.06  -0.10     0.03  -0.05   0.09     0.01  -0.01   0.01
  31   1    -0.23   0.01  -0.06     0.17  -0.01   0.04     0.02  -0.00   0.00
  32   1    -0.15  -0.10   0.12     0.12   0.08  -0.10     0.01   0.01  -0.01
  33   1     0.02  -0.04   0.07    -0.04   0.07  -0.12    -0.00   0.01  -0.01
  34   1    -0.05   0.09  -0.14    -0.24   0.46  -0.74    -0.01   0.02  -0.04
