34
 energy: -49.114385105519 gnorm: 0.000050364772 xtb: 6.7.1 (edcfbbe)
C            1.18732926253526       -0.56226580021534        1.70092080572646
C            0.76816625687643       -0.00716242991468        0.36591565001864
N            1.58004122175077        0.44068716437168       -0.49958902287011
C            2.95310468823594        0.43248421816121       -0.44869698514293
C            3.64775520421146        1.64350876301063       -0.38234546667173
C            5.02662502656457        1.65948934485677       -0.44488845957789
C            5.73870377579804        0.47954190595640       -0.59519317647788
C            5.05628757756261       -0.72301837380221       -0.67949659954239
C            3.67759284760781       -0.75337204680131       -0.60178389511845
C           -0.66528345447636        0.04910261291260        0.04433375264325
C           -1.07877032520095        0.75105457983271       -1.11420187489138
C           -2.39490854319214        0.82757179712668       -1.45810237140540
C           -3.38863011487949        0.20300002503178       -0.67154532423601
C           -4.75843902024064        0.26000529161865       -0.99845544291687
C           -5.69030924100118       -0.36100739707794       -0.21290404341072
C           -5.29430935106447       -1.06654224800656        0.93468542087054
C           -3.97324187845379       -1.13962578664909        1.27842718219406
C           -2.98662884666667       -0.50907979868134        0.48921736608671
C           -1.61927116207440       -0.56678451156667        0.82352201824476
H            0.63444256414718       -0.07724191303572        2.50313658805923
H            0.98896845887826       -1.63275739126741        1.73979367467860
H            2.25312146079378       -0.40087726708030        1.85373744117269
H            3.08935662587243        2.56124498435427       -0.26574457654632
H            5.55170641078893        2.60221193212374       -0.37935887074041
H            6.81734377285856        0.49805556690121       -0.64952836936574
H            5.60292374701588       -1.64814201244217       -0.79937546542409
H            3.14294816188490       -1.69045914459416       -0.67352048915107
H           -0.31666184075010        1.22512245266068       -1.71298414565658
H           -2.69909413249651        1.36941333960128       -2.34273801903085
H           -5.05933164297951        0.80336047229559       -1.88328844134810
H           -6.73883905993464       -0.31398991951356       -0.46995084227374
H           -6.04421758389656       -1.55129480819499        1.54326503803448
H           -3.66492289092020       -1.68168412524132        2.16164256677229
H           -1.34355797525437       -1.12054947653012        1.70844350849744
