19
image 0
C 1.95292630 -0.85413263 -1.42318158
C 2.08116720 -1.56864296 -0.24216987
C 1.24267258 -1.33223525 0.83539695
C 0.26454744 -0.36013584 0.70334717
N -0.67495039 0.03608006 1.63134703
C -1.46589267 1.09391157 1.07984461
C -0.99190535 1.31229014 -0.34522222
C 0.12142525 0.35663978 -0.49900191
C 0.97093193 0.11821012 -1.55764897
C -2.34145572 0.68825048 -0.06791294
H 2.62164416 -1.05663122 -2.24628607
H 2.85233633 -2.32042106 -0.15604550
H 1.35312403 -1.88316698 1.75774896
H -0.47060202 0.01235630 2.61555398
H -1.76765558 1.88356078 1.75341420
H -0.94444683 2.27777397 -0.82718064
H 0.87083843 0.67695185 -2.47674221
H -2.45838629 -0.36621026 -0.26409632
H -3.21631892 1.28555108 -0.27116461
19
image 1
C 1.78625906 -1.15022532 -1.16196656
C 2.10597942 -1.68821161 0.06551533
C 1.30163294 -1.20991673 1.07732984
C 0.26808115 -0.34505621 0.76573048
N -0.59860093 0.26037433 1.64088884
C -1.60276799 1.15710759 0.86340169
C -0.87797235 1.39874337 -0.43545256
C 0.08087049 0.29328843 -0.45924625
C 0.84086810 -0.20504719 -1.47822755
C -2.38572486 0.73907005 -0.34690071
H 2.39204824 -1.52487233 -1.96650261
H 2.89904311 -2.39987047 0.23427680
H 1.55931728 -1.59357578 2.05145010
H -0.11674048 0.46027866 2.50724806
H -1.94435198 2.04244122 1.39296464
H -0.78325544 2.33886709 -0.96052723
H 0.64592206 0.23820549 -2.44162907
H -2.44054092 -0.28011096 -0.69747113
H -3.13006701 1.46851030 -0.65088204
19
image 2
C 1.55381932 -1.58923361 -0.87163159
C 2.07951923 -1.77122227 0.38033210
C 1.42685662 -0.97026782 1.29594968
C 0.28592931 -0.25251061 0.92193921
N -0.31337279 0.69893111 1.73024304
C -1.75666002 1.15436078 0.71079227
C -0.83144921 1.32878863 -0.44864599
C -0.05080809 0.09841430 -0.39546977
C 0.59788973 -0.70447266 -1.28707690
C -2.38708196 0.96526114 -0.94338812
H 1.99855211 -2.21408920 -1.62540541
H 2.89062675 -2.44648213 0.60080365
H 1.87851958 -1.07445309 2.27150789
H 0.38986029 1.08966008 2.34836834
H -2.20471602 2.07958564 1.06582494
H -0.49732360 2.28456850 -0.85038267
H 0.50842220 -0.49447278 -2.34112491
H -2.60118828 -0.01556482 -1.33892827
H -2.96739528 1.83319874 -1.22370742
19
image 3
C 1.28854483 -1.96552197 -0.49310357
C 2.04741066 -1.80615589 0.63447561
C 1.62057664 -0.71960037 1.36452616
C 0.44445114 -0.04124663 1.02579389
N 0.16299670 1.08419510 1.81197376
C -1.82060606 1.27655091 1.09509819
C -1.27647868 0.97969341 -0.27847373
C -0.22715139 -0.05513917 -0.25290920
C 0.16262571 -1.23801521 -0.86683885
C -1.90001450 1.43587928 -2.25843226
H 1.55065801 -2.86988532 -1.08893076
H 2.85679058 -2.47058449 0.88509857
H 2.26184209 -0.56758616 2.22304073
H 1.01780117 1.58701903 2.04975583
H -2.53502134 2.09516230 0.92151649
H -0.71025685 1.95246137 -0.50176162
H 0.02970222 -1.52032650 -1.94355879
H -2.47261491 0.51133031 -2.30784096
H -2.50125612 2.33176993 -2.01942942
19
image 4
C 1.25896238 -2.00764517 -0.47130978
C 2.03193536 -1.79733716 0.63492166
C 1.62298291 -0.67082377 1.32269975
C 0.46810262 0.02156990 0.94803394
N 0.24000673 1.30128704 1.39312329
C -1.49708312 1.66896050 0.87373974
C -1.52744992 0.59489859 -0.12197338
C -0.25186422 -0.09795617 -0.27419073
C 0.19774362 -1.24517407 -0.90249129
C -1.31809697 1.67216209 -1.92334976
H 1.49277982 -2.89445118 -1.04125591
H 2.84154031 -2.46038279 0.89533925
H 2.27763927 -0.49678636 2.16626148
H 1.02064838 1.68066116 1.89131755
H -2.20974389 2.47859983 0.80345359
H -2.59575891 0.45253337 -0.14548316
H -0.38320817 -1.80852185 -1.62123385
H -1.79353427 1.01875182 -2.67196599
H -1.87560204 2.58965413 -1.75563633
19
image 5
C 0.81187653 -2.24440198 0.11641373
C 1.90622076 -1.80879385 0.82768669
C 1.77159427 -0.45074529 1.06508472
C 0.67057721 0.24407821 0.54737709
N 0.48148639 1.60693568 0.55366746
C -1.44068784 1.80717534 0.12413521
C -1.76306705 0.45761528 -0.09575538
C -0.51044210 -0.28680653 0.02698001
C -0.31810309 -1.59920791 -0.31697960
C -0.77376471 1.69803165 -1.48645419
H 0.83927916 -3.29516046 -0.09852113
H 2.72244250 -2.43083980 1.16186773
H 2.63149368 -0.10036223 1.61876873
H 1.27588790 1.97187359 1.06019449
H -2.29616139 2.46945952 0.20289084
H -2.79487641 0.20082926 -0.31849425
H -1.18688985 -2.07153526 -0.74735378
H -0.87719748 1.15076318 -2.46512671
H -1.14966861 2.68109154 -1.77638162
19
image 6
C 0.50915480 -2.23626821 0.79743745
C 1.77356670 -1.76749900 1.09846839
C 1.82716813 -0.40987337 0.83770500
C 0.72174029 0.23263880 0.26467564
N 0.62098372 1.57708175 -0.05115572
C -1.53686990 1.78678834 -0.38317449
C -1.79790082 0.44094677 -0.25159251
C -0.58987714 -0.26268732 0.16267374
C -0.61786910 -1.62154339 0.30936358
C -0.44720143 1.70879935 -1.49742533
H 0.41152550 -3.28919062 0.97996434
H 2.59772181 -2.34088926 1.49580931
H 2.80669145 -0.01565141 1.06919139
H 1.53397128 1.93946529 0.19113384
H -2.42854043 2.33971978 -0.68628797
H -2.83233929 0.12275933 -0.20526094
H -1.58206431 -2.05202508 0.08908537
H -0.46049051 1.08765448 -2.41617747
H -0.50937086 2.75977371 -1.80443356
19
image 7
C 0.32202182 -2.11091091 1.30624151
C 1.63210485 -1.67775640 1.35635084
C 1.78644003 -0.45008202 0.75276942
C 0.70231533 0.17287396 0.14788994
N 0.74704599 1.42967909 -0.39269180
C -1.57147962 1.56616718 -0.97962442
C -1.78378227 0.40467340 -0.36203648
C -0.62425888 -0.26331188 0.17433171
C -0.76937626 -1.49683569 0.74838438
C -0.22022775 1.73337643 -1.60144127
H 0.17195048 -3.06897558 1.76870073
H 2.45848887 -2.20175610 1.81120312
H 2.79992245 -0.07760626 0.77541230
H 1.71865421 1.70183987 -0.41433868
H -2.41405388 2.09385918 -1.40831185
H -2.81874612 0.16378211 -0.16068138
H -1.78126494 -1.86781871 0.71902020
H -0.12222551 1.12396515 -2.51448152
H -0.23352894 2.82483713 -1.72669666
19
image 8
C 0.13891043 -2.02471997 1.72536287
C 1.42934289 -1.54191505 1.57969142
C 1.68481656 -0.45512667 0.76393095
C 0.64735546 0.16764600 0.07401982
N 0.87038515 1.28765902 -0.68354683
C -1.46095673 1.33056364 -1.36206678
C -1.72876308 0.37542841 -0.47697487
C -0.66641627 -0.31402353 0.23041695
C -0.90119843 -1.40536908 1.05446680
C -0.05550580 1.72806502 -1.70433238
H -0.05468491 -2.87502904 2.36153613
H 2.24606207 -2.01710386 2.10341231
H 2.69362785 -0.08055258 0.65552310
H 1.83609051 1.52917382 -0.84261189
H -2.24151913 1.84368004 -1.90339755
H -2.74641263 0.08725270 -0.25716167
H -1.91279188 -1.76910831 1.16677425
H 0.20627527 1.31243259 -2.69907881
H 0.01538255 2.82104678 -1.78596378
