31
Imaginary-mode displacement from audited xTB minimum candidate
C -0.556242030382 -1.378222436865 -1.631802927541
C -0.203507335779 -0.367736029605 -0.571339558550
N -1.058168971161 0.208468875559 0.167870281869
C -2.409607136016 -0.023892583167 0.233454626319
C -2.918732159360 -1.219297835073 0.750558122061
C -4.279034576876 -1.378290378123 0.929315964884
C -5.156267879447 -0.362043011125 0.587381956478
C -4.658614631811 0.826268095864 0.074793257487
C -3.300027562973 1.003482237323 -0.091834758971
C 1.207346257917 0.003933287791 -0.395869396875
C 2.242917520545 -0.660305321132 -1.050405291014
C 3.559199157144 -0.280769022132 -0.854799084169
C 3.885861568508 0.768793639406 -0.007928966013
C 5.305688258866 1.188585913499 0.219058114581
C 2.850680211669 1.431851879787 0.650196463422
C 1.538853365776 1.057552473434 0.462531649287
H -0.125151164853 -1.099798372865 -2.583592344982
H -1.634617117310 -1.463843209462 -1.727089609277
H -0.159171953896 -2.363915100640 -1.347611441574
H -2.229585913497 -2.004334246913 1.027111129986
H -4.656185173336 -2.304260433747 1.339411307890
H -6.219842702563 -0.493769840793 0.724097316390
H -5.339265714575 1.621738050856 -0.198169483683
H -2.909797710676 1.926213380582 -0.498027287478
H 2.039087389170 -1.490793300724 -1.705776458013
H 4.347705705231 -0.813807279157 -1.362901490369
H 5.404279339989 2.273873050408 0.203768894318
H 5.963932597340 0.748084093005 -0.548043299416
H 5.644445039788 0.823196950004 1.205991945913
H 3.080405994604 2.263746011520 1.305660285968
H 0.736229960226 1.582310530963 0.961407837316
