31
 energy: -42.686281243337 gnorm: 0.000028072694 xtb: 6.7.1 (edcfbbe)
C           -0.55464123079507       -1.38282415397828       -1.62615457866239
C           -0.20317141560936       -0.36885770955782       -0.56873047530815
N           -1.05854369330000        0.20898404797056        0.16825782920215
C           -2.40982491431416       -0.02443310831399        0.23424430409438
C           -2.91864498009187       -1.21834480295821        0.75500449867892
C           -4.27905077954335       -1.37755751254749        0.93291689456717
C           -5.15656511883429       -0.36316543880635        0.58633969819917
C           -4.65916820680015        0.82375451039696        0.07033814446682
C           -3.30052238467580        1.00127030584063       -0.09542144427538
C            1.20729533916721        0.00496517787230       -0.39434741054625
C            2.24439876150248       -0.66198170739036       -1.04554351430432
C            3.55918293541071       -0.28132032820581       -0.84976838633389
C            3.88472217943472        0.77309880597526       -0.00614216921027
C            5.30898176603885        1.17858848329046        0.21770156625561
C            2.84961070612065        1.43871773368855        0.64608522159014
C            1.53727081136241        1.06238982651062        0.45844931483599
H           -0.12918560451124       -1.09083808183731       -2.58474168674167
H           -1.63582791437081       -1.46123841319126       -1.72593171893423
H           -0.15789012279745       -2.36037892473862       -1.35423188994334
H           -2.23076320578151       -2.00575992924583        1.03081015062223
H           -4.65805587545218       -2.30530918811154        1.33889757720915
H           -6.22033915732167       -0.49482509624321        0.72024480970831
H           -5.33788872917513        1.62034027614888       -0.20097605496781
H           -2.90779625651430        1.92441127499896       -0.49658332711456
H            2.03799409453280       -1.49025650887573       -1.70601827044479
H            4.34716120109445       -0.81438213149517       -1.36382659718699
H            5.40631988212867        2.26271867693213        0.20302515218492
H            5.96145916630772        0.75437080442266       -0.54175847458933
H            5.64623498409977        0.82780665801048        1.19384429917379
H            3.08245257538276        2.26198170657449        1.30705625742108
H            0.73760781956712        1.58109481534204        0.96437803659757
