82
MMFF starting geometry; not quantum validated
O 0.5269997654 -1.6625715200 -2.2191987075
P -0.0079668269 -0.4808755027 -1.4754396117
O -0.7842285027 0.5274332119 -2.4575390779
O 1.0710392101 0.4753553428 -0.7595806151
C 1.5635115133 0.0871011455 0.4641527403
C 2.9272780385 -0.2492194799 0.5239103237
C 3.4587931179 -0.6254614310 1.7594321249
C 2.6591248442 -0.7017144239 2.9015002504
C 3.2289158919 -1.1463020296 4.1065442298
C 2.4599556342 -1.2838346177 5.2582769935
C 1.1069483494 -0.9901094969 5.2135372807
C 0.5324333933 -0.5390860901 4.0218643167
C 1.2854653816 -0.3457985335 2.8351099838
C 0.7161990170 0.1332403516 1.5984059492
C -0.6290112076 0.6631603349 1.4849651602
C -1.5276228587 0.1410758121 0.5225499248
O -1.1057761298 -0.8340248597 -0.3517142657
C -2.8917587161 0.4845226309 0.4629808790
C -3.3715244253 1.4402747871 1.3602610865
C -2.5209428409 2.0711121976 2.2700889419
C -3.0399534657 3.0720260830 3.1087472854
C -2.2207709859 3.7630991347 3.9964327541
C -0.8680209335 3.4691927078 4.0451549035
C -0.3436041000 2.4692418907 3.2213265696
C -1.1475301594 1.7111595324 2.3314957466
C 3.8144115236 -0.1918538037 -0.6640557823
C 4.3933766268 1.0593196620 -1.0582012586
C 4.1596684020 2.2873401887 -0.3878902412
C 4.7440016518 3.4854040406 -0.8059118514
C 5.5844204446 3.4939698724 -1.9085250213
C 5.8385119762 2.3050141563 -2.5882116520
C 5.2562198966 1.0930575123 -2.1765466026
C 5.5359738090 -0.0864338540 -2.8759355583
C 4.9829076604 -1.3168542958 -2.5028923356
C 5.2972260718 -2.4750616845 -3.2355568542
C 4.7583445124 -3.7125826203 -2.8922185390
C 3.8951084930 -3.8064672719 -1.8114500294
C 3.5773972432 -2.6630477093 -1.0745310724
C 4.1107304894 -1.3888212215 -1.3933314193
C -3.8256975783 -0.1514353622 -0.5001675806
C -4.1588767688 0.5186077664 -1.7222612361
C -3.6493912964 1.7883487623 -2.0942669238
C -3.9914710405 2.4020704126 -3.3014553715
C -4.8592230275 1.7664577529 -4.1758329658
C -5.3807744721 0.5192462667 -3.8408198845
C -5.0417236952 -0.1091111730 -2.6296133300
C -5.5801853613 -1.3637254629 -2.3226912026
C -5.2733100860 -2.0287266320 -1.1301190505
C -5.8432635085 -3.2863028103 -0.8643905438
C -5.5590896969 -3.9712510350 0.3146648021
C -4.7008095415 -3.4054082998 1.2448710620
C -4.1287046409 -2.1564449219 0.9918024183
C -4.3930200504 -1.4330253750 -0.1990830782
H -1.3225256566 0.0322620167 -3.1020167450
H 4.5156052822 -0.8863161934 1.8159065253
H 4.2854322965 -1.4047946891 4.1544154814
H 2.9148006047 -1.6352379430 6.1803755335
H 0.4899814775 -1.1140155451 6.0997813024
H -0.5393944576 -0.3488507030 4.0327982675
H -4.4268705788 1.7097928736 1.3238320051
H -4.0958550634 3.3339180310 3.0670511766
H -2.6365883560 4.5390547419 4.6333167972
H -0.2122192111 4.0165920325 4.7172946572
H 0.7299546325 2.2973422679 3.2781417656
H 3.5046420602 2.3266293533 0.4798682001
H 4.5363224087 4.4065934547 -0.2682951357
H 6.0414754496 4.4215637158 -2.2415714695
H 6.5010333731 2.3312125276 -3.4510652587
H 6.2030514504 -0.0460900442 -3.7359866706
H 5.9667335477 -2.4199247507 -4.0913943483
H 5.0048516127 -4.5964119521 -3.4735864003
H 3.4549062432 -4.7628705446 -1.5428660758
H 2.8816900277 -2.7808650115 -0.2465688072
H -2.9544782909 2.3182812095 -1.4446038110
H -3.5735783383 3.3737353062 -3.5523432330
H -5.1311100736 2.2379294280 -5.1164019394
H -6.0615679710 0.0366351195 -4.5396495142
H -6.2599165664 -1.8360023534 -3.0311632614
H -6.5196267417 -3.7469386108 -1.5818039914
H -6.0068184388 -4.9431391667 0.5031533038
H -4.4702423809 -3.9307715512 2.1678529172
H -3.4603993825 -1.7505930577 1.7485136269
