70
MMFF starting geometry; not quantum validated
O -0.3929452432 2.5476123217 -1.9753430939
P 0.1649047981 1.6940801545 -0.8796542543
O 1.0618785903 2.5478316879 0.1449089641
O 1.1625151015 0.5300286818 -1.3751381914
C 1.5742010096 -0.4343694208 -0.4824717408
C 2.9486222783 -0.4614533744 -0.1838647086
C 3.4126698891 -1.4484228732 0.6865360702
C 2.5384669504 -2.3617967682 1.2809313882
C 3.0478183612 -3.2974458669 2.1973604141
C 2.2082563332 -4.1923695889 2.8539604425
C 0.8450840819 -4.1515732940 2.6112236478
C 0.3291664276 -3.2304804375 1.6953033429
C 1.1514470921 -2.3285518871 0.9722780295
C 0.6417179561 -1.3802230380 0.0112664228
C -0.7299339051 -1.3684128117 -0.4588835966
C -1.4967647243 -0.1801922534 -0.3775798446
O -0.9017871383 0.9707614245 0.0860490719
C -2.8680317466 -0.1132838631 -0.6744568890
C -3.4970581541 -1.2700115858 -1.1369017296
C -2.7870497410 -2.4588106201 -1.3234785649
C -3.4566706926 -3.5812876637 -1.8394641350
C -2.7798189216 -4.7715899026 -2.0884620955
C -1.4197184024 -4.8479222502 -1.8367899852
C -0.7456139532 -3.7397075922 -1.3162596044
C -1.4027095197 -2.5207574160 -1.0085743584
C 3.8991372073 0.4995611233 -0.7785306142
C 4.3211232735 0.2800781891 -2.1034335071
C 5.2141174355 1.1457034753 -2.7256860456
C 5.7028352241 2.2490319211 -2.0333342401
C 5.3060198336 2.5043978333 -0.7130031752
C 5.8057496706 3.6285347515 -0.0346229151
C 5.4194873235 3.9081796122 1.2749172553
C 4.5274464729 3.0662711806 1.9240686667
C 4.0245845595 1.9429419292 1.2641632490
C 4.3963724374 1.6294819006 -0.0648908707
C -3.6514090791 1.1246240679 -0.5043045300
C -3.7018745226 2.0345624378 -1.5757623469
C -4.4310924021 3.2149629143 -1.4799935274
C -5.1285980939 3.5044682775 -0.3113338415
C -5.1035314605 2.6232264420 0.7792688160
C -5.8119395843 2.9343102170 1.9520987570
C -5.7971895424 2.0756584821 3.0500169585
C -5.0715520809 0.8937915081 2.9903677001
C -4.3626080893 0.5701355373 1.8312990199
C -4.3595098204 1.4181781714 0.6980574664
H 1.6530668154 3.1580204926 -0.3329469961
H 4.4764609596 -1.4823207174 0.9208357692
H 4.1129585172 -3.3276123985 2.4203635676
H 2.6174083744 -4.9049590255 3.5648952663
H 0.1748291650 -4.8286719500 3.1344470027
H -0.7513631203 -3.2198627503 1.5627808009
H -4.5603242828 -1.2280559911 -1.3725389365
H -4.5202644803 -3.5323532265 -2.0666611304
H -3.3114643197 -5.6281521702 -2.4937651158
H -0.8741104133 -5.7639394662 -2.0481132645
H 0.3273667650 -3.8423958903 -1.1636969316
H 3.9444275753 -0.5778237033 -2.6583724805
H 5.5277999074 0.9608819696 -3.7497583933
H 6.4004815044 2.9147122919 -2.5377664651
H 6.5055967166 4.3015580262 -0.5261672409
H 5.8146697902 4.7826991962 1.7850092724
H 4.2162511047 3.2793579241 2.9436584339
H 3.3171689657 1.3150987893 1.8034875434
H -3.1539141899 1.8283496472 -2.4941762076
H -4.4488762225 3.9106187936 -2.3146539519
H -5.6915190655 4.4337280795 -0.2560940430
H -6.3833686736 3.8576756172 2.0197159160
H -6.3488412224 2.3331552233 3.9499658136
H -5.0506756959 0.2215420669 3.8438806911
H -3.7999799644 -0.3610025626 1.8242368296
