28
MMFF starting geometry; not quantum validated
C -0.0798455746 -0.1113165361 -1.7198500363
C -0.4197671754 0.0136147854 -0.2452318807
N 0.4707716405 0.0733802942 0.7038226069
C 1.8347451544 0.0050858285 0.3968300179
C 2.4715062906 -1.2313593586 0.2618743669
C 3.8369143886 -1.2966135993 -0.0229091334
C 4.5758064553 -0.1220216178 -0.1605699156
C 3.9519749790 1.1155248311 -0.0058941390
C 2.5863713517 1.1766182881 0.2789842864
C -1.8655900110 0.0575368226 0.1389967262
C -2.8525837957 -0.5474670054 -0.6481944292
C -4.1931582673 -0.4909603330 -0.2571924165
C -4.5522055446 0.1616162159 0.9216679344
C -3.5726066425 0.7537884342 1.7168125664
C -2.2323903257 0.6989732072 1.3294489177
H 0.1618725268 -1.1531814949 -1.9481728915
H -0.9085070023 0.2131627316 -2.3542844486
H 0.7733324802 0.5222811491 -1.9761993196
H 1.8978979616 -2.1454512620 0.3849688814
H 4.3230894819 -2.2625150176 -0.1288640719
H 5.6396292481 -0.1711699090 -0.3780348931
H 4.5275964720 2.0322678398 -0.0997235109
H 2.1010331562 2.1391660264 0.4118849617
H -2.5991772441 -1.0844623383 -1.5573436023
H -4.9578121403 -0.9631163434 -0.8692052038
H -5.5953477119 0.2019161126 1.2254360361
H -3.8489058532 1.2551628681 2.6408847082
H -1.4746442983 1.1595393804 1.9600578823
