 Entering Gaussian System
 *********************************************
 Gaussian 98:
 frequency output generated by the xtb code
 *********************************************
                         Standard orientation:
 --------------------------------------------------------------------
  Center     Atomic     Atomic              Coordinates (Angstroms)
  Number     Number      Type              X           Y           Z
 --------------------------------------------------------------------
    1          6             0       -0.160478    1.691316   -2.932953
    2          6             0        0.278666    0.952476   -1.705548
    3          7             0        1.524611    0.818736   -1.514234
    4          6             0        2.144721    0.296501   -0.401239
    5          6             0        1.947230    0.838378    0.872299
    6          6             0        2.680063    0.376272    1.947529
    7          6             0        3.612377   -0.634784    1.780218
    8          6             0        3.818851   -1.172375    0.519072
    9          6             0        3.105147   -0.705541   -0.566204
   10          6             0       -0.780272    0.404189   -0.830419
   11          6             0       -1.928836    1.138092   -0.542340
   12          6             0       -2.903576    0.621197    0.290067
   13          6             0       -2.774259   -0.646345    0.844740
   14          6             0       -3.822461   -1.203008    1.758521
   15          6             0       -1.633722   -1.383896    0.543900
   16          6             0       -0.649180   -0.867576   -0.274429
   17          1             0        0.687948    1.836760   -3.595691
   18          1             0       -0.553483    2.668513   -2.655481
   19          1             0       -0.946833    1.142682   -3.447620
   20          1             0        1.221835    1.630292    1.000195
   21          1             0        2.517799    0.805798    2.926458
   22          1             0        4.178416   -0.998045    2.625568
   23          1             0        4.548447   -1.958063    0.380114
   24          1             0        3.262895   -1.120374   -1.551513
   25          1             0       -2.053849    2.129809   -0.951295
   26          1             0       -3.781706    1.212467    0.509892
   27          1             0       -3.499759   -1.104925    2.795957
   28          1             0       -3.985720   -2.260483    1.559578
   29          1             0       -4.764053   -0.671354    1.643292
   30          1             0       -1.515056   -2.375258    0.958221
   31          1             0        0.224242   -1.461450   -0.502695
 --------------------------------------------------------------------
     1 basis functions        1 primitive gaussians
     1 alpha electrons        1 beta electrons

 Harmonic frequencies (cm**-1), IR intensities (km*mol⁻¹),
 Raman scattering activities (A**4/amu), Raman depolarization ratios,
 reduced masses (AMU), force constants (mDyne/A) and normal coordinates:
                      1                      2                      3
                        a                      a                      a 
 Frequencies --    27.4932                42.9584                48.7066
 Red. masses --    10.0534                 9.7782                 7.8396
 Frc consts  --     0.0000                 0.0000                 0.0000
 IR Inten    --     0.3895                 0.2384                 0.1013
 Raman Activ --     0.0000                 0.0000                 0.0000
 Depolar     --     0.0000                 0.0000                 0.0000
 Atom AN      X      Y      Z        X      Y      Z        X      Y      Z
   1   6     0.00   0.06   0.13     0.01  -0.06   0.01    -0.04  -0.15   0.01
   2   6    -0.03   0.01   0.11    -0.01  -0.06   0.01    -0.00  -0.08   0.04
   3   7    -0.03  -0.02   0.10    -0.01  -0.06   0.01    -0.00  -0.13  -0.02
   4   6     0.05  -0.02   0.04     0.02  -0.05   0.00     0.03  -0.05  -0.00
   5   6     0.23   0.05   0.04    -0.22  -0.31   0.08     0.04   0.01  -0.02
   6   6     0.35   0.07  -0.03    -0.18  -0.30   0.05     0.12   0.13  -0.03
   7   6     0.28   0.02  -0.10     0.12  -0.01  -0.05     0.18   0.18  -0.00
   8   6     0.09  -0.06  -0.09     0.37   0.27  -0.12     0.15   0.11   0.03
   9   6    -0.02  -0.08  -0.03     0.31   0.24  -0.09     0.08  -0.01   0.03
  10   6    -0.05   0.01   0.08    -0.03  -0.03   0.00    -0.01  -0.00   0.08
  11   6    -0.18  -0.09  -0.18    -0.04  -0.01  -0.08     0.13   0.13   0.27
  12   6    -0.24  -0.09  -0.25    -0.06   0.05  -0.07     0.08   0.14   0.21
  13   6    -0.17  -0.01  -0.07    -0.08   0.08   0.02    -0.12   0.01  -0.04
  14   6    -0.25  -0.03  -0.17    -0.10   0.16   0.04    -0.21  -0.05  -0.19
  15   6    -0.04   0.09   0.20    -0.08   0.06   0.09    -0.22  -0.10  -0.19
  16   6     0.02   0.10   0.27    -0.05  -0.00   0.08    -0.16  -0.11  -0.11
  17   1    -0.00  -0.01   0.03     0.00  -0.03  -0.00    -0.01  -0.04   0.00
  18   1     0.04   0.03   0.04     0.02  -0.01  -0.00    -0.03  -0.05  -0.01
  19   1    -0.02   0.05   0.04    -0.01  -0.01   0.01    -0.00  -0.06   0.01
  20   1     0.08   0.03   0.03    -0.13  -0.15   0.05    -0.00  -0.01  -0.01
  21   1     0.14   0.04  -0.01    -0.11  -0.15   0.03     0.04   0.05  -0.01
  22   1     0.11   0.01  -0.04     0.05   0.00  -0.02     0.07   0.08  -0.00
  23   1     0.01  -0.03  -0.04     0.18   0.15  -0.06     0.06   0.04   0.01
  24   1    -0.05  -0.04  -0.01     0.14   0.13  -0.04     0.02  -0.02   0.01
  25   1    -0.07  -0.05  -0.09    -0.01  -0.01  -0.04     0.08   0.07   0.13
  26   1    -0.10  -0.05  -0.13    -0.02   0.02  -0.04     0.05   0.07   0.10
  27   1    -0.07  -0.07  -0.04    -0.05   0.09   0.01     0.03  -0.29  -0.06
  28   1    -0.11   0.00  -0.10    -0.01   0.04   0.05    -0.25   0.05  -0.27
  29   1    -0.05   0.03  -0.03    -0.03   0.03  -0.02     0.02   0.16   0.12
  30   1     0.00   0.05   0.10    -0.03   0.02   0.05    -0.11  -0.06  -0.10
  31   1     0.03   0.05   0.14    -0.01  -0.01   0.04    -0.07  -0.05  -0.07
                      4                      5                      6
                        a                      a                      a 
 Frequencies --    51.1326                93.5408               100.4185
 Red. masses --     3.5457                 9.4393                 8.9192
 Frc consts  --     0.0000                 0.0000                 0.0000
 IR Inten    --     0.4956                 1.1141                 1.5647
 Raman Activ --     0.0000                 0.0000                 0.0000
 Depolar     --     0.0000                 0.0000                 0.0000
 Atom AN      X      Y      Z        X      Y      Z        X      Y      Z
   1   6     0.02   0.02  -0.05     0.15   0.38   0.14    -0.08   0.23   0.20
   2   6     0.01   0.02  -0.04    -0.03  -0.01  -0.02     0.03  -0.01   0.02
   3   7     0.01   0.05  -0.02    -0.06  -0.16   0.06     0.05  -0.24  -0.24
   4   6    -0.02   0.03  -0.01    -0.09  -0.19   0.04     0.04  -0.16  -0.19
   5   6    -0.08  -0.03  -0.00    -0.06  -0.09   0.01    -0.10  -0.05  -0.26
   6   6    -0.15  -0.09   0.02     0.07   0.11   0.00    -0.21   0.08  -0.14
   7   6    -0.15  -0.09   0.02     0.17   0.19   0.04    -0.15   0.11   0.05
   8   6    -0.07  -0.02   0.00     0.09   0.04   0.09     0.02   0.02   0.11
   9   6    -0.00   0.04  -0.02    -0.04  -0.15   0.09     0.11  -0.12  -0.01
  10   6     0.01   0.00  -0.05    -0.11  -0.08  -0.18     0.10   0.06   0.14
  11   6    -0.05  -0.06  -0.14    -0.11  -0.08  -0.16     0.07   0.04   0.10
  12   6    -0.02  -0.04  -0.09    -0.05  -0.04  -0.07     0.03  -0.00   0.04
  13   6     0.08   0.04   0.06     0.00  -0.01  -0.00     0.03  -0.01   0.02
  14   6     0.13  -0.02   0.08     0.17   0.11   0.26    -0.08  -0.11  -0.17
  15   6     0.14   0.09   0.14    -0.08  -0.07  -0.15     0.09   0.05   0.13
  16   6     0.10   0.06   0.09    -0.13  -0.11  -0.24     0.12   0.08   0.18
  17   1     0.00  -0.00  -0.01     0.05   0.06   0.04    -0.09  -0.09  -0.05
  18   1     0.01   0.01  -0.01     0.16   0.14   0.11     0.21   0.14   0.12
  19   1     0.00   0.01  -0.01    -0.03   0.23   0.02    -0.20   0.22   0.16
  20   1    -0.02  -0.01   0.00    -0.03  -0.04  -0.01    -0.04  -0.02  -0.12
  21   1    -0.06  -0.04   0.01     0.03   0.06  -0.01    -0.10   0.05  -0.06
  22   1    -0.06  -0.04   0.01     0.09   0.11   0.01    -0.07   0.06   0.04
  23   1    -0.02  -0.00   0.00     0.04   0.03   0.04     0.02   0.01   0.08
  24   1     0.01   0.03  -0.01    -0.02  -0.08   0.04     0.07  -0.06   0.01
  25   1    -0.04  -0.03  -0.07    -0.04  -0.02  -0.05     0.02   0.01   0.03
  26   1    -0.02  -0.02  -0.05    -0.00  -0.01  -0.00    -0.00  -0.01  -0.01
  27   1     0.26  -0.46  -0.00     0.14   0.02   0.05    -0.08  -0.02  -0.03
  28   1    -0.29   0.11  -0.32    -0.00   0.04   0.09     0.02  -0.04  -0.06
  29   1     0.16   0.29   0.38     0.06   0.07   0.15    -0.03  -0.06  -0.10
  30   1     0.06   0.04   0.08    -0.02  -0.02  -0.05     0.03   0.02   0.04
  31   1     0.04   0.03   0.04    -0.05  -0.04  -0.09     0.04   0.03   0.07
                      7                      8                      9
                        a                      a                      a 
 Frequencies --   136.7502               168.8754               205.2830
 Red. masses --     4.6414                 8.5133                10.0969
 Frc consts  --     0.0000                 0.0000                 0.0000
 IR Inten    --     0.2952                 0.9625                 1.3244
 Raman Activ --     0.0000                 0.0000                 0.0000
 Depolar     --     0.0000                 0.0000                 0.0000
 Atom AN      X      Y      Z        X      Y      Z        X      Y      Z
   1   6    -0.10  -0.09   0.01    -0.11   0.18   0.26     0.00  -0.15  -0.01
   2   6     0.01  -0.07  -0.00     0.05  -0.06   0.06     0.03   0.09   0.13
   3   7     0.02   0.20   0.07     0.10   0.10  -0.08     0.05  -0.16  -0.08
   4   6     0.05   0.19   0.05     0.18   0.10  -0.12     0.20   0.01  -0.08
   5   6     0.10   0.13   0.08     0.14   0.15  -0.15     0.21   0.09  -0.11
   6   6     0.05  -0.02   0.05    -0.05   0.06  -0.07     0.01   0.00  -0.02
   7   6    -0.05  -0.10  -0.01    -0.18  -0.07   0.02    -0.12  -0.15   0.11
   8   6    -0.06  -0.00  -0.06    -0.02  -0.01   0.02     0.09  -0.04   0.09
   9   6    -0.00   0.15  -0.02     0.17   0.09  -0.07     0.28   0.06   0.00
  10   6     0.04  -0.16  -0.02     0.09  -0.23   0.02    -0.07   0.27   0.14
  11   6     0.09  -0.09  -0.05     0.10  -0.17  -0.05    -0.21   0.11   0.03
  12   6     0.06   0.00  -0.03     0.03  -0.06  -0.09    -0.26  -0.06  -0.10
  13   6    -0.02  -0.01  -0.03    -0.09  -0.03  -0.01    -0.15  -0.06  -0.10
  14   6    -0.03   0.13   0.04    -0.14   0.24   0.10     0.17  -0.11   0.23
  15   6    -0.09  -0.11  -0.06    -0.15  -0.14   0.01    -0.15   0.01  -0.22
  16   6    -0.04  -0.17  -0.05    -0.05  -0.24   0.04    -0.11   0.17  -0.06
  17   1    -0.13  -0.40  -0.21    -0.01   0.29   0.16    -0.01  -0.11  -0.03
  18   1     0.41   0.16  -0.01    -0.24  -0.06   0.16     0.03  -0.02  -0.06
  19   1    -0.35   0.20   0.25     0.11  -0.04  -0.05    -0.03  -0.06   0.06
  20   1     0.04   0.05   0.04     0.06   0.06  -0.07     0.08   0.05  -0.06
  21   1     0.02  -0.02   0.02    -0.04   0.02  -0.02    -0.02   0.00  -0.01
  22   1    -0.03  -0.07  -0.01    -0.11  -0.06   0.03    -0.10  -0.08   0.06
  23   1    -0.04  -0.02  -0.03    -0.02  -0.02   0.03     0.02  -0.02   0.05
  24   1    -0.01   0.07  -0.02     0.08   0.03  -0.02     0.12   0.02   0.00
  25   1     0.05  -0.03  -0.02     0.05  -0.05  -0.02    -0.08   0.04   0.03
  26   1     0.03   0.02  -0.00     0.02   0.01  -0.04    -0.09  -0.04  -0.03
  27   1     0.01   0.04   0.01    -0.01   0.07   0.02     0.15  -0.00   0.03
  28   1    -0.05   0.04   0.03    -0.11   0.07   0.06     0.06  -0.04   0.10
  29   1     0.01   0.07   0.02    -0.01   0.12   0.03     0.02  -0.06   0.16
  30   1    -0.05  -0.04  -0.02    -0.07  -0.04   0.01    -0.03  -0.01  -0.10
  31   1    -0.02  -0.06  -0.01    -0.02  -0.09   0.04    -0.02   0.07  -0.02
                     10                     11                     12
                        a                      a                      a 
 Frequencies --   245.0049               295.8454               345.0680
 Red. masses --     9.4412                 9.8168                 8.9165
 Frc consts  --     0.0000                 0.0000                 0.0000
 IR Inten    --     0.7437                 1.8442                 1.5620
 Raman Activ --     0.0000                 0.0000                 0.0000
 Depolar     --     0.0000                 0.0000                 0.0000
 Atom AN      X      Y      Z        X      Y      Z        X      Y      Z
   1   6    -0.42  -0.14   0.16     0.46  -0.04  -0.08     0.02  -0.03   0.09
   2   6     0.07   0.11   0.13     0.11   0.10   0.12     0.10  -0.10   0.00
   3   7     0.09   0.10  -0.02     0.13   0.13  -0.01     0.13   0.16   0.00
   4   6    -0.06  -0.06   0.03    -0.01   0.04  -0.03     0.07   0.05  -0.02
   5   6    -0.15  -0.17   0.05    -0.19  -0.01  -0.05    -0.07  -0.03  -0.01
   6   6    -0.03  -0.04   0.03    -0.13   0.05  -0.09    -0.05   0.00  -0.02
   7   6     0.15   0.13  -0.02    -0.02   0.17  -0.19     0.03   0.09  -0.06
   8   6    -0.02  -0.03   0.02    -0.11   0.01  -0.14    -0.05  -0.03  -0.02
   9   6    -0.16  -0.16   0.06    -0.15  -0.05  -0.12    -0.04  -0.04  -0.03
  10   6     0.18   0.09   0.18     0.15   0.06   0.22     0.08  -0.15  -0.02
  11   6     0.11   0.05  -0.02     0.07  -0.05   0.17     0.12  -0.03  -0.11
  12   6    -0.02  -0.04  -0.26    -0.06  -0.16  -0.04    -0.04   0.29  -0.05
  13   6     0.02  -0.02  -0.24    -0.15  -0.17  -0.05    -0.20   0.28  -0.01
  14   6     0.16   0.18   0.02    -0.10   0.06   0.17     0.21  -0.39   0.06
  15   6     0.02  -0.05  -0.18    -0.11  -0.13  -0.04    -0.27   0.17   0.03
  16   6     0.14   0.03   0.02     0.03  -0.00   0.17    -0.09  -0.11   0.12
  17   1    -0.20   0.01  -0.04     0.20  -0.11   0.04    -0.00   0.02   0.02
  18   1    -0.19  -0.06   0.04     0.17   0.03  -0.12     0.00  -0.02   0.06
  19   1    -0.12  -0.13   0.14     0.14   0.01  -0.06     0.01  -0.00   0.02
  20   1    -0.07  -0.07   0.02    -0.08  -0.02  -0.03    -0.04  -0.03  -0.01
  21   1    -0.01  -0.01   0.01    -0.03  -0.00  -0.02    -0.02  -0.01  -0.00
  22   1     0.10   0.09  -0.02     0.03   0.08  -0.07     0.03   0.05  -0.02
  23   1    -0.00  -0.01   0.01    -0.04  -0.01  -0.03    -0.03  -0.02   0.00
  24   1    -0.07  -0.07   0.02    -0.08  -0.02  -0.04    -0.03  -0.02  -0.01
  25   1     0.05   0.02   0.01     0.02  -0.00   0.07     0.08  -0.02  -0.07
  26   1    -0.02  -0.03  -0.10    -0.03  -0.05  -0.04     0.02   0.14  -0.04
  27   1     0.13   0.08  -0.02     0.03   0.05   0.03     0.11  -0.14   0.00
  28   1    -0.00   0.05   0.06    -0.09   0.02   0.11     0.25  -0.13  -0.05
  29   1     0.06   0.08   0.06    -0.01   0.06   0.08    -0.04  -0.28   0.12
  30   1    -0.01  -0.02  -0.06    -0.03  -0.05  -0.04    -0.14   0.05   0.03
  31   1     0.05   0.02   0.01     0.02  -0.00   0.08    -0.04  -0.08   0.08
                     13                     14                     15
                        a                      a                      a 
 Frequencies --   364.8083               366.1906               371.0687
 Red. masses --    10.8077                 8.9531                 9.0653
 Frc consts  --     0.0000                 0.0000                 0.0000
 IR Inten    --     1.8746                 1.0876                 1.1971
 Raman Activ --     0.0000                 0.0000                 0.0000
 Depolar     --     0.0000                 0.0000                 0.0000
 Atom AN      X      Y      Z        X      Y      Z        X      Y      Z
   1   6    -0.08   0.00  -0.12    -0.01  -0.00   0.01    -0.02  -0.01  -0.01
   2   6     0.12   0.22  -0.03    -0.03   0.00   0.02     0.03   0.05   0.01
   3   7     0.18   0.43  -0.04    -0.03  -0.03   0.01     0.04   0.05  -0.01
   4   6     0.22   0.03  -0.16    -0.02  -0.01   0.00     0.04  -0.00  -0.03
   5   6     0.09  -0.14  -0.12     0.05   0.05  -0.01    -0.30  -0.32   0.06
   6   6    -0.11  -0.13   0.01    -0.05  -0.05   0.01     0.27   0.27  -0.07
   7   6     0.16   0.11   0.10    -0.01  -0.00  -0.00     0.02   0.03   0.01
   8   6     0.06  -0.04   0.15     0.05   0.05  -0.02    -0.29  -0.30   0.10
   9   6     0.01  -0.24   0.06    -0.06  -0.05   0.01     0.31   0.25  -0.07
  10   6    -0.01   0.06  -0.13    -0.00   0.02   0.03    -0.01   0.02  -0.02
  11   6    -0.13  -0.11  -0.07    -0.20  -0.15  -0.33    -0.07  -0.05  -0.08
  12   6    -0.01  -0.09   0.13     0.20   0.15   0.32     0.04   0.01   0.08
  13   6    -0.01  -0.03   0.27     0.04  -0.01  -0.01     0.02  -0.00   0.06
  14   6    -0.22  -0.05   0.08     0.01   0.04  -0.03    -0.04   0.01   0.00
  15   6    -0.02   0.03   0.05    -0.16  -0.18  -0.33    -0.02  -0.02  -0.05
  16   6    -0.13   0.04  -0.14     0.21   0.17   0.34     0.01   0.04   0.02
  17   1    -0.06  -0.03  -0.09     0.01   0.00   0.01    -0.01  -0.01  -0.01
  18   1    -0.03   0.01  -0.09    -0.01  -0.00  -0.00    -0.01  -0.00  -0.02
  19   1    -0.04  -0.06   0.05     0.01  -0.01  -0.01    -0.01  -0.02   0.02
  20   1     0.01  -0.06  -0.05     0.03   0.03  -0.01    -0.18  -0.18   0.04
  21   1    -0.11  -0.06  -0.00    -0.03  -0.03   0.01     0.17   0.17  -0.05
  22   1     0.07   0.08   0.03    -0.00  -0.00  -0.00     0.01   0.02   0.00
  23   1     0.01  -0.03   0.07     0.03   0.03  -0.01    -0.18  -0.18   0.06
  24   1    -0.01  -0.16   0.05    -0.03  -0.03   0.01     0.18   0.15  -0.04
  25   1    -0.09  -0.04  -0.03    -0.13  -0.10  -0.21    -0.05  -0.03  -0.05
  26   1    -0.00  -0.02   0.03     0.12   0.09   0.20     0.02   0.01   0.04
  27   1    -0.14  -0.04   0.05    -0.00   0.01  -0.01    -0.04  -0.01   0.01
  28   1    -0.07  -0.01  -0.01    -0.01   0.01  -0.01    -0.02   0.00  -0.01
  29   1    -0.05   0.00  -0.04     0.01   0.02  -0.01    -0.01   0.01  -0.02
  30   1     0.03   0.00  -0.01    -0.11  -0.11  -0.21    -0.01  -0.02  -0.04
  31   1    -0.06  -0.01  -0.06     0.13   0.11   0.20     0.01   0.02   0.01
                     16                     17                     18
                        a                      a                      a 
 Frequencies --   414.9779               453.6741               481.0732
 Red. masses --    10.1748                10.8186                 9.5941
 Frc consts  --     0.0000                 0.0000                 0.0000
 IR Inten    --     0.9703                 1.5749                 2.7561
 Raman Activ --     0.0000                 0.0000                 0.0000
 Depolar     --     0.0000                 0.0000                 0.0000
 Atom AN      X      Y      Z        X      Y      Z        X      Y      Z
   1   6    -0.11   0.20  -0.27    -0.03   0.01   0.06     0.06  -0.09   0.16
   2   6    -0.01  -0.06  -0.38     0.23  -0.14  -0.15    -0.05  -0.31   0.01
   3   7    -0.01   0.04  -0.20     0.26  -0.35  -0.30    -0.03  -0.05  -0.00
   4   6    -0.06   0.07  -0.05    -0.01   0.21   0.13     0.35   0.32  -0.07
   5   6     0.05  -0.08   0.06    -0.09   0.15   0.17     0.02   0.04   0.00
   6   6     0.11  -0.09   0.06    -0.00  -0.08   0.06    -0.17  -0.14   0.05
   7   6     0.14  -0.08   0.16     0.08   0.01  -0.09     0.20   0.22  -0.08
   8   6     0.00  -0.01   0.12    -0.06  -0.03  -0.09    -0.15  -0.15   0.03
   9   6    -0.01   0.06   0.13    -0.14   0.14   0.09     0.03   0.02  -0.02
  10   6     0.05  -0.02  -0.16     0.19   0.20   0.07    -0.25  -0.03  -0.09
  11   6     0.15   0.01   0.18    -0.03  -0.05  -0.09    -0.14   0.15   0.03
  12   6     0.02  -0.05   0.02     0.01  -0.10  -0.02    -0.03   0.04   0.08
  13   6    -0.29  -0.20  -0.22     0.03   0.03   0.29     0.03  -0.08  -0.20
  14   6    -0.08  -0.05   0.15    -0.14  -0.07   0.10     0.09   0.08  -0.10
  15   6    -0.08   0.03   0.00    -0.05   0.04  -0.07     0.10  -0.04   0.05
  16   6     0.08   0.13   0.23    -0.09   0.09  -0.11    -0.03   0.06   0.00
  17   1    -0.05   0.11  -0.09    -0.06   0.10  -0.03     0.03   0.02   0.07
  18   1    -0.02   0.04   0.02    -0.02  -0.04   0.16     0.05  -0.04   0.14
  19   1    -0.05   0.11  -0.10    -0.03   0.04   0.02     0.00   0.06  -0.02
  20   1     0.02  -0.03   0.07    -0.03   0.03   0.10    -0.09  -0.08   0.02
  21   1     0.02  -0.01   0.01     0.02  -0.07   0.04    -0.15  -0.15   0.04
  22   1     0.04  -0.02   0.04     0.04   0.00  -0.04     0.07   0.08  -0.03
  23   1    -0.01  -0.01  -0.00    -0.04  -0.02  -0.06    -0.15  -0.15   0.04
  24   1     0.02   0.00   0.05    -0.10   0.07   0.01    -0.09  -0.08   0.01
  25   1     0.07   0.04   0.13    -0.09  -0.04  -0.07    -0.02   0.06   0.06
  26   1     0.05   0.04   0.04    -0.03  -0.04  -0.08     0.00  -0.01   0.11
  27   1     0.10   0.04   0.00    -0.12  -0.06   0.06     0.07   0.05  -0.04
  28   1    -0.06  -0.03   0.13    -0.03  -0.01  -0.02    -0.01   0.02   0.02
  29   1    -0.03  -0.01   0.12    -0.03  -0.02  -0.02     0.04   0.05  -0.01
  30   1     0.02   0.03   0.04    -0.01  -0.03  -0.11     0.06   0.02   0.07
  31   1     0.06   0.05   0.17    -0.07  -0.02  -0.09     0.04   0.08   0.02
                     19                     20                     21
                        a                      a                      a 
 Frequencies --   509.3111               573.4197               588.2021
 Red. masses --    10.2242                10.4235                11.2220
 Frc consts  --     0.0000                 0.0000                 0.0000
 IR Inten    --     1.4257                 1.8642                 3.2838
 Raman Activ --     0.0000                 0.0000                 0.0000
 Depolar     --     0.0000                 0.0000                 0.0000
 Atom AN      X      Y      Z        X      Y      Z        X      Y      Z
   1   6     0.03   0.11  -0.15    -0.03   0.06  -0.02    -0.06   0.07  -0.08
   2   6    -0.27   0.10   0.03     0.00   0.45   0.24    -0.01   0.16   0.01
   3   7    -0.24  -0.04  -0.25    -0.03  -0.31  -0.07    -0.08  -0.28   0.09
   4   6    -0.01   0.20  -0.19     0.01   0.11   0.08     0.13  -0.09  -0.00
   5   6     0.10  -0.08  -0.04    -0.11   0.23   0.00     0.29  -0.12   0.11
   6   6     0.04  -0.16   0.00    -0.07  -0.10  -0.17    -0.08   0.05   0.44
   7   6     0.22  -0.01   0.18     0.11   0.02  -0.10    -0.03   0.21  -0.01
   8   6    -0.09  -0.00   0.14     0.09  -0.21   0.02    -0.32   0.16  -0.08
   9   6    -0.03   0.12   0.11     0.05   0.10   0.19     0.08  -0.03  -0.39
  10   6     0.09  -0.03   0.34     0.01  -0.14  -0.14     0.09  -0.03  -0.05
  11   6     0.02  -0.05   0.04     0.01  -0.21  -0.03     0.08  -0.13   0.03
  12   6    -0.11   0.04  -0.10     0.00   0.08   0.12    -0.01   0.00   0.00
  13   6     0.16   0.18   0.13    -0.14  -0.03  -0.14    -0.06   0.02   0.03
  14   6     0.11   0.05  -0.09    -0.05  -0.01   0.01    -0.08  -0.03   0.06
  15   6    -0.06  -0.11  -0.05     0.06   0.16   0.05     0.01   0.13  -0.07
  16   6     0.06  -0.20   0.06     0.09  -0.13  -0.12     0.12  -0.02  -0.05
  17   1     0.10  -0.04   0.06    -0.01  -0.08  -0.03    -0.03   0.00  -0.05
  18   1     0.03   0.06  -0.12    -0.06   0.05  -0.19    -0.04   0.02  -0.07
  19   1     0.05   0.05  -0.13     0.02  -0.11   0.08    -0.01  -0.03   0.02
  20   1     0.00  -0.05   0.06    -0.05   0.04   0.04     0.03  -0.07  -0.03
  21   1    -0.06  -0.06  -0.00    -0.03  -0.09  -0.02    -0.08  -0.02   0.13
  22   1     0.06  -0.01   0.05    -0.01   0.04   0.01     0.04  -0.03  -0.08
  23   1    -0.08  -0.05  -0.00    -0.02  -0.10  -0.02    -0.12   0.00   0.06
  24   1    -0.01  -0.04   0.06    -0.05   0.03   0.04     0.00  -0.06  -0.09
  25   1     0.01  -0.06  -0.09     0.07  -0.03   0.04     0.04  -0.03   0.01
  26   1    -0.09  -0.04  -0.12     0.07   0.10   0.10     0.01   0.03  -0.02
  27   1    -0.02  -0.02  -0.00     0.03   0.02  -0.01    -0.02  -0.01   0.02
  28   1     0.07   0.02  -0.08    -0.02  -0.01   0.03    -0.02  -0.01   0.01
  29   1     0.02  -0.01  -0.05    -0.02  -0.00   0.03    -0.02  -0.01   0.02
  30   1    -0.12  -0.07  -0.07     0.04   0.09   0.11     0.00   0.04  -0.02
  31   1    -0.03  -0.09  -0.06     0.05  -0.04   0.05     0.02  -0.03   0.01
                     22                     23                     24
                        a                      a                      a 
 Frequencies --   608.9985               612.1932               663.2313
 Red. masses --    11.0369                11.1704                 9.5621
 Frc consts  --     0.0000                 0.0000                 0.0000
 IR Inten    --     9.4922                 1.0342                 0.0096
 Raman Activ --     0.0000                 0.0000                 0.0000
 Depolar     --     0.0000                 0.0000                 0.0000
 Atom AN      X      Y      Z        X      Y      Z        X      Y      Z
   1   6     0.10  -0.09   0.18     0.07  -0.09   0.10    -0.05   0.09  -0.11
   2   6     0.07   0.11   0.19     0.04  -0.18  -0.04    -0.01   0.10   0.00
   3   7     0.16  -0.03  -0.39     0.10   0.12  -0.10    -0.03  -0.14   0.01
   4   6    -0.10   0.08  -0.16    -0.01   0.03  -0.04     0.39   0.30  -0.01
   5   6     0.06  -0.22   0.01    -0.04  -0.09  -0.00    -0.20  -0.13   0.13
   6   6     0.16   0.01   0.11     0.08   0.04  -0.02     0.21   0.27   0.03
   7   6    -0.01  -0.12   0.20    -0.05  -0.08   0.06    -0.24  -0.15  -0.03
   8   6    -0.15   0.30  -0.00     0.03   0.10  -0.00     0.28   0.17  -0.09
   9   6    -0.22   0.05  -0.05    -0.10  -0.04   0.02    -0.12  -0.23   0.01
  10   6    -0.05   0.01   0.01     0.02  -0.08   0.03    -0.04  -0.04  -0.04
  11   6    -0.10   0.03  -0.19    -0.17  -0.31   0.24     0.02   0.02   0.03
  12   6     0.14   0.06   0.11    -0.41   0.10   0.22    -0.02  -0.01  -0.04
  13   6    -0.07  -0.11  -0.19    -0.05   0.08  -0.05     0.04   0.03   0.04
  14   6     0.03  -0.01  -0.05    -0.01   0.08  -0.04     0.04   0.02  -0.02
  15   6     0.05  -0.05   0.22     0.13   0.33  -0.21    -0.04  -0.08   0.00
  16   6    -0.20  -0.06  -0.08     0.36  -0.07  -0.18    -0.01  -0.02   0.06
  17   1     0.05  -0.07   0.07     0.02   0.01   0.03    -0.02   0.02  -0.04
  18   1     0.02  -0.01  -0.02     0.04  -0.04   0.11    -0.03   0.03  -0.06
  19   1     0.04  -0.06   0.06    -0.00   0.03  -0.00    -0.01   0.00  -0.02
  20   1     0.06  -0.02   0.04     0.01  -0.01   0.01    -0.20  -0.17   0.05
  21   1     0.05   0.08  -0.00     0.04   0.05  -0.02    -0.02  -0.04   0.05
  22   1     0.05  -0.07   0.01    -0.00  -0.02   0.01    -0.18  -0.16   0.02
  23   1    -0.01   0.12  -0.06     0.03   0.06  -0.02    -0.02  -0.05   0.03
  24   1    -0.00   0.01  -0.00     0.00   0.00   0.00    -0.19  -0.19   0.03
  25   1    -0.01   0.03  -0.00    -0.02  -0.09   0.05     0.02   0.01   0.02
  26   1     0.08   0.04   0.13    -0.10   0.04   0.05    -0.01  -0.01  -0.01
  27   1     0.07   0.03  -0.03    -0.01   0.04  -0.01    -0.01  -0.01   0.00
  28   1    -0.00  -0.01   0.03    -0.04   0.03   0.01     0.02   0.01  -0.02
  29   1     0.00  -0.00   0.02     0.02   0.05  -0.03     0.01  -0.00  -0.01
  30   1     0.06   0.03   0.14     0.00   0.10  -0.04    -0.02  -0.02   0.01
  31   1    -0.02   0.02   0.01     0.09  -0.04  -0.03     0.01   0.00   0.03
                     25                     26                     27
                        a                      a                      a 
 Frequencies --   677.7282               688.3728               757.4974
 Red. masses --    10.3991                10.2295                 5.4327
 Frc consts  --     0.0000                 0.0000                 0.0000
 IR Inten    --     3.2806                 6.6341                29.6928
 Raman Activ --     0.0000                 0.0000                 0.0000
 Depolar     --     0.0000                 0.0000                 0.0000
 Atom AN      X      Y      Z        X      Y      Z        X      Y      Z
   1   6    -0.07   0.16  -0.27     0.02   0.04  -0.03    -0.05   0.02  -0.03
   2   6     0.11   0.02  -0.17     0.17   0.17   0.04    -0.14  -0.01   0.05
   3   7     0.15   0.03  -0.02     0.23  -0.05  -0.19    -0.11  -0.06  -0.04
   4   6     0.04  -0.09   0.13    -0.04  -0.05   0.04     0.29   0.25  -0.04
   5   6    -0.01   0.06   0.10     0.01   0.02   0.05    -0.13  -0.10   0.10
   6   6    -0.07   0.04   0.14    -0.04  -0.03   0.09    -0.10  -0.03   0.11
   7   6    -0.07   0.07  -0.12    -0.00   0.02  -0.02    -0.15  -0.08  -0.03
   8   6     0.05  -0.13  -0.04    -0.07  -0.03  -0.02    -0.00  -0.16   0.01
   9   6     0.09  -0.08  -0.04    -0.02   0.02  -0.01    -0.06  -0.18   0.02
  10   6     0.09   0.09   0.32    -0.25  -0.19  -0.32    -0.03  -0.02   0.03
  11   6    -0.21  -0.12  -0.01    -0.06   0.04   0.23     0.04   0.06  -0.06
  12   6    -0.11   0.11   0.24    -0.27  -0.06  -0.09     0.07   0.02  -0.05
  13   6    -0.02  -0.04  -0.23     0.20   0.14   0.17    -0.02  -0.01   0.01
  14   6     0.19   0.10  -0.20     0.18   0.11  -0.12    -0.09  -0.05   0.08
  15   6     0.02  -0.11   0.27    -0.15  -0.24  -0.08     0.04   0.03  -0.04
  16   6    -0.19  -0.18  -0.01    -0.03   0.00   0.24     0.08  -0.02  -0.04
  17   1    -0.06   0.09  -0.12    -0.05   0.01  -0.07     0.04  -0.02   0.05
  18   1    -0.03   0.03  -0.02    -0.03   0.01  -0.05     0.01   0.02  -0.03
  19   1    -0.03   0.05  -0.06    -0.00  -0.06   0.07     0.00   0.04  -0.06
  20   1     0.03   0.05  -0.02     0.08   0.08  -0.01     0.20   0.21  -0.05
  21   1     0.05   0.01   0.05     0.07   0.05   0.01     0.25   0.22  -0.02
  22   1     0.02   0.05  -0.04     0.08   0.06  -0.04     0.30   0.31  -0.09
  23   1     0.06   0.00   0.03     0.05   0.06  -0.02     0.27   0.21  -0.02
  24   1     0.04   0.04  -0.04     0.06   0.09  -0.03     0.20   0.18  -0.06
  25   1    -0.10  -0.07  -0.08     0.04   0.06   0.16     0.03   0.02  -0.02
  26   1    -0.07  -0.03   0.06    -0.06  -0.02   0.06     0.03   0.02  -0.02
  27   1     0.13   0.07  -0.08    -0.04  -0.02  -0.00    -0.03  -0.01   0.02
  28   1     0.03   0.02  -0.00     0.08   0.04  -0.11    -0.02  -0.01   0.02
  29   1     0.05   0.03  -0.01     0.05   0.02  -0.09    -0.03  -0.02   0.02
  30   1    -0.07  -0.04   0.07    -0.05  -0.03   0.06     0.02   0.01  -0.01
  31   1    -0.09  -0.08  -0.06     0.05   0.05   0.17     0.03   0.01  -0.02
                     28                     29                     30
                        a                      a                      a 
 Frequencies --   799.0042               821.7173               849.9134
 Red. masses --     4.9423                10.3470                10.4643
 Frc consts  --     0.0000                 0.0000                 0.0000
 IR Inten    --    19.2622                20.7741                14.0535
 Raman Activ --     0.0000                 0.0000                 0.0000
 Depolar     --     0.0000                 0.0000                 0.0000
 Atom AN      X      Y      Z        X      Y      Z        X      Y      Z
   1   6     0.04  -0.01   0.07    -0.03  -0.01   0.05    -0.03  -0.09   0.15
   2   6     0.06   0.08   0.03    -0.08  -0.00   0.07    -0.18  -0.01   0.04
   3   7     0.01  -0.09   0.07     0.09   0.17  -0.39    -0.11   0.12  -0.25
   4   6     0.06   0.06  -0.02    -0.14  -0.12   0.02    -0.07  -0.01  -0.04
   5   6    -0.02  -0.03  -0.04     0.05   0.06   0.13     0.03   0.00   0.10
   6   6     0.01  -0.04  -0.08    -0.01   0.12   0.28    -0.02   0.09   0.23
   7   6     0.02  -0.04   0.06    -0.05   0.11  -0.17    -0.06   0.08  -0.13
   8   6    -0.07   0.07   0.01     0.19  -0.17  -0.03     0.17  -0.17  -0.02
   9   6    -0.05   0.03  -0.00     0.08  -0.06   0.04     0.06  -0.06   0.05
  10   6    -0.10  -0.10  -0.27    -0.18  -0.12  -0.03     0.09   0.04  -0.11
  11   6     0.11   0.02   0.21    -0.02   0.30  -0.03     0.11  -0.32   0.09
  12   6     0.09   0.03   0.17    -0.01   0.17  -0.01     0.15  -0.24   0.02
  13   6    -0.06  -0.05  -0.09     0.00  -0.01  -0.04    -0.04  -0.02   0.05
  14   6     0.03   0.01  -0.09    -0.19  -0.11   0.15     0.20   0.11  -0.18
  15   6     0.04   0.08   0.15     0.14  -0.07   0.01    -0.14   0.24  -0.03
  16   6     0.02   0.13   0.17     0.24  -0.12   0.01    -0.24   0.26   0.03
  17   1    -0.03  -0.00  -0.03     0.07  -0.06   0.09     0.11  -0.11   0.17
  18   1    -0.02  -0.01  -0.01     0.02   0.03  -0.07     0.05   0.02  -0.02
  19   1     0.01  -0.07   0.09     0.03   0.01  -0.05     0.03   0.03  -0.07
  20   1     0.02   0.02  -0.01    -0.04  -0.03   0.04     0.01   0.00   0.02
  21   1     0.01   0.03  -0.04    -0.01  -0.07   0.12     0.02  -0.02   0.09
  22   1     0.05   0.03   0.00    -0.13  -0.10  -0.02    -0.06  -0.03  -0.02
  23   1    -0.00   0.04  -0.03     0.01  -0.10   0.07     0.04  -0.06   0.06
  24   1     0.00   0.02   0.00     0.01   0.01  -0.00     0.03   0.01   0.00
  25   1    -0.20  -0.17  -0.29    -0.02   0.02  -0.15    -0.02  -0.07   0.09
  26   1    -0.19  -0.17  -0.33    -0.09  -0.04  -0.09     0.08  -0.01  -0.03
  27   1     0.13   0.07  -0.07    -0.03  -0.01   0.03     0.07   0.03  -0.06
  28   1    -0.02  -0.01   0.07    -0.07  -0.03   0.07     0.07   0.03  -0.05
  29   1     0.01   0.02   0.05    -0.05  -0.03   0.06     0.06   0.04  -0.05
  30   1    -0.18  -0.14  -0.30    -0.04  -0.07  -0.08     0.01   0.05  -0.06
  31   1    -0.19  -0.13  -0.26     0.04  -0.02  -0.12    -0.11   0.00   0.03
                     31                     32                     33
                        a                      a                      a 
 Frequencies --   864.0711               869.5399               881.4239
 Red. masses --     3.3091                 3.3489                 3.8561
 Frc consts  --     0.0000                 0.0000                 0.0000
 IR Inten    --     1.7618                 2.4006                 2.2274
 Raman Activ --     0.0000                 0.0000                 0.0000
 Depolar     --     0.0000                 0.0000                 0.0000
 Atom AN      X      Y      Z        X      Y      Z        X      Y      Z
   1   6     0.00  -0.00   0.00     0.01   0.01  -0.01     0.00  -0.01   0.02
   2   6     0.00   0.01  -0.00     0.01   0.00   0.00     0.00   0.00  -0.01
   3   7    -0.01  -0.00  -0.00     0.01  -0.01   0.01     0.02   0.04  -0.06
   4   6     0.01   0.00   0.01     0.01   0.01   0.00    -0.09  -0.07   0.01
   5   6     0.21   0.20  -0.07    -0.01  -0.01  -0.00     0.16   0.14  -0.02
   6   6     0.12   0.11  -0.05     0.00  -0.00  -0.01    -0.06  -0.03   0.05
   7   6    -0.03  -0.04   0.02     0.01   0.01  -0.00    -0.25  -0.22   0.03
   8   6    -0.15  -0.13   0.04    -0.00   0.01  -0.00     0.04  -0.02  -0.01
   9   6    -0.16  -0.15   0.04    -0.01  -0.00   0.00     0.20   0.19  -0.03
  10   6     0.01   0.00   0.00    -0.01  -0.00  -0.01    -0.00  -0.00  -0.01
  11   6    -0.00  -0.01  -0.00    -0.12  -0.08  -0.19    -0.01   0.00  -0.01
  12   6     0.00  -0.01  -0.00    -0.11  -0.06  -0.15    -0.01   0.00  -0.01
  13   6    -0.00  -0.00   0.00    -0.00   0.00  -0.01     0.00  -0.00  -0.00
  14   6     0.00   0.00  -0.00    -0.01  -0.00   0.01    -0.00  -0.00   0.00
  15   6    -0.00   0.00   0.01     0.12   0.06   0.19     0.01   0.00   0.02
  16   6    -0.00   0.00   0.01     0.13   0.08   0.20     0.01   0.00   0.01
  17   1    -0.00   0.00  -0.00    -0.00   0.00  -0.01     0.01  -0.01   0.02
  18   1     0.00  -0.00   0.00    -0.00   0.00  -0.00     0.00   0.00  -0.00
  19   1     0.00  -0.00   0.00    -0.00   0.00   0.01     0.01  -0.00   0.00
  20   1    -0.41  -0.40   0.11     0.02   0.02  -0.01    -0.27  -0.27   0.08
  21   1    -0.23  -0.21   0.05    -0.00  -0.00  -0.00     0.15   0.14  -0.02
  22   1     0.06   0.06  -0.01    -0.02  -0.02   0.01     0.37   0.36  -0.10
  23   1     0.28   0.28  -0.07    -0.01  -0.01   0.00     0.03   0.02  -0.00
  24   1     0.29   0.30  -0.08     0.01   0.01  -0.00    -0.36  -0.36   0.10
  25   1     0.01   0.00   0.01     0.21   0.18   0.35     0.01   0.01   0.02
  26   1     0.00   0.00   0.00     0.17   0.15   0.31     0.00   0.00   0.01
  27   1     0.00   0.00  -0.00     0.01  -0.00  -0.00     0.00   0.00  -0.00
  28   1     0.00   0.00  -0.00    -0.00  -0.00   0.01    -0.00  -0.00   0.00
  29   1     0.00   0.00  -0.00    -0.01  -0.01   0.01    -0.00   0.00   0.00
  30   1    -0.01  -0.00  -0.01    -0.21  -0.18  -0.36    -0.02  -0.02  -0.03
  31   1    -0.01  -0.00  -0.01    -0.21  -0.18  -0.38    -0.01  -0.01  -0.02
                     34                     35                     36
                        a                      a                      a 
 Frequencies --   913.2174               919.5524               923.6660
 Red. masses --     2.9055                 3.9886                 2.8499
 Frc consts  --     0.0000                 0.0000                 0.0000
 IR Inten    --     0.0480                 0.1556                 0.0110
 Raman Activ --     0.0000                 0.0000                 0.0000
 Depolar     --     0.0000                 0.0000                 0.0000
 Atom AN      X      Y      Z        X      Y      Z        X      Y      Z
   1   6     0.00   0.00  -0.01    -0.00   0.00  -0.01     0.00  -0.00  -0.00
   2   6    -0.00  -0.01   0.00    -0.00   0.00   0.00     0.00   0.00   0.00
   3   7    -0.00   0.00   0.00    -0.00  -0.01   0.01    -0.00  -0.01   0.00
   4   6    -0.00  -0.00   0.00     0.01  -0.01   0.02     0.06   0.05  -0.01
   5   6    -0.01   0.00   0.00     0.13   0.13  -0.04     0.04   0.05  -0.01
   6   6    -0.00  -0.01  -0.00    -0.19  -0.19   0.03    -0.18  -0.18   0.04
   7   6     0.01   0.00   0.00    -0.01  -0.02   0.02     0.18   0.16  -0.04
   8   6    -0.00   0.00   0.00     0.22   0.23  -0.05    -0.13  -0.11   0.03
   9   6    -0.00  -0.00  -0.00    -0.17  -0.16   0.03     0.02   0.01  -0.02
  10   6    -0.01  -0.00  -0.01     0.00   0.00   0.00     0.00   0.00   0.00
  11   6    -0.13  -0.10  -0.21    -0.00  -0.00  -0.00     0.01   0.01   0.01
  12   6     0.13   0.11   0.22     0.01  -0.00   0.00    -0.01  -0.01  -0.02
  13   6     0.01   0.01   0.02    -0.00  -0.00   0.00    -0.00  -0.00   0.00
  14   6    -0.00  -0.00  -0.00     0.00   0.00  -0.00     0.00  -0.00  -0.00
  15   6     0.05   0.03   0.07    -0.01  -0.00  -0.01     0.01   0.01   0.02
  16   6    -0.05  -0.05  -0.09     0.00   0.00   0.01    -0.01  -0.01  -0.01
  17   1    -0.00   0.00  -0.00    -0.00   0.00  -0.00    -0.00   0.00  -0.00
  18   1    -0.00  -0.00   0.00    -0.00   0.00   0.00     0.00  -0.00   0.00
  19   1    -0.01   0.01  -0.00    -0.00   0.00  -0.00    -0.00   0.00  -0.00
  20   1     0.00   0.00  -0.00    -0.21  -0.20   0.05    -0.17  -0.16   0.05
  21   1     0.01   0.01  -0.00     0.30   0.29  -0.08     0.40   0.38  -0.10
  22   1    -0.01  -0.01   0.00     0.04   0.03  -0.00    -0.36  -0.35   0.09
  23   1     0.00   0.01  -0.00    -0.39  -0.38   0.10     0.29   0.28  -0.07
  24   1     0.00   0.00  -0.00     0.27   0.28  -0.08    -0.12  -0.13   0.03
  25   1     0.26   0.22   0.44     0.00   0.00   0.00    -0.01  -0.01  -0.02
  26   1    -0.27  -0.23  -0.46    -0.00  -0.00  -0.00     0.02   0.01   0.02
  27   1     0.01   0.01  -0.00     0.00  -0.00  -0.00     0.00   0.00  -0.00
  28   1    -0.00  -0.00   0.01     0.00   0.00  -0.00    -0.00  -0.00   0.00
  29   1    -0.00   0.00   0.01     0.00  -0.00  -0.00     0.00   0.00  -0.00
  30   1    -0.12  -0.11  -0.22     0.01   0.01   0.01    -0.02  -0.01  -0.03
  31   1     0.15   0.12   0.26    -0.01  -0.00  -0.01     0.01   0.01   0.02
                     37                     38                     39
                        a                      a                      a 
 Frequencies --   927.3286               976.0260               997.1504
 Red. masses --     3.9209                 9.7568                 5.4958
 Frc consts  --     0.0000                 0.0000                 0.0000
 IR Inten    --     0.8241                11.5120                 6.1902
 Raman Activ --     0.0000                 0.0000                 0.0000
 Depolar     --     0.0000                 0.0000                 0.0000
 Atom AN      X      Y      Z        X      Y      Z        X      Y      Z
   1   6     0.00   0.00   0.00     0.18  -0.09  -0.02     0.07  -0.33  -0.16
   2   6     0.00  -0.00   0.00     0.02   0.12  -0.04    -0.04   0.33   0.13
   3   7     0.00  -0.00   0.00    -0.12  -0.04   0.10    -0.06   0.02  -0.07
   4   6     0.01   0.01  -0.00    -0.06   0.09  -0.14    -0.04  -0.01   0.00
   5   6     0.01  -0.00  -0.00     0.30  -0.36  -0.15    -0.10   0.12   0.06
   6   6    -0.01  -0.01   0.00    -0.06   0.09   0.14     0.02  -0.01  -0.01
   7   6     0.00   0.01  -0.01    -0.18   0.12  -0.27     0.05  -0.03   0.09
   8   6    -0.01  -0.01   0.00     0.12  -0.14  -0.05     0.01  -0.00   0.02
   9   6     0.01   0.01   0.01    -0.15   0.22   0.40     0.07  -0.10  -0.16
  10   6     0.01   0.01  -0.00     0.03   0.03  -0.01    -0.04   0.02  -0.04
  11   6    -0.08  -0.07  -0.14     0.01  -0.02  -0.00     0.02  -0.03   0.02
  12   6     0.08   0.08   0.16    -0.03   0.03  -0.00     0.06  -0.05  -0.00
  13   6    -0.00  -0.00  -0.01     0.00   0.02  -0.01    -0.03   0.05  -0.01
  14   6    -0.00   0.01   0.00    -0.03   0.01   0.01    -0.08   0.12  -0.01
  15   6    -0.15  -0.14  -0.25     0.02  -0.08   0.03     0.02  -0.07   0.02
  16   6     0.14   0.11   0.24     0.01  -0.03  -0.01     0.05  -0.05   0.00
  17   1     0.00  -0.00  -0.00    -0.11   0.13  -0.16    -0.03   0.23  -0.03
  18   1    -0.00   0.00  -0.01    -0.01  -0.10   0.21     0.15  -0.18   0.52
  19   1    -0.00  -0.00   0.00    -0.04  -0.03   0.14    -0.13   0.26  -0.16
  20   1    -0.01  -0.01   0.00     0.08  -0.10  -0.10    -0.02   0.03   0.06
  21   1     0.02   0.02  -0.00    -0.06   0.08  -0.00     0.02  -0.03   0.01
  22   1    -0.02  -0.02   0.00    -0.06   0.03  -0.07     0.01   0.00   0.03
  23   1     0.03   0.03  -0.01     0.02  -0.03  -0.08     0.01  -0.01   0.06
  24   1    -0.02  -0.02   0.01    -0.06   0.11   0.09     0.03  -0.05  -0.03
  25   1     0.11   0.09   0.18    -0.01  -0.00   0.00    -0.05  -0.01   0.02
  26   1    -0.13  -0.11  -0.22    -0.00   0.02  -0.00     0.02  -0.01  -0.01
  27   1    -0.01  -0.00   0.00     0.00  -0.01   0.00     0.06  -0.04  -0.02
  28   1     0.01   0.00  -0.01     0.02   0.00  -0.01     0.15   0.02  -0.09
  29   1    -0.01  -0.01   0.00    -0.03  -0.03   0.03    -0.12  -0.12   0.12
  30   1     0.26   0.21   0.45    -0.01  -0.02   0.01    -0.01  -0.02   0.01
  31   1    -0.25  -0.20  -0.43     0.02   0.01   0.01     0.02   0.00  -0.03
                     40                     41                     42
                        a                      a                      a 
 Frequencies --  1007.9075              1010.7397              1027.2766
 Red. masses --     9.1663                 4.5292                 6.8181
 Frc consts  --     0.0000                 0.0000                 0.0000
 IR Inten    --     6.3948                 8.5003                20.6972
 Raman Activ --     0.0000                 0.0000                 0.0000
 Depolar     --     0.0000                 0.0000                 0.0000
 Atom AN      X      Y      Z        X      Y      Z        X      Y      Z
   1   6    -0.00  -0.02   0.15     0.02   0.14   0.06     0.39   0.03   0.16
   2   6    -0.03   0.00  -0.12     0.01  -0.14  -0.06    -0.10   0.02  -0.21
   3   7    -0.09   0.01   0.00     0.02   0.01   0.00    -0.25   0.06  -0.10
   4   6    -0.01   0.02  -0.03     0.01  -0.00  -0.00    -0.09   0.07  -0.15
   5   6    -0.03   0.04   0.03     0.00  -0.01  -0.00    -0.14   0.17   0.10
   6   6     0.00  -0.00   0.02    -0.00   0.00   0.00     0.00   0.02   0.10
   7   6     0.01  -0.01   0.02    -0.00  -0.00  -0.01     0.06  -0.04   0.09
   8   6     0.02  -0.02   0.01    -0.01   0.01  -0.00     0.07  -0.07   0.02
   9   6     0.02  -0.04  -0.05    -0.01   0.01   0.02     0.07  -0.13  -0.18
  10   6     0.16   0.10  -0.12    -0.06   0.03   0.04     0.02   0.03   0.05
  11   6     0.15  -0.29   0.07    -0.07   0.04   0.03    -0.01   0.02  -0.03
  12   6    -0.27   0.30   0.00     0.13  -0.23   0.03     0.02  -0.01  -0.01
  13   6     0.08   0.08  -0.09    -0.08   0.06   0.02    -0.00  -0.00   0.01
  14   6    -0.15   0.05   0.07    -0.18   0.34  -0.05     0.04  -0.05  -0.01
  15   6     0.20  -0.42   0.09     0.04   0.02  -0.03    -0.04   0.02   0.00
  16   6    -0.17   0.24  -0.04     0.12  -0.09  -0.04     0.02  -0.06   0.01
  17   1     0.04  -0.08   0.08    -0.02  -0.07  -0.04    -0.18   0.08  -0.29
  18   1    -0.00   0.02  -0.06    -0.07   0.06  -0.18    -0.12  -0.09   0.06
  19   1     0.03  -0.05   0.04     0.05  -0.13   0.11     0.02  -0.27   0.45
  20   1    -0.00   0.02   0.03    -0.00  -0.00  -0.01    -0.02   0.06   0.10
  21   1     0.01  -0.01   0.01     0.00   0.00   0.00     0.05  -0.04   0.06
  22   1     0.00   0.00   0.01     0.00  -0.01  -0.01     0.02  -0.01   0.03
  23   1     0.01  -0.00   0.02    -0.00   0.00  -0.01     0.04  -0.02   0.07
  24   1     0.03  -0.02  -0.01    -0.00   0.00   0.01     0.09  -0.08  -0.03
  25   1     0.16  -0.09  -0.05    -0.12   0.02   0.06    -0.02   0.02   0.02
  26   1    -0.02   0.18  -0.07     0.01  -0.13   0.07     0.01   0.00   0.00
  27   1     0.01  -0.05   0.01     0.17  -0.11  -0.06    -0.02   0.03   0.00
  28   1     0.08   0.00  -0.03     0.42   0.05  -0.23    -0.06  -0.01   0.04
  29   1    -0.12  -0.11   0.12    -0.30  -0.31   0.30     0.05   0.05  -0.05
  30   1     0.19  -0.13  -0.05     0.01   0.00  -0.01    -0.05   0.01   0.04
  31   1     0.03   0.20  -0.09     0.05   0.00  -0.01    -0.00  -0.04   0.02
                     43                     44                     45
                        a                      a                      a 
 Frequencies --  1029.9025              1079.4420              1106.6242
 Red. masses --     4.6717                 6.6379                 7.9191
 Frc consts  --     0.0000                 0.0000                 0.0000
 IR Inten    --    11.9741                 0.9023                59.7574
 Raman Activ --     0.0000                 0.0000                 0.0000
 Depolar     --     0.0000                 0.0000                 0.0000
 Atom AN      X      Y      Z        X      Y      Z        X      Y      Z
   1   6     0.01   0.00   0.00     0.01  -0.01   0.01     0.10   0.15  -0.27
   2   6    -0.00  -0.00  -0.00    -0.01   0.01  -0.02    -0.05  -0.21   0.37
   3   7    -0.00   0.00  -0.00    -0.01   0.01  -0.02     0.09   0.06  -0.10
   4   6    -0.00   0.00  -0.00    -0.00  -0.00  -0.02     0.03  -0.09   0.02
   5   6    -0.00   0.00   0.00     0.08  -0.05   0.12    -0.04   0.05  -0.02
   6   6     0.00  -0.00   0.00     0.14  -0.21  -0.24     0.00   0.01   0.03
   7   6     0.00  -0.00   0.00    -0.23   0.14  -0.37     0.03  -0.04  -0.03
   8   6     0.00  -0.00   0.00    -0.20   0.25   0.17    -0.05   0.06   0.01
   9   6     0.00  -0.00  -0.00     0.08  -0.05   0.14     0.00   0.02   0.07
  10   6    -0.01  -0.01  -0.00     0.00   0.00  -0.00    -0.30  -0.18   0.23
  11   6     0.01   0.00   0.03    -0.00   0.00  -0.00     0.07  -0.16   0.04
  12   6     0.03   0.02   0.05     0.00  -0.00   0.00     0.10   0.00  -0.06
  13   6    -0.17  -0.15  -0.30    -0.00   0.00   0.00    -0.00  -0.01   0.01
  14   6     0.22   0.17   0.33     0.00  -0.00  -0.00    -0.02   0.00   0.00
  15   6     0.02   0.03   0.05    -0.00  -0.00   0.00     0.07   0.10  -0.08
  16   6     0.00   0.01   0.02     0.00  -0.01  -0.00    -0.14   0.16   0.01
  17   1    -0.00   0.00  -0.01    -0.00  -0.00  -0.00    -0.15   0.16  -0.27
  18   1    -0.00  -0.00  -0.00    -0.00  -0.00   0.01    -0.06  -0.02   0.01
  19   1     0.00  -0.01   0.01     0.00  -0.01   0.01    -0.03  -0.01   0.07
  20   1    -0.00   0.00   0.00     0.09  -0.00   0.30    -0.04   0.00  -0.10
  21   1     0.00   0.00   0.00     0.25  -0.25   0.04     0.04  -0.04   0.04
  22   1     0.00  -0.00   0.00    -0.06   0.03  -0.12     0.05  -0.07  -0.07
  23   1     0.00  -0.00   0.00    -0.00   0.08   0.32    -0.03   0.01  -0.07
  24   1     0.00  -0.00  -0.00     0.26  -0.21   0.16     0.04  -0.04   0.05
  25   1    -0.02  -0.02  -0.04    -0.00   0.00   0.00     0.22  -0.07  -0.10
  26   1    -0.03  -0.02  -0.05    -0.00  -0.00   0.00     0.08   0.11  -0.10
  27   1    -0.48  -0.28   0.27    -0.00   0.00  -0.00     0.01  -0.00  -0.00
  28   1     0.16   0.11  -0.38    -0.00  -0.00   0.00     0.01  -0.00   0.00
  29   1     0.05  -0.04  -0.29     0.00   0.00  -0.00    -0.01  -0.00   0.01
  30   1    -0.03  -0.03  -0.06    -0.01   0.00   0.00     0.20   0.01  -0.12
  31   1    -0.03  -0.02  -0.04     0.00   0.00   0.00     0.02   0.19  -0.12
                     46                     47                     48
                        a                      a                      a 
 Frequencies --  1117.0798              1150.2430              1180.9808
 Red. masses --     4.2360                 3.0017                 1.4272
 Frc consts  --     0.0000                 0.0000                 0.0000
 IR Inten    --     5.8216                 2.0154                 0.2257
 Raman Activ --     0.0000                 0.0000                 0.0000
 Depolar     --     0.0000                 0.0000                 0.0000
 Atom AN      X      Y      Z        X      Y      Z        X      Y      Z
   1   6    -0.03  -0.05   0.05    -0.01   0.03   0.00     0.01  -0.00   0.01
   2   6     0.01   0.06  -0.08    -0.01  -0.04  -0.00    -0.02   0.01  -0.01
   3   7    -0.03  -0.00   0.07     0.03   0.01  -0.02    -0.01   0.01  -0.01
   4   6     0.07  -0.08  -0.12     0.02  -0.02   0.05    -0.01   0.03   0.06
   5   6    -0.18   0.16  -0.07     0.01  -0.01  -0.00    -0.05   0.03  -0.09
   6   6    -0.03   0.08   0.19     0.01  -0.01  -0.02    -0.01   0.01  -0.01
   7   6     0.11  -0.14  -0.10    -0.00   0.00  -0.00     0.05  -0.06  -0.06
   8   6    -0.10   0.10  -0.01    -0.01   0.01   0.00    -0.01   0.02   0.06
   9   6     0.02   0.02   0.23    -0.00   0.01   0.01     0.04  -0.02   0.07
  10   6     0.08   0.05  -0.05    -0.13   0.13  -0.00     0.01   0.00  -0.00
  11   6    -0.01   0.03  -0.01    -0.02  -0.16   0.10     0.00   0.00  -0.00
  12   6    -0.02   0.00   0.01     0.16  -0.05  -0.07    -0.00   0.00   0.00
  13   6    -0.00   0.01  -0.00    -0.08   0.12  -0.02     0.00  -0.00  -0.00
  14   6     0.01  -0.00   0.00     0.03  -0.06   0.01    -0.00  -0.00   0.00
  15   6    -0.02  -0.03   0.02    -0.03  -0.12   0.08     0.00  -0.00   0.00
  16   6     0.03  -0.04  -0.01     0.14  -0.03  -0.06    -0.00  -0.00   0.00
  17   1     0.04  -0.03   0.07     0.01  -0.03   0.01     0.00  -0.00   0.00
  18   1     0.02  -0.00   0.02    -0.01   0.01  -0.03    -0.00  -0.00   0.00
  19   1    -0.00   0.02  -0.03     0.01  -0.01   0.00    -0.00  -0.00   0.01
  20   1    -0.14   0.03  -0.39    -0.00  -0.00  -0.02     0.00   0.01   0.04
  21   1     0.15  -0.11   0.14    -0.01   0.00  -0.01    -0.25   0.22  -0.14
  22   1     0.20  -0.27  -0.24    -0.00   0.00   0.00     0.34  -0.47  -0.43
  23   1    -0.09   0.02  -0.29    -0.00   0.00   0.00     0.10   0.02   0.50
  24   1     0.31  -0.23   0.22    -0.03   0.02  -0.01    -0.16   0.14  -0.07
  25   1    -0.06   0.02   0.03    -0.33  -0.01   0.20     0.00   0.00  -0.00
  26   1    -0.02  -0.02   0.02     0.21   0.32  -0.28    -0.00  -0.00   0.00
  27   1    -0.00   0.00   0.00    -0.02   0.02   0.01     0.00  -0.00   0.00
  28   1    -0.01   0.00   0.00    -0.05  -0.01   0.02    -0.00  -0.00   0.00
  29   1     0.00   0.00  -0.00     0.04   0.04  -0.04    -0.00  -0.00   0.00
  30   1    -0.06  -0.00   0.04    -0.41   0.00   0.23     0.00  -0.00  -0.00
  31   1    -0.00  -0.04   0.02     0.20   0.32  -0.26    -0.00  -0.01   0.01
                     49                     50                     51
                        a                      a                      a 
 Frequencies --  1190.1521              1203.3776              1237.9879
 Red. masses --     1.9504                 2.0215                 7.5922
 Frc consts  --     0.0000                 0.0000                 0.0000
 IR Inten    --     5.7223                14.3236                 4.9600
 Raman Activ --     0.0000                 0.0000                 0.0000
 Depolar     --     0.0000                 0.0000                 0.0000
 Atom AN      X      Y      Z        X      Y      Z        X      Y      Z
   1   6    -0.03   0.01  -0.02    -0.00   0.03  -0.03    -0.02  -0.08   0.12
   2   6     0.05  -0.03   0.05    -0.02  -0.04   0.07     0.05   0.19  -0.30
   3   7     0.04  -0.03   0.06     0.01   0.00   0.00     0.01  -0.02   0.01
   4   6    -0.07   0.05  -0.07    -0.01   0.01  -0.02     0.02   0.01   0.07
   5   6     0.01   0.02   0.09    -0.00   0.00   0.01     0.02  -0.02   0.01
   6   6    -0.10   0.10   0.01    -0.01   0.01   0.00     0.01  -0.02  -0.02
   7   6    -0.01   0.00  -0.02     0.00  -0.00  -0.00    -0.01   0.01  -0.01
   8   6     0.03  -0.06  -0.12     0.00  -0.01  -0.01    -0.02   0.01  -0.01
   9   6     0.07  -0.07   0.02     0.00  -0.00  -0.00     0.01  -0.01   0.01
  10   6    -0.02  -0.02   0.01     0.03   0.02  -0.03    -0.14  -0.04   0.12
  11   6     0.00  -0.01   0.00    -0.10   0.07   0.02    -0.01   0.13  -0.07
  12   6     0.01  -0.01   0.00    -0.01   0.09  -0.04    -0.05  -0.09   0.07
  13   6    -0.00   0.00   0.00    -0.11  -0.04   0.09    -0.37  -0.18   0.31
  14   6     0.00   0.00  -0.00     0.04   0.02  -0.05     0.16   0.09  -0.15
  15   6    -0.01   0.01  -0.00     0.08  -0.07  -0.02    -0.10  -0.01   0.06
  16   6    -0.00   0.01  -0.00     0.02  -0.12   0.04     0.12  -0.11  -0.02
  17   1    -0.00   0.00  -0.00    -0.00  -0.01  -0.02     0.05  -0.03   0.10
  18   1     0.00   0.01  -0.02    -0.01  -0.00  -0.00     0.04   0.00   0.02
  19   1     0.00   0.02  -0.03    -0.00   0.00  -0.00     0.01  -0.02   0.01
  20   1     0.11   0.02   0.52     0.01   0.00   0.04    -0.00  -0.00  -0.05
  21   1    -0.37   0.34  -0.19    -0.02   0.02  -0.01    -0.03   0.02  -0.02
  22   1     0.05  -0.06  -0.06     0.00  -0.00  -0.00    -0.01   0.01   0.00
  23   1    -0.06  -0.03  -0.33    -0.00  -0.00  -0.01    -0.01   0.00  -0.01
  24   1     0.33  -0.28   0.16     0.02  -0.02   0.01     0.01  -0.01   0.01
  25   1     0.02  -0.00  -0.01    -0.40   0.06   0.21     0.33   0.01  -0.19
  26   1    -0.00  -0.01   0.00     0.17   0.40  -0.30     0.07   0.16  -0.12
  27   1     0.00   0.00  -0.00     0.02   0.01  -0.02     0.08   0.03  -0.05
  28   1    -0.00  -0.00   0.00     0.04   0.00  -0.01     0.10   0.02  -0.06
  29   1    -0.00  -0.00   0.00     0.03   0.03  -0.02     0.08   0.07  -0.07
  30   1    -0.03   0.01   0.01     0.45  -0.06  -0.23     0.20  -0.03  -0.10
  31   1     0.02   0.05  -0.04    -0.12  -0.31   0.21     0.15   0.21  -0.18
                     52                     53                     54
                        a                      a                      a 
 Frequencies --  1260.7904              1275.9583              1280.8353
 Red. masses --     9.7438                 6.2687                 3.5441
 Frc consts  --     0.0000                 0.0000                 0.0000
 IR Inten    --    24.5063                43.8891                 3.8021
 Raman Activ --     0.0000                 0.0000                 0.0000
 Depolar     --     0.0000                 0.0000                 0.0000
 Atom AN      X      Y      Z        X      Y      Z        X      Y      Z
   1   6     0.08  -0.05   0.09     0.03   0.02  -0.06    -0.03  -0.02   0.03
   2   6    -0.18   0.17  -0.27    -0.12  -0.11   0.18     0.06  -0.01  -0.02
   3   7    -0.07   0.10  -0.25    -0.07   0.06  -0.06     0.04  -0.01   0.06
   4   6     0.30  -0.20   0.44     0.22  -0.26  -0.11    -0.02  -0.00  -0.11
   5   6     0.06  -0.04   0.11    -0.04   0.03  -0.02    -0.02   0.01  -0.05
   6   6     0.02  -0.06  -0.16    -0.10   0.09  -0.05    -0.03   0.03   0.03
   7   6    -0.05   0.04  -0.05    -0.04   0.05   0.02    -0.00   0.01   0.02
   8   6    -0.13   0.14   0.01    -0.03   0.07   0.16     0.02  -0.02   0.02
   9   6     0.11  -0.08   0.12     0.07  -0.04   0.10    -0.01   0.00  -0.00
  10   6    -0.13  -0.00   0.10     0.20   0.10  -0.17    -0.20   0.22  -0.00
  11   6    -0.02  -0.08   0.05     0.07   0.08  -0.07    -0.11  -0.01   0.07
  12   6     0.08   0.00  -0.05    -0.11   0.01   0.06    -0.00  -0.11   0.06
  13   6     0.15   0.07  -0.12    -0.17  -0.06   0.13     0.13  -0.15  -0.00
  14   6    -0.06  -0.03   0.06     0.07   0.03  -0.06    -0.05   0.05   0.01
  15   6     0.04   0.05  -0.05    -0.04  -0.09   0.06     0.13  -0.01  -0.07
  16   6    -0.07  -0.00   0.04     0.09  -0.01  -0.05     0.03   0.07  -0.05
  17   1     0.04  -0.03   0.05    -0.04   0.03  -0.06    -0.01   0.02   0.01
  18   1    -0.01  -0.04   0.07    -0.02  -0.01   0.01     0.02   0.02  -0.03
  19   1    -0.00  -0.06   0.11    -0.01   0.00   0.01     0.01   0.02  -0.03
  20   1     0.01  -0.01  -0.08     0.08   0.03   0.36     0.02   0.01   0.10
  21   1    -0.14   0.11  -0.13     0.15  -0.13   0.08     0.07  -0.05   0.05
  22   1    -0.01  -0.00  -0.03     0.09  -0.12  -0.12     0.02  -0.03  -0.02
  23   1    -0.10   0.03  -0.27    -0.09   0.01  -0.33     0.00  -0.01  -0.02
  24   1    -0.09   0.07  -0.02    -0.29   0.25  -0.13    -0.03   0.03  -0.02
  25   1     0.01  -0.02   0.01    -0.01   0.02  -0.01     0.39  -0.05  -0.21
  26   1     0.03   0.00  -0.02    -0.05  -0.04   0.05     0.16   0.30  -0.24
  27   1    -0.02  -0.01   0.02     0.02   0.01  -0.02     0.03  -0.03  -0.01
  28   1    -0.03  -0.01   0.02     0.03   0.01  -0.02     0.06   0.00  -0.02
  29   1    -0.03  -0.02   0.03     0.03   0.03  -0.03    -0.04  -0.04   0.03
  30   1     0.02   0.02  -0.02    -0.03  -0.03   0.03    -0.33   0.03   0.17
  31   1    -0.08  -0.12   0.10     0.04   0.03  -0.03    -0.17  -0.34   0.26
                     55                     56                     57
                        a                      a                      a 
 Frequencies --  1283.4334              1316.6511              1320.3860
 Red. masses --     8.4716                11.4229                11.6396
 Frc consts  --     0.0000                 0.0000                 0.0000
 IR Inten    --   140.7513                 4.0232                 1.8953
 Raman Activ --     0.0000                 0.0000                 0.0000
 Depolar     --     0.0000                 0.0000                 0.0000
 Atom AN      X      Y      Z        X      Y      Z        X      Y      Z
   1   6    -0.06  -0.06   0.08    -0.00   0.01   0.00     0.02   0.00  -0.02
   2   6     0.19   0.19  -0.30    -0.01  -0.02   0.03    -0.03   0.01   0.01
   3   7     0.07  -0.07   0.17     0.01   0.00  -0.00    -0.02  -0.00  -0.02
   4   6    -0.01  -0.04  -0.29    -0.19   0.25   0.22    -0.06   0.09   0.11
   5   6    -0.05   0.03  -0.11    -0.08  -0.03  -0.40    -0.02  -0.01  -0.14
   6   6    -0.08   0.09   0.05     0.20  -0.18   0.12     0.08  -0.08   0.03
   7   6    -0.02   0.03   0.06    -0.20   0.27   0.25    -0.08   0.10   0.09
   8   6     0.04  -0.03   0.08    -0.05  -0.02  -0.29    -0.03   0.00  -0.11
   9   6     0.00  -0.01   0.02     0.27  -0.24   0.12     0.11  -0.10   0.05
  10   6    -0.22  -0.22   0.25    -0.08   0.13  -0.03     0.25  -0.32   0.03
  11   6    -0.09  -0.08   0.08     0.13  -0.02  -0.06    -0.32   0.06   0.15
  12   6     0.16   0.02  -0.10    -0.04  -0.09   0.07     0.09   0.25  -0.18
  13   6     0.16   0.11  -0.15    -0.08   0.13  -0.02     0.19  -0.36   0.07
  14   6    -0.07  -0.05   0.07     0.01  -0.02   0.01    -0.02   0.07  -0.02
  15   6    -0.01   0.13  -0.06     0.11  -0.02  -0.06    -0.30   0.03   0.16
  16   6    -0.11  -0.01   0.08    -0.04  -0.10   0.08     0.13   0.28  -0.21
  17   1     0.07  -0.05   0.11    -0.01  -0.00  -0.01    -0.00   0.01  -0.01
  18   1     0.04   0.01  -0.00    -0.01   0.00  -0.01    -0.00  -0.01   0.01
  19   1     0.01   0.00  -0.03     0.00   0.00  -0.00    -0.01  -0.01   0.02
  20   1     0.06   0.02   0.30     0.02  -0.00   0.06     0.00  -0.00  -0.00
  21   1     0.18  -0.15   0.13     0.10  -0.08   0.05     0.02  -0.02   0.01
  22   1     0.07  -0.09  -0.07     0.05  -0.07  -0.07     0.02  -0.02  -0.02
  23   1    -0.01  -0.01  -0.10    -0.02  -0.01  -0.11    -0.01  -0.00  -0.05
  24   1    -0.14   0.13  -0.08    -0.02   0.01  -0.01    -0.01   0.00  -0.00
  25   1    -0.08  -0.02   0.07    -0.01  -0.00   0.00    -0.00   0.01  -0.00
  26   1     0.04  -0.02  -0.01    -0.01  -0.03   0.02     0.02   0.06  -0.04
  27   1    -0.03  -0.01   0.02    -0.02   0.02   0.00     0.04  -0.06  -0.01
  28   1    -0.04  -0.01   0.03    -0.03  -0.00   0.00     0.08   0.00  -0.01
  29   1    -0.02  -0.02   0.03     0.02   0.02  -0.01    -0.04  -0.05   0.03
  30   1     0.15   0.02  -0.10     0.02  -0.00  -0.01    -0.06   0.00   0.03
  31   1     0.01   0.10  -0.06    -0.00  -0.01   0.00     0.01   0.02  -0.01
                     58                     59                     60
                        a                      a                      a 
 Frequencies --  1380.0674              1402.2344              1404.3922
 Red. masses --     3.4838                 3.2906                 9.4859
 Frc consts  --     0.0000                 0.0000                 0.0000
 IR Inten    --    18.2376                 5.7814                 0.7857
 Raman Activ --     0.0000                 0.0000                 0.0000
 Depolar     --     0.0000                 0.0000                 0.0000
 Atom AN      X      Y      Z        X      Y      Z        X      Y      Z
   1   6     0.16  -0.25   0.35     0.01  -0.01   0.01    -0.03   0.04  -0.03
   2   6    -0.02   0.03  -0.05     0.00   0.01  -0.01     0.00  -0.06   0.03
   3   7    -0.01   0.00  -0.01    -0.00  -0.00  -0.00     0.04   0.01   0.01
   4   6     0.01  -0.00   0.01     0.00  -0.00  -0.00    -0.01   0.00   0.00
   5   6     0.01   0.00   0.03    -0.00   0.00   0.00     0.00  -0.01  -0.03
   6   6     0.01  -0.01  -0.01     0.00  -0.00   0.00    -0.02   0.02  -0.00
   7   6    -0.01   0.00  -0.01    -0.00   0.00  -0.00     0.01  -0.00   0.02
   8   6    -0.01   0.01   0.01    -0.00   0.00   0.00     0.01  -0.01  -0.01
   9   6     0.02  -0.02   0.01     0.00  -0.00   0.00    -0.02   0.02  -0.02
  10   6    -0.01   0.02   0.00     0.03  -0.05   0.01    -0.18   0.29  -0.06
  11   6    -0.03  -0.03   0.03     0.02   0.01  -0.02    -0.17  -0.22   0.21
  12   6     0.04   0.01  -0.03    -0.04   0.01   0.01     0.29   0.08  -0.21
  13   6    -0.01   0.04  -0.01     0.06  -0.02  -0.02    -0.17   0.27  -0.03
  14   6     0.01  -0.01  -0.00    -0.28  -0.16   0.30     0.03  -0.11   0.04
  15   6    -0.04  -0.02   0.03     0.04   0.01  -0.03    -0.22  -0.20   0.22
  16   6     0.03  -0.00  -0.02    -0.05   0.02   0.02     0.29   0.03  -0.18
  17   1    -0.28   0.27  -0.28    -0.00   0.01  -0.00     0.01  -0.04   0.01
  18   1    -0.12   0.07  -0.50    -0.01  -0.00  -0.01     0.02   0.00   0.06
  19   1    -0.08   0.42  -0.29    -0.01   0.01  -0.00     0.03  -0.06   0.01
  20   1    -0.00  -0.00  -0.02    -0.00   0.00  -0.00     0.01  -0.00   0.02
  21   1    -0.01   0.01  -0.01    -0.00   0.00  -0.00     0.02  -0.02   0.01
  22   1    -0.00   0.00  -0.00    -0.00   0.00   0.00     0.01  -0.01  -0.00
  23   1    -0.01   0.00  -0.02    -0.00   0.00  -0.00     0.01  -0.00   0.01
  24   1    -0.01   0.01  -0.01    -0.00   0.00  -0.00     0.02  -0.02   0.01
  25   1    -0.01  -0.01   0.01    -0.03   0.01   0.02     0.17  -0.09  -0.05
  26   1    -0.00  -0.03   0.01    -0.01   0.00   0.00    -0.02  -0.21   0.11
  27   1    -0.01   0.01   0.00     0.46   0.27  -0.15    -0.00   0.13  -0.01
  28   1    -0.02  -0.00   0.01     0.25   0.03  -0.45    -0.05   0.01  -0.08
  29   1     0.00   0.00   0.00     0.15   0.22  -0.39     0.06   0.07  -0.04
  30   1     0.04  -0.01  -0.02    -0.04   0.01   0.02     0.19  -0.09  -0.07
  31   1     0.01  -0.01   0.00    -0.01   0.01  -0.00     0.00  -0.17   0.08
                     61                     62                     63
                        a                      a                      a 
 Frequencies --  1433.9343              1455.5103              1463.2847
 Red. masses --     9.0091                 2.2348                 2.0112
 Frc consts  --     0.0000                 0.0000                 0.0000
 IR Inten    --     7.7006                10.4655                 9.0412
 Raman Activ --     0.0000                 0.0000                 0.0000
 Depolar     --     0.0000                 0.0000                 0.0000
 Atom AN      X      Y      Z        X      Y      Z        X      Y      Z
   1   6     0.00   0.02   0.01    -0.16   0.03   0.15    -0.10  -0.16  -0.11
   2   6     0.01  -0.01   0.02     0.05   0.01   0.01     0.01  -0.05   0.03
   3   7     0.01  -0.02  -0.04    -0.07   0.01  -0.01    -0.01  -0.01   0.01
   4   6    -0.18   0.23   0.23    -0.05   0.03  -0.07    -0.06   0.04  -0.06
   5   6     0.22  -0.18   0.15    -0.00   0.03   0.09     0.00   0.02   0.07
   6   6    -0.20   0.13  -0.32     0.07  -0.07   0.01     0.05  -0.05  -0.01
   7   6    -0.12   0.16   0.16    -0.04   0.02  -0.06    -0.04   0.03  -0.03
   8   6     0.22  -0.15   0.30    -0.01   0.03   0.09     0.01   0.01   0.07
   9   6    -0.09   0.02  -0.31     0.07  -0.07   0.01     0.05  -0.05  -0.01
  10   6     0.01  -0.01  -0.01     0.01  -0.01  -0.00     0.03   0.01  -0.02
  11   6     0.00   0.00  -0.00    -0.01   0.01  -0.00    -0.03   0.00   0.02
  12   6    -0.01  -0.00   0.00    -0.01  -0.01   0.01     0.01  -0.03   0.01
  13   6     0.01  -0.01  -0.00     0.02   0.00  -0.01     0.00   0.04  -0.02
  14   6    -0.00   0.00   0.00    -0.01   0.00   0.01     0.01  -0.02   0.01
  15   6     0.00   0.01  -0.01    -0.01   0.01  -0.00    -0.01  -0.01   0.01
  16   6    -0.01  -0.00   0.01    -0.01  -0.01   0.01     0.00  -0.01   0.00
  17   1    -0.01  -0.02  -0.02    -0.26  -0.00  -0.30     0.11   0.62   0.27
  18   1    -0.01  -0.00   0.00     0.46   0.15   0.14     0.40   0.22  -0.25
  19   1     0.01  -0.01  -0.01     0.47  -0.33  -0.35    -0.13  -0.16   0.32
  20   1     0.03  -0.06  -0.13    -0.03   0.00  -0.08    -0.02   0.00  -0.06
  21   1     0.16  -0.16   0.02    -0.05   0.05  -0.04    -0.03   0.03  -0.03
  22   1     0.17  -0.23  -0.21    -0.01   0.01  -0.02    -0.00  -0.00  -0.02
  23   1    -0.00  -0.05  -0.21    -0.02   0.01  -0.07    -0.02   0.00  -0.06
  24   1     0.11  -0.11  -0.02    -0.05   0.05  -0.04    -0.03   0.03  -0.03
  25   1    -0.00   0.00   0.00    -0.01   0.01   0.01    -0.01   0.00   0.01
  26   1     0.00   0.01  -0.00     0.00   0.01  -0.01     0.01   0.01  -0.01
  27   1     0.00  -0.01  -0.00     0.00  -0.00  -0.00    -0.02   0.04   0.00
  28   1     0.00  -0.00   0.00    -0.00   0.00   0.00    -0.02   0.01  -0.02
  29   1    -0.00  -0.00  -0.00    -0.00  -0.00  -0.00    -0.00  -0.01   0.02
  30   1    -0.00   0.00   0.00     0.01   0.00  -0.01     0.01  -0.00  -0.01
  31   1     0.00   0.01  -0.00     0.00   0.01  -0.01     0.00   0.00  -0.00
                     64                     65                     66
                        a                      a                      a 
 Frequencies --  1466.4200              1476.8994              1479.6362
 Red. masses --     8.0407                 1.7240                 2.0476
 Frc consts  --     0.0000                 0.0000                 0.0000
 IR Inten    --    26.4178                 4.1075                 3.5860
 Raman Activ --     0.0000                 0.0000                 0.0000
 Depolar     --     0.0000                 0.0000                 0.0000
 Atom AN      X      Y      Z        X      Y      Z        X      Y      Z
   1   6     0.04   0.05  -0.05    -0.00  -0.00  -0.01    -0.01  -0.01  -0.01
   2   6     0.08  -0.03   0.04    -0.00  -0.01   0.01     0.01  -0.00  -0.01
   3   7     0.04  -0.03   0.09     0.00   0.00   0.00     0.02  -0.00   0.01
   4   6    -0.23   0.15  -0.32    -0.00   0.00  -0.01    -0.02   0.01  -0.03
   5   6    -0.01   0.09   0.29    -0.00   0.00   0.00    -0.00   0.01   0.02
   6   6     0.22  -0.22   0.02     0.00  -0.00   0.00     0.01  -0.01   0.00
   7   6    -0.13   0.09  -0.17    -0.00   0.00  -0.00    -0.01   0.01  -0.01
   8   6     0.00   0.08   0.29    -0.00   0.00   0.01     0.00   0.00   0.02
   9   6     0.21  -0.22   0.00     0.00  -0.00   0.00     0.01  -0.01  -0.00
  10   6    -0.01   0.02  -0.01    -0.00   0.07  -0.03    -0.10   0.06   0.02
  11   6    -0.04  -0.00   0.02    -0.01  -0.01   0.01     0.07  -0.08  -0.00
  12   6     0.02  -0.02  -0.00     0.01  -0.01   0.00     0.03   0.10  -0.07
  13   6     0.00   0.03  -0.02     0.03   0.03   0.01    -0.05  -0.01   0.01
  14   6     0.01  -0.01   0.00     0.06   0.17   0.12    -0.19   0.08  -0.06
  15   6    -0.01  -0.00   0.01    -0.07   0.01   0.02     0.02  -0.02  -0.00
  16   6     0.01  -0.01   0.00     0.02  -0.06   0.02     0.02   0.01  -0.01
  17   1     0.07  -0.16   0.04     0.01   0.01   0.01     0.01   0.03   0.02
  18   1    -0.22  -0.10   0.04    -0.00  -0.00  -0.00     0.02   0.01  -0.02
  19   1    -0.10   0.13   0.02    -0.01   0.00   0.01    -0.01  -0.01   0.02
  20   1    -0.08   0.01  -0.24    -0.00   0.00  -0.00    -0.01   0.00  -0.01
  21   1    -0.15   0.13  -0.12    -0.00   0.00  -0.00    -0.01   0.01  -0.01
  22   1    -0.03   0.02  -0.06    -0.00   0.00  -0.00    -0.00   0.00  -0.00
  23   1    -0.07   0.01  -0.22    -0.00   0.00  -0.00    -0.00   0.00  -0.01
  24   1    -0.16   0.14  -0.12    -0.00   0.00  -0.00    -0.01   0.01  -0.01
  25   1     0.04  -0.01  -0.02     0.02  -0.00  -0.01    -0.04  -0.02   0.03
  26   1     0.01   0.00  -0.01     0.01   0.01  -0.01    -0.04  -0.08   0.06
  27   1    -0.02   0.03   0.00     0.39  -0.31  -0.08     0.11  -0.53   0.01
  28   1    -0.01   0.00  -0.02    -0.41   0.06   0.12     0.43  -0.15   0.45
  29   1    -0.00  -0.00   0.02    -0.19  -0.44  -0.51     0.19   0.32  -0.21
  30   1     0.02  -0.00  -0.01     0.05  -0.00  -0.03    -0.03  -0.01   0.02
  31   1     0.00  -0.00  -0.01     0.02   0.02  -0.02    -0.01  -0.04   0.02
                     67                     68                     69
                        a                      a                      a 
 Frequencies --  1492.2822              1568.3919              1570.3973
 Red. masses --     9.2410                11.4014                11.4106
 Frc consts  --     0.0000                 0.0000                 0.0000
 IR Inten    --     1.0785                 3.2938                 1.4788
 Raman Activ --     0.0000                 0.0000                 0.0000
 Depolar     --     0.0000                 0.0000                 0.0000
 Atom AN      X      Y      Z        X      Y      Z        X      Y      Z
   1   6     0.01   0.01  -0.01     0.00  -0.00  -0.00    -0.01  -0.00   0.00
   2   6    -0.05  -0.04   0.07    -0.00   0.01  -0.01     0.01  -0.02   0.00
   3   7    -0.03   0.01  -0.01    -0.02   0.01   0.01     0.02   0.01   0.01
   4   6     0.02  -0.02   0.03     0.19  -0.25  -0.24     0.08  -0.11  -0.12
   5   6    -0.00  -0.01  -0.02    -0.01   0.10   0.30    -0.02   0.05   0.12
   6   6    -0.02   0.02  -0.00     0.15  -0.19  -0.12     0.09  -0.10  -0.04
   7   6     0.01  -0.01   0.01    -0.24   0.34   0.33    -0.11   0.15   0.14
   8   6    -0.00  -0.00  -0.03     0.07  -0.15  -0.29     0.04  -0.07  -0.10
   9   6    -0.01   0.01   0.01    -0.17   0.19   0.05    -0.09   0.09   0.01
  10   6     0.27   0.17  -0.24     0.11  -0.15   0.02    -0.25   0.35  -0.04
  11   6    -0.29   0.10   0.12    -0.12   0.07   0.03     0.26  -0.16  -0.07
  12   6     0.01  -0.23   0.11     0.03  -0.12   0.04    -0.07   0.27  -0.09
  13   6     0.29   0.13  -0.25    -0.12   0.19  -0.03     0.27  -0.42   0.05
  14   6    -0.13  -0.05   0.05     0.00  -0.01   0.00    -0.01   0.03  -0.01
  15   6    -0.23   0.15   0.06     0.10  -0.08  -0.02    -0.24   0.18   0.05
  16   6    -0.06  -0.32   0.18    -0.02   0.11  -0.05     0.05  -0.25   0.10
  17   1    -0.01  -0.02  -0.01    -0.00  -0.01  -0.01     0.01   0.01   0.01
  18   1    -0.03  -0.01   0.01    -0.00  -0.01   0.01     0.01   0.01  -0.01
  19   1    -0.01   0.01  -0.00     0.00   0.01  -0.01    -0.00  -0.00   0.01
  20   1     0.01   0.00   0.02    -0.04   0.01  -0.08    -0.02   0.01  -0.03
  21   1     0.01  -0.01   0.01    -0.01  -0.00  -0.06    -0.01   0.01  -0.03
  22   1     0.00   0.00   0.01     0.07  -0.10  -0.08     0.03  -0.04  -0.04
  23   1     0.00   0.00   0.02     0.05  -0.03   0.05     0.02  -0.02   0.02
  24   1     0.01  -0.01   0.01     0.04  -0.03   0.06     0.02  -0.01   0.02
  25   1     0.20   0.00  -0.13     0.03   0.01  -0.02    -0.07  -0.03   0.05
  26   1     0.10   0.13  -0.12     0.03   0.01  -0.02    -0.06  -0.01   0.04
  27   1    -0.04  -0.07   0.02     0.00  -0.03   0.00    -0.01   0.06  -0.00
  28   1     0.11  -0.04   0.08    -0.01  -0.01   0.04     0.02   0.02  -0.08
  29   1     0.04   0.10   0.03     0.02   0.02  -0.04    -0.04  -0.04   0.08
  30   1     0.18   0.02  -0.12    -0.02  -0.02   0.02     0.05   0.03  -0.05
  31   1     0.12   0.17  -0.14    -0.02  -0.01   0.02     0.06   0.03  -0.04
                     70                     71                     72
                        a                      a                      a 
 Frequencies --  1592.9254              1601.0715              1703.6765
 Red. masses --    11.4697                11.4834                12.7307
 Frc consts  --     0.0000                 0.0000                 0.0000
 IR Inten    --    94.9661                53.1232               314.0027
 Raman Activ --     0.0000                 0.0000                 0.0000
 Depolar     --     0.0000                 0.0000                 0.0000
 Atom AN      X      Y      Z        X      Y      Z        X      Y      Z
   1   6     0.00  -0.00   0.00     0.01  -0.01   0.01     0.04  -0.02   0.03
   2   6     0.07   0.00  -0.00    -0.06   0.00  -0.00    -0.70   0.08  -0.12
   3   7    -0.08   0.01  -0.03     0.03  -0.00   0.01     0.63  -0.10   0.19
   4   6     0.14  -0.10   0.16     0.03  -0.03   0.03    -0.04   0.03  -0.08
   5   6    -0.18   0.08  -0.36    -0.04   0.02  -0.09    -0.02   0.01  -0.04
   6   6     0.31  -0.25   0.25     0.08  -0.06   0.06     0.03  -0.03   0.03
   7   6    -0.13   0.10  -0.14    -0.03   0.03  -0.03    -0.01   0.01  -0.02
   8   6     0.17  -0.07   0.40     0.04  -0.02   0.10     0.02  -0.01   0.05
   9   6    -0.28   0.23  -0.27    -0.07   0.06  -0.07    -0.05   0.03  -0.04
  10   6    -0.02  -0.04   0.03     0.15   0.09  -0.13     0.03  -0.01   0.00
  11   6     0.06   0.03  -0.05    -0.32  -0.06   0.22     0.05   0.01  -0.03
  12   6    -0.05  -0.08   0.07     0.22   0.29  -0.28    -0.03  -0.03   0.03
  13   6     0.04   0.05  -0.05    -0.20  -0.13   0.19     0.02   0.01  -0.02
  14   6    -0.01  -0.01   0.01     0.04   0.02  -0.03    -0.00  -0.00   0.00
  15   6    -0.08  -0.02   0.06     0.38   0.05  -0.25    -0.03  -0.01   0.02
  16   6     0.05   0.07  -0.06    -0.24  -0.24   0.25     0.01   0.03  -0.03
  17   1     0.00  -0.00   0.01    -0.01   0.00  -0.01    -0.04   0.02  -0.05
  18   1    -0.01  -0.00  -0.01     0.00  -0.00   0.00     0.04   0.00   0.04
  19   1    -0.01   0.01  -0.00     0.00  -0.00   0.00     0.03  -0.06   0.02
  20   1    -0.00   0.03   0.09    -0.00   0.01   0.02    -0.01   0.00   0.01
  21   1    -0.08   0.08  -0.03    -0.02   0.02  -0.01    -0.01   0.01   0.00
  22   1    -0.02   0.01  -0.05    -0.00   0.00  -0.01    -0.00  -0.00  -0.00
  23   1    -0.00  -0.02  -0.11     0.00  -0.01  -0.02     0.00  -0.00  -0.01
  24   1     0.07  -0.07   0.01     0.02  -0.02   0.00     0.01  -0.01  -0.00
  25   1    -0.01   0.01   0.00     0.07  -0.03  -0.03    -0.01   0.00   0.00
  26   1     0.01   0.03  -0.02    -0.03  -0.09   0.06     0.00   0.01  -0.00
  27   1    -0.00  -0.01   0.00     0.01   0.02  -0.01    -0.00  -0.00   0.00
  28   1     0.00  -0.00   0.01    -0.02   0.01  -0.03    -0.00   0.00   0.00
  29   1     0.00   0.01  -0.00    -0.01  -0.02  -0.01    -0.00  -0.00  -0.00
  30   1     0.02  -0.01  -0.01    -0.10   0.03   0.05     0.00  -0.00   0.00
  31   1    -0.00  -0.02   0.01     0.01   0.08  -0.04    -0.00  -0.00   0.01
                     73                     74                     75
                        a                      a                      a 
 Frequencies --  2993.0189              3007.8098              3027.0981
 Red. masses --     1.8110                 1.8445                 1.5645
 Frc consts  --     0.0000                 0.0000                 0.0000
 IR Inten    --    27.3299                13.2600                20.5519
 Raman Activ --     0.0000                 0.0000                 0.0000
 Depolar     --     0.0000                 0.0000                 0.0000
 Atom AN      X      Y      Z        X      Y      Z        X      Y      Z
   1   6     0.00  -0.00   0.00    -0.05   0.25   0.11    -0.19  -0.07  -0.11
   2   6     0.00   0.00  -0.00    -0.00   0.01   0.00    -0.01   0.00  -0.00
   3   7    -0.00  -0.00  -0.00     0.00   0.00   0.00     0.00  -0.00  -0.00
   4   6     0.00  -0.00   0.00    -0.00  -0.00  -0.00    -0.00   0.00   0.00
   5   6     0.00  -0.00  -0.00     0.00  -0.00  -0.00     0.00  -0.00  -0.00
   6   6     0.00  -0.00  -0.00     0.00  -0.00  -0.00     0.00  -0.00  -0.00
   7   6    -0.00   0.00  -0.00    -0.00   0.00  -0.00    -0.00   0.00  -0.00
   8   6    -0.00   0.00   0.00    -0.00   0.00  -0.00    -0.00   0.00   0.00
   9   6    -0.00   0.00   0.00     0.00  -0.00  -0.00    -0.00   0.00   0.00
  10   6     0.00   0.00  -0.00    -0.00   0.00   0.00    -0.00   0.00   0.00
  11   6    -0.00  -0.00  -0.00     0.00  -0.01   0.00     0.00  -0.01   0.00
  12   6     0.00   0.00  -0.00    -0.00   0.00   0.00    -0.00   0.00   0.00
  13   6    -0.00  -0.00   0.01    -0.00  -0.00   0.00     0.00   0.00  -0.00
  14   6     0.10   0.06   0.24     0.00   0.00   0.00     0.00   0.02   0.00
  15   6     0.00   0.00  -0.00    -0.00  -0.00   0.00    -0.00  -0.00   0.00
  16   6    -0.00  -0.00   0.00     0.00  -0.00  -0.00     0.00   0.00  -0.00
  17   1     0.00   0.00  -0.00     0.04   0.04  -0.02    -0.07  -0.02   0.03
  18   1    -0.00   0.00   0.00     0.34  -0.83  -0.24     0.06  -0.24  -0.08
  19   1    -0.00  -0.00  -0.00    -0.19  -0.09  -0.10     0.67   0.48   0.44
  20   1    -0.00   0.00   0.00    -0.00   0.00   0.00    -0.00   0.00   0.00
  21   1    -0.00   0.00   0.00    -0.00   0.00   0.00    -0.00   0.00   0.00
  22   1     0.00  -0.00   0.00     0.00  -0.00   0.00     0.00  -0.00   0.00
  23   1     0.00  -0.00  -0.00     0.00  -0.00   0.00     0.00  -0.00  -0.00
  24   1     0.00  -0.00  -0.00    -0.00   0.00   0.00     0.00  -0.00  -0.00
  25   1     0.00  -0.00  -0.00    -0.00   0.03  -0.01    -0.00   0.02  -0.01
  26   1    -0.00   0.00   0.00     0.00  -0.00  -0.00     0.00  -0.00  -0.00
  27   1    -0.29  -0.09  -0.90    -0.00  -0.00  -0.00     0.00   0.00   0.01
  28   1    -0.01  -0.16   0.00    -0.00  -0.00  -0.00    -0.01  -0.07  -0.01
  29   1    -0.05   0.05   0.03    -0.00   0.00  -0.00    -0.00   0.00  -0.00
  30   1     0.00  -0.01   0.00    -0.00   0.00  -0.00    -0.00   0.00  -0.00
  31   1    -0.00   0.00   0.00    -0.00   0.00   0.00    -0.00   0.00   0.00
                     76                     77                     78
                        a                      a                      a 
 Frequencies --  3028.0779              3039.2964              3057.2076
 Red. masses --     1.6849                 1.6453                 1.7416
 Frc consts  --     0.0000                 0.0000                 0.0000
 IR Inten    --    27.7324                29.0580                20.7393
 Raman Activ --     0.0000                 0.0000                 0.0000
 Depolar     --     0.0000                 0.0000                 0.0000
 Atom AN      X      Y      Z        X      Y      Z        X      Y      Z
   1   6     0.01   0.00   0.01    -0.00  -0.00  -0.00     0.21   0.05  -0.14
   2   6     0.00  -0.00   0.00     0.00   0.00  -0.00     0.01   0.00  -0.01
   3   7    -0.00   0.00   0.00    -0.00   0.00   0.00    -0.00  -0.00   0.00
   4   6    -0.00   0.00  -0.00     0.00  -0.00   0.00     0.00  -0.00   0.00
   5   6    -0.00   0.00   0.00     0.00  -0.00  -0.00     0.01  -0.01  -0.00
   6   6    -0.00   0.00   0.00     0.00  -0.00  -0.00    -0.00   0.00   0.01
   7   6     0.00  -0.00   0.00     0.00  -0.00   0.00    -0.00   0.00  -0.00
   8   6     0.00  -0.00  -0.00    -0.00   0.00   0.00     0.00  -0.00  -0.00
   9   6     0.00  -0.00  -0.00    -0.00   0.00   0.00    -0.00   0.00   0.00
  10   6     0.00  -0.00   0.00     0.00   0.00  -0.00    -0.00  -0.00   0.00
  11   6    -0.00   0.00  -0.00    -0.00   0.00  -0.00    -0.00   0.00  -0.00
  12   6     0.00  -0.00  -0.00     0.02  -0.01  -0.00     0.00  -0.00  -0.00
  13   6     0.00   0.01  -0.00    -0.01   0.00   0.00     0.00   0.00  -0.00
  14   6     0.01   0.25   0.01    -0.21   0.11  -0.01    -0.00  -0.00   0.00
  15   6    -0.00  -0.01   0.01     0.00  -0.01   0.00    -0.00   0.00  -0.00
  16   6    -0.00   0.00  -0.00    -0.00   0.00   0.00    -0.00   0.00   0.00
  17   1     0.00   0.00  -0.00     0.00   0.00  -0.00    -0.75  -0.12   0.58
  18   1    -0.00   0.02   0.01     0.00  -0.00  -0.00     0.04  -0.03  -0.03
  19   1    -0.05  -0.03  -0.03     0.01   0.01   0.00    -0.03  -0.03  -0.05
  20   1     0.00  -0.00  -0.00    -0.00   0.00   0.00    -0.02   0.02   0.00
  21   1     0.00  -0.00  -0.00    -0.00   0.00   0.00     0.00  -0.01  -0.03
  22   1    -0.00   0.00  -0.00    -0.00   0.00  -0.00     0.00  -0.00   0.01
  23   1    -0.00   0.00   0.00     0.00  -0.00  -0.00    -0.00   0.00   0.00
  24   1    -0.00   0.00   0.00     0.00  -0.00  -0.00     0.00  -0.00  -0.01
  25   1     0.00  -0.01   0.00     0.00  -0.00   0.00     0.00  -0.01   0.00
  26   1    -0.01   0.01   0.00    -0.05   0.03   0.01    -0.01   0.01   0.00
  27   1     0.05   0.05   0.15    -0.06   0.01  -0.09    -0.00  -0.00  -0.00
  28   1    -0.14  -0.92  -0.19    -0.02   0.08   0.01     0.00   0.00   0.00
  29   1     0.07  -0.00   0.01     0.82  -0.48   0.11     0.00  -0.00   0.00
  30   1    -0.00   0.04  -0.02    -0.00   0.01  -0.01     0.00  -0.01   0.00
  31   1     0.00  -0.00  -0.00     0.01  -0.00  -0.00     0.01  -0.00  -0.00
                     79                     80                     81
                        a                      a                      a 
 Frequencies --  3058.8925              3062.9427              3066.8999
 Red. masses --     1.7604                 1.7656                 1.7943
 Frc consts  --     0.0000                 0.0000                 0.0000
 IR Inten    --    20.7562                13.6077                38.3986
 Raman Activ --     0.0000                 0.0000                 0.0000
 Depolar     --     0.0000                 0.0000                 0.0000
 Atom AN      X      Y      Z        X      Y      Z        X      Y      Z
   1   6    -0.01  -0.00   0.01     0.00   0.00  -0.00     0.01  -0.00  -0.00
   2   6    -0.00   0.00  -0.00     0.00  -0.00  -0.00     0.00   0.00  -0.00
   3   7    -0.00   0.00   0.00    -0.00   0.00  -0.00    -0.00  -0.00   0.00
   4   6     0.00  -0.00   0.00     0.00  -0.00  -0.00     0.00   0.00   0.00
   5   6     0.11  -0.12  -0.02     0.02  -0.03  -0.00     0.00  -0.00  -0.00
   6   6    -0.03   0.08   0.18     0.00  -0.00  -0.00     0.00  -0.00  -0.00
   7   6    -0.03   0.02  -0.04     0.04  -0.03   0.07    -0.00   0.00  -0.00
   8   6     0.00  -0.00  -0.00    -0.15   0.17   0.03     0.00  -0.00  -0.00
   9   6     0.00  -0.00  -0.01     0.01  -0.03  -0.08     0.00  -0.00  -0.00
  10   6     0.00   0.00   0.00    -0.00  -0.00   0.00     0.00  -0.00   0.00
  11   6     0.00  -0.00   0.00     0.00  -0.00   0.00     0.01  -0.07   0.03
  12   6     0.00  -0.00  -0.00    -0.00   0.00   0.00    -0.20   0.13   0.05
  13   6     0.00   0.00  -0.00    -0.00   0.00   0.00    -0.01   0.00   0.00
  14   6     0.00   0.00  -0.00    -0.00   0.00  -0.00    -0.01   0.01  -0.00
  15   6    -0.00   0.00  -0.00    -0.00   0.00  -0.00    -0.01   0.07  -0.03
  16   6     0.00  -0.00  -0.00     0.00  -0.00  -0.00     0.03  -0.02  -0.01
  17   1     0.04   0.01  -0.03    -0.01  -0.00   0.01    -0.01  -0.00   0.01
  18   1    -0.00   0.00   0.00    -0.00   0.00   0.00    -0.01   0.02   0.00
  19   1     0.00   0.00   0.00    -0.00  -0.00  -0.00    -0.01  -0.01  -0.00
  20   1    -0.41   0.45   0.07    -0.08   0.09   0.01    -0.00   0.00   0.00
  21   1     0.11  -0.29  -0.65    -0.00   0.01   0.02    -0.00   0.00   0.00
  22   1     0.10  -0.07   0.15    -0.17   0.11  -0.26     0.00  -0.00   0.00
  23   1    -0.01   0.01   0.00     0.56  -0.60  -0.11    -0.00   0.01   0.00
  24   1    -0.01   0.01   0.04    -0.05   0.13   0.32    -0.00   0.00   0.00
  25   1    -0.00   0.01  -0.00    -0.00   0.00  -0.00    -0.03   0.28  -0.12
  26   1    -0.01   0.00   0.00     0.00  -0.00  -0.00     0.70  -0.47  -0.17
  27   1     0.00   0.00   0.00     0.00   0.00   0.00    -0.00   0.00  -0.00
  28   1    -0.00  -0.00  -0.00    -0.00  -0.00  -0.00    -0.01  -0.02  -0.00
  29   1    -0.00   0.00  -0.00     0.00  -0.00  -0.00     0.06  -0.03   0.01
  30   1     0.00  -0.01   0.01     0.00  -0.00   0.00     0.03  -0.25   0.11
  31   1    -0.01   0.01   0.00    -0.00   0.00   0.00    -0.09   0.06   0.02
                     82                     83                     84
                        a                      a                      a 
 Frequencies --  3069.8172              3069.9880              3076.9502
 Red. masses --     1.8237                 1.8130                 1.8512
 Frc consts  --     0.0000                 0.0000                 0.0000
 IR Inten    --    94.8551                64.9677               129.0689
 Raman Activ --     0.0000                 0.0000                 0.0000
 Depolar     --     0.0000                 0.0000                 0.0000
 Atom AN      X      Y      Z        X      Y      Z        X      Y      Z
   1   6     0.00   0.00  -0.00     0.00  -0.00  -0.00    -0.00   0.00   0.00
   2   6    -0.00   0.00   0.00     0.00  -0.00  -0.00    -0.00   0.00   0.00
   3   7     0.00  -0.00   0.00    -0.00   0.00  -0.00     0.00  -0.00  -0.00
   4   6    -0.00   0.00  -0.01     0.00  -0.00   0.01     0.00  -0.00   0.01
   5   6    -0.10   0.11   0.02     0.09  -0.10  -0.02    -0.02   0.02   0.00
   6   6    -0.02   0.04   0.10     0.01  -0.04  -0.08    -0.01   0.03   0.07
   7   6    -0.04   0.02  -0.06     0.03  -0.02   0.05     0.07  -0.04   0.10
   8   6    -0.03   0.04   0.01     0.03  -0.03  -0.00    -0.04   0.04   0.01
   9   6     0.00  -0.01  -0.01    -0.01   0.01   0.02    -0.03   0.09   0.20
  10   6    -0.00   0.00   0.00    -0.00   0.00   0.00     0.00  -0.00   0.00
  11   6     0.00  -0.02   0.01     0.00  -0.02   0.01    -0.00   0.01  -0.00
  12   6    -0.04   0.03   0.01    -0.05   0.03   0.01     0.00  -0.00  -0.00
  13   6    -0.00  -0.00   0.00    -0.01  -0.00   0.01     0.00   0.00  -0.00
  14   6    -0.00  -0.00   0.00     0.00  -0.01   0.00    -0.00   0.00  -0.00
  15   6     0.02  -0.13   0.06     0.02  -0.16   0.07    -0.00   0.02  -0.01
  16   6    -0.06   0.04   0.02    -0.07   0.04   0.02    -0.01   0.01   0.00
  17   1    -0.01  -0.00   0.01    -0.00  -0.00   0.00     0.01   0.00  -0.01
  18   1     0.00  -0.00  -0.00    -0.00   0.01   0.00     0.00  -0.00  -0.00
  19   1    -0.00  -0.00  -0.00    -0.00  -0.00  -0.00    -0.00  -0.00  -0.00
  20   1     0.34  -0.38  -0.06    -0.32   0.35   0.06     0.07  -0.08  -0.01
  21   1     0.06  -0.15  -0.35    -0.05   0.13   0.28     0.04  -0.10  -0.23
  22   1     0.14  -0.09   0.21    -0.13   0.08  -0.19    -0.23   0.15  -0.34
  23   1     0.12  -0.12  -0.02    -0.08   0.09   0.02     0.12  -0.13  -0.02
  24   1    -0.01   0.02   0.04     0.02  -0.04  -0.09     0.12  -0.30  -0.71
  25   1    -0.01   0.06  -0.02    -0.01   0.08  -0.03     0.00  -0.02   0.01
  26   1     0.16  -0.11  -0.04     0.17  -0.11  -0.04    -0.00   0.00   0.00
  27   1    -0.00  -0.00  -0.01    -0.00  -0.00  -0.01     0.00   0.00   0.00
  28   1     0.00   0.02   0.00     0.00   0.02   0.00    -0.00  -0.00  -0.00
  29   1     0.00  -0.00  -0.00    -0.00   0.00  -0.00    -0.00   0.00   0.00
  30   1    -0.06   0.48  -0.20    -0.07   0.56  -0.23     0.01  -0.07   0.03
  31   1     0.24  -0.16  -0.06     0.25  -0.17  -0.06     0.05  -0.03  -0.01
                     85                     86                     87
                        a                      a                      a 
 Frequencies --  3083.5974              3085.8042              3086.5233
 Red. masses --     1.8634                 1.9123                 1.8623
 Frc consts  --     0.0000                 0.0000                 0.0000
 IR Inten    --   127.8199                58.5942                14.3758
 Raman Activ --     0.0000                 0.0000                 0.0000
 Depolar     --     0.0000                 0.0000                 0.0000
 Atom AN      X      Y      Z        X      Y      Z        X      Y      Z
   1   6     0.01  -0.00  -0.00    -0.00  -0.00   0.00     0.00  -0.00  -0.00
   2   6     0.00  -0.00   0.00     0.00  -0.00   0.00    -0.00  -0.00   0.00
   3   7    -0.00   0.00  -0.00    -0.00   0.00  -0.00     0.00  -0.00   0.00
   4   6    -0.00   0.00  -0.00     0.00  -0.00   0.01    -0.00  -0.00  -0.00
   5   6    -0.01   0.01   0.00     0.04  -0.04  -0.01     0.00  -0.00  -0.00
   6   6    -0.00   0.01   0.02     0.01  -0.04  -0.08     0.00  -0.00  -0.01
   7   6     0.02  -0.01   0.03    -0.10   0.06  -0.15    -0.01   0.01  -0.02
   8   6     0.01  -0.01  -0.00    -0.08   0.09   0.02    -0.01   0.01   0.00
   9   6    -0.00   0.00   0.00    -0.02   0.05   0.11    -0.00   0.00   0.01
  10   6     0.00   0.00  -0.00     0.00   0.00  -0.00    -0.01  -0.00   0.01
  11   6     0.01  -0.11   0.05    -0.00   0.01  -0.00     0.03  -0.21   0.09
  12   6     0.03  -0.02  -0.01    -0.00   0.00   0.00     0.07  -0.05  -0.02
  13   6    -0.00   0.00   0.00    -0.00   0.00   0.00     0.00   0.00  -0.00
  14   6     0.00  -0.00   0.00     0.00  -0.00  -0.00     0.00  -0.00  -0.00
  15   6     0.01  -0.11   0.04     0.00  -0.02   0.01    -0.01   0.05  -0.02
  16   6     0.18  -0.12  -0.05     0.04  -0.02  -0.01    -0.08   0.06   0.02
  17   1    -0.01  -0.00   0.01     0.00   0.00  -0.00    -0.00  -0.00  -0.00
  18   1    -0.01   0.02   0.00    -0.00   0.00   0.00    -0.01   0.03   0.01
  19   1    -0.00  -0.00  -0.00    -0.00  -0.00  -0.00    -0.01  -0.01  -0.01
  20   1     0.04  -0.04  -0.01    -0.12   0.13   0.02    -0.01   0.01   0.00
  21   1     0.01  -0.03  -0.06    -0.05   0.12   0.27    -0.01   0.02   0.03
  22   1    -0.07   0.04  -0.10     0.34  -0.22   0.52     0.04  -0.03   0.06
  23   1    -0.03   0.03   0.01     0.27  -0.29  -0.05     0.03  -0.03  -0.01
  24   1     0.00  -0.01  -0.01     0.06  -0.16  -0.38     0.00  -0.01  -0.02
  25   1    -0.05   0.37  -0.16     0.00  -0.03   0.01    -0.09   0.74  -0.31
  26   1    -0.10   0.07   0.02     0.01  -0.00  -0.00    -0.24   0.16   0.06
  27   1    -0.00  -0.00  -0.00     0.00  -0.00   0.00     0.00   0.00   0.00
  28   1     0.00   0.01   0.00     0.00   0.00  -0.00    -0.00  -0.01  -0.00
  29   1    -0.01   0.00  -0.00    -0.00   0.00  -0.00    -0.01   0.01  -0.00
  30   1    -0.04   0.35  -0.14    -0.01   0.05  -0.02     0.02  -0.18   0.07
  31   1    -0.61   0.41   0.16    -0.12   0.08   0.03     0.29  -0.20  -0.08
