      -----------------------------------------------------------      
     |                   =====================                   |     
     |                           x T B                           |     
     |                   =====================                   |     
     |                         S. Grimme                         |     
     |          Mulliken Center for Theoretical Chemistry        |     
     |                    University of Bonn                     |     
      -----------------------------------------------------------      

   * xtb version 6.7.1 (edcfbbe) compiled by 'VssAdministrator@runnervm171ch' on 2026-06-10

   xtb is free software: you can redistribute it and/or modify it under
   the terms of the GNU Lesser General Public License as published by
   the Free Software Foundation, either version 3 of the License, or
   (at your option) any later version.
   
   xtb is distributed in the hope that it will be useful,
   but WITHOUT ANY WARRANTY; without even the implied warranty of
   MERCHANTABILITY or FITNESS FOR A PARTICULAR PURPOSE.  See the
   GNU Lesser General Public License for more details.
   
   Cite this work as:
   * C. Bannwarth, E. Caldeweyher, S. Ehlert, A. Hansen, P. Pracht,
     J. Seibert, S. Spicher, S. Grimme, WIREs Comput. Mol. Sci., 2020, 11,
     e01493. DOI: 10.1002/wcms.1493
   
   for GFN2-xTB:
   * C. Bannwarth, S. Ehlert and S. Grimme., J. Chem. Theory Comput., 2019,
     15, 1652-1671. DOI: 10.1021/acs.jctc.8b01176
   for GFN1-xTB:
   * S. Grimme, C. Bannwarth, P. Shushkov, J. Chem. Theory Comput., 2017,
     13, 1989-2009. DOI: 10.1021/acs.jctc.7b00118
   for GFN0-xTB:
   * P. Pracht, E. Caldeweyher, S. Ehlert, S. Grimme, ChemRxiv, 2019, preprint.
     DOI: 10.26434/chemrxiv.8326202.v1
   for GFN-FF:
   * S. Spicher and S. Grimme, Angew. Chem. Int. Ed., 2020, 59, 15665-15673.
     DOI: 10.1002/anie.202004239
   
   for ALPB and GBSA implicit solvation:
   * S. Ehlert, M. Stahn, S. Spicher, S. Grimme, J. Chem. Theory Comput.,
     2021, 17, 4250-4261. DOI: 10.1021/acs.jctc.1c00471
   
   for ddCOSMO and CPCM-X implicit solvation:
   * M. Stahn, S. Ehlert, S. Grimme, J. Phys. Chem. A,
     2023, XX, XXXX-XXXX. DOI: 10.1021/acs.jpca.3c04382
   
   for DFT-D4:
   * E. Caldeweyher, C. Bannwarth and S. Grimme, J. Chem. Phys., 2017,
     147, 034112. DOI: 10.1063/1.4993215
   * E. Caldeweyher, S. Ehlert, A. Hansen, H. Neugebauer, S. Spicher,
     C. Bannwarth and S. Grimme, J. Chem. Phys., 2019, 150, 154122.
     DOI: 10.1063/1.5090222
   * E. Caldeweyher, J.-M. Mewes, S. Ehlert and S. Grimme, Phys. Chem. Chem. Phys.
     2020, 22, 8499-8512. DOI: 10.1039/D0CP00502A
   
   for sTDA-xTB:
   * S. Grimme and C. Bannwarth, J. Chem. Phys., 2016, 145, 054103.
     DOI: 10.1063/1.4959605
   
   in the mass-spec context:
   * V. Asgeirsson, C. Bauer and S. Grimme, Chem. Sci., 2017, 8, 4879.
     DOI: 10.1039/c7sc00601b
   * J. Koopman and S. Grimme, ACS Omega 2019, 4, 12, 15120-15133.
     DOI: 10.1021/acsomega.9b02011
   
   for metadynamics refer to:
   * S. Grimme, J. Chem. Theory Comput., 2019, 155, 2847-2862
     DOI: 10.1021/acs.jctc.9b00143
   
   for SPH calculations refer to:
   * S. Spicher and S. Grimme, J. Chem. Theory Comput., 2021, 17, 1701-1714
     DOI: 10.1021/acs.jctc.0c01306
   
   for ONIOM refer to:
   * C. Plett, A. Katbashev, S. Ehlert, S. Grimme, M. Bursch,
     Phys. Chem. Chem. Phys., 2023, 25, 17860-17868. DOI: 10.1039/D3CP02178E
   
   for DIPRO refer to:
   * J. Kohn, N. Gildemeister, S. Grimme, D. Fazzi, A. Hansen,
     J. Chem. Phys., 2023, just accepted.
   
   for PTB refer to:
   * S. Grimme, M. Mueller, A. Hansen, J. Chem. Phys., 2023, 158, 124111.
     DOI: 10.1063/5.0137838
   
   with help from (in alphabetical order)
   P. Atkinson, C. Bannwarth, F. Bohle, G. Brandenburg, E. Caldeweyher
   M. Checinski, S. Dohm, S. Ehlert, S. Ehrlich, I. Gerasimov, C. Hölzer
   A. Katbashev, J. Kohn, J. Koopman, C. Lavigne, S. Lehtola, F. März, M. Müller,
   F. Musil, H. Neugebauer, J. Pisarek, C. Plett, P. Pracht, F. Pultar,
   J. Seibert, P. Shushkov, S. Spicher, M. Stahn, M. Steiner, T. Strunk,
   J. Stückrath, T. Rose, and J. Unsleber
   
 * started run on 2026/09/10 at 23:03:30.334     
   ID    Z sym.   atoms
    1    6 C      1, 2, 4-16
    2    7 N      3
    3    1 H      17-31

           -------------------------------------------------
          |                Calculation Setup                |
           -------------------------------------------------

          program call               : C:\Users\HUIWEI\miniconda3\envs\phase2ff\Library\bin\xtb.exe input.xyz --gfn 2 --chrg 0 --uhf 0 --alpb ch2cl2 --acc 0.2 --opt vtight
          coordinate file            : input.xyz
          omp threads                :                     1


           -------------------------------------------------
          |                 G F N 2 - x T B                 |
           -------------------------------------------------

        Reference                      10.1021/acs.jctc.8b01176
      * Hamiltonian:
        H0-scaling (s, p, d)           1.850000    2.230000    2.230000
        zeta-weighting                 0.500000
      * Dispersion:
        s8                             2.700000
        a1                             0.520000
        a2                             5.000000
        s9                             5.000000
      * Repulsion:
        kExp                           1.500000    1.000000
        rExp                           1.000000
      * Coulomb:
        alpha                          2.000000
        third order                    shell-resolved
        anisotropic                    true
        a3                             3.000000
        a5                             4.000000
        cn-shift                       1.200000
        cn-exp                         4.000000
        max-rad                        5.000000

      * Solvation model:               ALPB
        Solvent                        ch2cl2
        Parameter file                 internal GFN2-xTB/ALPB
        Dielectric constant                8.9300E+00
        Reference state                gsolv [1 M gas/solution]
        Free energy shift                  4.1487E-03 Eh       2.6033E+00 kcal/mol
        Temperature                        2.9815E+02 K
        Density                            1.3300E+00 kg/L
        Solvent mass                       8.4930E+01 g/mol
        Interaction kernel             P16
        Born radius scaling (c1)           1.5691E+00
        Born radii integrator          GBOBC
        Born offset                        0.0000E+00 a0       0.0000E+00 AA
        H-bond correction              false
        Ion screening                  false
        Surface tension                    1.0000E-05 Eh       1.5569E+01 dyn/cm
        Grid points                               230 per atom

          ...................................................
          :                      SETUP                      :
          :.................................................:
          :  # basis functions                  79          :
          :  # atomic orbitals                  79          :
          :  # shells                           47          :
          :  # electrons                        80          :
          :  max. iterations                   250          :
          :  Hamiltonian                  GFN2-xTB          :
          :  restarted?                      false          :
          :  GBSA solvation                   true          :
          :  PC potential                    false          :
          :  electronic temp.          300.0000000     K    :
          :  accuracy                    0.2000000          :
          :  -> integral cutoff          0.3198970E+02      :
          :  -> integral neglect         0.2000000E-08      :
          :  -> SCF convergence          0.2000000E-06 Eh   :
          :  -> wf. convergence          0.2000000E-04 e    :
          :  Broyden damping             0.4000000          :
          :  net charge                          0          :
          :  unpaired electrons                  0          :
          ...................................................

 iter      E             dE          RMSdq      gap      omega  full diag
   1    -43.3891084 -0.433891E+02  0.395E+00    3.31       0.0  T
   2    -43.4136700 -0.245616E-01  0.232E+00    3.07       1.0  T
   3    -43.4025984  0.110716E-01  0.858E-01    2.90       1.0  T
   4    -43.4179276 -0.153292E-01  0.241E-01    2.84       1.0  T
   5    -43.4189028 -0.975163E-03  0.526E-02    2.86       1.0  T
   6    -43.4189198 -0.170451E-04  0.301E-02    2.86       1.0  T
   7    -43.4189267 -0.685675E-05  0.129E-02    2.86       1.4  T
   8    -43.4189279 -0.126358E-05  0.399E-03    2.86       4.5  T
   9    -43.4189283 -0.318595E-06  0.139E-03    2.86      12.9  T
  10    -43.4189283 -0.117770E-07  0.589E-04    2.86      30.5  T
  11    -43.4189283 -0.292042E-08  0.287E-04    2.86      62.5  T
  12    -43.4189283 -0.887255E-09  0.956E-05    2.86     187.8  T
  13    -43.4189283 -0.271569E-10  0.557E-05    2.86     322.6  T

   *** convergence criteria satisfied after 13 iterations ***

         #    Occupation            Energy/Eh            Energy/eV
      -------------------------------------------------------------
         1        2.0000           -0.6506464             -17.7050
       ...           ...                  ...                  ...
        34        2.0000           -0.4254540             -11.5772
        35        2.0000           -0.4137552             -11.2589
        36        2.0000           -0.4059148             -11.0455
        37        2.0000           -0.4034920             -10.9796
        38        2.0000           -0.3966856             -10.7944
        39        2.0000           -0.3907444             -10.6327
        40        2.0000           -0.3597884              -9.7903 (HOMO)
        41                         -0.2547114              -6.9310 (LUMO)
        42                         -0.2289516              -6.2301
        43                         -0.2206241              -6.0035
        44                         -0.2180473              -5.9334
        45                         -0.2047054              -5.5703
       ...                                ...                  ...
        79                          0.6502513              17.6942
      -------------------------------------------------------------
                  HL-Gap            0.1050771 Eh            2.8593 eV
             Fermi-level           -0.3072499 Eh           -8.3607 eV

 SCC (total)                   0 d,  0 h,  0 min,  0.030 sec
 SCC setup                      ...        0 min,  0.001 sec (  3.202%)
 Dispersion                     ...        0 min,  0.000 sec (  1.173%)
 classical contributions        ...        0 min,  0.000 sec (  0.241%)
 integral evaluation            ...        0 min,  0.004 sec ( 12.988%)
 iterations                     ...        0 min,  0.012 sec ( 41.161%)
 molecular gradient             ...        0 min,  0.012 sec ( 40.408%)
 printout                       ...        0 min,  0.000 sec (  0.782%)

         :::::::::::::::::::::::::::::::::::::::::::::::::::::
         ::                     SUMMARY                     ::
         :::::::::::::::::::::::::::::::::::::::::::::::::::::
         :: total energy             -42.680075954162 Eh    ::
         :: total w/o Gsasa/hb       -42.660034220653 Eh    ::
         :: gradient norm              0.064939647047 Eh/a0 ::
         :: HOMO-LUMO gap              2.859292845520 eV    ::
         ::.................................................::
         :: SCC energy               -43.418454840343 Eh    ::
         :: -> isotropic ES            0.012734741400 Eh    ::
         :: -> anisotropic ES          0.007492984374 Eh    ::
         :: -> anisotropic XC          0.033489828370 Eh    ::
         :: -> dispersion             -0.031179401048 Eh    ::
         :: -> Gsolv                  -0.021231937827 Eh    ::
         ::    -> Gelec               -0.001190204318 Eh    ::
         ::    -> Gsasa               -0.024190430870 Eh    ::
         ::    -> Ghb                  0.000000000000 Eh    ::
         ::    -> Gshift               0.004148697361 Eh    ::
         :: repulsion energy           0.738378886181 Eh    ::
         :: add. restraining           0.000000000000 Eh    ::
         :: total charge               0.000000000000 e     ::
         :::::::::::::::::::::::::::::::::::::::::::::::::::::

      ----------------------------------------------------------- 
     |                   =====================                   |
     |                        A N C O P T                        |
     |                   =====================                   |
     |               Approximate Normal Coordinate               |
     |                Rational Function Optimizer                |
      ----------------------------------------------------------- 
      ----------------------------------------------------------- 
     |                   =====================                   |
     |                        A N C O P T                        |
     |                   =====================                   |
     |               Approximate Normal Coordinate               |
     |                Rational Function Optimizer                |
      ----------------------------------------------------------- 

          ...................................................
          :                      SETUP                      :
          :.................................................:
          :   optimization level         verytight          :
          :   max. optcycles                   620          :
          :   ANC micro-cycles                  20          :
          :   degrees of freedom                87          :
          :.................................................:
          :   RF solver                   davidson          :
          :   write xtbopt.log                true          :
          :   linear?                        false          :
          :   energy convergence         0.1000000E-06 Eh   :
          :   grad. convergence          0.2000000E-03 Eh/α :
          :   maxmium RF displ.          1.0000000          :
          :   Hlow (freq-cutoff)         0.1000000E-01      :
          :   Hmax (freq-cutoff)         5.0000000          :
          :   S6 in model hess.         20.0000000          :
          ...................................................

generating ANC from exact Hessian ...
Using Lindh-Hessian (1995)
 Shifting diagonal of input Hessian by    9.5262506944085029E-003
 Lowest  eigenvalues of input Hessian
    0.000000    0.000000    0.000000    0.000000    0.000000    0.000000
    0.010000    0.010225    0.010855    0.011724    0.012663    0.015115
    0.016512    0.017808    0.019055    0.020789    0.022974    0.024028
 Highest eigenvalues
    1.844378    1.862712    1.920610    1.947538    1.973077    2.076440


........................................................................
.............................. CYCLE    1 ..............................
........................................................................

 iter      E             dE          RMSdq      gap      omega  full diag
   1    -43.4189283 -0.434189E+02  0.130E-05    2.86       0.0  T
   2    -43.4189283 -0.164135E-11  0.959E-06    2.86    1871.9  T
   3    -43.4189283 -0.206768E-11  0.385E-06    2.86    4662.0  T
     SCC iter.                  ...        0 min,  0.004 sec
     gradient                   ...        0 min,  0.014 sec
 * total energy  :   -42.6800760 Eh     change       -0.2862777E-10 Eh
   gradient norm :     0.0649401 Eh/α   predicted     0.0000000E+00 (-100.00%)
   displ. norm   :     0.1880781 α      lambda       -0.6279843E-02
   maximum displ.:     0.0782776 α      in ANC's #48, #16, #23, ...

........................................................................
.............................. CYCLE    2 ..............................
........................................................................

 iter      E             dE          RMSdq      gap      omega  full diag
   1    -43.4611386 -0.434611E+02  0.155E-01    2.95       0.0  T
   2    -43.4611890 -0.504275E-04  0.934E-02    2.95       1.0  T
   3    -43.4611754  0.135962E-04  0.380E-02    2.95       1.0  T
   4    -43.4611949 -0.194436E-04  0.833E-03    2.96       2.2  T
   5    -43.4611962 -0.138047E-05  0.265E-03    2.95       6.8  T
   6    -43.4611963 -0.297157E-07  0.134E-03    2.95      13.4  T
   7    -43.4611963 -0.156776E-07  0.480E-04    2.95      37.4  T
   8    -43.4611963 -0.162829E-08  0.171E-04    2.95     104.9  T
   9    -43.4611963 -0.626038E-09  0.602E-05    2.95     298.6  T
     SCC iter.                  ...        0 min,  0.011 sec
     gradient                   ...        0 min,  0.013 sec
 * total energy  :   -42.6840597 Eh     change       -0.3983731E-02 Eh
   gradient norm :     0.0210714 Eh/α   predicted    -0.3251600E-02 ( -18.38%)
   displ. norm   :     0.1332369 α      lambda       -0.9412399E-03
   maximum displ.:     0.0729363 α      in ANC's #6, #4, #7, ...

........................................................................
.............................. CYCLE    3 ..............................
........................................................................

 iter      E             dE          RMSdq      gap      omega  full diag
   1    -43.4752675 -0.434753E+02  0.869E-02    2.95       0.0  T
   2    -43.4752822 -0.146579E-04  0.519E-02    2.96       1.0  T
   3    -43.4752757  0.646072E-05  0.258E-02    2.96       1.0  T
   4    -43.4752862 -0.104695E-04  0.391E-03    2.96       4.6  T
   5    -43.4752865 -0.306669E-06  0.138E-03    2.96      13.0  T
   6    -43.4752865 -0.186417E-07  0.712E-04    2.96      25.2  T
   7    -43.4752865 -0.246130E-08  0.229E-04    2.96      78.6  T
   8    -43.4752865 -0.543139E-09  0.909E-05    2.96     197.7  T
   9    -43.4752865 -0.123663E-09  0.316E-05    2.96     568.1  T
     SCC iter.                  ...        0 min,  0.015 sec
     gradient                   ...        0 min,  0.014 sec
 * total energy  :   -42.6846262 Eh     change       -0.5665429E-03 Eh
   gradient norm :     0.0076802 Eh/α   predicted    -0.4795067E-03 ( -15.36%)
   displ. norm   :     0.1333623 α      lambda       -0.2544633E-03
   maximum displ.:     0.0774062 α      in ANC's #4, #6, #7, ...

........................................................................
.............................. CYCLE    4 ..............................
........................................................................

 iter      E             dE          RMSdq      gap      omega  full diag
   1    -43.4765714 -0.434766E+02  0.639E-02    2.93       0.0  T
   2    -43.4765745 -0.314368E-05  0.377E-02    2.93       1.0  T
   3    -43.4765693  0.521981E-05  0.177E-02    2.93       1.0  T
   4    -43.4765763 -0.699610E-05  0.161E-03    2.93      11.2  T
   5    -43.4765763 -0.390127E-07  0.735E-04    2.93      24.4  T
   6    -43.4765763 -0.490954E-08  0.389E-04    2.93      46.2  T
   7    -43.4765763 -0.860702E-09  0.882E-05    2.93     203.6  T
   8    -43.4765763 -0.131564E-09  0.409E-05    2.93     438.9  T
     SCC iter.                  ...        0 min,  0.010 sec
     gradient                   ...        0 min,  0.014 sec
 * total energy  :   -42.6848290 Eh     change       -0.2027888E-03 Eh
   gradient norm :     0.0050829 Eh/α   predicted    -0.1294956E-03 ( -36.14%)
   displ. norm   :     0.2924631 α      lambda       -0.3703421E-03
   maximum displ.:     0.1846469 α      in ANC's #4, #6, #2, ...

........................................................................
.............................. CYCLE    5 ..............................
........................................................................

 iter      E             dE          RMSdq      gap      omega  full diag
   1    -43.4742350 -0.434742E+02  0.124E-01    2.86       0.0  T
   2    -43.4742410 -0.599817E-05  0.725E-02    2.86       1.0  T
   3    -43.4742254  0.156298E-04  0.275E-02    2.86       1.0  T
   4    -43.4742446 -0.192198E-04  0.248E-03    2.87       7.2  T
   5    -43.4742447 -0.571018E-07  0.126E-03    2.86      14.3  T
   6    -43.4742447 -0.119247E-07  0.619E-04    2.86      29.0  T
   7    -43.4742447 -0.351514E-08  0.135E-04    2.86     132.7  T
   8    -43.4742447 -0.215998E-09  0.695E-05    2.86     258.5  T
     SCC iter.                  ...        0 min,  0.011 sec
     gradient                   ...        0 min,  0.019 sec
 * total energy  :   -42.6850776 Eh     change       -0.2485930E-03 Eh
   gradient norm :     0.0058574 Eh/α   predicted    -0.2010123E-03 ( -19.14%)
   displ. norm   :     0.2053674 α      lambda       -0.1616549E-03
   maximum displ.:     0.1315980 α      in ANC's #4, #2, #10, ...

........................................................................
.............................. CYCLE    6 ..............................
........................................................................

 iter      E             dE          RMSdq      gap      omega  full diag
   1    -43.4723980 -0.434724E+02  0.795E-02    2.83       0.0  T
   2    -43.4723989 -0.887897E-06  0.464E-02    2.83       1.0  T
   3    -43.4723978  0.107741E-05  0.740E-03    2.83       2.4  T
   4    -43.4723993 -0.143611E-05  0.128E-03    2.83      14.0  T
   5    -43.4723993 -0.694351E-08  0.615E-04    2.83      29.2  T
   6    -43.4723993 -0.231814E-08  0.261E-04    2.83      68.8  T
   7    -43.4723993 -0.116993E-08  0.658E-05    2.83     272.8  T
   8    -43.4723993 -0.309441E-10  0.349E-05    2.83     514.8  T
     SCC iter.                  ...        0 min,  0.014 sec
     gradient                   ...        0 min,  0.016 sec
 * total energy  :   -42.6852094 Eh     change       -0.1317667E-03 Eh
   gradient norm :     0.0067654 Eh/α   predicted    -0.8424081E-04 ( -36.07%)
   displ. norm   :     0.2871085 α      lambda       -0.2355162E-03
   maximum displ.:     0.1749324 α      in ANC's #4, #2, #10, ...

........................................................................
.............................. CYCLE    7 ..............................
........................................................................

 iter      E             dE          RMSdq      gap      omega  full diag
   1    -43.4707082 -0.434707E+02  0.107E-01    2.80       0.0  T
   2    -43.4707101 -0.182353E-05  0.627E-02    2.79       1.0  T
   3    -43.4707086  0.147857E-05  0.828E-03    2.80       2.2  T
   4    -43.4707106 -0.203644E-05  0.185E-03    2.80       9.7  T
   5    -43.4707107 -0.306870E-07  0.835E-04    2.80      21.5  T
   6    -43.4707107 -0.177554E-08  0.340E-04    2.80      52.8  T
   7    -43.4707107 -0.164866E-08  0.909E-05    2.80     197.5  T
   8    -43.4707107 -0.465761E-10  0.431E-05    2.80     416.8  T
     SCC iter.                  ...        0 min,  0.010 sec
     gradient                   ...        0 min,  0.014 sec
 * total energy  :   -42.6853976 Eh     change       -0.1882305E-03 Eh
   gradient norm :     0.0058114 Eh/α   predicted    -0.1274660E-03 ( -32.28%)
   displ. norm   :     0.3836722 α      lambda       -0.2688356E-03
   maximum displ.:     0.2213328 α      in ANC's #4, #2, #10, ...

........................................................................
.............................. CYCLE    8 ..............................
........................................................................

 iter      E             dE          RMSdq      gap      omega  full diag
   1    -43.4693144 -0.434693E+02  0.142E-01    2.76       0.0  T
   2    -43.4693184 -0.399325E-05  0.837E-02    2.76       1.0  T
   3    -43.4693128  0.557548E-05  0.155E-02    2.76       1.2  T
   4    -43.4693198 -0.691220E-05  0.243E-03    2.76       7.4  T
   5    -43.4693198 -0.583930E-07  0.112E-03    2.76      16.1  T
   6    -43.4693198 -0.154323E-08  0.470E-04    2.76      38.2  T
   7    -43.4693198 -0.315254E-08  0.116E-04    2.76     155.5  T
   8    -43.4693198 -0.740243E-10  0.555E-05    2.76     323.3  T
     SCC iter.                  ...        0 min,  0.010 sec
     gradient                   ...        0 min,  0.014 sec
 * total energy  :   -42.6855926 Eh     change       -0.1949598E-03 Eh
   gradient norm :     0.0057669 Eh/α   predicted    -0.1542064E-03 ( -20.90%)
   displ. norm   :     0.2908538 α      lambda       -0.2069911E-03
   maximum displ.:     0.1698327 α      in ANC's #2, #4, #5, ...

........................................................................
.............................. CYCLE    9 ..............................
........................................................................

 iter      E             dE          RMSdq      gap      omega  full diag
   1    -43.4703870 -0.434704E+02  0.110E-01    2.74       0.0  T
   2    -43.4703896 -0.262355E-05  0.647E-02    2.74       1.0  T
   3    -43.4703847  0.490363E-05  0.143E-02    2.74       1.3  T
   4    -43.4703906 -0.587667E-05  0.173E-03    2.74      10.4  T
   5    -43.4703906 -0.329367E-07  0.775E-04    2.74      23.2  T
   6    -43.4703906 -0.560235E-09  0.350E-04    2.74      51.2  T
   7    -43.4703906 -0.159169E-08  0.808E-05    2.74     222.3  T
   8    -43.4703906 -0.382911E-10  0.366E-05    2.74     490.3  T
     SCC iter.                  ...        0 min,  0.011 sec
     gradient                   ...        0 min,  0.023 sec
 * total energy  :   -42.6857562 Eh     change       -0.1636797E-03 Eh
   gradient norm :     0.0052329 Eh/α   predicted    -0.1122521E-03 ( -31.42%)
   displ. norm   :     0.3145041 α      lambda       -0.2455591E-03
   maximum displ.:     0.2016763 α      in ANC's #2, #5, #4, ...

........................................................................
.............................. CYCLE   10 ..............................
........................................................................

 iter      E             dE          RMSdq      gap      omega  full diag
   1    -43.4728608 -0.434729E+02  0.118E-01    2.72       0.0  T
   2    -43.4728626 -0.187803E-05  0.694E-02    2.72       1.0  T
   3    -43.4728587  0.397007E-05  0.126E-02    2.72       1.4  T
   4    -43.4728634 -0.475235E-05  0.151E-03    2.72      11.9  T
   5    -43.4728634 -0.175253E-07  0.760E-04    2.72      23.6  T
   6    -43.4728634  0.261501E-09  0.322E-04    2.72      55.7  T
   7    -43.4728635 -0.187738E-08  0.796E-05    2.72     225.7  T
   8    -43.4728635 -0.442881E-10  0.388E-05    2.72     463.4  T
     SCC iter.                  ...        0 min,  0.012 sec
     gradient                   ...        0 min,  0.013 sec
 * total energy  :   -42.6859536 Eh     change       -0.1973770E-03 Eh
   gradient norm :     0.0048459 Eh/α   predicted    -0.1349356E-03 ( -31.64%)
   displ. norm   :     0.4062237 α      lambda       -0.2647969E-03
   maximum displ.:     0.2726195 α      in ANC's #2, #5, #1, ...

........................................................................
.............................. CYCLE   11 ..............................
........................................................................

 iter      E             dE          RMSdq      gap      omega  full diag
   1    -43.4728512 -0.434729E+02  0.149E-01    2.69       0.0  T
   2    -43.4728528 -0.156686E-05  0.875E-02    2.69       1.0  T
   3    -43.4728482  0.456354E-05  0.129E-02    2.69       1.4  T
   4    -43.4728537 -0.549191E-05  0.170E-03    2.69      10.6  T
   5    -43.4728537 -0.716889E-08  0.942E-04    2.69      19.1  T
   6    -43.4728537 -0.614605E-09  0.337E-04    2.69      53.3  T
   7    -43.4728537 -0.246945E-08  0.797E-05    2.69     225.3  T
   8    -43.4728537 -0.268017E-10  0.409E-05    2.69     439.3  T
     SCC iter.                  ...        0 min,  0.009 sec
     gradient                   ...        0 min,  0.013 sec
 * total energy  :   -42.6861624 Eh     change       -0.2088240E-03 Eh
   gradient norm :     0.0060541 Eh/α   predicted    -0.1542520E-03 ( -26.13%)
   displ. norm   :     0.3648464 α      lambda       -0.3085071E-03
   maximum displ.:     0.2639772 α      in ANC's #2, #6, #1, ...

........................................................................
.............................. CYCLE   12 ..............................
........................................................................

 iter      E             dE          RMSdq      gap      omega  full diag
   1    -43.4766503 -0.434767E+02  0.132E-01    2.68       0.0  T
   2    -43.4766527 -0.233278E-05  0.773E-02    2.68       1.0  T
   3    -43.4766494  0.326094E-05  0.111E-02    2.68       1.6  T
   4    -43.4766534 -0.400878E-05  0.217E-03    2.68       8.3  T
   5    -43.4766535 -0.616767E-07  0.104E-03    2.68      17.3  T
   6    -43.4766535 -0.457781E-09  0.374E-04    2.68      48.0  T
   7    -43.4766535 -0.218284E-08  0.114E-04    2.68     157.4  T
   8    -43.4766535 -0.548184E-10  0.421E-05    2.68     427.1  T
     SCC iter.                  ...        0 min,  0.009 sec
     gradient                   ...        0 min,  0.013 sec
 * total energy  :   -42.6863525 Eh     change       -0.1900193E-03 Eh
   gradient norm :     0.0061443 Eh/α   predicted    -0.1747886E-03 (  -8.02%)
   displ. norm   :     0.4878874 α      lambda       -0.2946325E-03
   maximum displ.:     0.3502753 α      in ANC's #2, #7, #1, ...

........................................................................
.............................. CYCLE   13 ..............................
........................................................................

 iter      E             dE          RMSdq      gap      omega  full diag
   1    -43.4708284 -0.434708E+02  0.175E-01    2.64       0.0  T
   2    -43.4708326 -0.429555E-05  0.103E-01    2.64       1.0  T
   3    -43.4708279  0.474250E-05  0.137E-02    2.63       1.3  T
   4    -43.4708337 -0.581166E-05  0.331E-03    2.64       5.4  T
   5    -43.4708339 -0.195413E-06  0.139E-03    2.64      12.9  T
   6    -43.4708339  0.164234E-08  0.426E-04    2.64      42.1  T
   7    -43.4708339 -0.348631E-08  0.968E-05    2.64     185.6  T
   8    -43.4708339 -0.439968E-10  0.463E-05    2.64     387.6  T
     SCC iter.                  ...        0 min,  0.016 sec
     gradient                   ...        0 min,  0.012 sec
 * total energy  :   -42.6864974 Eh     change       -0.1449070E-03 Eh
   gradient norm :     0.0092106 Eh/α   predicted    -0.1823898E-03 (  25.87%)
   displ. norm   :     0.1034549 α      lambda       -0.1918349E-03
   maximum displ.:     0.0696374 α      in ANC's #2, #4, #1, ...

........................................................................
.............................. CYCLE   14 ..............................
........................................................................

 iter      E             dE          RMSdq      gap      omega  full diag
   1    -43.4723919 -0.434724E+02  0.385E-02    2.64       0.0  T
   2    -43.4723926 -0.644505E-06  0.225E-02    2.64       1.0  T
   3    -43.4723924  0.195542E-06  0.357E-03    2.64       5.0  T
   4    -43.4723927 -0.295235E-06  0.115E-03    2.64      15.6  T
   5    -43.4723927 -0.194247E-07  0.513E-04    2.64      35.0  T
   6    -43.4723927  0.343405E-10  0.194E-04    2.64      92.4  T
   7    -43.4723927 -0.637009E-09  0.511E-05    2.64     351.6  T
     SCC iter.                  ...        0 min,  0.008 sec
     gradient                   ...        0 min,  0.012 sec
 * total energy  :   -42.6866449 Eh     change       -0.1475582E-03 Eh
   gradient norm :     0.0046532 Eh/α   predicted    -0.9694523E-04 ( -34.30%)
   displ. norm   :     0.3700608 α      lambda       -0.2613130E-03
   maximum displ.:     0.2846386 α      in ANC's #2, #1, #3, ...

........................................................................
.............................. CYCLE   15 ..............................
........................................................................

 iter      E             dE          RMSdq      gap      omega  full diag
   1    -43.4722651 -0.434723E+02  0.128E-01    2.63       0.0  T
   2    -43.4722661 -0.109515E-05  0.753E-02    2.63       1.0  T
   3    -43.4722653  0.831112E-06  0.672E-03    2.63       2.7  T
   4    -43.4722667 -0.134598E-05  0.167E-03    2.63      10.7  T
   5    -43.4722667 -0.198836E-08  0.775E-04    2.63      23.2  T
   6    -43.4722667 -0.656051E-08  0.269E-04    2.63      66.9  T
   7    -43.4722667 -0.137104E-08  0.773E-05    2.63     232.4  T
   8    -43.4722667 -0.139266E-10  0.313E-05    2.63     574.0  T
     SCC iter.                  ...        0 min,  0.010 sec
     gradient                   ...        0 min,  0.012 sec
 * total energy  :   -42.6868226 Eh     change       -0.1776265E-03 Eh
   gradient norm :     0.0041253 Eh/α   predicted    -0.1485498E-03 ( -16.37%)
   displ. norm   :     0.2892391 α      lambda       -0.1162256E-03
   maximum displ.:     0.2251688 α      in ANC's #2, #1, #3, ...

........................................................................
.............................. CYCLE   16 ..............................
........................................................................

 iter      E             dE          RMSdq      gap      omega  full diag
   1    -43.4714856 -0.434715E+02  0.993E-02    2.62       0.0  T
   2    -43.4714862 -0.585948E-06  0.584E-02    2.62       1.0  T
   3    -43.4714853  0.923375E-06  0.633E-03    2.62       2.8  T
   4    -43.4714865 -0.123372E-05  0.119E-03    2.62      15.1  T
   5    -43.4714865 -0.195539E-08  0.607E-04    2.62      29.6  T
   6    -43.4714865 -0.185140E-08  0.196E-04    2.62      91.8  T
   7    -43.4714865 -0.765489E-09  0.567E-05    2.62     316.7  T
     SCC iter.                  ...        0 min,  0.010 sec
     gradient                   ...        0 min,  0.012 sec
 * total energy  :   -42.6869057 Eh     change       -0.8309808E-04 Eh
   gradient norm :     0.0047532 Eh/α   predicted    -0.6297519E-04 ( -24.22%)
   displ. norm   :     0.2147248 α      lambda       -0.9749658E-04
   maximum displ.:     0.1594594 α      in ANC's #2, #3, #1, ...

........................................................................
.............................. CYCLE   17 ..............................
........................................................................

 iter      E             dE          RMSdq      gap      omega  full diag
   1    -43.4734354 -0.434734E+02  0.720E-02    2.62       0.0  T
   2    -43.4734361 -0.655315E-06  0.424E-02    2.62       1.0  T
   3    -43.4734349  0.115310E-05  0.713E-03    2.62       2.5  T
   4    -43.4734363 -0.140512E-05  0.981E-04    2.62      18.3  T
   5    -43.4734363 -0.710794E-08  0.509E-04    2.62      35.3  T
   6    -43.4734363  0.225100E-10  0.242E-04    2.62      74.3  T
   7    -43.4734363 -0.973330E-09  0.569E-05    2.62     315.9  T
   8    -43.4734363 -0.231708E-10  0.287E-05    2.62     626.3  T
     SCC iter.                  ...        0 min,  0.010 sec
     gradient                   ...        0 min,  0.012 sec
 * total energy  :   -42.6869710 Eh     change       -0.6531077E-04 Eh
   gradient norm :     0.0032609 Eh/α   predicted    -0.5099699E-04 ( -21.92%)
   displ. norm   :     0.2260073 α      lambda       -0.5676044E-04
   maximum displ.:     0.1736560 α      in ANC's #2, #1, #3, ...

........................................................................
.............................. CYCLE   18 ..............................
........................................................................

 iter      E             dE          RMSdq      gap      omega  full diag
   1    -43.4724754 -0.434725E+02  0.815E-02    2.61       0.0  T
   2    -43.4724759 -0.523545E-06  0.479E-02    2.61       1.0  T
   3    -43.4724747  0.117856E-05  0.701E-03    2.61       2.6  T
   4    -43.4724762 -0.144209E-05  0.985E-04    2.61      18.2  T
   5    -43.4724762 -0.417923E-08  0.546E-04    2.61      32.9  T
   6    -43.4724762 -0.332818E-10  0.200E-04    2.61      89.7  T
   7    -43.4724762 -0.858677E-09  0.442E-05    2.61     406.7  T
   8    -43.4724762 -0.167120E-10  0.236E-05    2.61     761.5  T
     SCC iter.                  ...        0 min,  0.015 sec
     gradient                   ...        0 min,  0.013 sec
 * total energy  :   -42.6870016 Eh     change       -0.3060329E-04 Eh
   gradient norm :     0.0033884 Eh/α   predicted    -0.2983264E-04 (  -2.52%)
   displ. norm   :     0.0460014 α      lambda       -0.3663750E-04
   maximum displ.:     0.0240637 α      in ANC's #5, #4, #2, ...

........................................................................
.............................. CYCLE   19 ..............................
........................................................................

 iter      E             dE          RMSdq      gap      omega  full diag
   1    -43.4750259 -0.434750E+02  0.210E-02    2.61       0.0  T
   2    -43.4750262 -0.306973E-06  0.122E-02    2.61       1.5  T
   3    -43.4750261  0.969291E-07  0.265E-03    2.61       6.8  T
   4    -43.4750262 -0.127385E-06  0.771E-04    2.61      23.3  T
   5    -43.4750262 -0.113675E-07  0.267E-04    2.61      67.2  T
   6    -43.4750262  0.329479E-10  0.923E-05    2.61     194.7  T
   7    -43.4750262 -0.144382E-09  0.280E-05    2.61     641.2  T
     SCC iter.                  ...        0 min,  0.008 sec
     gradient                   ...        0 min,  0.013 sec
 * total energy  :   -42.6870188 Eh     change       -0.1724302E-04 Eh
   gradient norm :     0.0019085 Eh/α   predicted    -0.1835808E-04 (   6.47%)
   displ. norm   :     0.0994489 α      lambda       -0.1205934E-04
   maximum displ.:     0.0709751 α      in ANC's #2, #1, #4, ...

........................................................................
.............................. CYCLE   20 ..............................
........................................................................

 iter      E             dE          RMSdq      gap      omega  full diag
   1    -43.4736929 -0.434737E+02  0.375E-02    2.61       0.0  T
   2    -43.4736930 -0.991253E-07  0.220E-02    2.61       1.0  T
   3    -43.4736927  0.211622E-06  0.287E-03    2.61       6.3  T
   4    -43.4736930 -0.262883E-06  0.461E-04    2.61      39.0  T
   5    -43.4736930 -0.769944E-09  0.247E-04    2.61      72.9  T
   6    -43.4736930 -0.308937E-09  0.803E-05    2.61     223.6  T
   7    -43.4736930 -0.110234E-09  0.214E-05    2.61     837.6  T
     SCC iter.                  ...        0 min,  0.010 sec
     gradient                   ...        0 min,  0.011 sec
 * total energy  :   -42.6870283 Eh     change       -0.9527122E-05 Eh
   gradient norm :     0.0020143 Eh/α   predicted    -0.6058876E-05 ( -36.40%)
   displ. norm   :     0.0356721 α      lambda       -0.1002244E-04
   maximum displ.:     0.0186252 α      in ANC's #4, #2, #6, ...
 * RMSD in coord.:     0.7066215 α      energy gain  -0.6952386E-02 Eh

generating ANC from exact Hessian ...
Using Lindh-Hessian (1995)
 Shifting diagonal of input Hessian by    9.4095979810371842E-003
 Lowest  eigenvalues of input Hessian
    0.000000    0.000000    0.000000    0.000000    0.000000    0.000000
    0.010000    0.010262    0.010760    0.011701    0.013488    0.015130
    0.017638    0.018222    0.019837    0.022502    0.024179    0.025058
 Highest eigenvalues
    1.896908    1.952809    1.990772    2.007503    2.053115    2.231454


........................................................................
.............................. CYCLE   21 ..............................
........................................................................

 iter      E             dE          RMSdq      gap      omega  full diag
   1    -43.4738247 -0.434738E+02  0.123E-02    2.60       0.0  T
   2    -43.4738247 -0.260861E-07  0.724E-03    2.60       2.5  T
   3    -43.4738246  0.466667E-07  0.152E-03    2.60      11.8  T
   4    -43.4738247 -0.584628E-07  0.243E-04    2.60      73.8  T
   5    -43.4738247 -0.294051E-09  0.124E-04    2.60     145.2  T
   6    -43.4738247 -0.151211E-09  0.389E-05    2.60     461.3  T
     SCC iter.                  ...        0 min,  0.009 sec
     gradient                   ...        0 min,  0.011 sec
 * total energy  :   -42.6870344 Eh     change       -0.6104511E-05 Eh
   gradient norm :     0.0012894 Eh/α   predicted     0.0000000E+00 (-100.00%)
   displ. norm   :     0.0215185 α      lambda       -0.1752069E-05
   maximum displ.:     0.0149068 α      in ANC's #4, #7, #6, ...

........................................................................
.............................. CYCLE   22 ..............................
........................................................................

 iter      E             dE          RMSdq      gap      omega  full diag
   1    -43.4745636 -0.434746E+02  0.875E-03    2.61       0.0  T
   2    -43.4745637 -0.604197E-07  0.502E-03    2.61       3.6  T
   3    -43.4745636  0.220298E-07  0.135E-03    2.61      13.3  T
   4    -43.4745637 -0.310086E-07  0.325E-04    2.61      55.2  T
   5    -43.4745637 -0.166445E-08  0.135E-04    2.61     132.9  T
   6    -43.4745637  0.178062E-10  0.553E-05    2.61     324.7  T
     SCC iter.                  ...        0 min,  0.007 sec
     gradient                   ...        0 min,  0.012 sec
 * total energy  :   -42.6870402 Eh     change       -0.5802706E-05 Eh
   gradient norm :     0.0003809 Eh/α   predicted    -0.3001672E-05 ( -48.27%)
   displ. norm   :     0.0334082 α      lambda       -0.3741641E-05
   maximum displ.:     0.0231901 α      in ANC's #4, #7, #2, ...

........................................................................
.............................. CYCLE   23 ..............................
........................................................................

 iter      E             dE          RMSdq      gap      omega  full diag
   1    -43.4747270 -0.434747E+02  0.987E-03    2.61       0.0  T
   2    -43.4747271 -0.483450E-07  0.575E-03    2.61       3.1  T
   3    -43.4747270  0.561809E-07  0.181E-03    2.61       9.9  T
   4    -43.4747271 -0.717984E-07  0.263E-04    2.61      68.3  T
   5    -43.4747271 -0.624837E-09  0.122E-04    2.61     147.7  T
   6    -43.4747271 -0.146656E-10  0.474E-05    2.61     378.6  T
     SCC iter.                  ...        0 min,  0.008 sec
     gradient                   ...        0 min,  0.013 sec
 * total energy  :   -42.6870448 Eh     change       -0.4532077E-05 Eh
   gradient norm :     0.0005928 Eh/α   predicted    -0.1881158E-05 ( -58.49%)
   displ. norm   :     0.0619518 α      lambda       -0.5402515E-05
   maximum displ.:     0.0383003 α      in ANC's #4, #7, #5, ...

........................................................................
.............................. CYCLE   24 ..............................
........................................................................

 iter      E             dE          RMSdq      gap      omega  full diag
   1    -43.4746372 -0.434746E+02  0.171E-02    2.61       0.0  T
   2    -43.4746373 -0.152872E-06  0.998E-03    2.61       1.8  T
   3    -43.4746371  0.186944E-06  0.329E-03    2.61       5.5  T
   4    -43.4746374 -0.236188E-06  0.465E-04    2.61      38.6  T
   5    -43.4746374 -0.220990E-08  0.207E-04    2.61      86.9  T
   6    -43.4746374 -0.441318E-10  0.851E-05    2.61     211.0  T
   7    -43.4746374 -0.137270E-09  0.219E-05    2.61     820.5  T
     SCC iter.                  ...        0 min,  0.010 sec
     gradient                   ...        0 min,  0.011 sec
 * total energy  :   -42.6870507 Eh     change       -0.5887964E-05 Eh
   gradient norm :     0.0005501 Eh/α   predicted    -0.2711544E-05 ( -53.95%)
   displ. norm   :     0.0660707 α      lambda       -0.3643131E-05
   maximum displ.:     0.0406279 α      in ANC's #7, #4, #5, ...

........................................................................
.............................. CYCLE   25 ..............................
........................................................................

 iter      E             dE          RMSdq      gap      omega  full diag
   1    -43.4745166 -0.434745E+02  0.178E-02    2.61       0.0  T
   2    -43.4745168 -0.113207E-06  0.105E-02    2.61       1.7  T
   3    -43.4745166  0.158788E-06  0.296E-03    2.61       6.1  T
   4    -43.4745168 -0.196168E-06  0.422E-04    2.61      42.5  T
   5    -43.4745168 -0.156165E-08  0.194E-04    2.61      92.8  T
   6    -43.4745168 -0.194689E-10  0.803E-05    2.61     223.7  T
     SCC iter.                  ...        0 min,  0.008 sec
     gradient                   ...        0 min,  0.012 sec
 * total energy  :   -42.6870538 Eh     change       -0.3168518E-05 Eh
   gradient norm :     0.0004032 Eh/α   predicted    -0.1832473E-05 ( -42.17%)
   displ. norm   :     0.0212234 α      lambda       -0.1082938E-05
   maximum displ.:     0.0121639 α      in ANC's #7, #10, #5, ...

........................................................................
.............................. CYCLE   26 ..............................
........................................................................

 iter      E             dE          RMSdq      gap      omega  full diag
   1    -43.4745284 -0.434745E+02  0.642E-03    2.61       0.0  T
   2    -43.4745284 -0.566817E-08  0.378E-03    2.61       4.8  T
   3    -43.4745284  0.617467E-08  0.606E-04    2.61      29.6  T
   4    -43.4745284 -0.827920E-08  0.116E-04    2.61     155.3  T
   5    -43.4745284 -0.520188E-10  0.560E-05    2.61     320.6  T
     SCC iter.                  ...        0 min,  0.011 sec
     gradient                   ...        0 min,  0.012 sec
 * total energy  :   -42.6870550 Eh     change       -0.1212070E-05 Eh
   gradient norm :     0.0002380 Eh/α   predicted    -0.5424451E-06 ( -55.25%)
   displ. norm   :     0.0300209 α      lambda       -0.1412406E-05
   maximum displ.:     0.0156158 α      in ANC's #10, #7, #3, ...

........................................................................
.............................. CYCLE   27 ..............................
........................................................................

 iter      E             dE          RMSdq      gap      omega  full diag
   1    -43.4745786 -0.434746E+02  0.100E-02    2.60       0.0  T
   2    -43.4745786 -0.121747E-07  0.589E-03    2.60       3.1  T
   3    -43.4745786  0.341750E-08  0.583E-04    2.60      30.8  T
   4    -43.4745787 -0.792522E-08  0.201E-04    2.60      89.5  T
   5    -43.4745787 -0.166118E-09  0.733E-05    2.60     244.9  T
   6    -43.4745787 -0.266880E-10  0.230E-05    2.60     782.4  T
     SCC iter.                  ...        0 min,  0.011 sec
     gradient                   ...        0 min,  0.013 sec
 * total energy  :   -42.6870564 Eh     change       -0.1374661E-05 Eh
   gradient norm :     0.0002622 Eh/α   predicted    -0.7091643E-06 ( -48.41%)
   displ. norm   :     0.0222948 α      lambda       -0.6406990E-06
   maximum displ.:     0.0123812 α      in ANC's #7, #3, #10, ...

........................................................................
.............................. CYCLE   28 ..............................
........................................................................

 iter      E             dE          RMSdq      gap      omega  full diag
   1    -43.4745682 -0.434746E+02  0.738E-03    2.61       0.0  T
   2    -43.4745683 -0.477538E-08  0.433E-03    2.61       4.1  T
   3    -43.4745683 -0.120145E-08  0.237E-04    2.61      75.8  T
   4    -43.4745683 -0.527614E-09  0.127E-04    2.61     141.8  T
   5    -43.4745683 -0.932943E-10  0.342E-05    2.61     524.7  T
     SCC iter.                  ...        0 min,  0.005 sec
     gradient                   ...        0 min,  0.014 sec
 * total energy  :   -42.6870571 Eh     change       -0.7164270E-06 Eh
   gradient norm :     0.0002267 Eh/α   predicted    -0.3221254E-06 ( -55.04%)
   displ. norm   :     0.0232387 α      lambda       -0.5789024E-06
   maximum displ.:     0.0131029 α      in ANC's #7, #3, #2, ...

........................................................................
.............................. CYCLE   29 ..............................
........................................................................

 iter      E             dE          RMSdq      gap      omega  full diag
   1    -43.4745616 -0.434746E+02  0.785E-03    2.61       0.0  T
   2    -43.4745617 -0.324962E-08  0.462E-03    2.61       3.9  T
   3    -43.4745617 -0.954593E-09  0.186E-04    2.61      96.7  T
   4    -43.4745617 -0.288239E-09  0.113E-04    2.61     159.6  T
     SCC iter.                  ...        0 min,  0.009 sec
     gradient                   ...        0 min,  0.013 sec
 * total energy  :   -42.6870578 Eh     change       -0.6326009E-06 Eh
   gradient norm :     0.0001245 Eh/α   predicted    -0.2902823E-06 ( -54.11%)
   displ. norm   :     0.0174029 α      lambda       -0.3424589E-06
   maximum displ.:     0.0086900 α      in ANC's #7, #3, #4, ...

........................................................................
.............................. CYCLE   30 ..............................
........................................................................

 iter      E             dE          RMSdq      gap      omega  full diag
   1    -43.4745925 -0.434746E+02  0.626E-03    2.61       0.0  T
   2    -43.4745925 -0.134060E-08  0.368E-03    2.61       4.9  T
   3    -43.4745925  0.346247E-09  0.184E-04    2.61      97.6  T
   4    -43.4745925 -0.988436E-09  0.708E-05    2.61     253.5  T
     SCC iter.                  ...        0 min,  0.006 sec
     gradient                   ...        0 min,  0.013 sec
 * total energy  :   -42.6870581 Eh     change       -0.3615324E-06 Eh
   gradient norm :     0.0001004 Eh/α   predicted    -0.1746256E-06 ( -51.70%)
   displ. norm   :     0.0174029 α      lambda        0.0000000E+00
   maximum displ.:     0.0086900 α      in ANC's #7, #3, #4, ...

........................................................................
.............................. CYCLE   31 ..............................
........................................................................

 iter      E             dE          RMSdq      gap      omega  full diag
   1    -43.4746170 -0.434746E+02  0.626E-03    2.61       0.0  T
   2    -43.4746170 -0.129529E-08  0.368E-03    2.61       4.9  T
   3    -43.4746170  0.231061E-09  0.178E-04    2.61     101.0  T
   4    -43.4746170 -0.859536E-09  0.704E-05    2.61     255.2  T
     SCC iter.                  ...        0 min,  0.005 sec
     gradient                   ...        0 min,  0.012 sec
 * total energy  :   -42.6870582 Eh     change       -0.2532650E-07 Eh
   gradient norm :     0.0002007 Eh/α   predicted    -0.4656304E-08 ( -81.61%)
   displ. norm   :     0.0068838 α      lambda       -0.1222248E-06
   maximum displ.:     0.0044526 α      in ANC's #7, #3, #10, ...

........................................................................
.............................. CYCLE   32 ..............................
........................................................................

 iter      E             dE          RMSdq      gap      omega  full diag
   1    -43.4746143 -0.434746E+02  0.237E-03    2.61       0.0  T
   2    -43.4746143 -0.499938E-09  0.139E-03    2.61      12.9  T
   3    -43.4746143  0.141398E-09  0.113E-04    2.61     158.5  T
   4    -43.4746143 -0.322324E-09  0.394E-05    2.61     455.6  T
     SCC iter.                  ...        0 min,  0.006 sec
     gradient                   ...        0 min,  0.011 sec
 * total energy  :   -42.6870583 Eh     change       -0.1165809E-06 Eh
   gradient norm :     0.0000938 Eh/α   predicted    -0.6177336E-07 ( -47.01%)
   displ. norm   :     0.0057049 α      lambda        0.2564706E-07
   maximum displ.:     0.0036643 α      in ANC's #7, #3, #10, ...

........................................................................
.............................. CYCLE   33 ..............................
........................................................................

 iter      E             dE          RMSdq      gap      omega  full diag
   1    -43.4746119 -0.434746E+02  0.203E-03    2.61       0.0  T
   2    -43.4746119 -0.338389E-09  0.119E-03    2.61      15.1  T
   3    -43.4746119  0.176946E-09  0.106E-04    2.61     169.9  T
   4    -43.4746119 -0.308134E-09  0.330E-05    2.61     544.5  T
     SCC iter.                  ...        0 min,  0.007 sec
     gradient                   ...        0 min,  0.013 sec
 * total energy  :   -42.6870583 Eh     change        0.1695570E-07 Eh
   gradient norm :     0.0001137 Eh/α   predicted     0.1196502E-07 ( -29.43%)
   displ. norm   :     0.0020961 α      lambda       -0.7289739E-07
   maximum displ.:     0.0011711 α      in ANC's #4, #25, #2, ...

........................................................................
.............................. CYCLE   34 ..............................
........................................................................

 iter      E             dE          RMSdq      gap      omega  full diag
   1    -43.4746028 -0.434746E+02  0.139E-03    2.61       0.0  T
   2    -43.4746028 -0.798579E-10  0.826E-04    2.61      21.7  T
   3    -43.4746028  0.535536E-10  0.603E-05    2.61     297.6  T
   4    -43.4746028 -0.926264E-10  0.141E-05    2.61    1270.2  T
     SCC iter.                  ...        0 min,  0.006 sec
     gradient                   ...        0 min,  0.019 sec
 * total energy  :   -42.6870583 Eh     change       -0.7015979E-07 Eh
   gradient norm :     0.0000470 Eh/α   predicted    -0.4092799E-07 ( -41.66%)
   displ. norm   :     0.0030112 α      lambda       -0.2252389E-07
   maximum displ.:     0.0016693 α      in ANC's #4, #2, #10, ...

   *** GEOMETRY OPTIMIZATION CONVERGED AFTER 34 ITERATIONS ***

------------------------------------------------------------------------
 total energy gain   :        -0.0069824 Eh       -4.3815 kcal/mol
 total RMSD          :         0.7154164 a0        0.3786 Å
 total power (kW/mol):        -0.5391830 (step)  -17.7128 (real)
------------------------------------------------------------------------

 ANCopt (total)                0 d,  0 h,  0 min,  1.035 sec
 optimizer setup                ...        0 min,  0.001 sec (  0.057%)
 model hessian                  ...        0 min,  0.015 sec (  1.414%)
 ANC generation                 ...        0 min,  0.002 sec (  0.173%)
 coordinate transformation      ...        0 min,  0.001 sec (  0.054%)
 single point calculation       ...        0 min,  0.998 sec ( 96.400%)
 optimization log               ...        0 min,  0.012 sec (  1.165%)
 hessian update                 ...        0 min,  0.001 sec (  0.079%)
 rational function              ...        0 min,  0.005 sec (  0.441%)

================
 final structure:
================
31
 xtb: 6.7.1 (edcfbbe)
C           -0.16047632826531        1.69131963368396       -2.93294999910897
C            0.27866710477742        0.95248071644231       -1.70554507006281
N            1.52461223758464        0.81874635009376       -1.51422714291453
C            2.14472060971757        0.29651270917200       -0.40123111132253
C            1.94722222278077        0.83838615257280        0.87230678084748
C            2.68005426362009        0.37628306576016        1.94753902389233
C            3.61237401981504       -0.63476802544728        1.78022947353789
C            3.81885461852465       -1.17235596067713        0.51908332069091
C            3.10515218728109       -0.70552385828909       -0.56619452396179
C           -0.78027107078379        0.40418629711726       -0.83042061798730
C           -1.92883997622087        1.13808264094466       -0.54234438644541
C           -2.90357967250102        0.62118143217254        0.29005765294350
C           -2.77425824107284       -0.64636063012080        0.84472955499733
C           -3.82246023906064       -1.20303052736793        1.75850529368873
C           -1.63371679513604       -1.38390502860769        0.54389165100941
C           -0.64917413732239       -0.86757864118950       -0.27443265027036
H            0.68795063258736        1.83676960466409       -3.59568471628728
H           -0.55348788690499        2.66851413137025       -2.65547780806004
H           -0.94682683783496        1.14268301258411       -3.44762144019000
H            1.22182301717504        1.63029612850643        1.00020180525149
H            2.51778399349530        0.80580642896952        2.92646841716550
H            4.17841144310532       -0.99802716251566        2.62558094604936
H            4.54845590201609       -1.95803934908649        0.38012673603770
H            3.26290642752679       -1.12035451140035       -1.55150351985254
H           -2.05385687465825        2.12980015897752       -0.95129833199221
H           -3.78171366859806        1.21244598051688        0.50988088672038
H           -3.49976264427363       -1.10494785767323        2.79594289951420
H           -3.98571317637383       -2.26050593990247        1.55956029145565
H           -4.76405496531086       -0.67138175321383        1.64327450984298
H           -1.51504726083730       -2.37526748741951        0.95821143533435
H            0.22425109504727       -1.46144771063844       -0.50269705992403

 Bond Distances (Angstroems)
 ---------------------------
C1-C2=1.4984         C1-H17=1.0864        C1-H18=1.0892        C1-H19=1.0882        C2-C1=1.4984         C2-N3=1.2676         
C2-C10=1.4791        N3-C2=1.2676         N3-C4=1.3770         C4-N3=1.3770         C4-C5=1.3980         C4-C9=1.3978         
C5-C4=1.3980         C5-C6=1.3808         C5-H20=1.0815        C6-C5=1.3808         C6-C7=1.3854         C6-H21=1.0813        
C7-C6=1.3854         C7-C8=1.3864         C7-H22=1.0803        C8-C7=1.3864         C8-C9=1.3803         C8-H23=1.0812        
C9-C4=1.3978         C9-C8=1.3803         C9-H24=1.0807        C10-C2=1.4791        C10-C11=1.3931       C10-C16=1.3942       
C11-C10=1.3931       C11-C12=1.3821       C11-H25=1.0800       C12-C11=1.3821       C12-C13=1.3896       C12-H26=1.0812       
C13-C12=1.3896       C13-C14=1.4979       C13-C15=1.3912       C14-C13=1.4979       C14-H27=1.0909       C14-H28=1.0883       
C14-H29=1.0874       C15-C13=1.3912       C15-C16=1.3804       C15-H30=1.0810       C16-C10=1.3942       C16-C15=1.3804       
C16-H31=1.0806       H17-C1=1.0864        H18-C1=1.0892        H19-C1=1.0882        H20-C5=1.0815        H21-C6=1.0813        
H22-C7=1.0803        H23-C8=1.0812        H24-C9=1.0807        H25-C11=1.0800       H26-C12=1.0812       H27-C14=1.0909       
H28-C14=1.0883       H29-C14=1.0874       H30-C15=1.0810       H31-C16=1.0806       
 C  H  Rav=1.0839 sigma=0.0038  Rmin=1.0800  Rmax=1.0909    15
 C  C  Rav=1.4090 sigma=0.0420  Rmin=1.3803  Rmax=1.4984    15
 N  C  Rav=1.3223 sigma=0.0547  Rmin=1.2676  Rmax=1.3770     2

 selected bond angles (degree)
 --------------------
H17-C1-C2=109.68               H18-C1-C2=109.84               H18-C1-H17=108.49              H19-C1-C2=110.52               
H19-C1-H17=110.08              H19-C1-H18=108.18              N3-C2-C1=117.63                C10-C2-C1=117.23               
C10-C2-N3=125.12               C4-N3-C2=127.20                C5-C4-N3=121.71                C9-C4-N3=119.07                
C9-C4-C5=118.84                C6-C5-C4=120.31                H20-C5-C4=119.10               H20-C5-C6=120.59               
C7-C6-C5=120.49                H21-C6-C5=119.50               H21-C6-C7=120.01               C8-C7-C6=119.54                
H22-C7-C6=120.23               H22-C7-C8=120.23               C9-C8-C7=120.47                H23-C8-C7=119.95               
H23-C8-C9=119.58               C8-C9-C4=120.33                H24-C9-C4=118.89               H24-C9-C8=120.77               
C11-C10-C2=121.15              C16-C10-C2=120.45              C16-C10-C11=118.40             

 selected dihedral angles (degree)
 ---------------------------------
N3-C2-C1-H17= 11.45           N3-C2-C1-H18=252.29           N3-C2-C1-H19=133.00           C10-C2-C1-H17=193.06          
C10-C2-C1-H18= 73.91          C10-C2-C1-H19=314.61          C4-N3-C2-C1=173.20            C4-N3-C2-C10=351.44           
C5-C4-N3-C2=302.11            C9-C4-N3-C2=129.14            C6-C5-C4-N3=186.25            C6-C5-C4-C9=359.23            
H20-C5-C4-N3=  5.57           H20-C5-C4-C9=178.56           C7-C6-C5-C4=359.56            C7-C6-C5-H20=180.25           
H21-C6-C5-C4=179.90           H21-C6-C5-H20=  0.59          C8-C7-C6-C5=  0.77            C8-C7-C6-H21=180.42           
H22-C7-C6-C5=180.44           H22-C7-C6-H21=  0.09          C9-C8-C7-C6=  0.12            C9-C8-C7-H22=180.46           
H23-C8-C7-C6=179.68           H23-C8-C7-H22=  0.00          C8-C9-C4-N3=174.83            C8-C9-C4-C5=  1.65            
H24-C9-C4-N3=353.57           H24-C9-C4-C5=180.39           C4-C9-C8-C7=358.65            C4-C9-C8-H23=179.09           
H24-C9-C8-C7=179.94           H24-C9-C8-H23=  0.38          C11-C10-C2-C1=318.36          C11-C10-C2-N3=140.11          
C16-C10-C2-C1=138.28          C16-C10-C2-N3=320.03          
           -------------------------------------------------
          |                Final Singlepoint                |
           -------------------------------------------------

          ...................................................
          :                      SETUP                      :
          :.................................................:
          :  # basis functions                  79          :
          :  # atomic orbitals                  79          :
          :  # shells                           47          :
          :  # electrons                        80          :
          :  max. iterations                   250          :
          :  Hamiltonian                  GFN2-xTB          :
          :  restarted?                      false          :
          :  GBSA solvation                   true          :
          :  PC potential                    false          :
          :  electronic temp.          300.0000000     K    :
          :  accuracy                    0.2000000          :
          :  -> integral cutoff          0.3198970E+02      :
          :  -> integral neglect         0.2000000E-08      :
          :  -> SCF convergence          0.2000000E-06 Eh   :
          :  -> wf. convergence          0.2000000E-04 e    :
          :  Broyden damping             0.4000000          :
          :  net charge                          0          :
          :  unpaired electrons                  0          :
          ...................................................

 iter      E             dE          RMSdq      gap      omega  full diag
   1    -43.4746028 -0.434746E+02  0.731E-06    2.61       0.0  T
   2    -43.4746028 -0.412115E-12  0.461E-06    2.61    3896.0  T
   3    -43.4746028 -0.568434E-12  0.239E-06    2.61    7522.4  T

   *** convergence criteria satisfied after 3 iterations ***

         #    Occupation            Energy/Eh            Energy/eV
      -------------------------------------------------------------
         1        2.0000           -0.6535716             -17.7846
       ...           ...                  ...                  ...
        34        2.0000           -0.4237525             -11.5309
        35        2.0000           -0.4166504             -11.3376
        36        2.0000           -0.4076117             -11.0917
        37        2.0000           -0.4036494             -10.9839
        38        2.0000           -0.3978569             -10.8262
        39        2.0000           -0.3884270             -10.5696
        40        2.0000           -0.3549534              -9.6588 (HOMO)
        41                         -0.2591351              -7.0514 (LUMO)
        42                         -0.2250257              -6.1233
        43                         -0.2152152              -5.8563
        44                         -0.2129894              -5.7957
        45                         -0.1858463              -5.0571
       ...                                ...                  ...
        79                          0.6968331              18.9618
      -------------------------------------------------------------
                  HL-Gap            0.0958183 Eh            2.6073 eV
             Fermi-level           -0.3070443 Eh           -8.3551 eV

 SCC (total)                   0 d,  0 h,  0 min,  0.023 sec
 SCC setup                      ...        0 min,  0.001 sec (  5.449%)
 Dispersion                     ...        0 min,  0.000 sec (  1.383%)
 classical contributions        ...        0 min,  0.000 sec (  1.041%)
 integral evaluation            ...        0 min,  0.004 sec ( 18.025%)
 iterations                     ...        0 min,  0.006 sec ( 24.167%)
 molecular gradient             ...        0 min,  0.011 sec ( 49.027%)
 printout                       ...        0 min,  0.000 sec (  0.838%)

         :::::::::::::::::::::::::::::::::::::::::::::::::::::
         ::                     SUMMARY                     ::
         :::::::::::::::::::::::::::::::::::::::::::::::::::::
         :: total energy             -42.687058328792 Eh    ::
         :: total w/o Gsasa/hb       -42.667688042785 Eh    ::
         :: gradient norm              0.000047092846 Eh/a0 ::
         :: HOMO-LUMO gap              2.607347350690 eV    ::
         ::.................................................::
         :: SCC energy               -43.474289083067 Eh    ::
         :: -> isotropic ES            0.012332032535 Eh    ::
         :: -> anisotropic ES          0.006761010676 Eh    ::
         :: -> anisotropic XC          0.031326635226 Eh    ::
         :: -> dispersion             -0.031405857578 Eh    ::
         :: -> Gsolv                  -0.020502128234 Eh    ::
         ::    -> Gelec               -0.001131842226 Eh    ::
         ::    -> Gsasa               -0.023518983369 Eh    ::
         ::    -> Ghb                  0.000000000000 Eh    ::
         ::    -> Gshift               0.004148697361 Eh    ::
         :: repulsion energy           0.787230754275 Eh    ::
         :: add. restraining           0.000000000000 Eh    ::
         :: total charge              -0.000000000000 e     ::
         :::::::::::::::::::::::::::::::::::::::::::::::::::::

           -------------------------------------------------
          |                Property Printout                |
           -------------------------------------------------

    * Orbital Energies and Occupations

         #    Occupation            Energy/Eh            Energy/eV
      -------------------------------------------------------------
         1        2.0000           -0.6535716             -17.7846
       ...           ...                  ...                  ...
        28        2.0000           -0.4644898             -12.6394
        29        2.0000           -0.4625838             -12.5875
        30        2.0000           -0.4582393             -12.4693
        31        2.0000           -0.4410161             -12.0007
        32        2.0000           -0.4393598             -11.9556
        33        2.0000           -0.4281156             -11.6496
        34        2.0000           -0.4237525             -11.5309
        35        2.0000           -0.4166504             -11.3376
        36        2.0000           -0.4076117             -11.0917
        37        2.0000           -0.4036494             -10.9839
        38        2.0000           -0.3978569             -10.8262
        39        2.0000           -0.3884270             -10.5696
        40        2.0000           -0.3549534              -9.6588 (HOMO)
        41                         -0.2591351              -7.0514 (LUMO)
        42                         -0.2250257              -6.1233
        43                         -0.2152152              -5.8563
        44                         -0.2129894              -5.7957
        45                         -0.1858463              -5.0571
        46                         -0.0927933              -2.5250
        47                         -0.0792896              -2.1576
        48                          0.0805702               2.1924
        49                          0.1022996               2.7837
        50                          0.1045635               2.8453
        51                          0.1302047               3.5430
       ...                                ...                  ...
        79                          0.6968331              18.9618
      -------------------------------------------------------------
                  HL-Gap            0.0958183 Eh            2.6073 eV
             Fermi-level           -0.3070443 Eh           -8.3551 eV

     #   Z          covCN         q      C6AA      α(0)
     1   6 C        3.763    -0.119    22.817     6.809
     2   6 C        2.898     0.116    25.451     8.272
     3   7 N        1.844    -0.229    26.844     7.679
     4   6 C        2.924     0.084    26.124     8.382
     5   6 C        2.922    -0.050    29.250     8.869
     6   6 C        2.918    -0.032    28.806     8.801
     7   6 C        2.919    -0.043    29.058     8.840
     8   6 C        2.919    -0.033    28.814     8.803
     9   6 C        2.924    -0.049    29.213     8.864
    10   6 C        2.973    -0.008    28.226     8.715
    11   6 C        2.922    -0.033    28.827     8.805
    12   6 C        2.923    -0.040    28.993     8.830
    13   6 C        2.966     0.021    27.540     8.608
    14   6 C        3.757    -0.111    22.674     6.789
    15   6 C        2.924    -0.039    28.979     8.828
    16   6 C        2.923    -0.028    28.700     8.785
    17   1 H        0.925     0.066     2.132     2.284
    18   1 H        0.925     0.066     2.133     2.284
    19   1 H        0.925     0.058     2.222     2.331
    20   1 H        0.925     0.018     2.769     2.602
    21   1 H        0.925     0.025     2.658     2.550
    22   1 H        0.926     0.025     2.665     2.553
    23   1 H        0.926     0.027     2.628     2.535
    24   1 H        0.926     0.030     2.588     2.516
    25   1 H        0.926     0.036     2.505     2.475
    26   1 H        0.925     0.035     2.517     2.481
    27   1 H        0.924     0.052     2.291     2.367
    28   1 H        0.925     0.048     2.339     2.392
    29   1 H        0.925     0.047     2.363     2.404
    30   1 H        0.926     0.033     2.539     2.492
    31   1 H        0.926     0.028     2.616     2.529

 Mol. C6AA /au·bohr⁶  :      11515.928315
 Mol. C8AA /au·bohr⁸  :     279746.249421
 Mol. α(0) /au        :        171.470691


Wiberg/Mayer (AO) data.
largest (>0.10) Wiberg bond orders for each atom

 ---------------------------------------------------------------------------
     #   Z sym  total        # sym  WBO       # sym  WBO       # sym  WBO
 ---------------------------------------------------------------------------
     1   6 C    3.993 --     2 C    1.019    17 H    0.981    19 H    0.972
                            18 H    0.956
     2   6 C    3.964 --     3 N    1.774    10 C    1.026     1 C    1.019
     3   7 N    3.201 --     2 C    1.774     4 C    1.132
     4   6 C    3.978 --     9 C    1.344     5 C    1.341     3 N    1.132
     5   6 C    3.989 --     6 C    1.459     4 C    1.341    20 H    0.971
                             8 C    0.103
     6   6 C    3.992 --     5 C    1.459     7 C    1.430    21 H    0.970
                             9 C    0.104
     7   6 C    3.989 --     6 C    1.430     8 C    1.425    22 H    0.972
     8   6 C    3.992 --     9 C    1.464     7 C    1.425    23 H    0.971
                             5 C    0.103
     9   6 C    3.985 --     8 C    1.464     4 C    1.344    24 H    0.971
                             6 C    0.104
    10   6 C    3.989 --    11 C    1.386    16 C    1.381     2 C    1.026
                            13 C    0.102
    11   6 C    3.988 --    12 C    1.455    10 C    1.386    25 H    0.968
                            15 C    0.105
    12   6 C    3.991 --    11 C    1.455    13 C    1.406    26 H    0.968
                            16 C    0.104
    13   6 C    3.987 --    12 C    1.406    15 C    1.400    14 C    1.028
                            10 C    0.102
    14   6 C    3.995 --    13 C    1.028    29 H    0.984    28 H    0.978
                            27 H    0.966
    15   6 C    3.991 --    16 C    1.462    13 C    1.400    30 H    0.969
                            11 C    0.105
    16   6 C    3.992 --    15 C    1.462    10 C    1.381    31 H    0.968
                            12 C    0.104
    17   1 H    0.995 --     1 C    0.981
    18   1 H    0.994 --     1 C    0.956
    19   1 H    0.995 --     1 C    0.972
    20   1 H    1.000 --     5 C    0.971
    21   1 H    0.999 --     6 C    0.970
    22   1 H    0.999 --     7 C    0.972
    23   1 H    0.998 --     8 C    0.971
    24   1 H    0.999 --     9 C    0.971
    25   1 H    0.999 --    11 C    0.968
    26   1 H    0.998 --    12 C    0.968
    27   1 H    0.996 --    14 C    0.966
    28   1 H    0.997 --    14 C    0.978
    29   1 H    0.997 --    14 C    0.984
    30   1 H    0.999 --    15 C    0.969
    31   1 H    0.999 --    16 C    0.968
 ---------------------------------------------------------------------------

Topologies differ in total number of bonds
Writing topology from bond orders to xtbtopo.mol

molecular dipole:
                 x           y           z       tot (Debye)
 q only:       -1.101       0.049      -0.148
   full:       -1.295      -0.032       0.072       3.297
molecular quadrupole (traceless):
                xx          xy          yy          xz          yz          zz
 q only:       -1.677      -1.202      -0.132      -0.940      -3.425       1.809
  q+dip:       -2.357      -6.032       1.404      -0.397      -3.045       0.953
   full:       -2.640      -3.434       1.493       0.555      -2.121       1.147

           -------------------------------------------------
          |                Geometry Summary                 |
           -------------------------------------------------

      molecular mass/u    :      209.2868530
   center of mass at/Å    :        0.2489561       0.0353385      -0.0183873
  moments of inertia/u·Å² :        0.6132961E+03   0.1357009E+04   0.1746257E+04
rotational constants/cm⁻¹ :        0.2748694E-01   0.1242264E-01   0.9653581E-02

 * 28 selected distances

     #   Z          #   Z                                           value/Å
     2   6 C        3   7 N                                       1.2676226
     4   6 C        5   6 C                                       1.3980456 (max)
     5   6 C        6   6 C                                       1.3808355
     6   6 C        7   6 C                                       1.3854376
     7   6 C        8   6 C                                       1.3864072
     4   6 C        9   6 C                                       1.3977551
     8   6 C        9   6 C                                       1.3802651
    10   6 C       11   6 C                                       1.3931269
    11   6 C       12   6 C                                       1.3820991
    12   6 C       13   6 C                                       1.3896216
    13   6 C       15   6 C                                       1.3911543
    10   6 C       16   6 C                                       1.3941648
    15   6 C       16   6 C                                       1.3804246
     1   6 C       17   1 H                                       1.0863708
     1   6 C       18   1 H                                       1.0892007
     1   6 C       19   1 H                                       1.0882262
     5   6 C       20   1 H                                       1.0815187
     6   6 C       21   1 H                                       1.0812608
     7   6 C       22   1 H                                       1.0802661
     8   6 C       23   1 H                                       1.0811686
     9   6 C       24   1 H                                       1.0806502
    11   6 C       25   1 H                                       1.0799891 (min)
    12   6 C       26   1 H                                       1.0812195
    14   6 C       27   1 H                                       1.0908854
    14   6 C       28   1 H                                       1.0883405
    14   6 C       29   1 H                                       1.0874417
    15   6 C       30   1 H                                       1.0809917
    16   6 C       31   1 H                                       1.0805818

 * 3 distinct bonds (by element types)

   Z      Z             #   av. dist./Å        max./Å        min./Å
   1 H    6 C          15     1.0838741     1.0908854     1.0799891
   6 C    6 C          12     1.3882781     1.3980456     1.3802651
   6 C    7 N           1     1.2676226     1.2676226     1.2676226


optimized geometry written to: xtbopt.xyz


           -------------------------------------------------
          | TOTAL ENERGY              -42.687058328792 Eh   |
          | GRADIENT NORM               0.000047092846 Eh/α |
          | HOMO-LUMO GAP               2.607347350690 eV   |
           -------------------------------------------------

------------------------------------------------------------------------
 * finished run on 2026/09/10 at 23:03:31.457     
Note: The following floating-point exceptions are signalling: IEEE_DIVIDE_BY_ZERO IEEE_UNDERFLOW_FLAG IEEE_DENORMAL
normal termination of xtb
------------------------------------------------------------------------
 total:
 * wall-time:     0 d,  0 h,  0 min,  1.123 sec
 *  cpu-time:     0 d,  0 h,  0 min,  0.062 sec
 * ratio c/w:     0.056 speedup
 SCF:
 * wall-time:     0 d,  0 h,  0 min,  0.030 sec
 *  cpu-time:     0 d,  0 h,  0 min,  0.000 sec
 * ratio c/w:     0.000 speedup
 ANC optimizer:
 * wall-time:     0 d,  0 h,  0 min,  1.062 sec
 *  cpu-time:     0 d,  0 h,  0 min,  0.062 sec
 * ratio c/w:     0.059 speedup

