28
 energy: -39.514116070167 gnorm: 0.000050488997 xtb: 6.7.1 (edcfbbe)
C           -1.11467653591630       -3.02536409978473       -0.25415816161439
C           -0.43925552742663       -1.68949261647342       -0.21296138604753
N            0.77479390591638       -1.62614224874313       -0.56865870993361
C            1.53505478360858       -0.48598940217141       -0.71463555777946
C            2.77936480395441       -0.41529448743454       -0.08260962449037
C            3.60633239293375        0.66984292320801       -0.29181740636785
C            3.22576537705378        1.68779028600162       -1.15262047618298
C            2.00459484593877        1.61244544815414       -1.80240421636302
C            1.16082152524180        0.54086221560926       -1.58570080827667
C           -1.23785298700814       -0.54472329967336        0.28482097677482
C           -2.54826691346070       -0.34313501385189       -0.14294782126328
C           -3.27699416731150        0.73785636428127        0.31891750835399
C           -2.71549911953110        1.62208001514013        1.22535446414617
C           -1.41744839752024        1.42267948438568        1.66604587356528
C           -0.68140595251847        0.35113791474577        1.19558167007444
H           -0.37838828646228       -3.80379406837510       -0.43319789785664
H           -1.63815113551323       -3.21457002440857        0.68116169312744
H           -1.84586350918737       -3.04646858562055       -1.06098407383629
H            3.07185602227593       -1.21241485958596        0.58579007382413
H            4.55991045696827        0.71962297942202        0.21508277977732
H            3.87934781299887        2.53152772296692       -1.31947132800415
H            1.70325364880011        2.39884237390842       -2.48043797160482
H            0.20907807138603        0.47868563782354       -2.09548132641153
H           -2.99351427650967       -1.01951220718300       -0.85763143255280
H           -4.28886070422954        0.88969270278848       -0.02877502666047
H           -3.28797830791167        2.46347021189629        1.58779592110274
H           -0.97477402734112        2.10525301471674        2.37697871305889
H            0.32875620057119        0.19511161825851        1.54622150174133
