19
R1.50
C 1.9464508110 -0.8471117184 -1.4202520433
C 2.0851114112 -1.5582084967 -0.2381186721
C 1.2430443426 -1.3324272856 0.8383897276
C 0.2513846477 -0.3737550341 0.7040568073
N -0.6831773082 0.0211463197 1.6346988302
C -1.4690695076 1.0895116614 1.0938801694
C -0.9568741454 1.3138233052 -0.3689783050
C 0.0915681042 0.3318315636 -0.5020924411
C 0.9471066103 0.1073045453 -1.5583197606
C -2.3029208046 0.7139123767 -0.0892189996
H 2.6226835419 -1.0353575532 -2.2402885665
H 2.8705640837 -2.2946984907 -0.1483331048
H 1.3642686674 -1.8737718367 1.7651722590
H -0.4850774861 -0.0221351792 2.6189916958
H -1.7544093021 1.8899865550 1.7587644394
H -0.9559931666 2.2417920175 -0.8325210181
H 0.8382231946 0.6614807822 -2.4793558597
H -2.4672573790 -0.3432645076 -0.2638201272
H -3.1907640834 1.3078454848 -0.2711966866
