19
R1.75
C 1.9633655284 -0.8595325574 -1.4252484593
C 2.0932791180 -1.5662595678 -0.2397878245
C 1.2502330918 -1.3304622463 0.8350824053
C 0.2711798374 -0.3602200133 0.6989726720
N -0.6740916330 0.0374089354 1.6198766594
C -1.4596340030 1.0982607291 1.0674857320
C -0.8149904525 1.3962371135 -0.3703115463
C 0.1379254833 0.3620943897 -0.5022152553
C 0.9822796133 0.1131330236 -1.5632614950
C -2.3813431953 0.6863129947 -0.0462022582
H 2.6299444226 -1.0688657750 -2.2488589608
H 2.8691944787 -2.3124554667 -0.1483248489
H 1.3581802063 -1.8839331384 1.7562776577
H -0.4902643701 -0.0043058912 2.6076157612
H -1.7519347757 1.8866232499 1.7491315670
H -0.9224150647 2.2974704612 -0.8257996369
H 0.8801289128 0.6656011687 -2.4858637011
H -2.4871209341 -0.3627196954 -0.2602894703
H -3.2350983600 1.3045858242 -0.2629577375
