19
R2.05
C 1.9996537099 -0.8656770971 -1.4270392428
C 2.0924720947 -1.5927066089 -0.2489890931
C 1.2522887434 -1.3336767937 0.8242095713
C 0.3079619489 -0.3314811589 0.6871885004
N -0.6385259232 0.0875502463 1.5877448180
C -1.4366904252 1.1321642769 1.0229109277
C -0.6841600996 1.4682766639 -0.3645321704
C 0.2082280865 0.4133257278 -0.5098501647
C 1.0605815126 0.1461359484 -1.5658555224
C -2.5048767949 0.6369260678 0.0785783145
H 2.6643037448 -1.0929912950 -2.2475224481
H 2.8373944047 -2.3712046685 -0.1618185624
H 1.3359611871 -1.8975065699 1.7417181543
H -0.5397857931 -0.0378912823 2.5786730474
H -1.7041179365 1.9322196531 1.7096712582
H -0.9457202186 2.3085288976 -0.8950564921
H 0.9940037336 0.7171057771 -2.4803661198
H -2.5289101685 -0.3966944403 -0.1979106325
H -3.2843552315 1.2987681174 -0.2383102763
