19
R3.20
C 2.4903462293 -0.7599695472 -1.2638818814
C 2.4014236281 -1.4781841856 -0.0677657789
C 1.3290482465 -1.3130628371 0.7910546171
C 0.3385898427 -0.4174891145 0.4260615871
N -0.7809812321 -0.0353723352 1.0921472232
C -1.5641973076 0.9029403167 0.3614361437
C -0.4819995303 1.1341916684 -1.0666098173
C 0.4093018630 0.3168176724 -0.7939051732
C 1.5140224099 0.1317746484 -1.6405281455
C -3.0696201073 0.8629330953 0.7963551679
H 3.3457796043 -0.9170545651 -1.9043294869
H 3.1868883880 -2.1725131716 0.1899350950
H 1.2637290209 -1.8650865780 1.7169961768
H -1.1383265031 -0.5086836014 1.9040966783
H -1.5072324448 1.9067493222 0.8513318845
H -0.9780426336 1.8165377365 -1.6540829724
H 1.5799974219 0.6793460110 -2.5685176028
H -3.6813120453 1.6740303912 0.4375339634
H -3.1931665226 0.6082336076 1.8357165035
