22

N      2.790370    0.635523    1.031703
C      1.451998    0.726023    0.952686
C      0.739955   -0.043963    0.030124
C     -0.722844    0.040898   -0.057567
C     -1.520504   -1.105564    0.097053
C     -2.913472   -1.026426    0.025335
C     -3.531515    0.199238   -0.204958
C     -2.759031    1.345961   -0.366154
C     -1.365671    1.268319   -0.293310
C      1.474456   -0.903715   -0.797494
C      2.862289   -0.974121   -0.693509
C      3.506495   -0.181709    0.244393
H      3.279810    1.209381    1.720115
H      0.974753    1.412716    1.645039
H     -1.068772   -2.078582    0.282664
H     -3.518222   -1.922623    0.147556
H     -4.616207    0.259389   -0.264833
H     -3.244742    2.300696   -0.557055
H     -0.794302    2.181659   -0.445317
H      0.964112   -1.519818   -1.539829
H      3.428567   -1.640511   -1.340767
H      4.582477   -0.182771    0.384126
