34
 energy: -49.108403509567 gnorm: 0.000156149336 xtb: 6.7.1 (edcfbbe)
C           -1.12850514001407       -0.49341163662174       -1.55076126945924
C           -0.23149261618618       -0.54799139535199       -0.34140976649420
N            0.97003989621595       -0.92599759600350       -0.32580102136880
C            1.69775797957492       -1.41536486929325       -1.39075355545677
C            2.80487053042875       -0.70001275748444       -1.85156424605809
C            3.60549237745106       -1.22460822126987       -2.84654048389411
C            3.33297906860045       -2.47319473792123       -3.38400081195372
C            2.24615137690601       -3.19507419723132       -2.91893949103956
C            1.42824643839023       -2.67277069839016       -1.93552604827900
C           -0.86777784942315       -0.13988446477513        0.93571671746143
C           -1.29982476470380       -1.10342607384589        1.81202150705276
C           -1.96440457758275       -0.75237139667929        2.99594155114821
C           -2.19198602818376        0.56136770623333        3.29491133377674
C           -1.74488019956191        1.58316562917990        2.43073051626924
C           -1.94885354408472        2.94808803737289        2.72644634712366
C           -1.48963790608181        3.92367666918982        1.88700824177033
C           -0.79632604020478        3.57816268210155        0.71628991351126
C           -0.58720901233402        2.26533199904258        0.39730476873958
C           -1.06428507525973        1.23303646298072        1.23430258775365
H           -1.70760337670978        0.42799726276880       -1.55404204961528
H           -0.54944136807438       -0.57476715629269       -2.46924365823985
H           -1.83099357027919       -1.32607442312816       -1.50276857942127
H            3.01449078723683        0.27087031151521       -1.42644510867435
H            4.45301853537357       -0.65677831094860       -3.20373668839802
H            3.96575865457489       -2.88154603778360       -4.15830254182673
H            2.02795746992636       -4.17043097529093       -3.33101847079151
H            0.58160057384623       -3.23542327288284       -1.56749714598678
H           -1.13220940671483       -2.14621443962624        1.58349121087091
H           -2.29782684292844       -1.53264859227624        3.66457237327214
H           -2.71162324700797        0.83855342920541        4.20127746330490
H           -2.47260117010613        3.20694491769581        3.63612047248110
H           -1.64877032355354        4.96637991816140        2.12124764414831
H           -0.42512114971822        4.36034641304158        0.06973034379011
H           -0.03699047941209        2.00406981430748       -0.49536557931600
