16

N     -1.878902   -0.917825   -0.169792
C     -0.587990   -1.242987    0.017584
C      0.387958   -0.246530    0.067349
C      1.779861   -0.698125    0.276870
O      2.002672   -1.896295    0.393837
N      2.780981    0.222454    0.335268
C     -0.004381    1.084294   -0.080724
C     -1.354313    1.384790   -0.273750
C     -2.286081    0.353082   -0.315321
H     -2.571520   -1.669085   -0.201846
H     -0.369417   -2.301859    0.123564
H      3.721947   -0.131713    0.480499
H      2.690091    1.223741    0.249477
H      0.712807    1.900465   -0.050334
H     -1.674745    2.418895   -0.390782
H     -3.348969    0.516699   -0.461898
