 Entering Gaussian System
 *********************************************
 Gaussian 98:
 frequency output generated by the xtb code
 *********************************************
                         Standard orientation:
 --------------------------------------------------------------------
  Center     Atomic     Atomic              Coordinates (Angstroms)
  Number     Number      Type              X           Y           Z
 --------------------------------------------------------------------
    1          6             0       -0.619249   -1.049695   -2.985999
    2          6             0        0.118766   -0.481687   -1.814818
    3          7             0        1.371188   -0.633635   -1.743551
    4          6             0        2.175553   -0.163899   -0.720329
    5          6             0        3.232740    0.690353   -1.039251
    6          6             0        4.105850    1.114207   -0.057564
    7          6             0        3.956843    0.678523    1.249928
    8          6             0        2.922094   -0.185027    1.568551
    9          6             0        2.032580   -0.601979    0.596928
   10          6             0       -0.683520    0.325704   -0.854354
   11          6             0       -0.599414    1.695145   -0.898447
   12          6             0       -1.351651    2.490554   -0.022811
   13          6             0       -2.179832    1.909975    0.895833
   14          6             0       -2.278464    0.505672    0.989010
   15          6             0       -3.106630   -0.118875    1.946125
   16          6             0       -3.170175   -1.480891    2.037404
   17          6             0       -2.401996   -2.281853    1.178031
   18          6             0       -1.594840   -1.708818    0.235003
   19          6             0       -1.517142   -0.304639    0.105408
   20          1             0       -0.935368   -0.230189   -3.632270
   21          1             0       -1.514948   -1.574656   -2.661029
   22          1             0        0.026516   -1.717878   -3.549258
   23          1             0        3.345075    1.025061   -2.060436
   24          1             0        4.912877    1.785954   -0.314491
   25          1             0        4.645652    1.007248    2.014443
   26          1             0        2.800533   -0.532822    2.584991
   27          1             0        1.228379   -1.279144    0.847304
   28          1             0        0.049850    2.168156   -1.622417
   29          1             0       -1.269428    3.565960   -0.086092
   30          1             0       -2.765945    2.517812    1.570595
   31          1             0       -3.686664    0.504299    2.612514
   32          1             0       -3.804840   -1.950914    2.774867
   33          1             0       -2.450913   -3.357526    1.269654
   34          1             0       -0.993479   -2.330494   -0.413472
 --------------------------------------------------------------------
     1 basis functions        1 primitive gaussians
     1 alpha electrons        1 beta electrons

 Harmonic frequencies (cm**-1), IR intensities (km*mol⁻¹),
 Raman scattering activities (A**4/amu), Raman depolarization ratios,
 reduced masses (AMU), force constants (mDyne/A) and normal coordinates:
                      1                      2                      3
                        a                      a                      a 
 Frequencies --    17.7545                28.7582                39.4979
 Red. masses --    10.5733                10.1473                10.5070
 Frc consts  --     0.0000                 0.0000                 0.0000
 IR Inten    --     0.1312                 0.1443                 0.2477
 Raman Activ --     0.0000                 0.0000                 0.0000
 Depolar     --     0.0000                 0.0000                 0.0000
 Atom AN      X      Y      Z        X      Y      Z        X      Y      Z
   1   6     0.01   0.05  -0.14     0.00   0.13  -0.05     0.02   0.03   0.09
   2   6    -0.02   0.02  -0.11    -0.02   0.11  -0.03     0.01   0.06   0.08
   3   7    -0.03  -0.03  -0.04    -0.02   0.10  -0.01     0.01   0.08   0.08
   4   6    -0.08  -0.06   0.02    -0.01   0.03   0.01     0.07   0.03   0.04
   5   6    -0.19   0.12   0.15     0.22  -0.26  -0.01    -0.01   0.13   0.03
   6   6    -0.25   0.09   0.21     0.25  -0.35  -0.00     0.11   0.01  -0.02
   7   6    -0.20  -0.11   0.15     0.05  -0.16   0.04     0.30  -0.20  -0.06
   8   6    -0.10  -0.28   0.02    -0.18   0.13   0.07     0.36  -0.28  -0.06
   9   6    -0.04  -0.26  -0.04    -0.21   0.22   0.06     0.25  -0.16  -0.01
  10   6    -0.03   0.04  -0.12    -0.06   0.08  -0.04    -0.03   0.05   0.05
  11   6    -0.10   0.04  -0.20    -0.19   0.09  -0.08    -0.14   0.05  -0.02
  12   6    -0.07   0.04  -0.18    -0.25   0.04  -0.09    -0.27   0.04  -0.12
  13   6     0.04   0.05  -0.08    -0.17  -0.01  -0.05    -0.29   0.03  -0.15
  14   6     0.11   0.05  -0.00    -0.04  -0.02  -0.01    -0.18   0.02  -0.07
  15   6     0.23   0.05   0.10     0.06  -0.07   0.04    -0.20   0.01  -0.10
  16   6     0.29   0.05   0.16     0.19  -0.07   0.08    -0.09   0.01  -0.02
  17   6     0.23   0.05   0.11     0.23  -0.02   0.07     0.05   0.03   0.09
  18   6     0.12   0.04   0.01     0.13   0.03   0.02     0.07   0.04   0.12
  19   6     0.07   0.04  -0.03     0.01   0.03  -0.01    -0.04   0.04   0.04
  20   1    -0.00   0.02  -0.03    -0.01   0.04  -0.01    -0.02   0.00   0.03
  21   1     0.01   0.00  -0.05     0.01   0.02  -0.02     0.02  -0.01   0.03
  22   1     0.01   0.03  -0.05     0.01   0.05  -0.02     0.01   0.02   0.02
  23   1    -0.06   0.08   0.06     0.11  -0.12  -0.01    -0.04   0.08   0.02
  24   1    -0.10   0.06   0.09     0.13  -0.17  -0.01     0.01   0.02  -0.01
  25   1    -0.07  -0.04   0.06     0.02  -0.07   0.01     0.11  -0.09  -0.03
  26   1    -0.02  -0.13  -0.01    -0.10   0.08   0.03     0.15  -0.12  -0.03
  27   1     0.01  -0.11  -0.04    -0.11   0.13   0.03     0.09  -0.06  -0.00
  28   1    -0.05   0.01  -0.08    -0.07   0.04  -0.03    -0.04   0.02  -0.00
  29   1    -0.04   0.01  -0.07    -0.10   0.01  -0.04    -0.10   0.01  -0.05
  30   1     0.02   0.02  -0.02    -0.06  -0.01  -0.02    -0.12   0.01  -0.07
  31   1     0.08   0.02   0.04     0.01  -0.03   0.01    -0.09   0.00  -0.05
  32   1     0.11   0.02   0.07     0.08  -0.03   0.03    -0.03   0.00  -0.01
  33   1     0.08   0.01   0.04     0.09  -0.01   0.03     0.04   0.01   0.05
  34   1     0.02   0.01  -0.01     0.05   0.02  -0.00     0.05   0.01   0.06
                      4                      5                      6
                        a                      a                      a 
 Frequencies --    94.7012                97.0201               128.0998
 Red. masses --    10.0498                10.5447                 5.8035
 Frc consts  --     0.0000                 0.0000                 0.0000
 IR Inten    --     1.8290                 0.9555                 0.3937
 Raman Activ --     0.0000                 0.0000                 0.0000
 Depolar     --     0.0000                 0.0000                 0.0000
 Atom AN      X      Y      Z        X      Y      Z        X      Y      Z
   1   6    -0.15  -0.02   0.13    -0.16   0.25   0.04    -0.13  -0.38   0.25
   2   6     0.04   0.01  -0.01    -0.00   0.03   0.05    -0.05  -0.01   0.03
   3   7     0.09   0.16  -0.28    -0.06  -0.35   0.11    -0.05   0.04   0.01
   4   6     0.07   0.07  -0.21    -0.00  -0.30   0.06    -0.05   0.11  -0.03
   5   6     0.12   0.06  -0.04    -0.09  -0.24  -0.07    -0.03   0.10   0.02
   6   6    -0.01  -0.00   0.11    -0.15   0.02  -0.13     0.00  -0.03   0.05
   7   6    -0.20  -0.06   0.07    -0.12   0.20  -0.06     0.01  -0.12   0.01
   8   6    -0.24  -0.07  -0.11     0.01   0.09   0.05    -0.05  -0.06  -0.02
   9   6    -0.10  -0.01  -0.26     0.07  -0.17   0.10    -0.08   0.06  -0.04
  10   6     0.14  -0.05   0.12     0.11   0.12   0.07    -0.00   0.11  -0.04
  11   6     0.18  -0.05   0.13     0.08   0.12   0.09     0.03   0.11   0.03
  12   6     0.11  -0.03   0.05    -0.01   0.07   0.07     0.03   0.07   0.08
  13   6    -0.05  -0.00  -0.08    -0.09   0.03  -0.03     0.01   0.03   0.03
  14   6    -0.06  -0.00  -0.05    -0.03   0.02  -0.04    -0.00   0.03  -0.03
  15   6    -0.19   0.03  -0.15    -0.10  -0.06  -0.16     0.01  -0.05  -0.07
  16   6    -0.10   0.03  -0.02     0.02  -0.06  -0.16     0.08  -0.06  -0.11
  17   6     0.13   0.01   0.21     0.22  -0.00  -0.04     0.15   0.00  -0.10
  18   6     0.20  -0.02   0.25     0.26   0.07   0.04     0.11   0.07  -0.09
  19   6     0.09  -0.03   0.10     0.12   0.08   0.04     0.02   0.08  -0.05
  20   1    -0.18  -0.01   0.10     0.02   0.10   0.02     0.26  -0.19  -0.18
  21   1     0.03  -0.10   0.10    -0.09   0.14   0.01    -0.22   0.22   0.11
  22   1    -0.04   0.07  -0.05    -0.10   0.02   0.00    -0.15  -0.42   0.31
  23   1     0.08   0.04  -0.00    -0.04  -0.11  -0.03    -0.01   0.05   0.01
  24   1     0.01   0.00   0.07    -0.07   0.03  -0.06     0.01  -0.01   0.02
  25   1    -0.09  -0.03   0.05    -0.05   0.12  -0.03     0.02  -0.07   0.01
  26   1    -0.11  -0.04  -0.04     0.02   0.06   0.03    -0.02  -0.04  -0.01
  27   1    -0.04  -0.01  -0.12     0.04  -0.07   0.06    -0.03   0.03  -0.02
  28   1     0.07  -0.02   0.05     0.02   0.05   0.04     0.01   0.04   0.02
  29   1     0.04  -0.01   0.02    -0.01   0.02   0.03     0.02   0.02   0.04
  30   1    -0.05   0.00  -0.06    -0.06  -0.00  -0.03     0.00   0.00   0.02
  31   1    -0.10   0.02  -0.09    -0.07  -0.03  -0.07    -0.01  -0.03  -0.02
  32   1    -0.06   0.02  -0.02    -0.01  -0.03  -0.07     0.03  -0.03  -0.04
  33   1     0.07   0.00   0.10     0.10  -0.00  -0.01     0.06  -0.00  -0.03
  34   1     0.10  -0.01   0.11     0.11   0.04   0.03     0.05   0.04  -0.02
                      7                      8                      9
                        a                      a                      a 
 Frequencies --   147.5788               154.4846               174.6351
 Red. masses --     6.4941                10.0055                 8.8983
 Frc consts  --     0.0000                 0.0000                 0.0000
 IR Inten    --     0.4496                 0.2085                 0.8848
 Raman Activ --     0.0000                 0.0000                 0.0000
 Depolar     --     0.0000                 0.0000                 0.0000
 Atom AN      X      Y      Z        X      Y      Z        X      Y      Z
   1   6    -0.04  -0.29   0.09     0.09   0.00  -0.16     0.13   0.16  -0.28
   2   6    -0.09  -0.00  -0.02    -0.06  -0.01  -0.06    -0.04  -0.02  -0.09
   3   7    -0.11  -0.04   0.12    -0.07   0.01   0.07    -0.05   0.05   0.02
   4   6    -0.14   0.05   0.09    -0.11   0.04   0.08    -0.12   0.08   0.06
   5   6    -0.15   0.04   0.04    -0.13   0.04   0.02    -0.13   0.08   0.03
   6   6    -0.03  -0.04  -0.03    -0.02  -0.01  -0.05    -0.01  -0.02  -0.04
   7   6     0.08  -0.09  -0.04     0.08  -0.06  -0.05     0.09  -0.10  -0.05
   8   6     0.03  -0.00   0.04     0.05   0.01   0.02     0.01   0.02   0.01
   9   6    -0.08   0.08   0.11    -0.06   0.07   0.09    -0.10   0.11   0.08
  10   6    -0.06   0.10  -0.10    -0.10  -0.02  -0.10    -0.07  -0.10  -0.05
  11   6    -0.08   0.10  -0.09     0.26  -0.03   0.21    -0.13  -0.10  -0.16
  12   6     0.08   0.07   0.08     0.26  -0.02   0.20     0.12  -0.06   0.02
  13   6     0.15   0.03   0.13    -0.09  -0.01  -0.11     0.23  -0.03   0.13
  14   6     0.07   0.03   0.02    -0.24  -0.00  -0.22     0.09  -0.03   0.06
  15   6    -0.02  -0.04  -0.10    -0.13   0.01  -0.12    -0.17   0.03  -0.13
  16   6    -0.03  -0.04  -0.21     0.21   0.01   0.19    -0.23   0.03  -0.11
  17   6     0.13   0.01  -0.11     0.23   0.01   0.21     0.06  -0.01   0.19
  18   6     0.19   0.07  -0.02    -0.10  -0.01  -0.08     0.20  -0.06   0.28
  19   6     0.07   0.07  -0.02    -0.24  -0.01  -0.21     0.11  -0.07   0.12
  20   1    -0.37  -0.12   0.16     0.02   0.00  -0.04     0.23   0.07  -0.15
  21   1     0.20  -0.40   0.09     0.03  -0.03  -0.08    -0.08   0.19  -0.16
  22   1     0.12   0.17  -0.12     0.06   0.03  -0.04     0.00  -0.06   0.01
  23   1    -0.06   0.02   0.01    -0.06   0.01   0.01    -0.06   0.03   0.01
  24   1    -0.00  -0.02  -0.03    -0.01  -0.01  -0.03     0.00  -0.02  -0.02
  25   1     0.06  -0.05  -0.03     0.05  -0.04  -0.03     0.06  -0.06  -0.03
  26   1     0.03  -0.00   0.01     0.03   0.00   0.01     0.02   0.00   0.01
  27   1    -0.03   0.04   0.05    -0.02   0.03   0.04    -0.04   0.05   0.04
  28   1    -0.05   0.04  -0.05     0.15  -0.01   0.12    -0.09  -0.04  -0.10
  29   1     0.04   0.02   0.05     0.15  -0.01   0.12     0.06  -0.02   0.01
  30   1     0.07   0.00   0.07    -0.03   0.00  -0.04     0.11  -0.00   0.07
  31   1    -0.03  -0.03  -0.03    -0.05   0.00  -0.05    -0.10   0.02  -0.09
  32   1    -0.04  -0.03  -0.10     0.13   0.01   0.11    -0.14   0.02  -0.08
  33   1     0.06   0.00  -0.03     0.14   0.00   0.13     0.03  -0.00   0.09
  34   1     0.09   0.03   0.02    -0.03  -0.00  -0.03     0.09  -0.02   0.11
                     10                     11                     12
                        a                      a                      a 
 Frequencies --   216.8836               265.7521               334.1470
 Red. masses --     9.7638                 9.3679                10.6964
 Frc consts  --     0.0000                 0.0000                 0.0000
 IR Inten    --     0.5541                 0.2715                 3.2728
 Raman Activ --     0.0000                 0.0000                 0.0000
 Depolar     --     0.0000                 0.0000                 0.0000
 Atom AN      X      Y      Z        X      Y      Z        X      Y      Z
   1   6    -0.27   0.21   0.11     0.43  -0.17  -0.19     0.17   0.08   0.14
   2   6     0.01  -0.08   0.05     0.02   0.01  -0.01     0.22  -0.11   0.16
   3   7     0.01  -0.08   0.02     0.01  -0.06  -0.00     0.22  -0.37  -0.00
   4   6    -0.15   0.11   0.09    -0.07  -0.02  -0.02     0.15  -0.08  -0.09
   5   6    -0.23   0.20   0.08    -0.14   0.02  -0.09    -0.07   0.18  -0.07
   6   6    -0.04   0.00  -0.01    -0.10  -0.03  -0.12    -0.08   0.08  -0.02
   7   6     0.17  -0.20  -0.06    -0.07  -0.11  -0.14     0.03  -0.23  -0.11
   8   6     0.00   0.04   0.04    -0.11  -0.04  -0.07    -0.16   0.02  -0.05
   9   6    -0.18   0.23   0.13    -0.15   0.00  -0.03    -0.14   0.12  -0.08
  10   6     0.17  -0.08   0.12     0.11   0.05   0.09     0.18   0.02   0.10
  11   6     0.24  -0.09   0.03     0.16   0.06   0.26    -0.16   0.04  -0.07
  12   6     0.03  -0.05  -0.21    -0.12   0.04   0.06    -0.13   0.01   0.02
  13   6    -0.05  -0.03  -0.26    -0.26   0.05  -0.07     0.10   0.01   0.22
  14   6     0.11  -0.03  -0.02     0.04   0.04   0.13    -0.06   0.01   0.00
  15   6     0.16  -0.00   0.03     0.09   0.00   0.15    -0.19  -0.00  -0.12
  16   6     0.05  -0.01  -0.03    -0.06  -0.00  -0.03     0.08   0.00   0.10
  17   6    -0.09  -0.05  -0.12    -0.09   0.04  -0.10     0.08   0.04   0.06
  18   6     0.03  -0.08  -0.03     0.11   0.08   0.11    -0.18   0.06  -0.15
  19   6     0.13  -0.07   0.06     0.14   0.08   0.16    -0.03   0.06  -0.03
  20   1    -0.08   0.11   0.10     0.15  -0.08  -0.11     0.06   0.06   0.09
  21   1    -0.08   0.09   0.06     0.13  -0.10  -0.14     0.04   0.01   0.01
  22   1    -0.15   0.06  -0.05     0.24  -0.02   0.04     0.04   0.05   0.00
  23   1    -0.10   0.08   0.03    -0.06   0.00  -0.03    -0.05   0.09  -0.01
  24   1    -0.00  -0.01  -0.02    -0.03  -0.01  -0.03    -0.04   0.05   0.03
  25   1     0.12  -0.13  -0.04    -0.00  -0.05  -0.05     0.05  -0.13  -0.04
  26   1     0.01   0.01   0.01    -0.02  -0.00  -0.02    -0.07   0.03  -0.01
  27   1    -0.07   0.10   0.06    -0.05   0.01  -0.01    -0.08   0.07  -0.05
  28   1     0.10  -0.05   0.02     0.07   0.04   0.11    -0.08   0.04  -0.04
  29   1    -0.03  -0.01  -0.10    -0.07   0.01  -0.02    -0.05   0.00  -0.00
  30   1    -0.07   0.00  -0.13    -0.16   0.01  -0.09     0.09  -0.00   0.12
  31   1     0.07   0.00   0.02     0.04  -0.00   0.06    -0.10  -0.00  -0.07
  32   1     0.01   0.01  -0.01    -0.04  -0.01  -0.03     0.06  -0.01   0.05
  33   1    -0.07  -0.02  -0.06    -0.07   0.01  -0.08     0.06   0.01   0.03
  34   1     0.00  -0.03  -0.01     0.05   0.03   0.04    -0.10   0.01  -0.08
                     13                     14                     15
                        a                      a                      a 
 Frequencies --   360.0794               370.4875               391.5723
 Red. masses --    10.2111                 9.0663                10.5773
 Frc consts  --     0.0000                 0.0000                 0.0000
 IR Inten    --     0.6072                 0.6795                 3.6007
 Raman Activ --     0.0000                 0.0000                 0.0000
 Depolar     --     0.0000                 0.0000                 0.0000
 Atom AN      X      Y      Z        X      Y      Z        X      Y      Z
   1   6     0.06   0.05  -0.00    -0.01  -0.00  -0.03    -0.13  -0.02  -0.17
   2   6    -0.13  -0.24   0.25    -0.02  -0.03  -0.00     0.00  -0.20  -0.12
   3   7    -0.08   0.12   0.05    -0.02  -0.05   0.00     0.01  -0.37  -0.05
   4   6    -0.01   0.08  -0.02     0.01  -0.00  -0.02     0.14  -0.08  -0.17
   5   6     0.06  -0.02  -0.04    -0.23   0.35   0.09     0.11   0.08   0.05
   6   6     0.01   0.00  -0.00     0.26  -0.32  -0.06     0.01   0.11   0.18
   7   6    -0.06   0.03   0.00     0.02   0.01   0.02     0.17  -0.06   0.14
   8   6     0.00  -0.06  -0.04    -0.24   0.34   0.08     0.03   0.06   0.01
   9   6     0.00   0.00  -0.05     0.27  -0.32  -0.10     0.07   0.19  -0.09
  10   6    -0.10  -0.14   0.17    -0.01  -0.01  -0.01    -0.10  -0.04  -0.20
  11   6     0.09  -0.19  -0.11     0.00  -0.01  -0.00    -0.06  -0.04  -0.01
  12   6     0.14  -0.06  -0.20     0.01  -0.01   0.01     0.05  -0.08   0.16
  13   6     0.08   0.21  -0.04    -0.02   0.02   0.00    -0.18   0.03   0.03
  14   6    -0.17   0.21   0.21    -0.02   0.02   0.02    -0.19   0.04  -0.02
  15   6    -0.12  -0.11   0.09    -0.01  -0.01   0.02     0.12  -0.01   0.23
  16   6     0.12  -0.16  -0.12     0.00  -0.01  -0.00    -0.10  -0.02  -0.04
  17   6     0.16  -0.09  -0.15     0.00   0.00  -0.02    -0.06   0.08  -0.09
  18   6     0.02   0.18  -0.07     0.01   0.02   0.00     0.19   0.15   0.17
  19   6    -0.19   0.18   0.21    -0.01   0.02   0.02    -0.12   0.12  -0.07
  20   1     0.08   0.08   0.05     0.00   0.01  -0.00    -0.02   0.04   0.00
  21   1    -0.01  -0.01  -0.12    -0.01  -0.00  -0.02    -0.05   0.02  -0.05
  22   1     0.06   0.06  -0.02    -0.00   0.00  -0.01    -0.08  -0.00  -0.10
  23   1     0.03  -0.02  -0.01    -0.14   0.21   0.05     0.07   0.08   0.03
  24   1     0.01  -0.00   0.01     0.16  -0.20  -0.04    -0.03   0.07   0.07
  25   1    -0.03   0.02   0.01     0.00   0.00   0.01     0.06  -0.05   0.04
  26   1     0.01  -0.04  -0.02    -0.16   0.21   0.05    -0.04   0.01  -0.01
  27   1     0.00  -0.01  -0.03     0.15  -0.19  -0.06    -0.01   0.09  -0.01
  28   1     0.04  -0.11  -0.05    -0.00  -0.00  -0.00    -0.00   0.02   0.03
  29   1     0.07  -0.02  -0.10     0.01  -0.00   0.00     0.09  -0.02   0.09
  30   1     0.07   0.14  -0.04    -0.00   0.01  -0.00    -0.03   0.02   0.01
  31   1    -0.08  -0.11   0.06    -0.00  -0.01   0.01     0.11  -0.01   0.14
  32   1     0.05  -0.09  -0.05     0.00  -0.01  -0.00    -0.02  -0.03  -0.02
  33   1     0.08  -0.03  -0.07     0.00   0.00  -0.01    -0.01   0.02  -0.05
  34   1     0.03   0.13  -0.07     0.01   0.01  -0.00     0.13   0.06   0.11
                     16                     17                     18
                        a                      a                      a 
 Frequencies --   420.1966               434.8351               455.1749
 Red. masses --     9.9997                 9.6099                11.1506
 Frc consts  --     0.0000                 0.0000                 0.0000
 IR Inten    --     1.3556                 0.3550                 3.4908
 Raman Activ --     0.0000                 0.0000                 0.0000
 Depolar     --     0.0000                 0.0000                 0.0000
 Atom AN      X      Y      Z        X      Y      Z        X      Y      Z
   1   6    -0.16  -0.14  -0.25     0.05   0.06   0.09     0.02   0.04  -0.03
   2   6    -0.09  -0.09  -0.23     0.03   0.02   0.09    -0.23  -0.15   0.22
   3   7    -0.08  -0.09  -0.14     0.02  -0.01   0.07    -0.27  -0.28   0.34
   4   6    -0.05  -0.03  -0.07     0.05   0.00   0.01     0.02   0.22  -0.14
   5   6     0.03  -0.03   0.11     0.00   0.03  -0.05     0.15   0.11  -0.12
   6   6     0.03   0.01   0.13    -0.01   0.01  -0.04     0.06  -0.04   0.07
   7   6     0.14   0.06   0.15    -0.04  -0.04  -0.05    -0.08   0.03   0.09
   8   6     0.11   0.06   0.03    -0.05  -0.01  -0.01    -0.01  -0.09  -0.05
   9   6     0.08   0.09   0.00    -0.02  -0.02  -0.02     0.09   0.12  -0.18
  10   6     0.07  -0.03  -0.04    -0.11   0.02  -0.07    -0.14   0.06   0.03
  11   6     0.16  -0.03   0.18     0.19   0.01   0.16    -0.05   0.07   0.10
  12   6    -0.20  -0.05  -0.08    -0.21   0.03  -0.21     0.00   0.16   0.06
  13   6    -0.03   0.02   0.11     0.14  -0.02   0.08    -0.02  -0.00  -0.08
  14   6     0.25   0.02   0.30     0.13  -0.02   0.07     0.20  -0.02  -0.07
  15   6    -0.18  -0.01  -0.08     0.20   0.00   0.15     0.08   0.09  -0.16
  16   6    -0.02  -0.01   0.01    -0.29  -0.00  -0.24     0.07   0.10  -0.06
  17   6     0.17   0.07   0.12     0.19  -0.01   0.19     0.00  -0.08   0.03
  18   6    -0.21   0.10  -0.19    -0.00  -0.03   0.00    -0.00  -0.20  -0.05
  19   6     0.12   0.09   0.10    -0.36  -0.03  -0.33     0.11  -0.16   0.04
  20   1    -0.06  -0.05  -0.07     0.02   0.03   0.04     0.07   0.08   0.04
  21   1    -0.04  -0.04  -0.06     0.01   0.02   0.02    -0.02  -0.03  -0.15
  22   1    -0.05  -0.04  -0.07     0.01   0.02   0.02     0.07   0.08  -0.01
  23   1     0.04   0.01   0.04    -0.01   0.01  -0.01     0.11   0.04  -0.02
  24   1    -0.00   0.01   0.01    -0.00   0.01   0.00     0.05  -0.03   0.06
  25   1     0.04   0.02   0.04    -0.01  -0.01  -0.01    -0.04   0.02   0.04
  26   1     0.01  -0.00  -0.00    -0.01   0.01   0.00    -0.02  -0.08  -0.04
  27   1     0.03   0.03   0.04    -0.01  -0.00  -0.02     0.02   0.02  -0.10
  28   1     0.05   0.02   0.07     0.17  -0.01   0.14    -0.01  -0.00   0.01
  29   1    -0.16  -0.01  -0.12    -0.13   0.01  -0.11    -0.01   0.05   0.02
  30   1    -0.07   0.01  -0.03     0.07  -0.01   0.05    -0.06  -0.05  -0.03
  31   1    -0.17  -0.01  -0.12     0.11   0.01   0.08    -0.00   0.04  -0.08
  32   1    -0.06  -0.02  -0.05    -0.17   0.00  -0.14    -0.01   0.06  -0.02
  33   1     0.08   0.02   0.04     0.17   0.00   0.16    -0.05  -0.02   0.03
  34   1    -0.15   0.03  -0.14     0.07  -0.01   0.07    -0.04  -0.07  -0.04
                     19                     20                     21
                        a                      a                      a 
 Frequencies --   485.4516               489.1352               530.2625
 Red. masses --    11.2535                10.4910                10.8168
 Frc consts  --     0.0000                 0.0000                 0.0000
 IR Inten    --     0.5128                 1.5957                 1.6658
 Raman Activ --     0.0000                 0.0000                 0.0000
 Depolar     --     0.0000                 0.0000                 0.0000
 Atom AN      X      Y      Z        X      Y      Z        X      Y      Z
   1   6    -0.03  -0.03  -0.02     0.02  -0.03  -0.00    -0.02  -0.03  -0.08
   2   6     0.05  -0.23   0.03    -0.09   0.16  -0.00     0.12  -0.01  -0.15
   3   7     0.12   0.12  -0.13    -0.09   0.10  -0.15     0.12  -0.21  -0.09
   4   6    -0.09   0.04   0.07     0.17  -0.36  -0.12    -0.17   0.18   0.03
   5   6    -0.05  -0.03   0.05    -0.00  -0.07   0.06    -0.07   0.05   0.05
   6   6     0.03  -0.03  -0.04    -0.12   0.14   0.09     0.09  -0.12  -0.01
   7   6    -0.03   0.06  -0.02     0.23  -0.16   0.02    -0.09   0.17   0.06
   8   6     0.04  -0.02  -0.01    -0.06   0.19   0.04     0.11  -0.10  -0.05
   9   6    -0.04  -0.04   0.06     0.05  -0.01  -0.00    -0.04   0.07   0.00
  10   6     0.04  -0.26   0.09    -0.15  -0.04   0.13     0.16  -0.01   0.04
  11   6    -0.23  -0.26   0.25    -0.10  -0.03   0.11    -0.02   0.04   0.09
  12   6    -0.19  -0.06   0.15     0.05   0.25  -0.02    -0.08   0.23  -0.06
  13   6    -0.13   0.10   0.24     0.02   0.24  -0.05     0.06   0.29   0.12
  14   6     0.01   0.11  -0.12     0.06   0.17  -0.04    -0.07   0.20  -0.14
  15   6     0.10   0.27  -0.09     0.11   0.00  -0.13     0.13  -0.17  -0.17
  16   6     0.18   0.29  -0.22     0.10  -0.02  -0.12     0.01  -0.19   0.04
  17   6     0.09   0.11  -0.14    -0.01  -0.28   0.03    -0.14  -0.31   0.08
  18   6     0.16  -0.07  -0.13    -0.06  -0.19   0.05    -0.13   0.01   0.25
  19   6    -0.06  -0.09  -0.03    -0.08  -0.13   0.11    -0.07   0.04  -0.03
  20   1     0.02   0.04   0.04    -0.01  -0.07  -0.07    -0.02  -0.02  -0.03
  21   1    -0.03   0.01  -0.02     0.02  -0.03   0.01     0.00   0.01   0.02
  22   1    -0.04  -0.00  -0.05     0.06  -0.02   0.06    -0.03  -0.03  -0.04
  23   1    -0.02  -0.04   0.00    -0.06   0.08   0.04     0.04  -0.06  -0.00
  24   1     0.02  -0.04  -0.03    -0.12   0.14   0.02     0.09  -0.12  -0.04
  25   1    -0.01   0.02  -0.01     0.08  -0.06  -0.00    -0.02   0.04   0.02
  26   1     0.04  -0.02  -0.00    -0.10   0.15   0.03     0.09  -0.12  -0.04
  27   1     0.01  -0.04   0.03    -0.04   0.08   0.05     0.05  -0.05  -0.01
  28   1    -0.07  -0.05   0.08    -0.01  -0.06   0.01    -0.00   0.01   0.03
  29   1    -0.00  -0.03  -0.01     0.05   0.07  -0.04    -0.00   0.06  -0.07
  30   1    -0.03  -0.01   0.11    -0.01   0.05  -0.01     0.05   0.08   0.07
  31   1     0.05   0.07  -0.00     0.01  -0.04  -0.02     0.06  -0.08   0.00
  32   1     0.07   0.08  -0.05     0.01   0.05  -0.02     0.01   0.02   0.07
  33   1    -0.01   0.04   0.02    -0.02  -0.08   0.03    -0.00  -0.09   0.00
  34   1     0.08   0.00  -0.03    -0.01  -0.02  -0.01     0.01   0.02   0.09
                     22                     23                     24
                        a                      a                      a 
 Frequencies --   540.3243               579.4855               589.5588
 Red. masses --    10.2517                10.7975                10.9025
 Frc consts  --     0.0000                 0.0000                 0.0000
 IR Inten    --     2.0709                 2.1428                 1.8250
 Raman Activ --     0.0000                 0.0000                 0.0000
 Depolar     --     0.0000                 0.0000                 0.0000
 Atom AN      X      Y      Z        X      Y      Z        X      Y      Z
   1   6    -0.03   0.03   0.05    -0.07  -0.01  -0.08     0.08   0.03   0.07
   2   6     0.20   0.00  -0.10     0.06   0.16  -0.19     0.03   0.15  -0.01
   3   7     0.20  -0.01   0.14     0.01   0.03   0.24     0.01  -0.06  -0.21
   4   6     0.11   0.07   0.13     0.19   0.10   0.02    -0.07   0.03  -0.15
   5   6     0.06   0.07  -0.08     0.08   0.08  -0.36    -0.17   0.02  -0.21
   6   6     0.05   0.05  -0.09    -0.20  -0.07  -0.06    -0.28  -0.32   0.02
   7   6    -0.13  -0.05  -0.14    -0.13  -0.17  -0.05    -0.03   0.05   0.20
   8   6    -0.07  -0.07   0.03    -0.07  -0.07   0.35     0.14  -0.06   0.27
   9   6    -0.07  -0.07   0.06     0.21   0.07   0.06     0.23   0.27  -0.00
  10   6    -0.17  -0.09  -0.24    -0.11  -0.09  -0.12     0.14  -0.02   0.20
  11   6    -0.16  -0.10  -0.04     0.11  -0.12   0.14    -0.12  -0.02  -0.11
  12   6     0.19   0.00   0.20    -0.13  -0.07  -0.12     0.13  -0.02   0.08
  13   6    -0.29   0.17  -0.14     0.09   0.05   0.14    -0.08  -0.02  -0.10
  14   6     0.22   0.12   0.18    -0.02   0.05   0.02    -0.06  -0.01   0.01
  15   6     0.14  -0.05   0.00    -0.13   0.02  -0.10     0.06   0.04   0.16
  16   6    -0.09  -0.06  -0.11     0.16   0.01   0.09    -0.11   0.03  -0.14
  17   6     0.13  -0.10   0.15    -0.12  -0.01  -0.13     0.15   0.02   0.08
  18   6    -0.20   0.04  -0.05     0.12   0.02   0.10    -0.09  -0.05  -0.15
  19   6     0.07   0.04   0.09    -0.01   0.01   0.03    -0.04  -0.04   0.03
  20   1    -0.05   0.02   0.05    -0.08  -0.05  -0.05     0.00  -0.04  -0.04
  21   1    -0.00   0.06   0.11     0.00   0.02   0.09     0.04  -0.01   0.03
  22   1    -0.11  -0.03  -0.05    -0.07  -0.05  -0.03     0.06   0.00   0.07
  23   1    -0.01  -0.01  -0.04     0.01   0.05  -0.09     0.03   0.02  -0.05
  24   1     0.03   0.00   0.01    -0.05   0.00   0.07    -0.05  -0.13  -0.00
  25   1    -0.04  -0.02  -0.04     0.00   0.01  -0.07     0.06   0.07  -0.03
  26   1     0.02  -0.00   0.02    -0.04   0.01   0.10     0.01  -0.09   0.05
  27   1    -0.03  -0.02  -0.03     0.01   0.05  -0.06     0.09   0.04  -0.01
  28   1    -0.06  -0.02  -0.01     0.06  -0.03   0.07    -0.07  -0.02  -0.07
  29   1     0.13  -0.00   0.06    -0.05  -0.02  -0.09     0.06  -0.00   0.04
  30   1    -0.16   0.06  -0.11     0.04   0.03   0.04    -0.02   0.00  -0.04
  31   1    -0.04  -0.03  -0.05    -0.05  -0.01  -0.03     0.04   0.00   0.07
  32   1    -0.13   0.01  -0.10     0.08   0.00   0.06    -0.04  -0.01  -0.06
  33   1     0.04  -0.03   0.02    -0.07  -0.00  -0.07     0.08   0.01   0.08
  34   1    -0.13   0.02  -0.09     0.05   0.02   0.03    -0.01  -0.01  -0.03
                     25                     26                     27
                        a                      a                      a 
 Frequencies --   605.8372               644.5606               667.3235
 Red. masses --    10.9072                10.7913                 9.2667
 Frc consts  --     0.0000                 0.0000                 0.0000
 IR Inten    --     1.0508                 2.5566                 0.3262
 Raman Activ --     0.0000                 0.0000                 0.0000
 Depolar     --     0.0000                 0.0000                 0.0000
 Atom AN      X      Y      Z        X      Y      Z        X      Y      Z
   1   6    -0.05  -0.07  -0.04     0.13   0.08   0.22    -0.11  -0.08  -0.16
   2   6    -0.08  -0.47   0.22     0.07  -0.08   0.16    -0.08  -0.07  -0.02
   3   7     0.04   0.35  -0.12     0.11   0.02  -0.25    -0.05   0.13   0.09
   4   6     0.01   0.02   0.00     0.03  -0.20  -0.11     0.34  -0.31  -0.01
   5   6     0.01  -0.08  -0.14    -0.20   0.06   0.05    -0.04   0.24  -0.00
   6   6    -0.21  -0.03  -0.02    -0.02  -0.23  -0.01     0.26  -0.17  -0.10
   7   6     0.04  -0.12  -0.00    -0.03   0.17   0.12    -0.21   0.14  -0.04
   8   6    -0.03   0.06   0.22     0.15  -0.10  -0.03     0.14  -0.28   0.03
   9   6     0.16  -0.03   0.06    -0.05   0.17   0.00    -0.15   0.13   0.13
  10   6     0.12   0.08  -0.08    -0.37   0.03  -0.31     0.12   0.02   0.11
  11   6     0.01   0.14  -0.03     0.04   0.02   0.04     0.01   0.04  -0.00
  12   6    -0.04   0.05   0.08    -0.02   0.03  -0.02    -0.00   0.03   0.00
  13   6    -0.05  -0.01   0.03    -0.01  -0.01  -0.03     0.03  -0.02   0.01
  14   6     0.10  -0.01  -0.13     0.20  -0.01   0.17    -0.08  -0.01  -0.08
  15   6     0.18  -0.13  -0.17    -0.11  -0.00  -0.09     0.04  -0.01   0.02
  16   6    -0.10  -0.10   0.08     0.14   0.00   0.13    -0.06  -0.00  -0.04
  17   6    -0.05  -0.02   0.09    -0.11  -0.00  -0.09     0.03   0.01   0.03
  18   6    -0.10   0.14   0.11     0.14  -0.01   0.11    -0.05  -0.00  -0.04
  19   6     0.10   0.11  -0.12    -0.06  -0.01  -0.06     0.05   0.00   0.03
  20   1     0.08   0.12   0.11     0.06   0.07   0.10    -0.02  -0.02  -0.04
  21   1    -0.07  -0.01  -0.15     0.02   0.04   0.03    -0.03  -0.03  -0.06
  22   1    -0.03   0.04  -0.09     0.02   0.04   0.03    -0.03  -0.02  -0.05
  23   1    -0.02   0.00  -0.03    -0.05   0.05   0.03    -0.16   0.22   0.03
  24   1    -0.08   0.03   0.02    -0.02  -0.07  -0.04    -0.01   0.08   0.04
  25   1     0.04   0.01  -0.05    -0.01   0.08   0.02    -0.17   0.18   0.03
  26   1    -0.04   0.05   0.07     0.02  -0.05  -0.02    -0.02   0.07   0.05
  27   1     0.03   0.01   0.01    -0.02   0.06   0.04    -0.18   0.20   0.05
  28   1    -0.01   0.08   0.00     0.11   0.00   0.10    -0.04   0.01  -0.04
  29   1    -0.02   0.02   0.04     0.02   0.01   0.03    -0.03   0.01  -0.01
  30   1    -0.03  -0.04   0.03    -0.01  -0.01  -0.01     0.00  -0.01   0.00
  31   1     0.07  -0.00  -0.06    -0.12   0.00  -0.11     0.05   0.00   0.04
  32   1    -0.05   0.02   0.04    -0.01  -0.00  -0.01     0.01  -0.00   0.01
  33   1     0.03  -0.01  -0.02    -0.11  -0.00  -0.09     0.04   0.00   0.03
  34   1    -0.04   0.02   0.04    -0.02  -0.01  -0.02     0.01  -0.00   0.01
                     28                     29                     30
                        a                      a                      a 
 Frequencies --   686.0740               726.0695               757.0994
 Red. masses --    10.7986                 9.8086                 5.3886
 Frc consts  --     0.0000                 0.0000                 0.0000
 IR Inten    --     3.3501                 0.1619                30.4300
 Raman Activ --     0.0000                 0.0000                 0.0000
 Depolar     --     0.0000                 0.0000                 0.0000
 Atom AN      X      Y      Z        X      Y      Z        X      Y      Z
   1   6    -0.09  -0.12  -0.17    -0.03  -0.02  -0.06    -0.06  -0.01  -0.05
   2   6     0.11  -0.24  -0.04    -0.03   0.01  -0.01    -0.11   0.04   0.06
   3   7     0.21  -0.00  -0.15    -0.02  -0.01   0.02    -0.08   0.04  -0.06
   4   6     0.03   0.06   0.08     0.01   0.02   0.02     0.26  -0.28  -0.04
   5   6     0.04   0.04  -0.03     0.03   0.01  -0.01    -0.03   0.20   0.02
   6   6     0.01   0.07  -0.04     0.03   0.02  -0.01     0.04   0.17  -0.01
   7   6    -0.06  -0.04  -0.07    -0.01  -0.01  -0.02    -0.16   0.10  -0.04
   8   6    -0.03  -0.00   0.14    -0.00  -0.02   0.02    -0.08   0.04   0.14
   9   6     0.00  -0.04   0.10     0.00  -0.02   0.01    -0.11   0.12   0.12
  10   6    -0.06   0.11   0.02     0.22  -0.01   0.20    -0.03   0.01   0.06
  11   6    -0.02   0.24   0.03    -0.11   0.00  -0.09     0.00  -0.01  -0.01
  12   6     0.03   0.42  -0.03     0.18   0.01   0.15    -0.00  -0.07   0.00
  13   6     0.11   0.01  -0.14    -0.07  -0.00  -0.07    -0.00  -0.06  -0.01
  14   6    -0.11  -0.06   0.14     0.37  -0.01   0.31     0.04  -0.01  -0.03
  15   6    -0.26   0.08   0.29    -0.16  -0.01  -0.15     0.07  -0.01  -0.08
  16   6     0.01   0.02  -0.00     0.09  -0.00   0.09     0.01   0.01  -0.01
  17   6     0.03  -0.04  -0.04    -0.16   0.01  -0.14    -0.00   0.01   0.00
  18   6     0.13  -0.29  -0.11     0.08   0.01   0.08    -0.02   0.08   0.04
  19   6    -0.06  -0.15   0.05    -0.39  -0.00  -0.33    -0.02   0.03   0.00
  20   1    -0.00   0.03   0.03    -0.00  -0.02  -0.03    -0.01  -0.04  -0.06
  21   1    -0.05   0.00  -0.05    -0.01  -0.01  -0.02    -0.01  -0.04  -0.05
  22   1    -0.10  -0.03  -0.13     0.01  -0.00   0.00     0.04   0.01   0.04
  23   1     0.03  -0.06  -0.03    -0.01   0.02   0.00     0.17  -0.21  -0.06
  24   1     0.05  -0.03   0.01    -0.00   0.02   0.01     0.24  -0.24  -0.03
  25   1     0.03  -0.05  -0.04    -0.02   0.01   0.00     0.24  -0.35  -0.10
  26   1     0.06  -0.03   0.04    -0.01   0.02   0.01     0.23  -0.25  -0.02
  27   1     0.04  -0.06  -0.00    -0.02   0.02   0.01     0.17  -0.24  -0.05
  28   1     0.02   0.03   0.01    -0.12   0.00  -0.10     0.00  -0.01  -0.00
  29   1    -0.02   0.13   0.04    -0.12   0.01  -0.10    -0.01  -0.02   0.01
  30   1     0.03  -0.01  -0.02    -0.18  -0.00  -0.16     0.00  -0.02   0.00
  31   1    -0.10  -0.02   0.10     0.03   0.00   0.02     0.02   0.01  -0.03
  32   1     0.02  -0.07  -0.03     0.10   0.00   0.09    -0.01   0.03  -0.00
  33   1    -0.05  -0.01   0.04     0.11   0.01   0.09     0.01   0.00  -0.02
  34   1     0.02  -0.09  -0.04     0.17   0.01   0.14    -0.01   0.03  -0.00
                     31                     32                     33
                        a                      a                      a 
 Frequencies --   760.1502               778.3273               814.5809
 Red. masses --     4.7666                10.8863                 3.9353
 Frc consts  --     0.0000                 0.0000                 0.0000
 IR Inten    --     2.6441                 0.0323                40.6565
 Raman Activ --     0.0000                 0.0000                 0.0000
 Depolar     --     0.0000                 0.0000                 0.0000
 Atom AN      X      Y      Z        X      Y      Z        X      Y      Z
   1   6     0.07   0.03   0.08     0.01   0.01   0.01    -0.02   0.00  -0.02
   2   6     0.03  -0.04   0.01     0.00   0.03  -0.02    -0.02   0.01   0.01
   3   7     0.04   0.02  -0.00    -0.02  -0.01   0.04    -0.01  -0.04  -0.06
   4   6     0.01  -0.04  -0.02     0.00  -0.01  -0.01    -0.02   0.03   0.01
   5   6    -0.04  -0.01   0.01    -0.01  -0.00  -0.00     0.02   0.01   0.00
   6   6    -0.05  -0.02   0.01    -0.01  -0.01   0.01     0.04   0.03  -0.01
   7   6     0.01   0.03   0.03     0.01   0.01   0.01    -0.02  -0.02  -0.03
   8   6     0.00   0.02  -0.04    -0.00   0.01  -0.02    -0.00  -0.02   0.05
   9   6    -0.01   0.02  -0.02    -0.00   0.01  -0.02     0.01  -0.01   0.03
  10   6    -0.21   0.00  -0.21    -0.06  -0.20   0.07     0.00   0.00   0.04
  11   6     0.10  -0.00   0.09    -0.25  -0.23   0.27    -0.11   0.00  -0.09
  12   6     0.05   0.02   0.04     0.05   0.37  -0.05    -0.14  -0.01  -0.13
  13   6     0.13   0.02   0.11     0.14   0.03  -0.16    -0.17  -0.02  -0.16
  14   6    -0.06   0.00  -0.03     0.07  -0.08  -0.10     0.19  -0.01   0.15
  15   6    -0.12  -0.00  -0.07     0.05  -0.22  -0.04    -0.09  -0.00  -0.11
  16   6    -0.13  -0.01  -0.10    -0.23  -0.20   0.26    -0.06   0.00  -0.06
  17   6    -0.06   0.00  -0.05     0.05   0.42  -0.05    -0.10   0.00  -0.08
  18   6    -0.13  -0.03  -0.14     0.10   0.15  -0.12    -0.09   0.02  -0.06
  19   6     0.22  -0.01   0.18     0.05  -0.04  -0.04     0.10   0.01   0.10
  20   1     0.02   0.04   0.06    -0.01  -0.01  -0.01    -0.00  -0.02  -0.03
  21   1     0.01   0.04   0.04     0.01   0.00   0.02    -0.00  -0.02  -0.02
  22   1    -0.03   0.00  -0.02     0.00  -0.00   0.01     0.02   0.00   0.02
  23   1     0.01  -0.03  -0.00     0.00   0.00   0.00     0.00   0.00  -0.00
  24   1     0.00  -0.04  -0.02    -0.00  -0.01  -0.00     0.01   0.02   0.01
  25   1     0.03  -0.03  -0.00     0.01  -0.01   0.00    -0.02   0.02  -0.00
  26   1     0.01  -0.03  -0.02    -0.00  -0.01  -0.01     0.00   0.02   0.02
  27   1     0.02  -0.02  -0.00     0.01  -0.01  -0.00    -0.01   0.01   0.01
  28   1    -0.15   0.01  -0.12    -0.03  -0.16   0.04     0.30  -0.02   0.26
  29   1    -0.17   0.01  -0.16     0.08   0.09  -0.07     0.33  -0.01   0.30
  30   1    -0.22   0.01  -0.20     0.02  -0.05  -0.01     0.29  -0.02   0.25
  31   1     0.27  -0.00   0.24     0.03   0.01  -0.05     0.13   0.00   0.10
  32   1     0.29  -0.00   0.25    -0.04  -0.12   0.04     0.20   0.01   0.18
  33   1     0.26   0.01   0.24     0.08   0.11  -0.10     0.24   0.01   0.20
  34   1     0.19  -0.00   0.16     0.00  -0.00  -0.01     0.13   0.02   0.12
                     34                     35                     36
                        a                      a                      a 
 Frequencies --   827.1666               850.9671               866.9117
 Red. masses --    10.6357                10.4225                 3.3183
 Frc consts  --     0.0000                 0.0000                 0.0000
 IR Inten    --    31.2968                 1.9508                 1.8495
 Raman Activ --     0.0000                 0.0000                 0.0000
 Depolar     --     0.0000                 0.0000                 0.0000
 Atom AN      X      Y      Z        X      Y      Z        X      Y      Z
   1   6    -0.01   0.05   0.09     0.00  -0.05  -0.10    -0.00   0.00   0.00
   2   6    -0.09   0.07   0.06     0.11  -0.03  -0.04    -0.01   0.01   0.00
   3   7    -0.02  -0.27  -0.45     0.11   0.04   0.12    -0.00  -0.01  -0.00
   4   6    -0.14   0.15   0.02     0.03   0.00   0.03    -0.01   0.00  -0.01
   5   6     0.12   0.06   0.04    -0.03  -0.04  -0.02     0.14  -0.17  -0.04
   6   6     0.26   0.18  -0.07    -0.09  -0.09   0.02     0.13  -0.14  -0.04
   7   6    -0.09  -0.14  -0.19     0.06   0.03   0.07     0.02  -0.04  -0.02
   8   6     0.00  -0.12   0.34     0.01   0.04  -0.13    -0.10   0.13   0.05
   9   6     0.06  -0.06   0.15    -0.03   0.02  -0.05    -0.17   0.22   0.07
  10   6    -0.19   0.01   0.02    -0.09  -0.04   0.11     0.00   0.00  -0.01
  11   6    -0.01  -0.03   0.06    -0.12  -0.01   0.13     0.00   0.00  -0.01
  12   6     0.02  -0.01   0.02    -0.01   0.16   0.02     0.00  -0.01  -0.00
  13   6     0.11  -0.15  -0.03     0.20  -0.41  -0.24    -0.01   0.02   0.02
  14   6    -0.01  -0.05  -0.06     0.00  -0.14   0.00     0.00   0.01   0.00
  15   6     0.07   0.00  -0.07     0.02   0.11  -0.02    -0.01  -0.01  -0.01
  16   6     0.03   0.03  -0.05     0.18   0.12  -0.21    -0.02  -0.01   0.00
  17   6     0.02  -0.00   0.01     0.02  -0.17  -0.01     0.00   0.01   0.01
  18   6    -0.05   0.14   0.07    -0.20   0.33   0.21     0.02  -0.02  -0.00
  19   6    -0.03   0.04   0.08    -0.11   0.13   0.14     0.00  -0.01  -0.01
  20   1     0.03  -0.03  -0.04    -0.04  -0.00   0.00    -0.00  -0.00  -0.00
  21   1     0.00  -0.05  -0.08     0.01   0.03   0.06    -0.00  -0.00  -0.00
  22   1     0.12   0.05   0.12    -0.09  -0.05  -0.09     0.01   0.00   0.01
  23   1     0.02  -0.01  -0.00    -0.03   0.02   0.00    -0.25   0.34   0.09
  24   1     0.04   0.12   0.08    -0.05  -0.01  -0.02    -0.23   0.32   0.08
  25   1    -0.14   0.13  -0.02     0.01   0.01   0.02    -0.04   0.06   0.01
  26   1     0.02   0.09   0.14    -0.02  -0.02  -0.05     0.20  -0.25  -0.06
  27   1    -0.03   0.03   0.04     0.02  -0.03  -0.02     0.34  -0.45  -0.12
  28   1    -0.04  -0.04  -0.04    -0.02  -0.05   0.02     0.01   0.00   0.01
  29   1    -0.09   0.00  -0.03    -0.09   0.05   0.09     0.00  -0.00  -0.01
  30   1    -0.07  -0.06  -0.08     0.03  -0.19  -0.02    -0.01   0.01  -0.00
  31   1     0.03   0.01  -0.02    -0.00   0.02  -0.01     0.02  -0.00   0.02
  32   1     0.00   0.03  -0.00     0.03   0.08  -0.04     0.01  -0.00   0.01
  33   1    -0.00  -0.00  -0.04     0.04  -0.05  -0.04    -0.01   0.00  -0.00
  34   1    -0.02   0.07  -0.02    -0.00   0.20   0.01    -0.02  -0.01  -0.02
                     37                     38                     39
                        a                      a                      a 
 Frequencies --   879.7029               884.5942               896.1589
 Red. masses --     3.7122                 3.8546                 3.9886
 Frc consts  --     0.0000                 0.0000                 0.0000
 IR Inten    --     0.2715                 1.9072                 0.1518
 Raman Activ --     0.0000                 0.0000                 0.0000
 Depolar     --     0.0000                 0.0000                 0.0000
 Atom AN      X      Y      Z        X      Y      Z        X      Y      Z
   1   6    -0.02  -0.02  -0.01     0.01   0.01   0.03    -0.02  -0.00  -0.03
   2   6     0.01   0.02   0.00     0.00   0.00  -0.01     0.00  -0.00   0.01
   3   7     0.01   0.01   0.02    -0.00  -0.05  -0.05     0.00   0.01   0.02
   4   6     0.01  -0.00   0.01    -0.07   0.08   0.01     0.00   0.00   0.00
   5   6    -0.02   0.02  -0.00     0.16  -0.22  -0.03    -0.00   0.00  -0.00
   6   6    -0.02  -0.00   0.01     0.03   0.02  -0.01    -0.01  -0.01   0.00
   7   6     0.02  -0.00   0.01    -0.21   0.25   0.04     0.00   0.00   0.01
   8   6     0.01  -0.01  -0.02    -0.04   0.04   0.05     0.00   0.00  -0.01
   9   6    -0.00  -0.00  -0.00     0.14  -0.16  -0.03    -0.00  -0.00  -0.00
  10   6     0.03  -0.00   0.03    -0.00  -0.00  -0.01     0.04   0.00   0.05
  11   6    -0.09   0.00  -0.07    -0.01  -0.01   0.01    -0.26   0.01  -0.25
  12   6     0.01   0.00   0.01    -0.00   0.01  -0.00     0.00  -0.01   0.00
  13   6     0.03  -0.00   0.02     0.01  -0.01  -0.01     0.23  -0.00   0.22
  14   6     0.05  -0.00   0.05     0.00  -0.01   0.00    -0.07   0.00  -0.07
  15   6    -0.22  -0.00  -0.19    -0.02   0.01  -0.01     0.06  -0.00   0.04
  16   6    -0.12  -0.00  -0.11     0.00   0.00  -0.01     0.04   0.00   0.05
  17   6     0.19   0.01   0.16     0.01  -0.01   0.01    -0.01   0.00  -0.01
  18   6     0.16   0.01   0.14    -0.00   0.01   0.01    -0.06  -0.01  -0.06
  19   6    -0.05  -0.00  -0.04    -0.00   0.01   0.00     0.04   0.00   0.04
  20   1    -0.01  -0.00  -0.00     0.01   0.00   0.01    -0.01  -0.01  -0.02
  21   1    -0.01  -0.01  -0.02     0.00  -0.00  -0.01     0.00  -0.01   0.00
  22   1     0.00   0.00  -0.00     0.02   0.01   0.01     0.00  -0.01   0.00
  23   1     0.02  -0.03  -0.01    -0.30   0.41   0.10    -0.00   0.00  -0.00
  24   1     0.01  -0.02  -0.01     0.04  -0.04  -0.01    -0.00  -0.00  -0.00
  25   1    -0.01   0.02   0.01     0.30  -0.41  -0.11     0.00  -0.00   0.00
  26   1    -0.02   0.02   0.00     0.12  -0.15  -0.02    -0.00   0.00  -0.00
  27   1    -0.01   0.00  -0.01    -0.24   0.31   0.08    -0.00   0.00   0.00
  28   1     0.15  -0.01   0.13     0.00  -0.00   0.01     0.47  -0.01   0.40
  29   1    -0.01   0.00  -0.01     0.00   0.00   0.00     0.03  -0.00   0.03
  30   1    -0.07   0.00  -0.07    -0.00  -0.01  -0.01    -0.41   0.01  -0.36
  31   1     0.42  -0.00   0.37     0.02   0.00   0.02    -0.09   0.00  -0.08
  32   1     0.16   0.00   0.14     0.01   0.00   0.00    -0.07   0.00  -0.06
  33   1    -0.27  -0.01  -0.24    -0.02  -0.00  -0.02     0.01   0.00   0.01
  34   1    -0.35  -0.02  -0.30    -0.01   0.01  -0.01     0.12   0.00   0.11
                     40                     41                     42
                        a                      a                      a 
 Frequencies --   918.3784               921.5356               924.3913
 Red. masses --     3.6752                 3.9321                 3.5958
 Frc consts  --     0.0000                 0.0000                 0.0000
 IR Inten    --     0.0084                 0.1244                 0.3312
 Raman Activ --     0.0000                 0.0000                 0.0000
 Depolar     --     0.0000                 0.0000                 0.0000
 Atom AN      X      Y      Z        X      Y      Z        X      Y      Z
   1   6    -0.01  -0.01  -0.00    -0.00  -0.00  -0.01    -0.02  -0.01   0.00
   2   6     0.01   0.01   0.00     0.00   0.00   0.00     0.01   0.01   0.00
   3   7     0.01  -0.00   0.00     0.00   0.01   0.01     0.01   0.00   0.01
   4   6     0.00   0.01   0.00     0.01   0.01   0.02     0.00   0.01   0.01
   5   6     0.01  -0.01  -0.01    -0.14   0.19   0.03    -0.01   0.01  -0.00
   6   6    -0.01   0.01   0.00     0.18  -0.27  -0.06     0.01  -0.03  -0.00
   7   6     0.00   0.01   0.01    -0.02   0.04   0.02    -0.00   0.02   0.01
   8   6     0.01  -0.01  -0.01    -0.14   0.19   0.03     0.00  -0.00  -0.01
   9   6    -0.01   0.00   0.00     0.10  -0.16  -0.04    -0.00  -0.01  -0.00
  10   6    -0.01   0.00  -0.00    -0.00   0.00   0.01     0.04  -0.00   0.02
  11   6    -0.09   0.00  -0.08    -0.01   0.00  -0.01     0.09  -0.01   0.09
  12   6     0.16  -0.01   0.14     0.02  -0.00   0.02    -0.22   0.01  -0.19
  13   6    -0.06   0.00  -0.05    -0.01  -0.00  -0.01     0.14  -0.01   0.12
  14   6    -0.04   0.00  -0.03    -0.00   0.00  -0.00     0.02  -0.00   0.02
  15   6     0.17  -0.00   0.15     0.01  -0.00  -0.00     0.09   0.00   0.09
  16   6    -0.20  -0.00  -0.17    -0.01  -0.00  -0.00    -0.10  -0.00  -0.10
  17   6    -0.08   0.00  -0.07     0.01   0.00   0.01    -0.08  -0.00  -0.07
  18   6     0.15   0.00   0.13    -0.00  -0.00  -0.00     0.14   0.01   0.13
  19   6     0.00  -0.00   0.01     0.00   0.00   0.01    -0.08  -0.00  -0.07
  20   1    -0.00  -0.00  -0.00    -0.00  -0.00  -0.00     0.00  -0.00  -0.00
  21   1    -0.01  -0.01  -0.02    -0.00  -0.00  -0.00    -0.01  -0.01  -0.02
  22   1     0.00   0.00   0.00    -0.00  -0.00  -0.00     0.01   0.01   0.00
  23   1    -0.01   0.02   0.00     0.24  -0.33  -0.08     0.02  -0.03  -0.01
  24   1     0.01  -0.02  -0.01    -0.35   0.46   0.11    -0.04   0.04   0.01
  25   1     0.01  -0.01  -0.00     0.07  -0.08  -0.02     0.03  -0.03  -0.01
  26   1    -0.02   0.03   0.01     0.21  -0.28  -0.08    -0.01   0.01   0.00
  27   1     0.00  -0.01  -0.01    -0.16   0.21   0.05    -0.01   0.00  -0.00
  28   1     0.18  -0.01   0.15     0.02  -0.00   0.02    -0.20   0.01  -0.18
  29   1    -0.31   0.01  -0.27    -0.04   0.00  -0.03     0.41  -0.01   0.36
  30   1     0.13  -0.00   0.11     0.02  -0.00   0.02    -0.28   0.00  -0.25
  31   1    -0.29  -0.00  -0.25    -0.00   0.00  -0.01    -0.15  -0.00  -0.13
  32   1     0.35   0.00   0.31     0.01   0.00   0.01     0.18   0.00   0.15
  33   1     0.14   0.01   0.12    -0.01   0.00  -0.01     0.15   0.00   0.13
  34   1    -0.25  -0.02  -0.21     0.01   0.00   0.01    -0.26  -0.02  -0.22
                     43                     44                     45
                        a                      a                      a 
 Frequencies --   926.0546               931.2891               968.2997
 Red. masses --     2.9066                 3.1577                10.9195
 Frc consts  --     0.0000                 0.0000                 0.0000
 IR Inten    --     0.0321                 0.0335                24.1856
 Raman Activ --     0.0000                 0.0000                 0.0000
 Depolar     --     0.0000                 0.0000                 0.0000
 Atom AN      X      Y      Z        X      Y      Z        X      Y      Z
   1   6     0.00   0.00   0.01    -0.01  -0.01   0.01     0.11   0.01   0.21
   2   6    -0.00   0.00  -0.00     0.01   0.02  -0.00    -0.10  -0.02  -0.15
   3   7    -0.00  -0.01  -0.01     0.01  -0.00   0.00    -0.21   0.09   0.09
   4   6    -0.05   0.06   0.01     0.01   0.00   0.00    -0.06  -0.11  -0.13
   5   6     0.00  -0.00   0.01    -0.00   0.00  -0.01    -0.07  -0.07   0.23
   6   6     0.09  -0.10  -0.03    -0.01  -0.01   0.00     0.11   0.10  -0.04
   7   6    -0.15   0.19   0.04     0.01  -0.00   0.00    -0.13  -0.07  -0.15
   8   6     0.17  -0.22  -0.04    -0.01   0.01  -0.00    -0.04  -0.04   0.13
   9   6    -0.05   0.07   0.02    -0.00  -0.01   0.00     0.17   0.17  -0.09
  10   6    -0.00  -0.00  -0.00    -0.01   0.00  -0.00     0.30  -0.11  -0.25
  11   6    -0.00  -0.00  -0.00    -0.03  -0.00  -0.02    -0.14  -0.12   0.11
  12   6     0.01   0.00   0.01     0.04  -0.00   0.04     0.01   0.12  -0.01
  13   6    -0.01   0.00  -0.01    -0.00  -0.00  -0.00     0.05   0.01  -0.05
  14   6    -0.00  -0.00  -0.00    -0.07   0.00  -0.06    -0.00  -0.05  -0.01
  15   6    -0.01   0.00  -0.01    -0.07  -0.00  -0.06    -0.20   0.12   0.24
  16   6     0.02   0.00   0.02     0.18   0.00   0.14     0.07   0.01  -0.08
  17   6    -0.00  -0.00  -0.00    -0.22  -0.00  -0.19    -0.00  -0.20   0.00
  18   6    -0.01  -0.00  -0.01     0.13   0.01   0.12    -0.07   0.08   0.09
  19   6     0.01  -0.00   0.00     0.06  -0.00   0.05     0.18   0.06  -0.21
  20   1     0.00   0.00   0.00     0.00   0.00   0.01     0.09   0.10   0.14
  21   1    -0.00  -0.00  -0.00    -0.01  -0.01  -0.02    -0.01   0.04  -0.00
  22   1     0.00   0.00   0.00     0.01   0.01   0.00     0.03   0.05   0.01
  23   1     0.08  -0.11  -0.02     0.00   0.00  -0.00     0.00  -0.06   0.05
  24   1    -0.20   0.28   0.07     0.00  -0.00  -0.00     0.02   0.03  -0.03
  25   1     0.30  -0.39  -0.10    -0.01   0.01   0.00    -0.04  -0.02  -0.03
  26   1    -0.36   0.46   0.12     0.02  -0.02  -0.01    -0.02  -0.05   0.02
  27   1     0.16  -0.21  -0.06    -0.02   0.02  -0.00     0.05   0.03  -0.04
  28   1     0.01   0.00   0.01     0.06  -0.00   0.05    -0.02   0.03   0.09
  29   1    -0.02   0.00  -0.02    -0.08   0.00  -0.07     0.07   0.02  -0.07
  30   1     0.02   0.00   0.01     0.02   0.00   0.01     0.01  -0.01  -0.00
  31   1     0.02  -0.00   0.02     0.19  -0.00   0.17    -0.08  -0.02   0.09
  32   1    -0.03  -0.00  -0.03    -0.35  -0.01  -0.31     0.04  -0.06  -0.04
  33   1     0.00  -0.00   0.01     0.43   0.01   0.37     0.02  -0.06  -0.01
  34   1     0.01   0.00   0.01    -0.32  -0.02  -0.28    -0.04  -0.01   0.03
                     46                     47                     48
                        a                      a                      a 
 Frequencies --   981.5713              1008.9598              1022.2228
 Red. masses --     9.4043                 5.1904                 7.2282
 Frc consts  --     0.0000                 0.0000                 0.0000
 IR Inten    --     1.8887                 7.6777                22.4969
 Raman Activ --     0.0000                 0.0000                 0.0000
 Depolar     --     0.0000                 0.0000                 0.0000
 Atom AN      X      Y      Z        X      Y      Z        X      Y      Z
   1   6     0.15  -0.03  -0.15     0.01   0.38  -0.15     0.42  -0.00   0.04
   2   6     0.06  -0.05   0.03    -0.07  -0.33   0.20    -0.15  -0.10  -0.14
   3   7     0.03   0.03   0.08    -0.00   0.02   0.00    -0.28  -0.01  -0.09
   4   6    -0.06  -0.04  -0.07    -0.02   0.01   0.01    -0.11  -0.05  -0.11
   5   6    -0.12  -0.17   0.38     0.01   0.01  -0.01     0.09   0.12  -0.24
   6   6     0.08   0.07  -0.06     0.02   0.01  -0.00     0.08   0.06   0.02
   7   6    -0.19  -0.09  -0.21    -0.01  -0.01   0.01     0.09   0.04   0.10
   8   6    -0.05  -0.05   0.09    -0.00  -0.00  -0.01     0.02  -0.01   0.08
   9   6     0.30   0.27  -0.19     0.02   0.01  -0.02    -0.17  -0.16   0.13
  10   6    -0.14   0.06   0.19     0.05  -0.05  -0.11     0.05  -0.01   0.08
  11   6     0.08   0.09  -0.09     0.00  -0.00   0.01     0.02   0.02  -0.04
  12   6    -0.02  -0.05   0.01    -0.00   0.08   0.01    -0.02   0.02   0.00
  13   6    -0.02  -0.02   0.03    -0.01   0.01   0.01    -0.01  -0.01   0.01
  14   6    -0.01   0.03   0.01     0.01  -0.02  -0.01    -0.01   0.00   0.00
  15   6     0.13  -0.07  -0.14    -0.06   0.03   0.07     0.02  -0.02  -0.02
  16   6    -0.03  -0.00   0.03     0.02   0.00  -0.03     0.01   0.00  -0.02
  17   6    -0.00   0.13  -0.01    -0.00  -0.05  -0.01    -0.00   0.03  -0.00
  18   6     0.06  -0.04  -0.04    -0.02   0.01   0.04     0.01  -0.00   0.01
  19   6    -0.13  -0.04   0.13     0.08   0.03  -0.09    -0.03  -0.00   0.01
  20   1    -0.09  -0.01   0.03    -0.29  -0.32  -0.40    -0.05   0.09   0.20
  21   1     0.06   0.11   0.22     0.20  -0.02   0.35     0.11   0.23   0.38
  22   1    -0.19  -0.12  -0.17     0.07  -0.10   0.27    -0.25  -0.13  -0.23
  23   1    -0.07  -0.09   0.09    -0.01  -0.00  -0.01     0.09   0.07  -0.05
  24   1    -0.01   0.02  -0.08     0.01   0.01   0.01     0.05   0.02   0.08
  25   1    -0.06  -0.02  -0.05    -0.01  -0.01   0.01     0.02   0.00   0.04
  26   1    -0.07  -0.06  -0.00    -0.01  -0.01  -0.01     0.06   0.04   0.05
  27   1     0.06   0.08  -0.11     0.00   0.01   0.00    -0.03  -0.05   0.11
  28   1     0.03  -0.02  -0.04    -0.01   0.01  -0.00     0.03  -0.00   0.00
  29   1    -0.05  -0.01   0.07     0.01   0.02  -0.01    -0.01   0.01   0.03
  30   1    -0.01  -0.00   0.00    -0.02  -0.03   0.02    -0.01  -0.01   0.01
  31   1     0.05   0.00  -0.05    -0.02  -0.01   0.03    -0.00  -0.01  -0.00
  32   1    -0.02   0.04   0.02     0.02  -0.03  -0.02     0.01  -0.00  -0.00
  33   1    -0.00   0.04   0.02     0.01  -0.01   0.00     0.00   0.01   0.01
  34   1    -0.02  -0.01  -0.04    -0.06  -0.05   0.01    -0.05  -0.03  -0.01
                     49                     50                     51
                        a                      a                      a 
 Frequencies --  1079.6393              1080.1819              1111.7844
 Red. masses --     7.0096                 6.6675                 6.7114
 Frc consts  --     0.0000                 0.0000                 0.0000
 IR Inten    --     0.4579                 0.5077                 5.0955
 Raman Activ --     0.0000                 0.0000                 0.0000
 Depolar     --     0.0000                 0.0000                 0.0000
 Atom AN      X      Y      Z        X      Y      Z        X      Y      Z
   1   6     0.03  -0.00  -0.03    -0.01  -0.01  -0.01    -0.02   0.04   0.11
   2   6    -0.01  -0.01   0.04     0.01   0.01   0.02    -0.00  -0.03  -0.16
   3   7    -0.01  -0.01  -0.02     0.01   0.01   0.01    -0.02   0.02   0.04
   4   6    -0.01   0.00  -0.01     0.00  -0.00   0.01    -0.01  -0.03   0.01
   5   6     0.02   0.01   0.02    -0.10  -0.04  -0.13    -0.01   0.00  -0.03
   6   6    -0.04  -0.04   0.04     0.21   0.21  -0.20     0.02   0.02  -0.01
   7   6    -0.06  -0.03  -0.06     0.27   0.13   0.32    -0.01  -0.01   0.02
   8   6     0.03   0.03  -0.05    -0.13  -0.17   0.26    -0.00   0.00  -0.02
   9   6     0.02   0.01   0.02    -0.09  -0.04  -0.11     0.03   0.02   0.00
  10   6    -0.01   0.02   0.02    -0.01   0.01   0.00     0.02  -0.15  -0.01
  11   6    -0.06   0.00   0.07    -0.02   0.00   0.02     0.29  -0.07  -0.34
  12   6     0.01  -0.08  -0.01     0.00  -0.02  -0.00    -0.06   0.32   0.08
  13   6     0.03  -0.02  -0.03     0.01  -0.00  -0.01    -0.19   0.06   0.21
  14   6     0.06   0.04  -0.07     0.01   0.01  -0.01     0.03  -0.11  -0.04
  15   6    -0.06   0.19   0.07    -0.01   0.04   0.01    -0.02   0.07   0.03
  16   6    -0.29  -0.00   0.33    -0.06  -0.00   0.07    -0.03   0.01   0.04
  17   6     0.10  -0.41  -0.11     0.02  -0.08  -0.02     0.02  -0.05  -0.03
  18   6     0.16  -0.04  -0.17     0.03  -0.01  -0.04     0.00   0.06  -0.00
  19   6    -0.01   0.11   0.01     0.00   0.02  -0.00    -0.06  -0.07   0.07
  20   1    -0.03  -0.01  -0.00    -0.00  -0.00  -0.01     0.04   0.01   0.01
  21   1     0.01   0.02   0.05    -0.00  -0.00  -0.00    -0.01  -0.02  -0.04
  22   1    -0.04  -0.03  -0.03    -0.01  -0.00  -0.01     0.08   0.05   0.07
  23   1     0.06   0.04   0.02    -0.29  -0.18  -0.12    -0.03  -0.02  -0.02
  24   1     0.01  -0.01   0.07    -0.02   0.06  -0.31     0.01   0.00   0.02
  25   1    -0.02  -0.01  -0.02     0.07   0.03   0.11    -0.02  -0.03   0.04
  26   1     0.05   0.04   0.00    -0.27  -0.21  -0.00    -0.03  -0.02  -0.02
  27   1     0.03   0.00   0.07    -0.11  -0.01  -0.29     0.02   0.00   0.04
  28   1    -0.03   0.05   0.04    -0.01   0.02   0.01     0.18  -0.32  -0.21
  29   1     0.02  -0.03  -0.02     0.01  -0.01  -0.01    -0.09   0.11   0.10
  30   1     0.03   0.04  -0.03     0.01   0.01  -0.01    -0.21  -0.33   0.23
  31   1     0.12   0.35  -0.13     0.02   0.07  -0.03     0.03   0.10  -0.03
  32   1    -0.13   0.15   0.15    -0.03   0.03   0.03    -0.01  -0.01   0.01
  33   1     0.14  -0.14  -0.15     0.03  -0.03  -0.03     0.05  -0.02  -0.06
  34   1     0.15   0.26  -0.22     0.03   0.05  -0.04     0.05   0.13  -0.07
                     52                     53                     54
                        a                      a                      a 
 Frequencies --  1117.2984              1135.8322              1170.8259
 Red. masses --     4.0824                 7.2969                 2.7164
 Frc consts  --     0.0000                 0.0000                 0.0000
 IR Inten    --     0.2450                51.1885                 6.0189
 Raman Activ --     0.0000                 0.0000                 0.0000
 Depolar     --     0.0000                 0.0000                 0.0000
 Atom AN      X      Y      Z        X      Y      Z        X      Y      Z
   1   6    -0.00  -0.01   0.02     0.01  -0.14  -0.21     0.01  -0.04  -0.07
   2   6     0.00  -0.01  -0.02     0.01   0.21   0.34    -0.00   0.09   0.15
   3   7     0.01   0.01  -0.03     0.04  -0.06  -0.09    -0.00  -0.02  -0.03
   4   6    -0.07  -0.08   0.12     0.01   0.04   0.04     0.00   0.02   0.00
   5   6    -0.05   0.02  -0.24    -0.01  -0.01  -0.02    -0.00  -0.00   0.00
   6   6     0.13   0.10  -0.01    -0.00  -0.01   0.01    -0.00  -0.00   0.01
   7   6    -0.12  -0.12   0.13    -0.01  -0.01   0.01     0.00   0.00  -0.00
   8   6     0.02   0.07  -0.19     0.01   0.01  -0.03     0.00  -0.00  -0.00
   9   6     0.21   0.15   0.05     0.02   0.01   0.01    -0.00  -0.00  -0.00
  10   6     0.00   0.00  -0.01    -0.12   0.14   0.11     0.02   0.07  -0.03
  11   6    -0.03   0.02   0.03     0.01  -0.01  -0.00    -0.02  -0.04   0.03
  12   6     0.00  -0.03  -0.00     0.04  -0.05  -0.04     0.07   0.03  -0.07
  13   6     0.03  -0.02  -0.04    -0.11   0.11   0.12    -0.04  -0.07   0.04
  14   6    -0.02   0.02   0.02     0.13  -0.12  -0.15    -0.01  -0.00   0.01
  15   6     0.02  -0.03  -0.02    -0.13   0.14   0.15    -0.01  -0.14   0.01
  16   6     0.00   0.00  -0.01     0.04  -0.03  -0.05    -0.02   0.10   0.03
  17   6    -0.01   0.02   0.01     0.03  -0.04  -0.03    -0.02  -0.04   0.03
  18   6     0.01  -0.02  -0.01    -0.14   0.11   0.15     0.10  -0.02  -0.11
  19   6    -0.01   0.01   0.01     0.15  -0.11  -0.16     0.04   0.16  -0.04
  20   1     0.01   0.01   0.01    -0.04   0.01   0.02    -0.02  -0.00   0.00
  21   1    -0.01  -0.00  -0.02    -0.01   0.03   0.02    -0.00   0.01   0.01
  22   1     0.01   0.01   0.01    -0.16  -0.08  -0.18    -0.06  -0.03  -0.06
  23   1    -0.34  -0.20  -0.17    -0.07  -0.04  -0.02    -0.02  -0.01  -0.00
  24   1     0.12   0.03   0.26     0.01  -0.00   0.04     0.00  -0.00   0.01
  25   1    -0.22  -0.25   0.30    -0.02  -0.02   0.03     0.01   0.01  -0.01
  26   1    -0.17  -0.10  -0.12    -0.00   0.00  -0.01    -0.00   0.00   0.00
  27   1     0.18   0.03   0.38     0.01   0.01   0.03    -0.00   0.00   0.01
  28   1    -0.02   0.06   0.03     0.03  -0.14  -0.05    -0.01  -0.01   0.01
  29   1    -0.01  -0.01   0.01     0.22  -0.04  -0.25     0.29  -0.03  -0.34
  30   1     0.03   0.04  -0.03    -0.07  -0.06   0.08    -0.17  -0.35   0.18
  31   1    -0.00  -0.03   0.01     0.00   0.12  -0.00    -0.14  -0.35   0.17
  32   1    -0.00   0.02   0.01     0.09  -0.26  -0.10    -0.12   0.38   0.13
  33   1    -0.02   0.01   0.03     0.17  -0.03  -0.20    -0.18   0.01   0.21
  34   1    -0.00  -0.00  -0.01    -0.08  -0.09   0.12     0.08   0.12  -0.10
                     55                     56                     57
                        a                      a                      a 
 Frequencies --  1179.1509              1180.7587              1191.7778
 Red. masses --     1.6909                 1.3684                 2.0569
 Frc consts  --     0.0000                 0.0000                 0.0000
 IR Inten    --     0.4489                 0.0809                 5.1501
 Raman Activ --     0.0000                 0.0000                 0.0000
 Depolar     --     0.0000                 0.0000                 0.0000
 Atom AN      X      Y      Z        X      Y      Z        X      Y      Z
   1   6     0.01   0.01   0.01    -0.01  -0.00  -0.01    -0.03  -0.01  -0.02
   2   6    -0.00  -0.02  -0.01     0.01   0.00   0.01     0.06   0.02   0.05
   3   7    -0.00   0.01   0.01     0.01   0.01   0.00     0.06   0.02   0.06
   4   6    -0.01  -0.01  -0.01     0.01   0.03  -0.06    -0.10  -0.05  -0.07
   5   6     0.01   0.00   0.00    -0.05  -0.02  -0.06     0.07   0.06  -0.00
   6   6     0.00   0.00  -0.01    -0.00   0.01  -0.06     0.03   0.05  -0.13
   7   6     0.00   0.00  -0.00    -0.04  -0.05   0.06    -0.01  -0.00  -0.01
   8   6    -0.01  -0.01   0.01     0.02   0.01   0.02    -0.11  -0.08   0.03
   9   6    -0.00  -0.00  -0.00     0.05   0.02   0.07     0.02  -0.02   0.09
  10   6     0.04   0.05  -0.04    -0.00   0.01  -0.00    -0.02   0.02   0.01
  11   6     0.00  -0.01  -0.00    -0.00   0.00   0.00    -0.00   0.01   0.01
  12   6    -0.00   0.01   0.00     0.00  -0.00  -0.00     0.00  -0.01  -0.00
  13   6     0.01   0.04  -0.01    -0.00   0.00   0.00    -0.00   0.00   0.00
  14   6     0.04  -0.11  -0.04     0.00  -0.01  -0.00     0.00  -0.00  -0.00
  15   6     0.02  -0.03  -0.02     0.00  -0.00  -0.00    -0.00   0.00   0.00
  16   6     0.03  -0.07  -0.03     0.00  -0.00  -0.00     0.00   0.00  -0.00
  17   6    -0.06   0.01   0.06    -0.00  -0.00   0.00     0.00   0.01  -0.00
  18   6    -0.00   0.01   0.01     0.00  -0.00  -0.00    -0.01   0.01   0.01
  19   6    -0.09   0.04   0.11    -0.00   0.00   0.00     0.01  -0.02  -0.01
  20   1    -0.01  -0.01  -0.00    -0.00  -0.00  -0.00    -0.00  -0.01  -0.02
  21   1     0.00   0.00   0.01    -0.00  -0.00  -0.01    -0.01  -0.02  -0.03
  22   1    -0.00  -0.00   0.01    -0.00  -0.00  -0.00    -0.01  -0.00  -0.01
  23   1     0.02   0.01   0.01     0.18   0.12   0.05     0.39   0.25   0.12
  24   1     0.00   0.00  -0.00    -0.15   0.01  -0.48    -0.09   0.02  -0.35
  25   1     0.02   0.02  -0.02    -0.35  -0.39   0.48     0.03   0.03  -0.05
  26   1    -0.03  -0.02  -0.01     0.31   0.21   0.11    -0.41  -0.28  -0.13
  27   1     0.01  -0.00   0.03    -0.02   0.01  -0.09     0.16  -0.01   0.50
  28   1    -0.04   0.14   0.06    -0.00   0.00   0.00     0.00  -0.02  -0.01
  29   1     0.15  -0.02  -0.17     0.02  -0.00  -0.02     0.01  -0.00  -0.01
  30   1    -0.03  -0.05   0.03    -0.00  -0.01   0.00     0.00   0.01  -0.00
  31   1     0.13   0.27  -0.15     0.00   0.01  -0.00    -0.01  -0.02   0.02
  32   1     0.15  -0.46  -0.17     0.00  -0.01  -0.00    -0.00   0.02   0.01
  33   1    -0.38   0.06   0.44    -0.02   0.00   0.02     0.03  -0.00  -0.03
  34   1     0.12   0.30  -0.17     0.01   0.01  -0.01    -0.01  -0.00   0.00
                     58                     59                     60
                        a                      a                      a 
 Frequencies --  1199.8262              1222.1821              1242.7135
 Red. masses --     4.0059                 6.5556                 5.7039
 Frc consts  --     0.0000                 0.0000                 0.0000
 IR Inten    --    24.0749                 3.7484                 7.0675
 Raman Activ --     0.0000                 0.0000                 0.0000
 Depolar     --     0.0000                 0.0000                 0.0000
 Atom AN      X      Y      Z        X      Y      Z        X      Y      Z
   1   6     0.01  -0.06  -0.11     0.00   0.03   0.03    -0.00  -0.02  -0.07
   2   6     0.00   0.14   0.25    -0.00  -0.08  -0.09     0.03   0.11   0.20
   3   7    -0.01  -0.02  -0.05     0.01   0.02   0.02    -0.01   0.01   0.02
   4   6     0.00   0.02  -0.00    -0.01  -0.01  -0.01    -0.06  -0.01  -0.09
   5   6    -0.00  -0.01  -0.00    -0.00   0.00  -0.00    -0.02  -0.01  -0.01
   6   6     0.00  -0.00   0.01     0.00   0.00  -0.00     0.03   0.02   0.01
   7   6     0.00   0.00   0.00     0.00   0.00   0.00     0.01   0.00   0.01
   8   6     0.00  -0.00   0.00     0.00   0.00   0.00    -0.00  -0.01   0.04
   9   6    -0.00  -0.01   0.00    -0.00   0.00  -0.00    -0.03  -0.02  -0.03
  10   6     0.04   0.02  -0.06     0.04   0.17  -0.03     0.08  -0.08  -0.12
  11   6    -0.04  -0.11   0.05     0.01  -0.02  -0.01     0.08  -0.06  -0.09
  12   6    -0.04   0.05   0.05    -0.05   0.13   0.06    -0.06   0.03   0.07
  13   6    -0.03  -0.01   0.03    -0.07   0.07   0.08     0.03   0.16  -0.03
  14   6    -0.02  -0.03   0.02    -0.20  -0.48   0.22     0.07  -0.14  -0.08
  15   6    -0.03  -0.06   0.03     0.06  -0.04  -0.07    -0.00   0.08   0.01
  16   6     0.01   0.00  -0.01     0.12  -0.02  -0.14     0.00  -0.01  -0.00
  17   6    -0.04  -0.09   0.04    -0.04   0.03   0.05    -0.09   0.10   0.10
  18   6     0.06   0.04  -0.07     0.02   0.14  -0.02    -0.04   0.11   0.04
  19   6     0.20   0.16  -0.22    -0.04  -0.17   0.04    -0.01  -0.43   0.03
  20   1    -0.03  -0.00   0.00     0.00  -0.00  -0.00    -0.04  -0.02  -0.02
  21   1    -0.01   0.01   0.00     0.01  -0.00   0.00    -0.00  -0.00  -0.01
  22   1    -0.09  -0.05  -0.09     0.03   0.01   0.04    -0.06  -0.04  -0.05
  23   1    -0.02  -0.01  -0.00     0.00  -0.00  -0.00    -0.01  -0.01  -0.01
  24   1    -0.00  -0.00  -0.00     0.00   0.00   0.01     0.02   0.01   0.03
  25   1    -0.00  -0.00   0.00     0.00  -0.00   0.00     0.01   0.01  -0.00
  26   1     0.01   0.01   0.00     0.00   0.00   0.00     0.06   0.04   0.03
  27   1     0.00   0.00   0.02    -0.00  -0.00  -0.01    -0.00  -0.00   0.03
  28   1     0.13  -0.50  -0.17     0.03  -0.09  -0.04    -0.06   0.24   0.07
  29   1    -0.24   0.05   0.27     0.26  -0.00  -0.29    -0.11   0.02   0.12
  30   1     0.13   0.29  -0.14     0.11   0.32  -0.12     0.05   0.14  -0.06
  31   1    -0.01  -0.02   0.01     0.12   0.20  -0.14    -0.14  -0.28   0.16
  32   1    -0.01   0.05   0.02    -0.08   0.34   0.08    -0.01   0.02   0.01
  33   1    -0.25   0.01   0.29     0.03   0.01  -0.04     0.10   0.01  -0.11
  34   1     0.05   0.08  -0.06    -0.01   0.01   0.01     0.17   0.46  -0.22
                     61                     62                     63
                        a                      a                      a 
 Frequencies --  1257.6142              1263.7464              1279.6190
 Red. masses --     8.9382                 8.2178                 4.0974
 Frc consts  --     0.0000                 0.0000                 0.0000
 IR Inten    --    14.6420                66.8426                14.8743
 Raman Activ --     0.0000                 0.0000                 0.0000
 Depolar     --     0.0000                 0.0000                 0.0000
 Atom AN      X      Y      Z        X      Y      Z        X      Y      Z
   1   6    -0.10  -0.04  -0.09    -0.04   0.07   0.10     0.01  -0.03  -0.02
   2   6     0.22   0.15   0.26     0.13  -0.21  -0.27    -0.04   0.06   0.07
   3   7     0.11   0.09   0.21     0.13   0.09   0.17    -0.02  -0.01  -0.10
   4   6    -0.36  -0.17  -0.35    -0.25  -0.16  -0.15    -0.11  -0.16   0.33
   5   6    -0.11  -0.05  -0.10    -0.07  -0.03  -0.07    -0.07  -0.04  -0.07
   6   6     0.14   0.11  -0.04     0.07   0.07  -0.06    -0.03   0.01  -0.16
   7   6     0.05   0.02   0.05     0.03   0.02   0.03     0.05   0.06  -0.08
   8   6     0.01  -0.04   0.16     0.03   0.00   0.09     0.14   0.11  -0.04
   9   6    -0.08  -0.04  -0.11    -0.03  -0.01  -0.07     0.09   0.04   0.12
  10   6     0.07  -0.09  -0.13    -0.18   0.20   0.23     0.03  -0.04  -0.04
  11   6     0.04  -0.09  -0.04    -0.09   0.18   0.11     0.02  -0.04  -0.02
  12   6    -0.00   0.07   0.01     0.03  -0.15  -0.04    -0.01   0.03   0.01
  13   6     0.03  -0.01  -0.03    -0.05  -0.05   0.05     0.01   0.02  -0.01
  14   6    -0.09   0.02   0.11     0.13   0.04  -0.15    -0.01  -0.02   0.02
  15   6     0.02  -0.02  -0.03    -0.02   0.01   0.03    -0.00   0.00  -0.00
  16   6     0.02  -0.04  -0.03    -0.04   0.07   0.05     0.01  -0.01  -0.01
  17   6     0.02  -0.01  -0.02     0.00   0.00  -0.00    -0.01   0.00   0.01
  18   6     0.03  -0.02  -0.04    -0.05  -0.01   0.06     0.01   0.01  -0.01
  19   6    -0.06   0.10   0.07     0.08  -0.05  -0.09    -0.00  -0.01   0.01
  20   1    -0.01  -0.04  -0.06     0.02  -0.02  -0.04    -0.00   0.01   0.02
  21   1    -0.02  -0.06  -0.09    -0.00  -0.04  -0.04    -0.00   0.01   0.01
  22   1    -0.05  -0.02  -0.05     0.08   0.04   0.08    -0.02  -0.01  -0.03
  23   1     0.10   0.06   0.00     0.12   0.07   0.02     0.34   0.23   0.10
  24   1     0.12   0.03   0.25     0.09   0.02   0.20     0.10   0.00   0.29
  25   1     0.01   0.00   0.03    -0.01  -0.02   0.04    -0.12  -0.13   0.16
  26   1     0.16   0.09   0.10     0.06   0.03   0.04    -0.30  -0.20  -0.13
  27   1    -0.00  -0.01   0.07    -0.03   0.00  -0.06    -0.14   0.02  -0.47
  28   1    -0.03   0.10   0.03     0.07  -0.29  -0.10    -0.02   0.07   0.02
  29   1    -0.04   0.02   0.04     0.10  -0.05  -0.12    -0.02   0.01   0.03
  30   1    -0.05  -0.10   0.04     0.05   0.11  -0.05    -0.00  -0.01   0.00
  31   1     0.08   0.16  -0.09    -0.09  -0.18   0.11     0.00   0.01  -0.01
  32   1    -0.01   0.05   0.01     0.03  -0.10  -0.03    -0.01   0.02   0.01
  33   1    -0.01  -0.00   0.01     0.01  -0.00  -0.02    -0.01   0.00   0.01
  34   1    -0.06  -0.19   0.10     0.06   0.18  -0.09     0.01  -0.00   0.00
                     64                     65                     66
                        a                      a                      a 
 Frequencies --  1317.5104              1337.2601              1366.0908
 Red. masses --    11.5769                 9.4254                 8.6728
 Frc consts  --     0.0000                 0.0000                 0.0000
 IR Inten    --     2.8371                 0.4344                 6.0367
 Raman Activ --     0.0000                 0.0000                 0.0000
 Depolar     --     0.0000                 0.0000                 0.0000
 Atom AN      X      Y      Z        X      Y      Z        X      Y      Z
   1   6    -0.00   0.01  -0.00    -0.00  -0.00   0.02     0.01  -0.01  -0.01
   2   6     0.02  -0.02  -0.02     0.02   0.03  -0.03    -0.02   0.09   0.12
   3   7    -0.00   0.01   0.02     0.01  -0.01   0.02    -0.04  -0.01  -0.02
   4   6     0.20   0.22  -0.30     0.00   0.01  -0.02     0.01   0.00   0.02
   5   6    -0.34  -0.23  -0.10    -0.02  -0.01  -0.01     0.01   0.00   0.00
   6   6     0.10  -0.00   0.32     0.01   0.00   0.02    -0.00  -0.00   0.00
   7   6     0.22   0.24  -0.30     0.01   0.01  -0.01    -0.00  -0.00   0.00
   8   6    -0.27  -0.18  -0.08    -0.02  -0.02  -0.00     0.01   0.01  -0.00
   9   6     0.11  -0.02   0.41     0.00  -0.00   0.01     0.00   0.00   0.00
  10   6     0.01   0.02  -0.01    -0.21  -0.39   0.22     0.16  -0.22  -0.20
  11   6    -0.01   0.00   0.01     0.08   0.15  -0.08     0.01   0.16  -0.00
  12   6    -0.01  -0.01   0.01     0.14   0.13  -0.15    -0.01   0.16   0.02
  13   6     0.01  -0.01  -0.01    -0.17  -0.03   0.19    -0.11  -0.32   0.11
  14   6    -0.00   0.01   0.00     0.13  -0.11  -0.15    -0.09   0.08   0.10
  15   6     0.01   0.01  -0.01    -0.14  -0.26   0.16     0.10  -0.14  -0.12
  16   6    -0.00  -0.00   0.00     0.02   0.14  -0.03    -0.04   0.30   0.04
  17   6    -0.01   0.00   0.01     0.18   0.02  -0.21    -0.01   0.08   0.01
  18   6     0.00  -0.01  -0.00    -0.13   0.03   0.14    -0.09  -0.36   0.11
  19   6    -0.01  -0.00   0.01     0.13   0.05  -0.15    -0.06   0.20   0.07
  20   1    -0.00  -0.00  -0.01     0.01  -0.01  -0.01    -0.03  -0.02  -0.01
  21   1     0.01  -0.00   0.01    -0.01  -0.00  -0.02    -0.01   0.01  -0.02
  22   1     0.01   0.00   0.01    -0.00   0.01  -0.01    -0.03  -0.01  -0.03
  23   1     0.02   0.01   0.01     0.01   0.00   0.00    -0.00  -0.00  -0.00
  24   1     0.04  -0.00   0.11     0.00   0.00   0.01    -0.00  -0.00  -0.01
  25   1    -0.05  -0.05   0.07     0.00   0.00  -0.00    -0.00   0.00  -0.00
  26   1    -0.09  -0.06  -0.03     0.01   0.00   0.00    -0.01  -0.00  -0.00
  27   1    -0.02  -0.00  -0.03    -0.00   0.00   0.00    -0.00  -0.00  -0.01
  28   1     0.01  -0.03  -0.01    -0.06   0.30   0.07     0.05  -0.10  -0.06
  29   1     0.01  -0.00  -0.01    -0.04   0.05   0.05     0.15   0.02  -0.17
  30   1    -0.00  -0.01   0.00     0.04   0.19  -0.04     0.09   0.17  -0.10
  31   1    -0.00  -0.01   0.00     0.04   0.09  -0.05     0.02  -0.06  -0.02
  32   1     0.00  -0.01  -0.00    -0.04   0.19   0.05     0.08  -0.19  -0.09
  33   1     0.01  -0.00  -0.01    -0.12   0.03   0.13     0.19  -0.01  -0.22
  34   1     0.00   0.00  -0.00    -0.02   0.03   0.03     0.08   0.15  -0.10
                     67                     68                     69
                        a                      a                      a 
 Frequencies --  1380.1733              1390.5857              1416.9536
 Red. masses --     3.5001                 9.8059                 9.4884
 Frc consts  --     0.0000                 0.0000                 0.0000
 IR Inten    --    15.9342                 0.2557                 0.4363
 Raman Activ --     0.0000                 0.0000                 0.0000
 Depolar     --     0.0000                 0.0000                 0.0000
 Atom AN      X      Y      Z        X      Y      Z        X      Y      Z
   1   6     0.23   0.16   0.36    -0.02  -0.01  -0.03    -0.02  -0.01   0.01
   2   6    -0.03  -0.04  -0.06    -0.00  -0.00   0.02     0.01   0.02  -0.02
   3   7    -0.02  -0.00  -0.01    -0.01   0.00  -0.00     0.01  -0.01   0.00
   4   6     0.01   0.00   0.01     0.00   0.00   0.00    -0.01  -0.01   0.01
   5   6     0.02   0.01   0.00    -0.00  -0.00   0.00    -0.01  -0.01  -0.02
   6   6    -0.01  -0.01   0.02    -0.00   0.00  -0.00     0.01   0.01   0.01
   7   6    -0.01  -0.00  -0.01     0.00   0.00   0.00    -0.00  -0.00   0.01
   8   6     0.01   0.01  -0.01     0.00  -0.00   0.00    -0.02  -0.01  -0.01
   9   6     0.01   0.00   0.03    -0.00  -0.00  -0.00     0.01   0.01  -0.00
  10   6    -0.00   0.01   0.02    -0.03  -0.11   0.02    -0.16  -0.24   0.17
  11   6    -0.01   0.01   0.01    -0.10   0.23   0.12     0.12   0.02  -0.13
  12   6     0.01  -0.01  -0.02     0.20  -0.07  -0.23    -0.06   0.18   0.07
  13   6     0.01   0.00  -0.01    -0.05  -0.09   0.05    -0.08  -0.25   0.09
  14   6    -0.03   0.03   0.03    -0.28   0.31   0.32    -0.12   0.05   0.14
  15   6     0.00   0.01  -0.00     0.03  -0.02  -0.03     0.17   0.35  -0.20
  16   6     0.01  -0.03  -0.01     0.10  -0.16  -0.12    -0.11  -0.08   0.12
  17   6    -0.02   0.01   0.02    -0.12   0.10   0.13    -0.08  -0.20   0.10
  18   6     0.00   0.01  -0.01    -0.02   0.04   0.02     0.17   0.28  -0.21
  19   6     0.03  -0.02  -0.03     0.24  -0.30  -0.28     0.13  -0.03  -0.15
  20   1    -0.23  -0.35  -0.30     0.01   0.03   0.03     0.04  -0.01  -0.02
  21   1    -0.12  -0.06  -0.50     0.01   0.01   0.04     0.00  -0.00   0.01
  22   1    -0.37  -0.05  -0.32     0.03  -0.00   0.04     0.01   0.03  -0.03
  23   1    -0.02  -0.01  -0.01     0.00   0.00   0.00     0.01   0.01   0.00
  24   1    -0.01  -0.00  -0.02     0.00   0.00   0.00     0.00   0.00  -0.01
  25   1    -0.00  -0.00  -0.00    -0.00  -0.00   0.00     0.01   0.01  -0.01
  26   1    -0.01  -0.01  -0.01     0.00   0.00   0.00     0.01   0.01   0.00
  27   1    -0.01   0.00  -0.02    -0.00   0.00  -0.00     0.00   0.00   0.00
  28   1     0.00  -0.00   0.00     0.01  -0.05  -0.01    -0.02   0.16   0.02
  29   1    -0.01  -0.00   0.01    -0.04  -0.00   0.05     0.11   0.03  -0.13
  30   1    -0.01  -0.03   0.01    -0.09  -0.18   0.10     0.07   0.14  -0.08
  31   1     0.01   0.02  -0.01     0.10   0.21  -0.12    -0.09  -0.18   0.10
  32   1    -0.00   0.01   0.00    -0.01   0.07   0.01     0.03  -0.21  -0.03
  33   1     0.00   0.00  -0.00     0.04   0.02  -0.04    -0.07  -0.06   0.08
  34   1     0.01  -0.00   0.01     0.08   0.20  -0.10    -0.05  -0.15   0.06
                     70                     71                     72
                        a                      a                      a 
 Frequencies --  1433.8530              1450.1949              1451.8394
 Red. masses --     8.9762                 8.7564                 2.7696
 Frc consts  --     0.0000                 0.0000                 0.0000
 IR Inten    --     7.1480                 3.0100                 9.0162
 Raman Activ --     0.0000                 0.0000                 0.0000
 Depolar     --     0.0000                 0.0000                 0.0000
 Atom AN      X      Y      Z        X      Y      Z        X      Y      Z
   1   6    -0.00  -0.02   0.00    -0.00  -0.08   0.03    -0.02   0.21  -0.04
   2   6     0.01   0.01   0.02    -0.00  -0.05  -0.05     0.04   0.00  -0.06
   3   7     0.02   0.02  -0.04     0.04  -0.00   0.01    -0.03   0.01  -0.01
   4   6    -0.19  -0.20   0.25     0.01   0.01   0.01    -0.02  -0.02  -0.01
   5   6    -0.11  -0.02  -0.29    -0.02  -0.02  -0.00     0.02   0.02  -0.01
   6   6     0.26   0.13   0.26     0.00   0.01  -0.02     0.01  -0.00   0.04
   7   6    -0.14  -0.15   0.19     0.01   0.01   0.01    -0.02  -0.01  -0.01
   8   6    -0.23  -0.10  -0.29    -0.02  -0.02   0.00     0.02   0.02  -0.01
   9   6     0.25   0.16   0.12    -0.00   0.01  -0.03     0.01  -0.00   0.03
  10   6     0.01   0.01  -0.02    -0.13   0.14   0.16    -0.06   0.05   0.07
  11   6    -0.01   0.00   0.01    -0.02  -0.24   0.02    -0.01  -0.09   0.01
  12   6    -0.00  -0.01   0.00     0.16   0.02  -0.18     0.07   0.01  -0.08
  13   6     0.01   0.01  -0.01    -0.03   0.21   0.04    -0.02   0.07   0.02
  14   6     0.01   0.00  -0.01    -0.12  -0.35   0.14    -0.05  -0.13   0.06
  15   6    -0.01  -0.01   0.01     0.08  -0.06  -0.09     0.04  -0.02  -0.04
  16   6     0.01  -0.00  -0.01     0.02   0.23  -0.02    -0.00   0.10   0.00
  17   6     0.00   0.01  -0.00    -0.17  -0.06   0.20    -0.06  -0.03   0.07
  18   6    -0.01  -0.01   0.01     0.06  -0.14  -0.06     0.02  -0.05  -0.02
  19   6    -0.01  -0.00   0.01     0.13   0.31  -0.16     0.05   0.11  -0.06
  20   1     0.01  -0.00   0.00    -0.03  -0.08  -0.07     0.16   0.21   0.16
  21   1    -0.01   0.01   0.00    -0.09   0.19   0.06     0.28  -0.53  -0.12
  22   1     0.01   0.02  -0.01     0.13   0.19  -0.09    -0.31  -0.46   0.21
  23   1     0.11   0.09  -0.04     0.02   0.01   0.01    -0.01  -0.01  -0.01
  24   1    -0.02   0.04  -0.22     0.01   0.00   0.02    -0.01  -0.00  -0.03
  25   1     0.18   0.20  -0.24     0.00   0.00   0.00     0.00   0.00  -0.01
  26   1     0.17   0.13  -0.00     0.02   0.01   0.01    -0.01  -0.01  -0.01
  27   1     0.01   0.05  -0.15     0.01   0.00   0.02    -0.01  -0.00  -0.03
  28   1     0.00  -0.01  -0.00    -0.07   0.14   0.09    -0.03   0.05   0.03
  29   1    -0.00  -0.00   0.00    -0.14   0.03   0.16    -0.05   0.02   0.06
  30   1    -0.00  -0.01   0.00    -0.07  -0.07   0.08    -0.03  -0.02   0.03
  31   1     0.00   0.01  -0.00     0.01  -0.06  -0.01     0.00  -0.03  -0.00
  32   1    -0.00   0.01   0.00     0.07  -0.13  -0.08     0.03  -0.06  -0.03
  33   1     0.00   0.00  -0.00     0.13  -0.04  -0.15     0.05  -0.02  -0.05
  34   1     0.00   0.01  -0.00     0.06   0.05  -0.07     0.02   0.01  -0.03
                     73                     74                     75
                        a                      a                      a 
 Frequencies --  1459.4243              1468.1507              1506.1490
 Red. masses --     1.8802                 8.6744                10.7822
 Frc consts  --     0.0000                 0.0000                 0.0000
 IR Inten    --    12.4099                26.7695                 0.6673
 Raman Activ --     0.0000                 0.0000                 0.0000
 Depolar     --     0.0000                 0.0000                 0.0000
 Atom AN      X      Y      Z        X      Y      Z        X      Y      Z
   1   6     0.18  -0.01  -0.12    -0.01   0.03   0.04     0.00  -0.00   0.00
   2   6    -0.04   0.01  -0.02    -0.08  -0.01  -0.03    -0.01   0.01   0.04
   3   7     0.06  -0.00   0.00    -0.05  -0.03  -0.08    -0.02   0.00  -0.01
   4   6     0.04   0.02   0.04     0.28   0.13   0.30     0.01   0.00   0.01
   5   6    -0.05  -0.04   0.00    -0.25  -0.20   0.03    -0.01  -0.00   0.00
   6   6     0.00   0.02  -0.06    -0.01   0.07  -0.32    -0.00   0.00  -0.01
   7   6     0.03   0.01   0.04     0.16   0.07   0.18     0.00  -0.00   0.01
   8   6    -0.06  -0.04   0.00    -0.26  -0.20   0.01    -0.01  -0.00  -0.00
   9   6     0.00   0.02  -0.06     0.00   0.08  -0.30     0.00   0.00  -0.00
  10   6    -0.02  -0.01   0.02     0.02  -0.00  -0.01     0.15   0.01  -0.17
  11   6     0.01  -0.01  -0.01    -0.00   0.01  -0.00    -0.14   0.19   0.16
  12   6     0.01   0.01  -0.01    -0.02  -0.00   0.02     0.23  -0.09  -0.26
  13   6    -0.01  -0.00   0.01     0.01  -0.01  -0.01    -0.07   0.13   0.08
  14   6    -0.01  -0.01   0.01     0.01   0.02  -0.01    -0.12  -0.21   0.14
  15   6     0.01   0.01  -0.01    -0.01  -0.00   0.01     0.14   0.01  -0.16
  16   6    -0.01   0.01   0.01     0.01  -0.02  -0.01    -0.18   0.30   0.20
  17   6    -0.00  -0.01   0.00     0.00   0.01  -0.00     0.24  -0.16  -0.27
  18   6     0.01   0.01  -0.01    -0.00  -0.01   0.01    -0.04   0.22   0.03
  19   6     0.01   0.02  -0.01    -0.01  -0.01   0.01    -0.11  -0.26   0.13
  20   1    -0.59   0.07   0.37     0.12   0.00  -0.05    -0.00  -0.01  -0.01
  21   1    -0.23   0.23  -0.30     0.07  -0.10   0.03    -0.01   0.01  -0.00
  22   1     0.09  -0.27   0.39    -0.07  -0.01  -0.06    -0.00   0.01  -0.02
  23   1     0.04   0.03   0.02     0.20   0.13   0.10     0.00   0.00   0.00
  24   1     0.02   0.00   0.04     0.10   0.02   0.22     0.00   0.00   0.00
  25   1     0.01   0.01   0.01     0.05   0.02   0.05     0.00   0.00  -0.00
  26   1     0.04   0.03   0.02     0.19   0.12   0.10     0.00   0.00   0.00
  27   1     0.02   0.00   0.05     0.11   0.01   0.23     0.00   0.00   0.00
  28   1    -0.00   0.02   0.01     0.01  -0.01  -0.00     0.01  -0.09  -0.01
  29   1    -0.00   0.00   0.00     0.01  -0.00  -0.01    -0.08  -0.00   0.09
  30   1     0.00   0.01  -0.00     0.00  -0.00  -0.00    -0.06  -0.05   0.06
  31   1    -0.00  -0.01   0.00     0.00   0.01  -0.00    -0.02  -0.13   0.03
  32   1     0.00  -0.01  -0.00    -0.00   0.01   0.00     0.02  -0.14  -0.02
  33   1    -0.00  -0.00   0.00     0.00   0.00   0.00    -0.09  -0.02   0.10
  34   1    -0.00  -0.02   0.02    -0.00   0.00  -0.00    -0.07  -0.09   0.09
                     76                     77                     78
                        a                      a                      a 
 Frequencies --  1563.8106              1572.4989              1594.8141
 Red. masses --    11.6983                11.4481                11.4498
 Frc consts  --     0.0000                 0.0000                 0.0000
 IR Inten    --     0.5621                 2.8388                52.3283
 Raman Activ --     0.0000                 0.0000                 0.0000
 Depolar     --     0.0000                 0.0000                 0.0000
 Atom AN      X      Y      Z        X      Y      Z        X      Y      Z
   1   6    -0.00  -0.00  -0.00     0.00   0.01  -0.00     0.00  -0.00   0.00
   2   6     0.01  -0.03  -0.02     0.00  -0.00  -0.01     0.04   0.01  -0.00
   3   7     0.01   0.00  -0.00    -0.01  -0.01   0.02    -0.06   0.00  -0.01
   4   6     0.01   0.01  -0.01     0.21   0.23  -0.31     0.15   0.08   0.11
   5   6    -0.01  -0.01   0.01    -0.21  -0.18   0.09    -0.29  -0.17  -0.18
   6   6     0.00   0.01  -0.02     0.06   0.13  -0.32     0.18   0.06   0.31
   7   6    -0.01  -0.01   0.02    -0.27  -0.31   0.40    -0.14  -0.08  -0.09
   8   6     0.00   0.01  -0.01     0.19   0.19  -0.15     0.31   0.19   0.17
   9   6     0.00  -0.00   0.02    -0.01  -0.09   0.33    -0.18  -0.07  -0.28
  10   6    -0.07   0.27   0.09     0.00  -0.00  -0.00    -0.05  -0.23   0.04
  11   6     0.12  -0.36  -0.15    -0.00   0.00   0.00     0.01   0.22  -0.00
  12   6    -0.21   0.07   0.24     0.02   0.01  -0.02    -0.15  -0.12   0.17
  13   6     0.12  -0.02  -0.13    -0.02  -0.02   0.02     0.16   0.22  -0.18
  14   6    -0.18   0.23   0.21     0.01  -0.00  -0.02    -0.06  -0.12   0.07
  15   6     0.03  -0.20  -0.04    -0.00   0.01   0.00     0.02  -0.01  -0.02
  16   6    -0.11   0.28   0.12     0.01  -0.02  -0.01    -0.01   0.05   0.01
  17   6     0.23  -0.04  -0.26    -0.01   0.00   0.01     0.01  -0.01  -0.01
  18   6    -0.15  -0.03   0.17     0.01   0.00  -0.01    -0.01  -0.02   0.01
  19   6     0.19  -0.20  -0.22    -0.01   0.01   0.01     0.06   0.07  -0.07
  20   1    -0.00  -0.00  -0.00    -0.00  -0.00  -0.01    -0.01  -0.00   0.00
  21   1    -0.00   0.01   0.01     0.00   0.00   0.00    -0.01   0.00  -0.01
  22   1     0.01   0.01   0.00     0.00   0.00   0.00     0.00  -0.00   0.00
  23   1     0.00   0.00   0.00     0.05   0.03   0.05     0.07   0.05  -0.00
  24   1     0.00   0.00   0.00     0.06   0.03   0.05    -0.01   0.02  -0.09
  25   1     0.00   0.00  -0.00     0.08   0.08  -0.10    -0.02  -0.01  -0.04
  26   1     0.00   0.00  -0.00    -0.03  -0.00  -0.07    -0.08  -0.06  -0.01
  27   1    -0.00   0.00  -0.01    -0.05  -0.02  -0.08     0.00  -0.02   0.07
  28   1    -0.02   0.08   0.03    -0.00   0.00   0.00     0.04  -0.05  -0.05
  29   1     0.04   0.00  -0.04    -0.00   0.00   0.00     0.03  -0.04  -0.04
  30   1     0.01  -0.04  -0.01     0.00   0.01  -0.00    -0.02  -0.08   0.02
  31   1     0.04   0.01  -0.04    -0.00   0.00   0.00     0.00  -0.01  -0.00
  32   1     0.02  -0.05  -0.02    -0.00   0.00   0.00     0.01  -0.01  -0.01
  33   1    -0.04   0.01   0.05     0.00   0.00  -0.00     0.00  -0.00  -0.00
  34   1    -0.01   0.06   0.01     0.00  -0.00   0.00     0.00   0.01  -0.01
                     79                     80                     81
                        a                      a                      a 
 Frequencies --  1596.2101              1608.4393              1722.4896
 Red. masses --    11.4349                11.3938                12.7387
 Frc consts  --     0.0000                 0.0000                 0.0000
 IR Inten    --    19.5246                 0.1984               320.0773
 Raman Activ --     0.0000                 0.0000                 0.0000
 Depolar     --     0.0000                 0.0000                 0.0000
 Atom AN      X      Y      Z        X      Y      Z        X      Y      Z
   1   6    -0.00  -0.00  -0.00    -0.00  -0.00  -0.00    -0.04  -0.01  -0.03
   2   6    -0.02   0.04   0.02     0.01  -0.00  -0.00     0.72  -0.10   0.04
   3   7     0.03  -0.01   0.01    -0.00  -0.00  -0.00    -0.65   0.04  -0.11
   4   6    -0.10  -0.04  -0.10    -0.00  -0.00  -0.00     0.04   0.02   0.06
   5   6     0.20   0.12   0.14     0.01   0.01   0.01     0.04   0.02   0.03
   6   6    -0.13  -0.04  -0.24    -0.01  -0.00  -0.01    -0.02  -0.01  -0.04
   7   6     0.08   0.04   0.08     0.00   0.00   0.00     0.01   0.01   0.01
   8   6    -0.21  -0.12  -0.12    -0.01  -0.01  -0.00    -0.03  -0.02  -0.02
   9   6     0.13   0.04   0.21     0.01   0.00   0.01     0.02   0.01   0.03
  10   6    -0.06  -0.34   0.06    -0.01   0.02   0.02    -0.04   0.03   0.02
  11   6     0.01   0.32  -0.01    -0.01  -0.04   0.01     0.00   0.01   0.00
  12   6    -0.21  -0.17   0.23     0.04   0.02  -0.04     0.01  -0.01  -0.00
  13   6     0.22   0.31  -0.24    -0.02   0.02   0.02    -0.00  -0.00   0.00
  14   6    -0.08  -0.16   0.09    -0.10  -0.18   0.12     0.01  -0.00  -0.01
  15   6     0.02  -0.04  -0.02     0.13   0.47  -0.15    -0.00  -0.00   0.00
  16   6    -0.01   0.08   0.01    -0.03  -0.41   0.04     0.00  -0.00  -0.00
  17   6     0.00  -0.02   0.00     0.23   0.18  -0.27    -0.00   0.00   0.00
  18   6    -0.00  -0.01   0.00    -0.23  -0.33   0.28     0.00   0.00  -0.00
  19   6     0.08   0.09  -0.09     0.06   0.20  -0.07    -0.01  -0.00   0.01
  20   1     0.00   0.01   0.01     0.00   0.00   0.00    -0.05  -0.03  -0.01
  21   1     0.00  -0.00   0.00     0.00  -0.00   0.00    -0.03   0.02  -0.06
  22   1    -0.00  -0.00   0.00     0.00   0.00   0.00     0.05   0.01   0.04
  23   1    -0.05  -0.04   0.00    -0.00  -0.00  -0.00    -0.01  -0.01   0.00
  24   1     0.01  -0.01   0.07     0.00  -0.00   0.00    -0.00  -0.00   0.01
  25   1     0.02   0.01   0.03     0.00   0.00   0.00     0.00  -0.00   0.00
  26   1     0.05   0.04   0.01     0.00   0.00   0.00     0.01   0.00  -0.00
  27   1    -0.00   0.01  -0.06    -0.00   0.00  -0.00     0.00  -0.00  -0.01
  28   1     0.05  -0.08  -0.06    -0.01   0.01   0.01    -0.00  -0.00  -0.00
  29   1     0.05  -0.06  -0.06    -0.01   0.01   0.02     0.00  -0.00  -0.00
  30   1    -0.02  -0.11   0.02    -0.01  -0.00   0.01    -0.00   0.00  -0.00
  31   1     0.00  -0.01  -0.01    -0.06  -0.07   0.07     0.00   0.00   0.00
  32   1     0.01  -0.02  -0.01    -0.07   0.07   0.07     0.00   0.00   0.00
  33   1     0.01  -0.01  -0.01    -0.07   0.07   0.07     0.00  -0.00  -0.00
  34   1     0.01   0.01  -0.01     0.02   0.11  -0.03     0.00  -0.00   0.00
                     82                     83                     84
                        a                      a                      a 
 Frequencies --  2999.6074              3031.0451              3053.0279
 Red. masses --     1.8120                 1.5351                 1.8006
 Frc consts  --     0.0000                 0.0000                 0.0000
 IR Inten    --    12.4295                13.8768                24.0886
 Raman Activ --     0.0000                 0.0000                 0.0000
 Depolar     --     0.0000                 0.0000                 0.0000
 Atom AN      X      Y      Z        X      Y      Z        X      Y      Z
   1   6    -0.03   0.22  -0.16     0.19   0.10  -0.02    -0.18   0.14   0.14
   2   6    -0.00   0.00  -0.01     0.01   0.00   0.00    -0.01   0.00   0.01
   3   7     0.00   0.00  -0.00    -0.00   0.00  -0.00     0.00  -0.00  -0.00
   4   6    -0.00  -0.00   0.00    -0.00  -0.00   0.00     0.00  -0.00  -0.00
   5   6    -0.00  -0.00   0.00     0.00   0.00  -0.00     0.00   0.00  -0.00
   6   6    -0.00  -0.00   0.00     0.00   0.00  -0.00    -0.00  -0.00   0.00
   7   6    -0.00  -0.00  -0.00     0.00   0.00   0.00     0.00   0.00   0.00
   8   6     0.00   0.00  -0.00    -0.00  -0.00   0.00     0.00   0.00  -0.00
   9   6     0.00   0.00  -0.00    -0.00  -0.00   0.00    -0.00  -0.00  -0.00
  10   6     0.00   0.00  -0.00    -0.00   0.00   0.00     0.00  -0.00  -0.00
  11   6    -0.00  -0.00   0.00    -0.00  -0.00   0.00    -0.00  -0.00   0.00
  12   6     0.00   0.00  -0.00     0.00  -0.00  -0.00     0.00   0.00  -0.00
  13   6    -0.00  -0.00   0.00    -0.00  -0.00   0.00    -0.00   0.00   0.00
  14   6    -0.00   0.00   0.00    -0.00   0.00   0.00    -0.00  -0.00  -0.00
  15   6     0.00  -0.00  -0.00    -0.00   0.00   0.00    -0.00   0.00   0.00
  16   6     0.00   0.00  -0.00     0.00  -0.00  -0.00     0.00  -0.00  -0.00
  17   6     0.00  -0.00  -0.00     0.00   0.00  -0.00    -0.00  -0.01   0.00
  18   6     0.00  -0.00  -0.00     0.00  -0.00  -0.00    -0.01   0.01   0.01
  19   6     0.00   0.00  -0.00    -0.00  -0.00   0.00    -0.00   0.00   0.00
  20   1     0.27  -0.71   0.55    -0.03   0.18  -0.13    -0.02   0.01   0.02
  21   1    -0.18  -0.07   0.05    -0.76  -0.45   0.29     0.10   0.09  -0.03
  22   1     0.01   0.02  -0.03     0.11  -0.08  -0.08     0.57  -0.59  -0.49
  23   1     0.00   0.00  -0.00    -0.00  -0.00   0.00    -0.00  -0.00   0.01
  24   1     0.00   0.00  -0.00    -0.00  -0.00   0.00     0.00   0.00  -0.00
  25   1     0.00   0.00   0.00    -0.00  -0.00  -0.00    -0.00  -0.00  -0.00
  26   1    -0.00  -0.00   0.00     0.00   0.00  -0.00    -0.00  -0.00   0.00
  27   1     0.00   0.00   0.00     0.00   0.00  -0.00     0.00   0.00  -0.00
  28   1     0.00   0.00  -0.00     0.00   0.00  -0.00     0.00   0.00  -0.00
  29   1    -0.00  -0.00   0.00     0.00   0.00  -0.00    -0.00  -0.01   0.00
  30   1    -0.00   0.00   0.00     0.00  -0.00  -0.00     0.00  -0.00  -0.00
  31   1    -0.00   0.00   0.00     0.00  -0.00  -0.00     0.00  -0.00  -0.01
  32   1    -0.00  -0.00   0.00    -0.00  -0.00   0.00    -0.00  -0.00   0.00
  33   1    -0.00   0.00   0.00    -0.00  -0.01   0.00     0.00   0.02  -0.00
  34   1    -0.00   0.00   0.00    -0.01   0.00   0.01     0.02  -0.02  -0.02
                     85                     86                     87
                        a                      a                      a 
 Frequencies --  3062.7141              3065.0376              3065.5171
 Red. masses --     1.7548                 1.7806                 1.7641
 Frc consts  --     0.0000                 0.0000                 0.0000
 IR Inten    --    14.0922                21.7883                 5.1193
 Raman Activ --     0.0000                 0.0000                 0.0000
 Depolar     --     0.0000                 0.0000                 0.0000
 Atom AN      X      Y      Z        X      Y      Z        X      Y      Z
   1   6     0.00  -0.00  -0.00     0.00  -0.00  -0.00    -0.00   0.00   0.00
   2   6     0.00   0.00   0.00     0.00   0.00  -0.00    -0.00   0.00   0.00
   3   7    -0.00  -0.00  -0.00    -0.00  -0.00   0.00    -0.00  -0.00  -0.00
   4   6    -0.00  -0.00  -0.00     0.00   0.00  -0.00    -0.00   0.00  -0.00
   5   6     0.00   0.00  -0.01     0.01   0.03  -0.08     0.00   0.00  -0.00
   6   6    -0.04  -0.03   0.02    -0.17  -0.14   0.05    -0.01  -0.00   0.00
   7   6     0.06   0.03   0.07     0.04   0.02   0.05     0.00   0.00   0.00
   8   6     0.03   0.07  -0.21    -0.01  -0.02   0.07     0.00   0.00  -0.00
   9   6    -0.07  -0.05   0.02     0.04   0.03  -0.01     0.00   0.00  -0.00
  10   6    -0.00   0.00   0.00    -0.00   0.00   0.00     0.00  -0.00  -0.00
  11   6    -0.00  -0.00   0.00    -0.01  -0.00   0.01     0.04   0.03  -0.04
  12   6     0.00   0.00  -0.00     0.00   0.01  -0.00    -0.00  -0.06   0.00
  13   6    -0.00   0.00   0.00     0.00  -0.00  -0.00    -0.05   0.05   0.06
  14   6    -0.00   0.00   0.00     0.00   0.00  -0.00    -0.00  -0.01   0.00
  15   6    -0.00   0.00   0.00    -0.00   0.00   0.00     0.10  -0.11  -0.11
  16   6     0.00   0.00  -0.00     0.00   0.00  -0.00    -0.07  -0.05   0.08
  17   6    -0.00  -0.00   0.00     0.00   0.00  -0.00     0.00   0.07  -0.00
  18   6     0.00  -0.00  -0.00    -0.00   0.00   0.00     0.02  -0.02  -0.02
  19   6     0.00   0.00  -0.00     0.00  -0.00   0.00     0.00   0.00  -0.00
  20   1    -0.00   0.00  -0.00     0.00   0.00  -0.00     0.00  -0.00   0.00
  21   1    -0.00  -0.00   0.00    -0.00  -0.00   0.00     0.00   0.00  -0.00
  22   1    -0.00   0.00   0.00    -0.00   0.00   0.00     0.01  -0.01  -0.01
  23   1    -0.00  -0.01   0.04    -0.04  -0.10   0.32    -0.00  -0.00   0.01
  24   1     0.15   0.13  -0.05     0.60   0.50  -0.19     0.02   0.02  -0.01
  25   1    -0.24  -0.11  -0.26    -0.16  -0.07  -0.17    -0.01  -0.00  -0.01
  26   1    -0.09  -0.26   0.75     0.03   0.08  -0.25    -0.00  -0.00   0.00
  27   1     0.25   0.21  -0.08    -0.14  -0.11   0.04    -0.00  -0.00   0.00
  28   1     0.00   0.00  -0.01     0.02   0.01  -0.02    -0.13  -0.10   0.15
  29   1    -0.00  -0.01   0.00    -0.00  -0.02   0.00     0.02   0.25  -0.01
  30   1     0.00  -0.00  -0.00    -0.01   0.01   0.01     0.18  -0.18  -0.21
  31   1     0.01  -0.01  -0.01     0.01  -0.01  -0.01    -0.35   0.38   0.41
  32   1    -0.00  -0.00   0.00    -0.00  -0.00   0.00     0.26   0.19  -0.30
  33   1     0.00   0.01  -0.00    -0.00  -0.00   0.00    -0.01  -0.26   0.02
  34   1    -0.01   0.01   0.01     0.00  -0.00  -0.00    -0.08   0.08   0.08
                     88                     89                     90
                        a                      a                      a 
 Frequencies --  3066.9766              3068.3126              3070.9984
 Red. masses --     1.7582                 1.7918                 1.8119
 Frc consts  --     0.0000                 0.0000                 0.0000
 IR Inten    --     2.2884                19.6953                50.4213
 Raman Activ --     0.0000                 0.0000                 0.0000
 Depolar     --     0.0000                 0.0000                 0.0000
 Atom AN      X      Y      Z        X      Y      Z        X      Y      Z
   1   6    -0.00   0.00   0.00    -0.01   0.00   0.00     0.00   0.00  -0.00
   2   6    -0.00   0.00   0.00    -0.00  -0.00   0.00     0.00   0.00  -0.00
   3   7     0.00  -0.00   0.00    -0.00   0.00  -0.00    -0.00  -0.00   0.00
   4   6    -0.00  -0.00   0.00    -0.00   0.00   0.00    -0.00   0.00   0.00
   5   6    -0.00  -0.00   0.00     0.00   0.00  -0.00    -0.00  -0.00   0.00
   6   6     0.01   0.00  -0.00    -0.00  -0.00   0.00    -0.00  -0.00   0.00
   7   6    -0.00  -0.00  -0.00     0.00   0.00   0.00     0.00   0.00   0.00
   8   6     0.00   0.00  -0.00    -0.00  -0.00   0.00     0.00   0.00  -0.00
   9   6    -0.00  -0.00   0.00    -0.00  -0.00   0.00     0.00   0.00  -0.00
  10   6    -0.00   0.00   0.00     0.00  -0.00  -0.00     0.00  -0.00  -0.00
  11   6    -0.10  -0.07   0.11     0.06   0.04  -0.07     0.09   0.07  -0.10
  12   6     0.01   0.12  -0.01    -0.00  -0.03   0.00     0.00   0.05  -0.00
  13   6     0.05  -0.05  -0.05     0.02  -0.02  -0.02     0.11  -0.11  -0.12
  14   6     0.00  -0.00  -0.00    -0.00   0.00   0.00     0.01  -0.00  -0.01
  15   6     0.03  -0.03  -0.03    -0.06   0.07   0.07     0.03  -0.04  -0.04
  16   6    -0.04  -0.03   0.05     0.00   0.01  -0.00    -0.02  -0.02   0.03
  17   6     0.00   0.08  -0.01     0.01   0.15  -0.01    -0.00  -0.03   0.00
  18   6     0.04  -0.04  -0.04     0.09  -0.09  -0.09    -0.03   0.03   0.03
  19   6     0.00  -0.00  -0.00     0.00  -0.00  -0.00    -0.00   0.00   0.00
  20   1    -0.00   0.00  -0.00    -0.00  -0.00   0.00     0.00  -0.00   0.00
  21   1     0.01   0.00  -0.00     0.01   0.01  -0.00    -0.00  -0.00   0.00
  22   1     0.01  -0.01  -0.01     0.02  -0.02  -0.02    -0.00   0.00   0.00
  23   1     0.00   0.00  -0.01    -0.00  -0.00   0.00     0.00   0.00  -0.00
  24   1    -0.02  -0.02   0.01     0.01   0.01  -0.00     0.00   0.00  -0.00
  25   1     0.01   0.00   0.01     0.00   0.00  -0.00    -0.01  -0.00  -0.01
  26   1    -0.00  -0.00   0.00     0.00   0.00  -0.01    -0.00  -0.00   0.00
  27   1     0.00   0.00  -0.00     0.01   0.01  -0.00    -0.00  -0.00   0.00
  28   1     0.36   0.26  -0.40    -0.21  -0.15   0.23    -0.32  -0.23   0.35
  29   1    -0.04  -0.46   0.03     0.01   0.12  -0.01    -0.02  -0.19   0.01
  30   1    -0.17   0.18   0.20    -0.07   0.07   0.08    -0.38   0.40   0.44
  31   1    -0.10   0.11   0.12     0.22  -0.24  -0.25    -0.12   0.13   0.14
  32   1     0.15   0.11  -0.17    -0.01  -0.01   0.02     0.08   0.06  -0.10
  33   1    -0.01  -0.30   0.03    -0.03  -0.54   0.05     0.01   0.11  -0.01
  34   1    -0.14   0.15   0.16    -0.31   0.32   0.34     0.10  -0.10  -0.10
                     91                     92                     93
                        a                      a                      a 
 Frequencies --  3076.0748              3077.1178              3079.3752
 Red. masses --     1.8378                 1.8558                 1.8655
 Frc consts  --     0.0000                 0.0000                 0.0000
 IR Inten    --    94.4343               101.9587               171.1126
 Raman Activ --     0.0000                 0.0000                 0.0000
 Depolar     --     0.0000                 0.0000                 0.0000
 Atom AN      X      Y      Z        X      Y      Z        X      Y      Z
   1   6    -0.00   0.00   0.00     0.00  -0.00  -0.00    -0.00  -0.00   0.00
   2   6    -0.00   0.00   0.00     0.00   0.00  -0.00    -0.00  -0.00   0.00
   3   7     0.00   0.00   0.00     0.00  -0.00   0.00     0.00   0.00  -0.00
   4   6    -0.01  -0.00  -0.01    -0.00  -0.00  -0.00     0.00   0.00   0.00
   5   6     0.01   0.03  -0.08     0.01   0.02  -0.05    -0.02  -0.06   0.19
   6   6    -0.03  -0.03   0.01    -0.01  -0.01   0.00    -0.05  -0.04   0.01
   7   6    -0.09  -0.04  -0.10    -0.05  -0.02  -0.05     0.05   0.02   0.05
   8   6    -0.00  -0.01   0.03     0.00   0.00  -0.01    -0.01  -0.03   0.09
   9   6    -0.14  -0.12   0.04    -0.04  -0.04   0.02    -0.10  -0.08   0.03
  10   6     0.00  -0.00  -0.00    -0.00   0.00   0.00     0.00  -0.00   0.00
  11   6     0.00   0.00  -0.00    -0.00  -0.00   0.01    -0.00  -0.00   0.00
  12   6     0.00   0.01  -0.00    -0.00  -0.01   0.00     0.00   0.00  -0.00
  13   6     0.00  -0.00  -0.00    -0.00   0.00   0.01    -0.00   0.00   0.00
  14   6    -0.00  -0.00   0.00     0.00   0.00  -0.00     0.00   0.00  -0.00
  15   6     0.02  -0.02  -0.03    -0.06   0.06   0.06    -0.01   0.01   0.01
  16   6     0.03   0.02  -0.03    -0.08  -0.06   0.09    -0.01  -0.01   0.01
  17   6    -0.00  -0.05   0.00     0.01   0.10  -0.01     0.00   0.00  -0.00
  18   6     0.04  -0.04  -0.04    -0.09   0.09   0.10    -0.01   0.01   0.01
  19   6     0.00   0.00  -0.00    -0.00  -0.00   0.00    -0.00   0.00   0.00
  20   1    -0.00   0.00  -0.00     0.00  -0.00   0.00    -0.00   0.00  -0.00
  21   1     0.00   0.00  -0.00    -0.01  -0.00   0.00     0.00   0.00  -0.00
  22   1     0.00  -0.00  -0.00    -0.01   0.01   0.01     0.00  -0.00  -0.00
  23   1    -0.03  -0.09   0.27    -0.02  -0.06   0.17     0.07   0.22  -0.66
  24   1     0.11   0.09  -0.04     0.03   0.03  -0.01     0.16   0.13  -0.05
  25   1     0.32   0.15   0.36     0.16   0.08   0.18    -0.16  -0.08  -0.17
  26   1     0.01   0.03  -0.09    -0.00  -0.01   0.02     0.04   0.10  -0.31
  27   1     0.48   0.40  -0.15     0.16   0.13  -0.05     0.35   0.29  -0.11
  28   1    -0.01  -0.01   0.01     0.02   0.01  -0.02     0.00   0.00  -0.00
  29   1    -0.00  -0.02   0.00     0.00   0.04  -0.00    -0.00  -0.00   0.00
  30   1    -0.01   0.01   0.01     0.02  -0.02  -0.02     0.01  -0.01  -0.01
  31   1    -0.08   0.08   0.09     0.19  -0.20  -0.22     0.02  -0.03  -0.03
  32   1    -0.10  -0.07   0.12     0.28   0.21  -0.32     0.04   0.03  -0.05
  33   1     0.01   0.17  -0.01    -0.02  -0.34   0.03    -0.00  -0.02   0.00
  34   1    -0.13   0.14   0.14     0.31  -0.32  -0.34     0.03  -0.03  -0.03
                     94                     95                     96
                        a                      a                      a 
 Frequencies --  3083.9125              3086.9134              3087.1063
 Red. masses --     1.9051                 1.9139                 1.9139
 Frc consts  --     0.0000                 0.0000                 0.0000
 IR Inten    --   166.3414                59.6881                20.2869
 Raman Activ --     0.0000                 0.0000                 0.0000
 Depolar     --     0.0000                 0.0000                 0.0000
 Atom AN      X      Y      Z        X      Y      Z        X      Y      Z
   1   6     0.00  -0.00  -0.00     0.00   0.00   0.00     0.00  -0.00  -0.00
   2   6     0.00   0.00  -0.00     0.00  -0.00  -0.00     0.00  -0.00  -0.00
   3   7    -0.00   0.00   0.00    -0.00   0.00  -0.00    -0.00   0.00   0.00
   4   6     0.00   0.00   0.00     0.00   0.00   0.00    -0.00  -0.00  -0.00
   5   6    -0.00  -0.00   0.01    -0.01  -0.03   0.09     0.01   0.03  -0.09
   6   6    -0.01  -0.01   0.00    -0.07  -0.06   0.02     0.06   0.05  -0.02
   7   6    -0.01  -0.00  -0.01    -0.08  -0.04  -0.09     0.07   0.04   0.08
   8   6     0.00   0.00  -0.01     0.01   0.03  -0.07    -0.01  -0.02   0.06
   9   6     0.00   0.00  -0.00     0.06   0.05  -0.02    -0.04  -0.03   0.01
  10   6     0.00  -0.00  -0.00     0.00  -0.00  -0.00     0.00  -0.00  -0.00
  11   6     0.05   0.04  -0.06     0.02   0.01  -0.02     0.02   0.02  -0.03
  12   6     0.02   0.20  -0.01     0.00   0.06  -0.00     0.01   0.09  -0.01
  13   6    -0.06   0.06   0.07    -0.02   0.02   0.03    -0.03   0.03   0.04
  14   6    -0.00  -0.00   0.00    -0.00   0.00   0.00    -0.00   0.00   0.00
  15   6     0.02  -0.02  -0.02    -0.03   0.03   0.03    -0.03   0.04   0.04
  16   6     0.05   0.04  -0.06    -0.06  -0.05   0.07    -0.07  -0.05   0.08
  17   6     0.00   0.08  -0.01    -0.01  -0.10   0.01    -0.01  -0.10   0.01
  18   6    -0.03   0.03   0.03     0.04  -0.04  -0.04     0.04  -0.04  -0.04
  19   6    -0.00  -0.00   0.00     0.00   0.00  -0.00     0.00   0.00  -0.00
  20   1     0.00  -0.00   0.00    -0.00   0.00  -0.00     0.00  -0.00   0.00
  21   1    -0.00  -0.00   0.00    -0.00  -0.00   0.00     0.00   0.00  -0.00
  22   1    -0.00   0.00   0.00     0.00  -0.00  -0.00    -0.00   0.00   0.00
  23   1     0.00   0.01  -0.03     0.04   0.10  -0.31    -0.03  -0.10   0.29
  24   1     0.02   0.02  -0.01     0.22   0.18  -0.07    -0.20  -0.17   0.06
  25   1     0.03   0.01   0.03     0.28   0.13   0.31    -0.25  -0.12  -0.28
  26   1    -0.00  -0.01   0.02    -0.03  -0.08   0.24     0.02   0.07  -0.20
  27   1    -0.01  -0.00   0.00    -0.20  -0.17   0.06     0.13   0.11  -0.04
  28   1    -0.18  -0.13   0.20    -0.06  -0.04   0.06    -0.08  -0.06   0.09
  29   1    -0.05  -0.69   0.04    -0.01  -0.19   0.01    -0.02  -0.29   0.02
  30   1     0.21  -0.21  -0.24     0.07  -0.08  -0.09     0.11  -0.11  -0.12
  31   1    -0.05   0.05   0.06     0.10  -0.11  -0.11     0.12  -0.12  -0.13
  32   1    -0.18  -0.13   0.21     0.22   0.16  -0.25     0.24   0.18  -0.28
  33   1    -0.01  -0.28   0.02     0.02   0.33  -0.03     0.02   0.35  -0.03
  34   1     0.09  -0.10  -0.10    -0.13   0.13   0.14    -0.12   0.12   0.13
