19
Properties=species:S:1:pos:R:3 image=T 4=T pbc="F F F"
C        1.23787563      -2.10250235      -0.53264697
C        1.88048319      -1.80971420       0.66442976
C        1.54571518      -0.69030141       1.40600050
C        0.54633803       0.13100472       0.90434324
N        0.06730833       1.31964118       1.38934809
C       -1.02139864       1.72232976       0.67581490
C       -1.27567303       0.80184971      -0.44472956
C       -0.16234656      -0.20057362      -0.26589012
C        0.18752625      -1.31617682      -0.99360889
C       -1.65872501       1.37474917      -1.76261363
H        1.55612610      -2.95755465      -1.11045247
H        2.66235399      -2.46253981       1.02337467
H        2.03294518      -0.46347021       2.34345690
H        0.47724425       1.84676315       2.14245682
H       -1.36799509       2.73532870       0.76532820
H       -2.20758532       0.26293616      -0.21330359
H       -0.32560510      -1.56107899      -1.91173337
H       -2.50118652       0.91558877      -2.27035484
H       -1.67340026       2.45372125      -1.80921837
