19
Properties=species:S:1:pos:R:3 image=T 4=T pbc="F F F"
C        1.04736800      -2.22663982      -0.43134057
C        1.77459305      -1.92912128       0.71604072
C        1.55263053      -0.76328193       1.42466451
C        0.58478226       0.10836627       0.94286331
N        0.17987831       1.32321936       1.42638513
C       -0.86110015       1.80752553       0.68572573
C       -1.14875769       0.91674447      -0.43132472
C       -0.16507353      -0.19243624      -0.21018995
C        0.06102151      -1.36654570      -0.89427259
C       -1.45405080       1.47059702      -1.78822627
H        1.25457064      -3.14007681      -0.96793362
H        2.52737349      -2.62271435       1.06082154
H        2.10935789      -0.53688646       2.32199111
H        0.58276439       1.78808882       2.22240074
H       -1.22963423       2.80294405       0.83317536
H       -2.16258205       0.51352261      -0.26154715
H       -0.50687087      -1.60387120      -1.78070098
H       -2.10005382       0.86587784      -2.41060855
H       -1.69980918       2.52325276      -1.81080524
