      -----------------------------------------------------------      
     |                   =====================                   |     
     |                           x T B                           |     
     |                   =====================                   |     
     |                         S. Grimme                         |     
     |          Mulliken Center for Theoretical Chemistry        |     
     |                    University of Bonn                     |     
      -----------------------------------------------------------      

   * xtb version 6.7.1 (edcfbbe) compiled by 'VssAdministrator@runnervm171ch' on 2026-06-10

   xtb is free software: you can redistribute it and/or modify it under
   the terms of the GNU Lesser General Public License as published by
   the Free Software Foundation, either version 3 of the License, or
   (at your option) any later version.
   
   xtb is distributed in the hope that it will be useful,
   but WITHOUT ANY WARRANTY; without even the implied warranty of
   MERCHANTABILITY or FITNESS FOR A PARTICULAR PURPOSE.  See the
   GNU Lesser General Public License for more details.
   
   Cite this work as:
   * C. Bannwarth, E. Caldeweyher, S. Ehlert, A. Hansen, P. Pracht,
     J. Seibert, S. Spicher, S. Grimme, WIREs Comput. Mol. Sci., 2020, 11,
     e01493. DOI: 10.1002/wcms.1493
   
   for GFN2-xTB:
   * C. Bannwarth, S. Ehlert and S. Grimme., J. Chem. Theory Comput., 2019,
     15, 1652-1671. DOI: 10.1021/acs.jctc.8b01176
   for GFN1-xTB:
   * S. Grimme, C. Bannwarth, P. Shushkov, J. Chem. Theory Comput., 2017,
     13, 1989-2009. DOI: 10.1021/acs.jctc.7b00118
   for GFN0-xTB:
   * P. Pracht, E. Caldeweyher, S. Ehlert, S. Grimme, ChemRxiv, 2019, preprint.
     DOI: 10.26434/chemrxiv.8326202.v1
   for GFN-FF:
   * S. Spicher and S. Grimme, Angew. Chem. Int. Ed., 2020, 59, 15665-15673.
     DOI: 10.1002/anie.202004239
   
   for ALPB and GBSA implicit solvation:
   * S. Ehlert, M. Stahn, S. Spicher, S. Grimme, J. Chem. Theory Comput.,
     2021, 17, 4250-4261. DOI: 10.1021/acs.jctc.1c00471
   
   for ddCOSMO and CPCM-X implicit solvation:
   * M. Stahn, S. Ehlert, S. Grimme, J. Phys. Chem. A,
     2023, XX, XXXX-XXXX. DOI: 10.1021/acs.jpca.3c04382
   
   for DFT-D4:
   * E. Caldeweyher, C. Bannwarth and S. Grimme, J. Chem. Phys., 2017,
     147, 034112. DOI: 10.1063/1.4993215
   * E. Caldeweyher, S. Ehlert, A. Hansen, H. Neugebauer, S. Spicher,
     C. Bannwarth and S. Grimme, J. Chem. Phys., 2019, 150, 154122.
     DOI: 10.1063/1.5090222
   * E. Caldeweyher, J.-M. Mewes, S. Ehlert and S. Grimme, Phys. Chem. Chem. Phys.
     2020, 22, 8499-8512. DOI: 10.1039/D0CP00502A
   
   for sTDA-xTB:
   * S. Grimme and C. Bannwarth, J. Chem. Phys., 2016, 145, 054103.
     DOI: 10.1063/1.4959605
   
   in the mass-spec context:
   * V. Asgeirsson, C. Bauer and S. Grimme, Chem. Sci., 2017, 8, 4879.
     DOI: 10.1039/c7sc00601b
   * J. Koopman and S. Grimme, ACS Omega 2019, 4, 12, 15120-15133.
     DOI: 10.1021/acsomega.9b02011
   
   for metadynamics refer to:
   * S. Grimme, J. Chem. Theory Comput., 2019, 155, 2847-2862
     DOI: 10.1021/acs.jctc.9b00143
   
   for SPH calculations refer to:
   * S. Spicher and S. Grimme, J. Chem. Theory Comput., 2021, 17, 1701-1714
     DOI: 10.1021/acs.jctc.0c01306
   
   for ONIOM refer to:
   * C. Plett, A. Katbashev, S. Ehlert, S. Grimme, M. Bursch,
     Phys. Chem. Chem. Phys., 2023, 25, 17860-17868. DOI: 10.1039/D3CP02178E
   
   for DIPRO refer to:
   * J. Kohn, N. Gildemeister, S. Grimme, D. Fazzi, A. Hansen,
     J. Chem. Phys., 2023, just accepted.
   
   for PTB refer to:
   * S. Grimme, M. Mueller, A. Hansen, J. Chem. Phys., 2023, 158, 124111.
     DOI: 10.1063/5.0137838
   
   with help from (in alphabetical order)
   P. Atkinson, C. Bannwarth, F. Bohle, G. Brandenburg, E. Caldeweyher
   M. Checinski, S. Dohm, S. Ehlert, S. Ehrlich, I. Gerasimov, C. Hölzer
   A. Katbashev, J. Kohn, J. Koopman, C. Lavigne, S. Lehtola, F. März, M. Müller,
   F. Musil, H. Neugebauer, J. Pisarek, C. Plett, P. Pracht, F. Pultar,
   J. Seibert, P. Shushkov, S. Spicher, M. Stahn, M. Steiner, T. Strunk,
   J. Stückrath, T. Rose, and J. Unsleber
   
 * started run on 2026/09/10 at 23:09:05.579     
   ID    Z sym.   atoms
    1    8 O      1, 3, 4, 17, 88, 90, 99, 100
    2   15 P      2
    3    6 C      5-16, 18-37, 59, 60, 62-73, 87, 89, 91-93, 95-98, 101, 102
    4    1 H      38-58, 74-86, 103-117
    5    7 N      61, 94

           -------------------------------------------------
          |                Calculation Setup                |
           -------------------------------------------------

          program call               : C:\Users\HUIWEI\miniconda3\envs\phase2ff\Library\bin\xtb.exe xtbopt.xyz --gfn 2 --chrg 0 --uhf 0 --alpb toluene --acc 0.2 --hess --strict
          coordinate file            : xtbopt.xyz
          omp threads                :                     1


molecular fragmentation (1/2 indicates fragments):
111111111111111111111111111111111111121111111111111111111122222222222222
222222222222222222222222222222222222222222222
# atoms in fragment 1/2:    57    60
 fragment masses (1/2) :      499.47      421.51
CMA distance (Bohr)    :  12.217
constraining FC (au)   :  0.0500

           -------------------------------------------------
          |                 G F N 2 - x T B                 |
           -------------------------------------------------

        Reference                      10.1021/acs.jctc.8b01176
      * Hamiltonian:
        H0-scaling (s, p, d)           1.850000    2.230000    2.230000
        zeta-weighting                 0.500000
      * Dispersion:
        s8                             2.700000
        a1                             0.520000
        a2                             5.000000
        s9                             5.000000
      * Repulsion:
        kExp                           1.500000    1.000000
        rExp                           1.000000
      * Coulomb:
        alpha                          2.000000
        third order                    shell-resolved
        anisotropic                    true
        a3                             3.000000
        a5                             4.000000
        cn-shift                       1.200000
        cn-exp                         4.000000
        max-rad                        5.000000

      * Solvation model:               ALPB
        Solvent                        toluene
        Parameter file                 internal GFN2-xTB/ALPB
        Dielectric constant                7.0000E+00
        Reference state                gsolv [1 M gas/solution]
        Free energy shift                  2.2081E-03 Eh       1.3856E+00 kcal/mol
        Temperature                        2.9815E+02 K
        Density                            8.6700E-01 kg/L
        Solvent mass                       7.8110E+01 g/mol
        Interaction kernel             P16
        Born radius scaling (c1)           1.7172E+00
        Born radii integrator          GBOBC
        Born offset                        0.0000E+00 a0       0.0000E+00 AA
        H-bond correction              false
        Ion screening                  false
        Surface tension                    1.0000E-05 Eh       1.5569E+01 dyn/cm
        Grid points                               230 per atom
q/qsh data taken from xtbrestart
CAMM data taken from xtbrestart

          ...................................................
          :                      SETUP                      :
          :.................................................:
          :  # basis functions                 327          :
          :  # atomic orbitals                 326          :
          :  # shells                          186          :
          :  # electrons                       340          :
          :  max. iterations                   250          :
          :  Hamiltonian                  GFN2-xTB          :
          :  restarted?                       true          :
          :  GBSA solvation                   true          :
          :  PC potential                    false          :
          :  electronic temp.          300.0000000     K    :
          :  accuracy                    0.2000000          :
          :  -> integral cutoff          0.3198970E+02      :
          :  -> integral neglect         0.2000000E-08      :
          :  -> SCF convergence          0.2000000E-06 Eh   :
          :  -> wf. convergence          0.2000000E-04 e    :
          :  Broyden damping             0.4000000          :
          :  net charge                          0          :
          :  unpaired electrons                  0          :
          ...................................................

 iter      E             dE          RMSdq      gap      omega  full diag
   1   -191.2195760 -0.191220E+03  0.221E-06    1.25       0.0  T
   2   -191.2195760 -0.341061E-12  0.170E-06    1.25    5425.9  T
   3   -191.2195760 -0.147793E-11  0.927E-07    1.25    9976.6  T

   *** convergence criteria satisfied after 3 iterations ***

         #    Occupation            Energy/Eh            Energy/eV
      -------------------------------------------------------------
         1        2.0000           -0.7370196             -20.0553
       ...           ...                  ...                  ...
       164        2.0000           -0.4005136             -10.8985
       165        2.0000           -0.3999033             -10.8819
       166        2.0000           -0.3846054             -10.4656
       167        2.0000           -0.3820721             -10.3967
       168        2.0000           -0.3772644             -10.2659
       169        2.0000           -0.3664457              -9.9715
       170        2.0000           -0.3589333              -9.7671 (HOMO)
       171                         -0.3129458              -8.5157 (LUMO)
       172                         -0.2698005              -7.3416
       173                         -0.2669859              -7.2651
       174                         -0.2561156              -6.9693
       175                         -0.2429531              -6.6111
       ...                                ...                  ...
       326                          1.3035611              35.4717
      -------------------------------------------------------------
                  HL-Gap            0.0459875 Eh            1.2514 eV
             Fermi-level           -0.3359396 Eh           -9.1414 eV

 SCC (total)                   0 d,  0 h,  0 min,  0.378 sec
 SCC setup                      ...        0 min,  0.007 sec (  1.789%)
 Dispersion                     ...        0 min,  0.004 sec (  0.999%)
 classical contributions        ...        0 min,  0.001 sec (  0.286%)
 integral evaluation            ...        0 min,  0.056 sec ( 14.879%)
 iterations                     ...        0 min,  0.074 sec ( 19.722%)
 molecular gradient             ...        0 min,  0.232 sec ( 61.445%)
 printout                       ...        0 min,  0.003 sec (  0.871%)

         :::::::::::::::::::::::::::::::::::::::::::::::::::::
         ::                     SUMMARY                     ::
         :::::::::::::::::::::::::::::::::::::::::::::::::::::
         :: total energy            -188.253404412593 Eh    ::
         :: total w/o Gsasa/hb      -188.176750827087 Eh    ::
         :: gradient norm              0.000096287458 Eh/a0 ::
         :: HOMO-LUMO gap              1.251384607457 eV    ::
         ::.................................................::
         :: SCC energy              -191.208911731607 Eh    ::
         :: -> isotropic ES            0.277307760700 Eh    ::
         :: -> anisotropic ES         -0.034395225735 Eh    ::
         :: -> anisotropic XC          0.083318113714 Eh    ::
         :: -> dispersion             -0.189683256885 Eh    ::
         :: -> Gsolv                  -0.090518743575 Eh    ::
         ::    -> Gelec               -0.013865158070 Eh    ::
         ::    -> Gsasa               -0.078861728644 Eh    ::
         ::    -> Ghb                  0.000000000000 Eh    ::
         ::    -> Gshift               0.002208143139 Eh    ::
         :: repulsion energy           2.955507319014 Eh    ::
         :: add. restraining           0.000000000000 Eh    ::
         :: total charge               0.000000000000 e     ::
         :::::::::::::::::::::::::::::::::::::::::::::::::::::

           ------------------------------------------------- 
          |                Numerical Hessian                |
           ------------------------------------------------- 
step length          :   0.00500
SCC accuracy         :   0.30000
Hessian scale factor :   1.00000
frozen atoms in %    :   0.00000    0
RMS gradient         :   0.00010
estimated CPU  time      0.64 min
estimated wall time      5.45 min

writing file <hessian>.

 projected vibrational frequencies (cm⁻¹)
eigval :       -0.00    -0.00    -0.00     0.00     0.00     0.00
eigval :        6.64    13.18    18.96    24.65    27.12    30.07
eigval :       32.27    34.70    37.54    41.21    42.55    47.94
eigval :       54.06    57.71    61.97    62.72    65.48    67.17
eigval :       68.21    71.03    77.34    79.97    81.89    82.94
eigval :       85.05    91.97    97.71   101.69   109.58   112.02
eigval :      118.29   126.19   136.12   138.55   144.12   146.68
eigval :      155.17   160.39   165.79   171.05   174.17   183.68
eigval :      191.21   195.86   199.76   209.97   215.01   227.40
eigval :      232.39   244.66   251.10   262.12   272.84   275.66
eigval :      279.60   283.71   288.93   295.81   296.71   305.25
eigval :      315.38   316.38   324.75   327.31   330.83   336.52
eigval :      339.53   347.17   352.90   366.69   371.34   372.26
eigval :      381.72   385.55   387.98   389.73   411.30   421.29
eigval :      440.73   443.70   446.54   452.85   463.47   473.09
eigval :      478.46   489.59   493.91   501.51   509.43   515.53
eigval :      525.63   529.74   531.89   540.03   543.21   546.95
eigval :      552.64   555.72   571.00   574.91   585.24   585.72
eigval :      586.59   588.20   588.43   617.99   623.37   625.17
eigval :      631.15   632.03   639.12   641.52   653.99   664.66
eigval :      666.81   669.45   669.81   683.01   690.63   695.04
eigval :      704.90   705.68   710.53   728.61   731.71   748.68
eigval :      754.61   758.46   761.58   766.00   769.15   771.39
eigval :      773.83   787.13   789.45   820.10   834.59   837.85
eigval :      852.96   860.93   862.88   865.82   871.95   873.82
eigval :      875.70   877.11   877.47   880.27   898.21   901.27
eigval :      908.45   912.91   913.83   914.84   917.26   924.82
eigval :      926.57   927.34   928.46   929.09   929.34   930.16
eigval :      930.72   937.53   939.06   942.88   960.59   965.82
eigval :      969.05   970.92   974.92   976.55   986.46   989.00
eigval :     1000.30  1016.27  1027.89  1029.34  1033.12  1035.48
eigval :     1037.87  1048.14  1069.17  1081.36  1081.77  1082.99
eigval :     1083.94  1084.05  1084.56  1094.93  1095.58  1096.19
eigval :     1117.15  1119.47  1120.75  1124.59  1125.08  1127.26
eigval :     1131.28  1142.25  1150.40  1151.76  1160.20  1168.92
eigval :     1169.62  1178.29  1178.78  1179.07  1180.72  1181.15
eigval :     1181.90  1188.77  1191.48  1194.76  1197.90  1201.35
eigval :     1206.03  1207.80  1210.01  1222.55  1225.95  1227.92
eigval :     1248.23  1250.74  1261.88  1272.27  1273.80  1273.90
eigval :     1281.02  1282.22  1284.87  1291.16  1292.65  1297.90
eigval :     1312.38  1316.62  1319.38  1320.51  1325.86  1333.86
eigval :     1337.17  1350.36  1364.82  1380.04  1383.89  1384.06
eigval :     1387.26  1387.52  1391.62  1395.91  1396.43  1411.08
eigval :     1415.01  1418.76  1422.71  1428.44  1430.57  1433.67
eigval :     1436.85  1440.82  1440.98  1447.13  1448.57  1455.73
eigval :     1458.81  1460.06  1460.98  1462.34  1463.05  1467.02
eigval :     1468.18  1470.70  1482.15  1482.82  1484.64  1488.82
eigval :     1493.55  1547.92  1554.77  1567.48  1575.27  1576.29
eigval :     1580.61  1581.71  1581.77  1585.78  1587.93  1596.94
eigval :     1599.87  1606.42  1607.21  1616.21  1625.13  1659.65
eigval :     1676.96  1694.10  2349.61  2860.37  2967.34  2970.39
eigval :     2982.46  2988.53  2997.19  3002.50  3004.32  3015.48
eigval :     3015.71  3016.40  3027.11  3034.49  3037.83  3052.10
eigval :     3063.98  3064.80  3065.74  3065.99  3067.16  3067.76
eigval :     3068.51  3069.12  3072.03  3072.45  3076.24  3077.40
eigval :     3079.79  3079.95  3080.58  3080.98  3082.64  3083.21
eigval :     3088.80  3089.98  3090.32  3090.74  3091.10  3091.35
eigval :     3096.94  3099.02  3099.69  3111.55  3113.09  3121.18
eigval :     3130.15  3136.84  3401.13
           -------------------------------------------------
          |                Property Printout                |
           -------------------------------------------------

    * Orbital Energies and Occupations

         #    Occupation            Energy/Eh            Energy/eV
      -------------------------------------------------------------
         1        2.0000           -0.7370196             -20.0553
       ...           ...                  ...                  ...
       158        2.0000           -0.4082208             -11.1083
       159        2.0000           -0.4072600             -11.0821
       160        2.0000           -0.4051068             -11.0235
       161        2.0000           -0.4040593             -10.9950
       162        2.0000           -0.4034234             -10.9777
       163        2.0000           -0.4030063             -10.9664
       164        2.0000           -0.4005136             -10.8985
       165        2.0000           -0.3999033             -10.8819
       166        2.0000           -0.3846054             -10.4656
       167        2.0000           -0.3820721             -10.3967
       168        2.0000           -0.3772644             -10.2659
       169        2.0000           -0.3664457              -9.9715
       170        2.0000           -0.3589333              -9.7671 (HOMO)
       171                         -0.3129458              -8.5157 (LUMO)
       172                         -0.2698005              -7.3416
       173                         -0.2669859              -7.2651
       174                         -0.2561156              -6.9693
       175                         -0.2429531              -6.6111
       176                         -0.2419672              -6.5843
       177                         -0.2413619              -6.5678
       178                         -0.2374425              -6.4611
       179                         -0.2354648              -6.4073
       180                         -0.2346483              -6.3851
       181                         -0.2223376              -6.0501
       ...                                ...                  ...
       326                          1.3035611              35.4717
      -------------------------------------------------------------
                  HL-Gap            0.0459875 Eh            1.2514 eV
             Fermi-level           -0.3359396 Eh           -9.1414 eV

     #   Z          covCN         q      C6AA      α(0)
     1   8 O        0.808    -0.580    25.665     6.791
     2  15 P        3.878     0.616   135.661    20.923
     3   8 O        0.817    -0.576    25.564     6.778
     4   8 O        1.661    -0.321    19.372     5.942
     5   6 C        3.230     0.154    23.945     7.946
     6   6 C        2.971    -0.004    28.129     8.700
     7   6 C        2.927    -0.052    29.288     8.875
     8   6 C        2.984     0.006    27.871     8.660
     9   6 C        2.919    -0.036    28.907     8.817
    10   6 C        2.915    -0.032    28.801     8.800
    11   6 C        2.916    -0.032    28.797     8.800
    12   6 C        2.917    -0.035    28.882     8.813
    13   6 C        2.986     0.010    27.783     8.646
    14   6 C        2.975    -0.009    28.240     8.717
    15   6 C        2.975    -0.010    28.263     8.720
    16   6 C        3.118     0.151    24.569     8.119
    17   8 O        1.661    -0.319    19.350     5.938
    18   6 C        2.970    -0.009    28.238     8.716
    19   6 C        2.927    -0.052    29.294     8.876
    20   6 C        2.984     0.005    27.895     8.664
    21   6 C        2.919    -0.036    28.902     8.816
    22   6 C        2.915    -0.032    28.801     8.800
    23   6 C        2.916    -0.032    28.790     8.799
    24   6 C        2.917    -0.035    28.869     8.811
    25   6 C        2.986     0.010    27.786     8.647
    26   6 C        2.980     0.026    27.411     8.588
    27   6 C        2.925    -0.034    28.836     8.806
    28   6 C        2.919    -0.034    28.846     8.807
    29   6 C        2.920    -0.035    28.878     8.812
    30   6 C        2.919    -0.032    28.803     8.801
    31   6 C        2.924    -0.031    28.762     8.795
    32   6 C        2.978     0.022    27.501     8.602
    33   6 C        2.925    -0.036    28.891     8.815
    34   6 C        2.918    -0.031    28.782     8.798
    35   6 C        2.919    -0.032    28.793     8.799
    36   6 C        2.919    -0.030    28.757     8.794
    37   6 C        2.924    -0.029    28.736     8.791
    38   1 H        0.862     0.275     0.794     1.396
    39   1 H        0.925     0.038     2.477     2.461
    40   1 H        0.926     0.034     2.533     2.489
    41   1 H        0.926     0.034     2.533     2.489
    42   1 H        0.926     0.032     2.560     2.502
    43   1 H        0.926     0.029     2.599     2.521
    44   1 H        0.925     0.040     2.446     2.446
    45   1 H        0.926     0.034     2.530     2.487
    46   1 H        0.926     0.034     2.535     2.490
    47   1 H        0.926     0.032     2.561     2.503
    48   1 H        0.926     0.028     2.612     2.527
    49   1 H        0.926     0.031     2.576     2.510
    50   1 H        0.926     0.032     2.563     2.504
    51   1 H        0.926     0.034     2.536     2.490
    52   1 H        0.926     0.033     2.544     2.494
    53   1 H        0.926     0.029     2.594     2.519
    54   1 H        0.926     0.031     2.569     2.506
    55   1 H        0.926     0.033     2.546     2.495
    56   1 H        0.926     0.035     2.510     2.478
    57   1 H        0.926     0.031     2.571     2.507
    58   1 H        0.926     0.030     2.583     2.513
    59   6 C        3.757    -0.137    23.192     6.866
    60   6 C        2.888     0.119    25.385     8.260
    61   7 N        2.696    -0.073    22.653     7.069
    62   6 C        2.913     0.067    26.501     8.441
    63   6 C        2.919    -0.036    28.888     8.814
    64   6 C        2.920    -0.024    28.610     8.771
    65   6 C        2.919    -0.025    28.630     8.774
    66   6 C        2.920    -0.021    28.527     8.759
    67   6 C        2.926    -0.039    28.968     8.826
    68   6 C        2.980     0.001    28.005     8.681
    69   6 C        2.923    -0.028    28.690     8.784
    70   6 C        2.917    -0.026    28.644     8.776
    71   6 C        2.920    -0.013    28.329     8.728
    72   6 C        2.918    -0.014    28.356     8.732
    73   6 C        2.923    -0.016    28.407     8.740
    74   1 H        0.924     0.098     1.802     2.099
    75   1 H        0.925     0.092     1.857     2.131
    76   1 H        0.924     0.107     1.721     2.052
    77   1 H        0.926     0.058     2.218     2.329
    78   1 H        0.926     0.056     2.243     2.342
    79   1 H        0.926     0.054     2.269     2.355
    80   1 H        0.926     0.051     2.309     2.376
    81   1 H        0.926     0.068     2.111     2.272
    82   1 H        0.926     0.057     2.237     2.339
    83   1 H        0.926     0.054     2.266     2.354
    84   1 H        0.926     0.054     2.274     2.358
    85   1 H        0.926     0.054     2.266     2.354
    86   1 H        0.926     0.061     2.182     2.310
    87   6 C        3.651     0.036    20.279     6.468
    88   8 O        1.704    -0.287    18.766     5.849
    89   6 C        2.724     0.340    21.225     7.542
    90   8 O        0.856    -0.466    23.041     6.436
    91   6 C        2.954    -0.073    29.825     8.957
    92   6 C        2.892     0.089    26.019     8.363
    93   6 C        3.761    -0.135    23.135     6.857
    94   7 N        2.717    -0.110    23.410     7.186
    95   6 C        2.889     0.083    26.141     8.382
    96   6 C        3.760    -0.135    23.135     6.857
    97   6 C        2.954    -0.071    29.775     8.950
    98   6 C        2.725     0.344    21.152     7.529
    99   8 O        0.857    -0.468    23.098     6.444
   100   8 O        1.704    -0.276    18.574     5.819
   101   6 C        3.652     0.032    20.336     6.476
   102   6 C        3.817    -0.059    21.628     6.619
   103   1 H        0.925     0.070     2.090     2.261
   104   1 H        0.924     0.055     2.253     2.347
   105   1 H        0.924     0.059     2.205     2.322
   106   1 H        0.925     0.089     1.893     2.152
   107   1 H        0.925     0.067     2.114     2.274
   108   1 H        0.925     0.068     2.109     2.271
   109   1 H        0.860     0.205     1.080     1.628
   110   1 H        0.924     0.074     2.043     2.235
   111   1 H        0.925     0.076     2.024     2.225
   112   1 H        0.925     0.076     2.020     2.223
   113   1 H        0.924     0.062     2.176     2.307
   114   1 H        0.925     0.072     2.066     2.248
   115   1 H        0.924     0.064     2.156     2.296
   116   1 H        0.925     0.072     2.064     2.247
   117   1 H        0.923     0.043     2.409     2.427

 Mol. C6AA /au·bohr⁶  :     183451.199101
 Mol. C8AA /au·bohr⁸  :    4619145.503496
 Mol. α(0) /au        :        681.539233


Wiberg/Mayer (AO) data.
largest (>0.10) Wiberg bond orders for each atom

 ---------------------------------------------------------------------------
     #   Z sym  total        # sym  WBO       # sym  WBO       # sym  WBO
 ---------------------------------------------------------------------------
     1   8 O    1.976 --     2 P    1.738
     2  15 P    5.565 --     1 O    1.738     3 O    1.620     4 O    1.056
                            17 O    1.045
     3   8 O    2.018 --     2 P    1.620    38 H    0.130
     4   8 O    2.291 --     2 P    1.056     5 C    0.989
     5   6 C    3.925 --    14 C    1.454     6 C    1.248     4 O    0.989
     6   6 C    3.987 --     7 C    1.503     5 C    1.248    26 C    1.032
     7   6 C    3.984 --     6 C    1.503     8 C    1.282    39 H    0.966
                            14 C    0.103
     8   6 C    3.988 --     7 C    1.282     9 C    1.278    13 C    1.250
     9   6 C    3.985 --    10 C    1.556     8 C    1.278    40 H    0.968
                            12 C    0.117
    10   6 C    3.987 --     9 C    1.556    11 C    1.322    41 H    0.971
    11   6 C    3.987 --    12 C    1.552    10 C    1.322    42 H    0.971
    12   6 C    3.990 --    11 C    1.552    13 C    1.285    43 H    0.966
                             9 C    0.117
    13   6 C    3.986 --    12 C    1.285     8 C    1.250    14 C    1.239
    14   6 C    3.985 --     5 C    1.454    13 C    1.239    15 C    1.030
                             7 C    0.103
    15   6 C    3.985 --    16 C    1.449    25 C    1.241    14 C    1.030
                            19 C    0.101
    16   6 C    3.924 --    15 C    1.449    18 C    1.239    17 O    1.001
    17   8 O    2.300 --     2 P    1.045    16 C    1.001
    18   6 C    3.986 --    19 C    1.500    16 C    1.239    32 C    1.041
    19   6 C    3.984 --    18 C    1.500    20 C    1.282    44 H    0.965
                            15 C    0.101
    20   6 C    3.987 --    19 C    1.282    21 C    1.278    25 C    1.250
    21   6 C    3.986 --    22 C    1.555    20 C    1.278    45 H    0.968
                            24 C    0.117
    22   6 C    3.987 --    21 C    1.555    23 C    1.322    46 H    0.971
    23   6 C    3.986 --    24 C    1.552    22 C    1.322    47 H    0.971
    24   6 C    3.990 --    23 C    1.552    25 C    1.284    48 H    0.967
                            21 C    0.117
    25   6 C    3.986 --    24 C    1.284    20 C    1.250    15 C    1.241
    26   6 C    3.988 --    27 C    1.394    31 C    1.394     6 C    1.032
                            29 C    0.108
    27   6 C    3.988 --    28 C    1.449    26 C    1.394    49 H    0.970
                            30 C    0.109
    28   6 C    3.992 --    27 C    1.449    29 C    1.436    50 H    0.971
                            31 C    0.109
    29   6 C    3.988 --    28 C    1.436    30 C    1.434    51 H    0.970
                            26 C    0.108
    30   6 C    3.991 --    31 C    1.449    29 C    1.434    52 H    0.970
                            27 C    0.109
    31   6 C    3.988 --    30 C    1.449    26 C    1.394    53 H    0.970
                            28 C    0.109
    32   6 C    3.988 --    37 C    1.390    33 C    1.390    18 C    1.041
                            35 C    0.107
    33   6 C    3.989 --    34 C    1.451    32 C    1.390    54 H    0.969
                            36 C    0.109
    34   6 C    3.992 --    33 C    1.451    35 C    1.433    55 H    0.970
                            37 C    0.109
    35   6 C    3.987 --    36 C    1.435    34 C    1.433    56 H    0.971
                            32 C    0.107
    36   6 C    3.992 --    37 C    1.449    35 C    1.435    57 H    0.969
                            33 C    0.109
    37   6 C    3.988 --    36 C    1.449    32 C    1.390    58 H    0.970
                            34 C    0.109
    38   1 H    0.924 --    61 N    0.750     3 O    0.130
    39   1 H    0.997 --     7 C    0.966
    40   1 H    0.998 --     9 C    0.968
    41   1 H    0.998 --    10 C    0.971
    42   1 H    0.998 --    11 C    0.971
    43   1 H    0.999 --    12 C    0.966
    44   1 H    0.997 --    19 C    0.965
    45   1 H    0.998 --    21 C    0.968
    46   1 H    0.998 --    22 C    0.971
    47   1 H    0.998 --    23 C    0.971
    48   1 H    0.999 --    24 C    0.967
    49   1 H    0.999 --    27 C    0.970
    50   1 H    0.998 --    28 C    0.971
    51   1 H    0.998 --    29 C    0.970
    52   1 H    0.998 --    30 C    0.970
    53   1 H    0.999 --    31 C    0.970
    54   1 H    0.999 --    33 C    0.969
    55   1 H    0.998 --    34 C    0.970
    56   1 H    0.998 --    35 C    0.971
    57   1 H    0.998 --    36 C    0.969
    58   1 H    0.999 --    37 C    0.970
    59   6 C    3.979 --    60 C    1.049    75 H    0.964    76 H    0.948
                            74 H    0.933
    60   6 C    3.936 --    61 N    1.589    68 C    1.088    59 C    1.049
    61   7 N    3.651 --    60 C    1.589    62 C    1.043    38 H    0.750
    62   6 C    3.954 --    63 C    1.376    67 C    1.365    61 N    1.043
    63   6 C    3.980 --    64 C    1.444    62 C    1.376    77 H    0.965
                            66 C    0.105
    64   6 C    3.990 --    63 C    1.444    65 C    1.436    78 H    0.968
                            67 C    0.108
    65   6 C    3.981 --    64 C    1.436    66 C    1.424    79 H    0.969
    66   6 C    3.990 --    67 C    1.457    65 C    1.424    80 H    0.967
                            63 C    0.105
    67   6 C    3.981 --    66 C    1.457    62 C    1.365    81 H    0.955
                            64 C    0.108
    68   6 C    3.984 --    73 C    1.362    69 C    1.355    60 C    1.088
    69   6 C    3.980 --    70 C    1.466    68 C    1.355    82 H    0.966
                            72 C    0.106
    70   6 C    3.990 --    69 C    1.466    71 C    1.420    83 H    0.968
                            73 C    0.102
    71   6 C    3.981 --    72 C    1.435    70 C    1.420    84 H    0.970
    72   6 C    3.989 --    73 C    1.452    71 C    1.435    85 H    0.964
                            69 C    0.106
    73   6 C    3.981 --    72 C    1.452    68 C    1.362    86 H    0.957
                            70 C    0.102
    74   1 H    0.988 --    59 C    0.933
    75   1 H    0.991 --    59 C    0.964
    76   1 H    0.988 --    59 C    0.948
    77   1 H    0.996 --    63 C    0.965
    78   1 H    0.996 --    64 C    0.968
    79   1 H    0.997 --    65 C    0.969
    80   1 H    0.996 --    66 C    0.967
    81   1 H    0.995 --    67 C    0.955
    82   1 H    0.997 --    69 C    0.966
    83   1 H    0.996 --    70 C    0.968
    84   1 H    0.997 --    71 C    0.970
    85   1 H    0.996 --    72 C    0.964
    86   1 H    0.996 --    73 C    0.957
    87   6 C    3.929 --   103 H    0.981   105 H    0.977   104 H    0.975
                            88 O    0.963
    88   8 O    2.263 --    89 C    1.077    87 C    0.963    90 O    0.146
    89   6 C    3.923 --    90 O    1.653    91 C    1.090    88 O    1.077
    90   8 O    1.986 --    89 C    1.653    88 O    0.146
    91   6 C    3.966 --    92 C    1.598    89 C    1.090   102 C    0.997
    92   6 C    3.967 --    91 C    1.598    94 N    1.169    93 C    1.033
    93   6 C    3.986 --    92 C    1.033   106 H    0.968   107 H    0.959
                           108 H    0.958
    94   7 N    3.521 --    92 C    1.169    95 C    1.148   109 H    0.921
    95   6 C    3.966 --    97 C    1.631    94 N    1.148    96 C    1.030
    96   6 C    3.988 --    95 C    1.030   112 H    0.971   111 H    0.963
                           110 H    0.958
    97   6 C    3.968 --    95 C    1.631    98 C    1.066   102 C    0.992
    98   6 C    3.920 --    99 O    1.652   100 O    1.103    97 C    1.066
    99   8 O    1.976 --    98 C    1.652   100 O    0.151
   100   8 O    2.287 --    98 C    1.103   101 C    0.956    99 O    0.151
   101   6 C    3.923 --   114 H    0.981   113 H    0.976   115 H    0.974
                           100 O    0.956
   102   6 C    3.993 --    91 C    0.997    97 C    0.992   116 H    0.961
                           117 H    0.954
   103   1 H    0.995 --    87 C    0.981
   104   1 H    0.996 --    87 C    0.975
   105   1 H    0.996 --    87 C    0.977
   106   1 H    0.992 --    93 C    0.968
   107   1 H    0.995 --    93 C    0.959
   108   1 H    0.995 --    93 C    0.958
   109   1 H    0.957 --    94 N    0.921
   110   1 H    0.994 --    96 C    0.958
   111   1 H    0.994 --    96 C    0.963
   112   1 H    0.994 --    96 C    0.971
   113   1 H    0.996 --   101 C    0.976
   114   1 H    0.994 --   101 C    0.981
   115   1 H    0.996 --   101 C    0.974
   116   1 H    0.995 --   102 C    0.961
   117   1 H    0.998 --   102 C    0.954
 ---------------------------------------------------------------------------

Topologies differ in total number of bonds
Writing topology from bond orders to xtbtopo.mol

molecular dipole:
                 x           y           z       tot (Debye)
 q only:       -1.737       2.434       0.533
   full:       -1.610       1.880       0.395       6.370
molecular quadrupole (traceless):
                xx          xy          yy          xz          yz          zz
 q only:      -13.379     -39.822      16.300      -4.079      14.877      -2.921
  q+dip:       -7.228     -40.022       3.398      -9.379      15.051       3.830
   full:      -10.052     -35.600       7.850      -6.892      12.113       2.202

           -------------------------------------------------
          |               Frequency Printout                |
           -------------------------------------------------
 projected vibrational frequencies (cm⁻¹)
eigval :       -0.00    -0.00    -0.00     0.00     0.00     0.00
eigval :        6.64    13.18    18.96    24.65    27.12    30.07
eigval :       32.27    34.70    37.54    41.21    42.55    47.94
eigval :       54.06    57.71    61.97    62.72    65.48    67.17
eigval :       68.21    71.03    77.34    79.97    81.89    82.94
eigval :       85.05    91.97    97.71   101.69   109.58   112.02
eigval :      118.29   126.19   136.12   138.55   144.12   146.68
eigval :      155.17   160.39   165.79   171.05   174.17   183.68
eigval :      191.21   195.86   199.76   209.97   215.01   227.40
eigval :      232.39   244.66   251.10   262.12   272.84   275.66
eigval :      279.60   283.71   288.93   295.81   296.71   305.25
eigval :      315.38   316.38   324.75   327.31   330.83   336.52
eigval :      339.53   347.17   352.90   366.69   371.34   372.26
eigval :      381.72   385.55   387.98   389.73   411.30   421.29
eigval :      440.73   443.70   446.54   452.85   463.47   473.09
eigval :      478.46   489.59   493.91   501.51   509.43   515.53
eigval :      525.63   529.74   531.89   540.03   543.21   546.95
eigval :      552.64   555.72   571.00   574.91   585.24   585.72
eigval :      586.59   588.20   588.43   617.99   623.37   625.17
eigval :      631.15   632.03   639.12   641.52   653.99   664.66
eigval :      666.81   669.45   669.81   683.01   690.63   695.04
eigval :      704.90   705.68   710.53   728.61   731.71   748.68
eigval :      754.61   758.46   761.58   766.00   769.15   771.39
eigval :      773.83   787.13   789.45   820.10   834.59   837.85
eigval :      852.96   860.93   862.88   865.82   871.95   873.82
eigval :      875.70   877.11   877.47   880.27   898.21   901.27
eigval :      908.45   912.91   913.83   914.84   917.26   924.82
eigval :      926.57   927.34   928.46   929.09   929.34   930.16
eigval :      930.72   937.53   939.06   942.88   960.59   965.82
eigval :      969.05   970.92   974.92   976.55   986.46   989.00
eigval :     1000.30  1016.27  1027.89  1029.34  1033.12  1035.48
eigval :     1037.87  1048.14  1069.17  1081.36  1081.77  1082.99
eigval :     1083.94  1084.05  1084.56  1094.93  1095.58  1096.19
eigval :     1117.15  1119.47  1120.75  1124.59  1125.08  1127.26
eigval :     1131.28  1142.25  1150.40  1151.76  1160.20  1168.92
eigval :     1169.62  1178.29  1178.78  1179.07  1180.72  1181.15
eigval :     1181.90  1188.77  1191.48  1194.76  1197.90  1201.35
eigval :     1206.03  1207.80  1210.01  1222.55  1225.95  1227.92
eigval :     1248.23  1250.74  1261.88  1272.27  1273.80  1273.90
eigval :     1281.02  1282.22  1284.87  1291.16  1292.65  1297.90
eigval :     1312.38  1316.62  1319.38  1320.51  1325.86  1333.86
eigval :     1337.17  1350.36  1364.82  1380.04  1383.89  1384.06
eigval :     1387.26  1387.52  1391.62  1395.91  1396.43  1411.08
eigval :     1415.01  1418.76  1422.71  1428.44  1430.57  1433.67
eigval :     1436.85  1440.82  1440.98  1447.13  1448.57  1455.73
eigval :     1458.81  1460.06  1460.98  1462.34  1463.05  1467.02
eigval :     1468.18  1470.70  1482.15  1482.82  1484.64  1488.82
eigval :     1493.55  1547.92  1554.77  1567.48  1575.27  1576.29
eigval :     1580.61  1581.71  1581.77  1585.78  1587.93  1596.94
eigval :     1599.87  1606.42  1607.21  1616.21  1625.13  1659.65
eigval :     1676.96  1694.10  2349.61  2860.37  2967.34  2970.39
eigval :     2982.46  2988.53  2997.19  3002.50  3004.32  3015.48
eigval :     3015.71  3016.40  3027.11  3034.49  3037.83  3052.10
eigval :     3063.98  3064.80  3065.74  3065.99  3067.16  3067.76
eigval :     3068.51  3069.12  3072.03  3072.45  3076.24  3077.40
eigval :     3079.79  3079.95  3080.58  3080.98  3082.64  3083.21
eigval :     3088.80  3089.98  3090.32  3090.74  3091.10  3091.35
eigval :     3096.94  3099.02  3099.69  3111.55  3113.09  3121.18
eigval :     3130.15  3136.84  3401.13
 reduced masses (amu)
   1: 12.07   2: 11.92   3: 12.39   4: 12.04   5: 12.24   6: 12.12   7: 11.46   8: 11.49
   9: 11.75  10: 11.74  11: 11.43  12: 10.87  13: 12.31  14: 10.84  15: 12.16  16: 10.37
  17:  8.95  18: 11.48  19: 11.99  20: 11.91  21: 11.19  22: 12.45  23: 12.50  24: 10.65
  25: 11.23  26: 11.09  27: 10.62  28: 11.54  29: 12.12  30: 10.81  31: 11.15  32: 12.76
  33: 10.81  34: 10.61  35:  7.52  36:  9.34  37:  9.07  38: 13.02  39: 10.26  40: 10.55
  41: 11.35  42: 10.34  43: 11.85  44: 10.25  45:  9.88  46:  9.72  47: 10.09  48: 11.22
  49: 11.39  50:  2.54  51:  7.80  52:  8.38  53: 11.89  54:  8.43  55: 13.07  56: 11.36
  57: 12.33  58: 12.22  59:  8.63  60: 10.52  61: 11.63  62:  9.57  63: 11.24  64:  9.01
  65: 10.50  66: 10.35  67: 10.76  68: 11.09  69: 11.32  70: 12.12  71: 12.03  72: 12.81
  73:  9.62  74:  7.95  75: 12.63  76: 12.62  77:  8.98  78:  9.86  79:  9.11  80: 11.43
  81: 11.67  82:  9.35  83: 10.77  84: 12.02  85: 12.77  86: 12.53  87: 14.44  88: 12.14
  89: 12.90  90: 12.54  91: 12.60  92: 10.35  93: 11.02  94: 10.47  95: 10.31  96: 12.75
  97: 11.78  98: 12.10  99: 11.54 100: 11.35 101:  9.32 102: 11.64 103: 10.20 104:  9.44
 105: 11.05 106: 12.30 107: 11.33 108: 11.33 109: 11.32 110: 11.12 111: 11.43 112:  7.33
 113: 11.28 114: 11.21 115: 12.22 116: 11.72 117: 14.26 118: 11.88 119: 14.38 120:  9.98
 121: 10.28 122:  9.32 123:  9.97 124: 10.11 125: 11.40 126: 11.46 127: 12.86 128: 14.06
 129: 11.04 130: 12.52 131: 11.62 132: 13.66 133:  5.16 134:  7.96 135:  5.29 136:  7.31
 137:  5.46 138:  5.72 139:  4.89 140: 12.64 141:  9.13 142: 11.63 143: 11.33 144: 11.72
 145: 10.55 146: 10.23 147:  4.07 148:  4.29 149:  3.37 150:  3.36 151:  3.78 152:  3.55
 153:  3.54 154:  3.40 155:  3.75 156:  3.92 157:  3.44 158:  3.58 159:  6.82 160:  4.74
 161:  7.62 162:  4.08 163:  3.12 164:  3.19 165:  3.97 166:  2.98 167:  3.16 168:  3.66
 169:  3.75 170:  7.18 171:  3.72 172:  3.31 173: 11.78 174:  9.40 175:  9.62 176: 11.38
 177:  6.57 178:  6.42 179: 10.15 180: 10.59 181: 11.68 182:  8.33 183:  5.27 184: 11.06
 185: 10.56 186:  5.67 187:  5.58 188:  6.88 189: 12.66 190:  7.42 191:  8.45 192:  7.01
 193:  6.84 194:  6.72 195:  7.00 196:  9.32 197: 10.82 198:  7.94 199:  5.68 200:  4.13
 201:  4.25 202:  4.17 203:  3.83 204:  9.77 205:  4.20 206:  6.39 207:  6.75 208:  5.25
 209:  9.96 210:  5.20 211:  4.52 212:  1.47 213:  1.59 214:  2.47 215:  1.41 216:  2.62
 217:  1.60 218: 15.74 219:  6.94 220:  7.68 221:  2.70 222:  2.53 223:  1.96 224:  4.71
 225:  5.66 226:  8.15 227:  8.05 228:  6.08 229:  5.56 230:  6.52 231: 11.41 232:  5.70
 233:  7.03 234:  8.58 235:  3.47 236:  3.73 237:  3.87 238: 10.04 239:  8.81 240:  7.52
 241:  9.90 242: 11.27 243: 10.53 244: 11.14 245: 11.84 246:  7.36 247:  9.82 248:  5.31
 249: 10.17 250:  3.26 251:  9.06 252:  2.86 253: 10.10 254:  2.72 255:  3.57 256:  3.93
 257:  9.90 258:  9.60 259: 10.68 260: 10.57 261:  8.89 262:  9.12 263:  9.28 264:  8.62
 265:  9.66 266:  1.55 267:  1.57 268:  1.78 269: 10.65 270:  6.47 271:  3.40 272:  3.07
 273:  1.89 274:  2.07 275:  3.01 276:  4.15 277:  3.79 278:  1.88 279:  9.49 280:  2.18
 281:  9.75 282: 10.68 283: 10.83 284: 11.77 285: 11.74 286: 11.42 287: 11.54 288: 11.57
 289: 11.56 290: 11.54 291: 11.52 292: 11.62 293: 11.47 294: 11.46 295: 11.47 296: 11.40
 297: 11.41 298: 11.33 299: 12.27 300: 11.75 301: 13.21 302: 13.14 303:  2.22 304:  1.76
 305:  1.93 306:  1.86 307:  1.42 308:  1.49 309:  1.88 310:  1.89 311:  1.93 312:  1.52
 313:  1.58 314:  1.51 315:  1.68 316:  1.77 317:  1.78 318:  1.69 319:  1.81 320:  1.79
 321:  1.76 322:  1.78 323:  1.76 324:  1.76 325:  1.78 326:  1.79 327:  1.78 328:  1.79
 329:  1.85 330:  1.83 331:  1.88 332:  1.86 333:  1.85 334:  1.77 335:  1.86 336:  1.77
 337:  1.91 338:  1.91 339:  1.90 340:  1.90 341:  1.83 342:  1.83 343:  1.89 344:  1.89
 345:  1.75 346:  1.73 347:  1.84 348:  1.85 349:  1.85 350:  1.85 351:  1.84
 IR intensities (km·mol⁻¹)
   1:  0.04   2:  0.07   3:  0.04   4:  0.01   5:  0.02   6:  0.04   7:  0.13   8:  0.06
   9:  0.05  10:  2.51  11:  1.40  12:  0.17  13:  1.95  14:  0.44  15:  2.01  16:  0.62
  17:  0.06  18:  3.32  19:  3.55  20:  1.62  21:  0.52  22:  2.16  23:  5.82  24:  0.30
  25:  3.52  26:  0.89  27:  0.53  28: 11.10  29:  1.34  30:  1.69  31:  0.73  32:  3.46
  33:  8.50  34:  2.83  35:  0.46  36:  1.54  37:  0.20  38:  1.81  39:  0.37  40:  0.73
  41:  1.74  42:  0.27  43: 13.23  44:  1.62  45:  1.90  46:  0.96  47:  2.78  48:  1.66
  49:  7.23  50:  4.48  51:  1.87  52:  0.10  53:  8.58  54:  8.99  55:  3.78  56:  0.94
  57:  3.56  58: 13.51  59:  0.39  60:  2.43  61:  8.21  62:  2.22  63:  0.81  64:  1.89
  65:  1.12  66:  9.44  67:  4.27  68:  1.97  69: 11.61  70:  2.70  71:  6.86  72: 16.98
  73:  6.62  74:  1.28  75: 19.51  76:  5.42  77:  0.56  78:  1.16  79:  1.70  80:  2.25
  81:  2.10  82:  3.56  83: 11.23  84: 30.39  85: 27.68  86: 11.24  87: 41.23  88:  5.94
  89: 35.43  90: 20.26  91: 84.44  92: 17.80  93: 10.36  94: 16.50  95:  1.26  96: 11.38
  97: 19.69  98: 19.28  99: 39.02 100:  3.87 101: 32.88 102: 17.24 103:  5.41 104:  0.85
 105: 17.07 106: 28.69 107:  1.97 108:  7.82 109:  4.82 110:  0.48 111:  2.95 112: 81.54
 113:  0.60 114: 40.89 115: 30.17 116: 16.76 117: 70.23 118:  7.98 119: 39.13 120:  8.43
 121:  1.86 122: 11.29 123:  4.90 124: 26.94 125:107.46 126: 14.87 127: 49.92 128: 49.30
 129: 37.23 130: 31.00 131: 12.05 132:242.40 133: 14.18 134: 44.73 135: 11.46 136: 30.27
 137: 20.20 138: 25.76 139:  3.12 140:  1.77 141: 17.91 142: 20.33 143: 61.73 144: 31.49
 145:  1.46 146: 36.56 147:  7.84 148:  6.25 149: 12.84 150:  0.37 151:  2.00 152:  0.38
 153:  4.22 154:  2.03 155:  0.44 156:  0.16 157:  0.89 158: 10.06 159:  1.00 160:  0.79
 161:  3.81 162:  0.34 163:  0.47 164:  0.78 165:  4.98 166:  0.46 167:  6.46 168:  3.53
 169:  0.54 170:  4.70 171:  8.12 172:  0.45 173:196.55 174: 45.22 175: 21.80 176: 20.12
 177: 29.01 178: 60.79 179: 21.47 180: 32.37 181:278.29 182:334.80 183: 69.99 184: 24.70
 185:261.97 186: 73.46 187: 90.92 188:154.54 189:259.47 190:  0.32 191:  6.59 192:  0.06
 193:  1.32 194:  0.53 195:  3.88 196: 54.22 197:170.44 198: 70.27 199:117.93 200:  0.39
 201:  1.01 202:  8.60 203:  0.96 204:237.05 205:  0.47 206: 71.46 207:  8.98 208:  4.73
 209:174.25 210:217.74 211:  2.64 212:  2.71 213:  0.73 214: 12.22 215:  0.27 216: 16.94
 217:  1.60 218:312.52 219: 21.05 220:106.05 221:  8.23 222:  2.94 223:  3.25 224:  4.08
 225: 20.97 226:182.12 227: 14.17 228:252.69 229:  1.50 230: 12.77 231:152.52 232: 13.15
 233: 46.29 234: 33.76 235:  3.57 236:  0.22 237:  0.09 238: 79.09 239:  3.68 240: 60.14
 241:  3.23 242:  0.63 243:  2.62 244: 10.78 245:  0.63 246:  7.13 247:  9.92 248: 40.83
 249: 25.51 250: 57.18 251: 17.23 252: 29.04 253:  2.94 254: 25.60 255: 27.85 256: 15.35
 257: 23.47 258:476.94 259: 85.27 260: 91.23 261: 20.72 262:  3.94 263:  3.41 264:  4.00
 265:  3.12 266:  8.96 267:  5.80 268:  5.16 269: 52.88 270: 29.59 271:  8.29 272:  0.68
 273: 10.75 274: 21.47 275: 20.22 276:  9.19 277: 30.07 278:  5.01 279:  9.30 280:  5.13
 281:  6.22 282:  3.34 283:  0.44 284:  4.82 285:  0.57 286: 24.56 287: 26.63 288: 59.55
 289: 11.60 290:  4.08 291: 17.75 292:  5.83 293: 17.73 294:  4.06 295:  4.56 296:  0.62
 297:  1.32 298:277.03 299:229.10 300:522.82 301:376.36 302:368.27 303:****** 304: 61.54
 305: 13.11 306: 25.45 307: 34.64 308: 17.23 309:  3.79 310: 15.28 311: 11.27 312:  5.93
 313: 18.66 314: 11.52 315:  8.09 316: 15.38 317:  8.97 318:  0.76 319: 10.21 320: 10.08
 321: 26.79 322: 10.80 323: 43.32 324: 10.07 325: 13.13 326: 18.37 327: 28.94 328: 14.72
 329: 57.35 330: 16.54 331:119.86 332: 84.04 333:163.59 334:  3.31 335: 63.80 336:  2.04
 337: 98.54 338:168.74 339: 51.07 340:  3.92 341: 40.47 342: 27.95 343: 41.92 344: 48.56
 345:  5.56 346:  0.85 347:  7.61 348: 12.34 349:  2.40 350:  3.98 351: 81.41
 Raman intensities (Ä⁴*amu⁻¹)
   1:  0.00   2:  0.00   3:  0.00   4:  0.00   5:  0.00   6:  0.00   7:  0.00   8:  0.00
   9:  0.00  10:  0.00  11:  0.00  12:  0.00  13:  0.00  14:  0.00  15:  0.00  16:  0.00
  17:  0.00  18:  0.00  19:  0.00  20:  0.00  21:  0.00  22:  0.00  23:  0.00  24:  0.00
  25:  0.00  26:  0.00  27:  0.00  28:  0.00  29:  0.00  30:  0.00  31:  0.00  32:  0.00
  33:  0.00  34:  0.00  35:  0.00  36:  0.00  37:  0.00  38:  0.00  39:  0.00  40:  0.00
  41:  0.00  42:  0.00  43:  0.00  44:  0.00  45:  0.00  46:  0.00  47:  0.00  48:  0.00
  49:  0.00  50:  0.00  51:  0.00  52:  0.00  53:  0.00  54:  0.00  55:  0.00  56:  0.00
  57:  0.00  58:  0.00  59:  0.00  60:  0.00  61:  0.00  62:  0.00  63:  0.00  64:  0.00
  65:  0.00  66:  0.00  67:  0.00  68:  0.00  69:  0.00  70:  0.00  71:  0.00  72:  0.00
  73:  0.00  74:  0.00  75:  0.00  76:  0.00  77:  0.00  78:  0.00  79:  0.00  80:  0.00
  81:  0.00  82:  0.00  83:  0.00  84:  0.00  85:  0.00  86:  0.00  87:  0.00  88:  0.00
  89:  0.00  90:  0.00  91:  0.00  92:  0.00  93:  0.00  94:  0.00  95:  0.00  96:  0.00
Refinement of some symmetry elements was terminated before convergence was reached.
Some symmetry elements may remain unidentified.
Molecule has no symmetry elements
It seems to be the C1 point group
  97:  0.00  98:  0.00  99:  0.00 100:  0.00 101:  0.00 102:  0.00 103:  0.00 104:  0.00
 105:  0.00 106:  0.00 107:  0.00 108:  0.00 109:  0.00 110:  0.00 111:  0.00 112:  0.00
 113:  0.00 114:  0.00 115:  0.00 116:  0.00 117:  0.00 118:  0.00 119:  0.00 120:  0.00
 121:  0.00 122:  0.00 123:  0.00 124:  0.00 125:  0.00 126:  0.00 127:  0.00 128:  0.00
 129:  0.00 130:  0.00 131:  0.00 132:  0.00 133:  0.00 134:  0.00 135:  0.00 136:  0.00
 137:  0.00 138:  0.00 139:  0.00 140:  0.00 141:  0.00 142:  0.00 143:  0.00 144:  0.00
 145:  0.00 146:  0.00 147:  0.00 148:  0.00 149:  0.00 150:  0.00 151:  0.00 152:  0.00
 153:  0.00 154:  0.00 155:  0.00 156:  0.00 157:  0.00 158:  0.00 159:  0.00 160:  0.00
 161:  0.00 162:  0.00 163:  0.00 164:  0.00 165:  0.00 166:  0.00 167:  0.00 168:  0.00
 169:  0.00 170:  0.00 171:  0.00 172:  0.00 173:  0.00 174:  0.00 175:  0.00 176:  0.00
 177:  0.00 178:  0.00 179:  0.00 180:  0.00 181:  0.00 182:  0.00 183:  0.00 184:  0.00
 185:  0.00 186:  0.00 187:  0.00 188:  0.00 189:  0.00 190:  0.00 191:  0.00 192:  0.00
 193:  0.00 194:  0.00 195:  0.00 196:  0.00 197:  0.00 198:  0.00 199:  0.00 200:  0.00
 201:  0.00 202:  0.00 203:  0.00 204:  0.00 205:  0.00 206:  0.00 207:  0.00 208:  0.00
 209:  0.00 210:  0.00 211:  0.00 212:  0.00 213:  0.00 214:  0.00 215:  0.00 216:  0.00
 217:  0.00 218:  0.00 219:  0.00 220:  0.00 221:  0.00 222:  0.00 223:  0.00 224:  0.00
 225:  0.00 226:  0.00 227:  0.00 228:  0.00 229:  0.00 230:  0.00 231:  0.00 232:  0.00
 233:  0.00 234:  0.00 235:  0.00 236:  0.00 237:  0.00 238:  0.00 239:  0.00 240:  0.00
 241:  0.00 242:  0.00 243:  0.00 244:  0.00 245:  0.00 246:  0.00 247:  0.00 248:  0.00
 249:  0.00 250:  0.00 251:  0.00 252:  0.00 253:  0.00 254:  0.00 255:  0.00 256:  0.00
 257:  0.00 258:  0.00 259:  0.00 260:  0.00 261:  0.00 262:  0.00 263:  0.00 264:  0.00
 265:  0.00 266:  0.00 267:  0.00 268:  0.00 269:  0.00 270:  0.00 271:  0.00 272:  0.00
 273:  0.00 274:  0.00 275:  0.00 276:  0.00 277:  0.00 278:  0.00 279:  0.00 280:  0.00
 281:  0.00 282:  0.00 283:  0.00 284:  0.00 285:  0.00 286:  0.00 287:  0.00 288:  0.00
 289:  0.00 290:  0.00 291:  0.00 292:  0.00 293:  0.00 294:  0.00 295:  0.00 296:  0.00
 297:  0.00 298:  0.00 299:  0.00 300:  0.00 301:  0.00 302:  0.00 303:  0.00 304:  0.00
 305:  0.00 306:  0.00 307:  0.00 308:  0.00 309:  0.00 310:  0.00 311:  0.00 312:  0.00
 313:  0.00 314:  0.00 315:  0.00 316:  0.00 317:  0.00 318:  0.00 319:  0.00 320:  0.00
 321:  0.00 322:  0.00 323:  0.00 324:  0.00 325:  0.00 326:  0.00 327:  0.00 328:  0.00
 329:  0.00 330:  0.00 331:  0.00 332:  0.00 333:  0.00 334:  0.00 335:  0.00 336:  0.00
 337:  0.00 338:  0.00 339:  0.00 340:  0.00 341:  0.00 342:  0.00 343:  0.00 344:  0.00
 345:  0.00 346:  0.00 347:  0.00 348:  0.00 349:  0.00 350:  0.00 351:  0.00
 output can be read by thermo (or use thermo option).
 writing <g98.out> molden fake output.
 recommended (thermochemical) frequency scaling factor: 1.0
           -------------------------------------------------
          |             Thermodynamic Functions             |
           -------------------------------------------------

c1  symmetry found (for desy threshold:  0.10E+00) used in thermo

          ...................................................
          :                      SETUP                      :
          :.................................................:
          :  # frequencies                         345      :
          :  # imaginary freq.                       0      :
          :  linear?                             false      :
          :  only rotor calc.                    false      :
          :  symmetry                               c1      :
          :  rotational number                       1      :
          :  scaling factor                  1.0000000      :
          :  rotor cutoff                   50.0000000 cm⁻¹ :
          :  imag. cutoff                  -20.0000000 cm⁻¹ :
          :.................................................:

    mode    ω/cm⁻¹     T·S(HO)/kcal·mol⁻¹    T·S(FR)/kcal·mol⁻¹   T·S(vib)
   ------------------------------------------------------------------------
       1      6.64    -2.63147 (  0.03%)    -1.65479 ( 99.97%)    -1.65509
       2     13.18    -2.22484 (  0.48%)    -1.45146 ( 99.52%)    -1.45518
       3     18.96    -2.00951 (  2.03%)    -1.34375 ( 97.97%)    -1.35725
       4     24.65    -1.85430 (  5.58%)    -1.26608 ( 94.42%)    -1.29888
       5     27.12    -1.79765 (  7.97%)    -1.23772 ( 92.03%)    -1.28235
       6     30.07    -1.73666 ( 11.57%)    -1.20718 ( 88.43%)    -1.26843
       7     32.27    -1.69490 ( 14.79%)    -1.18626 ( 85.21%)    -1.26146
       8     34.70    -1.65196 ( 18.83%)    -1.16474 ( 81.17%)    -1.25649
       9     37.54    -1.60552 ( 24.11%)    -1.14147 ( 75.89%)    -1.25335
      10     41.21    -1.55039 ( 31.58%)    -1.11382 ( 68.42%)    -1.25167
      11     42.55    -1.53156 ( 34.39%)    -1.10437 ( 65.61%)    -1.25130
      12     47.94    -1.46117 ( 45.79%)    -1.06903 ( 54.21%)    -1.24861
      13     54.06    -1.39025 ( 57.75%)    -1.03340 ( 42.25%)    -1.23948
      14     57.71    -1.35180 ( 63.96%)    -1.01406 ( 36.04%)    -1.23008
      15     61.97    -1.30993 ( 70.23%)    -0.99298 ( 29.77%)    -1.21558
      16     62.72    -1.30284 ( 71.23%)    -0.98940 ( 28.77%)    -1.21266
      17     65.48    -1.27748 ( 74.63%)    -0.97662 ( 25.37%)    -1.20116
      18     67.17    -1.26251 ( 76.51%)    -0.96907 ( 23.49%)    -1.19359
      19     68.21    -1.25354 ( 77.59%)    -0.96455 ( 22.41%)    -1.18879
      20     71.03    -1.22977 ( 80.28%)    -0.95255 ( 19.72%)    -1.17512
      21     77.34    -1.17985 ( 85.13%)    -0.92733 ( 14.87%)    -1.14230
      22     79.97    -1.16030 ( 86.74%)    -0.91743 ( 13.26%)    -1.12810
      23     81.89    -1.14640 ( 87.80%)    -0.91039 ( 12.20%)    -1.11760
      24     82.94    -1.13892 ( 88.34%)    -0.90660 ( 11.66%)    -1.11182
      25     85.05    -1.12430 ( 89.33%)    -0.89919 ( 10.67%)    -1.10027
      26     91.97    -1.07860 ( 91.97%)    -0.87599 (  8.03%)    -1.06232
      27     97.71    -1.04335 ( 93.58%)    -0.85806 (  6.42%)    -1.03146
      28    101.69    -1.02018 ( 94.48%)    -0.84625 (  5.52%)    -1.01057
      29    109.58    -0.97685 ( 95.85%)    -0.82411 (  4.15%)    -0.97050
      30    112.02    -0.96409 ( 96.18%)    -0.81758 (  3.82%)    -0.95850
      31    118.29    -0.93264 ( 96.91%)    -0.80145 (  3.09%)    -0.92858
      32    126.19    -0.89544 ( 97.59%)    -0.78230 (  2.41%)    -0.89272
      33    136.12    -0.85201 ( 98.21%)    -0.75985 (  1.79%)    -0.85036
      34    138.55    -0.84190 ( 98.33%)    -0.75461 (  1.67%)    -0.84044
      35    144.12    -0.81946 ( 98.57%)    -0.74295 (  1.43%)    -0.81837
      36    146.68    -0.80944 ( 98.67%)    -0.73773 (  1.33%)    -0.80848
      37    155.17    -0.77752 ( 98.93%)    -0.72105 (  1.07%)    -0.77692
      38    160.39    -0.75884 ( 99.06%)    -0.71125 (  0.94%)    -0.75839
      39    165.79    -0.74021 ( 99.18%)    -0.70144 (  0.82%)    -0.73989
      40    171.05    -0.72268 ( 99.28%)    -0.69219 (  0.72%)    -0.72246
      41    174.17    -0.71259 ( 99.33%)    -0.68684 (  0.67%)    -0.71241
      42    183.68    -0.68295 ( 99.45%)    -0.67108 (  0.55%)    -0.68289
      43    191.21    -0.66071 ( 99.53%)    -0.65918 (  0.47%)    -0.66070
      44    195.86    -0.64748 ( 99.58%)    -0.65207 (  0.42%)    -0.64750
      45    199.76    -0.63663 ( 99.61%)    -0.64622 (  0.39%)    -0.63667
      46    209.97    -0.60939 ( 99.68%)    -0.63146 (  0.32%)    -0.60946
      47    215.01    -0.59651 ( 99.71%)    -0.62443 (  0.29%)    -0.59659
      48    227.40    -0.56629 ( 99.77%)    -0.60783 (  0.23%)    -0.56639
      49    232.39    -0.55467 ( 99.79%)    -0.60140 (  0.21%)    -0.55477
      50    244.66    -0.52734 ( 99.83%)    -0.58616 (  0.17%)    -0.52745
      51    251.10    -0.51367 ( 99.84%)    -0.57847 (  0.16%)    -0.51377
      52    262.12    -0.49124 ( 99.87%)    -0.56574 (  0.13%)    -0.49134
Note: The following floating-point exceptions are signalling: IEEE_DIVIDE_BY_ZERO IEEE_UNDERFLOW_FLAG IEEE_DENORMAL
normal termination of xtb
      53    272.84    -0.47053 ( 99.89%)    -0.55387 (  0.11%)    -0.47063
      54    275.66    -0.46525 ( 99.89%)    -0.55082 (  0.11%)    -0.46534
      55    279.60    -0.45799 ( 99.90%)    -0.54661 (  0.10%)    -0.45808
      56    283.71    -0.45055 ( 99.90%)    -0.54229 (  0.10%)    -0.45064
      57    288.93    -0.44132 ( 99.91%)    -0.53689 (  0.09%)    -0.44141
      58    295.81    -0.42949 ( 99.92%)    -0.52992 (  0.08%)    -0.42957
      59    296.71    -0.42796 ( 99.92%)    -0.52902 (  0.08%)    -0.42805
   ------------------------------------------------------------------------

   temp. (K)  partition function   enthalpy   heat capacity  entropy
                                   cal/mol     cal/K/mol   cal/K/mol   J/K/mol
 298.15  VIB  0.743E+30            37659.026    224.271    240.046
         ROT  0.142E+09              888.752      2.981     40.284
         INT  0.106E+39            38547.779    227.252    280.330
         TR   0.270E+29             1481.254      4.968     46.315
         TOT                       40029.0326   232.2199   326.6455  1366.6847

       T/K    H(0)-H(T)+PV         H(T)/Eh          T*S/Eh         G(T)/Eh
   ------------------------------------------------------------------------
    298.15    0.637903E-01    0.965311E+00    0.155200E+00    0.810111E+00
   ------------------------------------------------------------------------

         :::::::::::::::::::::::::::::::::::::::::::::::::::::
         ::                  THERMODYNAMIC                  ::
         :::::::::::::::::::::::::::::::::::::::::::::::::::::
         :: total free energy        -187.443293436696 Eh   ::
         ::.................................................::
         :: total energy             -188.253404411625 Eh   ::
         :: zero point energy           0.901520463394 Eh   ::
         :: G(RRHO) w/o ZPVE           -0.091409488465 Eh   ::
         :: G(RRHO) contrib.            0.810110974929 Eh   ::
         :::::::::::::::::::::::::::::::::::::::::::::::::::::

           -------------------------------------------------
          | TOTAL ENERGY             -188.253404411625 Eh   |
          | TOTAL ENTHALPY           -187.288093624346 Eh   |
          | TOTAL FREE ENERGY        -187.443293436696 Eh   |
          | GRADIENT NORM               0.000096282849 Eh/α |
          | HOMO-LUMO GAP               1.251384791106 eV   |
           -------------------------------------------------

------------------------------------------------------------------------
 * finished run on 2026/09/10 at 23:14:36.644     
------------------------------------------------------------------------
 total:
 * wall-time:     0 d,  0 h,  5 min, 31.065 sec
 *  cpu-time:     0 d,  0 h,  0 min, 41.891 sec
 * ratio c/w:     0.127 speedup
 SCF:
 * wall-time:     0 d,  0 h,  0 min,  0.380 sec
 *  cpu-time:     0 d,  0 h,  0 min,  0.062 sec
 * ratio c/w:     0.165 speedup
 analytical hessian:
 * wall-time:     0 d,  0 h,  5 min, 30.457 sec
 *  cpu-time:     0 d,  0 h,  0 min, 41.812 sec
 * ratio c/w:     0.127 speedup

