117
 energy: -188.253404412591 gnorm: 0.000096273971 xtb: 6.7.1 (edcfbbe)
O            0.44710251138253        3.18941335753081       -0.85079173999162
P           -0.21381192150719        2.21633278001603        0.05613795282230
O           -1.09812745335683        2.72535478560440        1.15985938597873
O           -1.06005752157869        1.15415471563846       -0.87417478586470
C           -1.53714745995288        0.08039153399962       -0.15545128405836
C           -2.88603166361924        0.05231993571419        0.26506067411892
C           -3.31689130790290       -1.00327555340574        1.03070292183438
C           -2.45113969534366       -2.04474674287571        1.41449022031367
C           -2.89289401245622       -3.11192235474952        2.22567147974552
C           -2.03171470586820       -4.09840548402387        2.61609864128205
C           -0.68556513807366       -4.05032936898217        2.22264894058483
C           -0.22874992251577       -3.03494892447948        1.42840923423423
C           -1.09883437486671       -2.01601059280217        0.98351273324969
C           -0.66625854919504       -0.93816162898313        0.16545023886350
C            0.72806016828334       -0.84424981416051       -0.31206153019742
C            1.48097884813428        0.24940760834298        0.06889324800971
O            0.89510902541494        1.24792446524640        0.80618470753159
C            2.85876739533333        0.32912785815101       -0.26052808497791
C            3.41134180883277       -0.66142099111319       -1.03695446048386
C            2.65146358479992       -1.74064588950742       -1.52402773480113
C            3.21489234907249       -2.72906116035425       -2.35907437761250
C            2.45531777156492       -3.76267265051936       -2.83039302297917
C            1.09525663788082       -3.84498909059016       -2.49379724532431
C            0.52281283242263       -2.90875301574485       -1.67762725539057
C            1.28512690322308       -1.84117384140748       -1.15571177745778
C           -3.84248490413655        1.10026252602245       -0.12958559029603
C           -4.58864213612548        1.76845637588343        0.83593315678982
C           -5.57086083620468        2.66755481608016        0.46236550913794
C           -5.83248426419335        2.89334023740588       -0.87829929575592
C           -5.07621058512111        2.25086133025540       -1.84442902784913
C           -4.07776588436668        1.36866429307125       -1.47431093672211
C            3.72762646510870        1.39740287564221        0.26065441119055
C            4.63328451495080        2.04082755326473       -0.58006701184951
C            5.52758330308361        2.96647964952884       -0.07389923893488
C            5.53502634856704        3.25895557573527        1.28012560951749
C            4.63053511723325        2.63263438484153        2.12133693083443
C            3.72848863190214        1.71218256238293        1.61737690683261
H           -1.51805899824666        4.20703818627767        1.24255149939255
H           -4.34983396443006       -1.03854984442981        1.34941370020988
H           -3.92817710313717       -3.12843826807951        2.53660806006295
H           -2.37638474174593       -4.91277438082286        3.23667935917504
H           -0.00727325395080       -4.82268073840940        2.55549945648286
H            0.81181762423854       -3.00170990471545        1.14093000851237
H            4.46547721571027       -0.62132525694010       -1.27476655954383
H            4.25994992345223       -2.64697105964506       -2.62337993977424
H            2.89172194020941       -4.51591548863487       -3.47011010094146
H            0.49906719699972       -4.65507870342830       -2.88838427551713
H           -0.52729007142088       -2.97372951108342       -1.43258960863428
H           -4.38802697145267        1.57932497125364        1.88096450757595
H           -6.14650884713576        3.18101532371815        1.21928483327025
H           -6.62238979943083        3.56979557629049       -1.16923123791079
H           -5.27328629256767        2.42911452638360       -2.89181537165719
H           -3.49117040929745        0.85968778462745       -2.22598578907787
H            4.62720516212211        1.81485782800646       -1.63720761989462
H            6.22718915610899        3.45571561420368       -0.73684673086009
H            6.23957336704285        3.97384137075442        1.67837662624960
H            4.64016411644140        2.85442071202610        3.17932640643623
H            3.03139311196421        1.21389558991360        2.27600957826148
C           -2.12605316993762        7.38028217148465        2.35984797846238
C           -1.58191759364683        6.00417083916650        2.21792261062722
N           -1.97049853019824        5.17905112680580        1.30042081067685
C           -2.92098862214341        5.37256406817517        0.28509210994349
C           -4.12591368420643        6.04344994132484        0.47456272616356
C           -4.99434288986801        6.20532536073678       -0.58999045865022
C           -4.67450354222901        5.70102312867389       -1.83897186607056
C           -3.49601629681059        4.99249220763495       -2.01504911935482
C           -2.62734103759826        4.81368608592133       -0.95708750971237
C           -0.53434644202487        5.58155775050914        3.14109465953034
C           -0.54634533817751        6.02466074713220        4.46923950744783
C            0.44435174202288        5.62953920913373        5.34627812153667
C            1.47322802825087        4.80629968059081        4.91245788993166
C            1.50274172717263        4.37618202374347        3.59638444699534
C            0.50846967668665        4.75446616101904        2.71541865868980
H           -2.97777886904658        7.38814951457180        3.04049743411697
H           -1.36163138894683        8.03601145533887        2.77092415781524
H           -2.45427384867378        7.77005217086494        1.39545051755477
H           -4.40794954090038        6.40637921998158        1.44877671660600
H           -5.92523788110611        6.73119319767896       -0.43900290898938
H           -5.35014679865119        5.84144998672160       -2.66962415620551
H           -3.25592272328452        4.56956032804119       -2.97845082966749
H           -1.71498675392233        4.25333703233874       -1.07760843749547
H           -1.34939180982495        6.65373725311586        4.82264675491104
H            0.41795928100749        5.96791060776768        6.37178274343010
H            2.25306199104087        4.51031875172624        5.59794061469227
H            2.30357945773700        3.74639152510688        3.24355722408578
H            0.56385300059124        4.43560348348284        1.68900293818409
C            1.43975664215707        8.99151582581469        3.75393037456030
O            1.08567948277165        8.55379558004747        2.45082960626676
C            1.85819119731348        7.56745520343344        1.92458410607894
O            2.77101227936194        7.08445195114624        2.56904869977062
C            1.45559445775225        7.22878652098489        0.56846142737038
C            1.97297847450666        6.18364010391071       -0.12564480082569
C            3.01411578279118        5.22762966369948        0.34387017040325
N            1.52293753354673        5.91798080309716       -1.39435523101936
C            0.34042415336157        6.41451933186347       -1.89714349790296
C           -0.14010756735777        5.66707150774518       -3.09584605977936
C           -0.25034148971849        7.45589363909275       -1.26970059947550
C           -1.56676741955240        8.01389703537637       -1.56875327290382
O           -2.26792279943482        8.55873707813838       -0.73365665461423
O           -1.95102531697735        7.90700754268551       -2.85435751612936
C           -3.19145944706822        8.51085935196157       -3.19882065016013
C            0.46730381654310        8.14141761110896       -0.12314784160420
H            0.73524503765394        9.78009447223624        4.00765083182682
H            1.37374419966493        8.16477960350510        4.46546326629742
H            2.46183023456375        9.37631181164724        3.76039775769544
H            3.30326424712722        5.43706181758855        1.36638451415786
H            2.63276736212185        4.20918877995271        0.26736458046505
H            3.89242010222607        5.30491537558679       -0.29605949227064
H            1.81525965471952        5.02711546818994       -1.77644943452105
H            0.53140738795438        5.86703405752368       -3.93109935748500
H           -0.11404862488564        4.59791947593936       -2.88550110600518
H           -1.14123462098811        5.96429596084561       -3.37928217265469
H           -3.08711172455957        9.59829422448543       -3.20792904087568
H           -3.43912997466791        8.14634629499059       -4.19262371505054
H           -3.96303270040271        8.23442123089901       -2.47794631379717
H           -0.26540419644862        8.52654261608347        0.58386937591580
H            1.00707984237676        9.01328172567283       -0.52135459941270
