      -----------------------------------------------------------      
     |                   =====================                   |     
     |                           x T B                           |     
     |                   =====================                   |     
     |                         S. Grimme                         |     
     |          Mulliken Center for Theoretical Chemistry        |     
     |                    University of Bonn                     |     
      -----------------------------------------------------------      

   * xtb version 6.7.1 (edcfbbe) compiled by 'VssAdministrator@runnervm171ch' on 2026-06-10

   xtb is free software: you can redistribute it and/or modify it under
   the terms of the GNU Lesser General Public License as published by
   the Free Software Foundation, either version 3 of the License, or
   (at your option) any later version.
   
   xtb is distributed in the hope that it will be useful,
   but WITHOUT ANY WARRANTY; without even the implied warranty of
   MERCHANTABILITY or FITNESS FOR A PARTICULAR PURPOSE.  See the
   GNU Lesser General Public License for more details.
   
   Cite this work as:
   * C. Bannwarth, E. Caldeweyher, S. Ehlert, A. Hansen, P. Pracht,
     J. Seibert, S. Spicher, S. Grimme, WIREs Comput. Mol. Sci., 2020, 11,
     e01493. DOI: 10.1002/wcms.1493
   
   for GFN2-xTB:
   * C. Bannwarth, S. Ehlert and S. Grimme., J. Chem. Theory Comput., 2019,
     15, 1652-1671. DOI: 10.1021/acs.jctc.8b01176
   for GFN1-xTB:
   * S. Grimme, C. Bannwarth, P. Shushkov, J. Chem. Theory Comput., 2017,
     13, 1989-2009. DOI: 10.1021/acs.jctc.7b00118
   for GFN0-xTB:
   * P. Pracht, E. Caldeweyher, S. Ehlert, S. Grimme, ChemRxiv, 2019, preprint.
     DOI: 10.26434/chemrxiv.8326202.v1
   for GFN-FF:
   * S. Spicher and S. Grimme, Angew. Chem. Int. Ed., 2020, 59, 15665-15673.
     DOI: 10.1002/anie.202004239
   
   for ALPB and GBSA implicit solvation:
   * S. Ehlert, M. Stahn, S. Spicher, S. Grimme, J. Chem. Theory Comput.,
     2021, 17, 4250-4261. DOI: 10.1021/acs.jctc.1c00471
   
   for ddCOSMO and CPCM-X implicit solvation:
   * M. Stahn, S. Ehlert, S. Grimme, J. Phys. Chem. A,
     2023, XX, XXXX-XXXX. DOI: 10.1021/acs.jpca.3c04382
   
   for DFT-D4:
   * E. Caldeweyher, C. Bannwarth and S. Grimme, J. Chem. Phys., 2017,
     147, 034112. DOI: 10.1063/1.4993215
   * E. Caldeweyher, S. Ehlert, A. Hansen, H. Neugebauer, S. Spicher,
     C. Bannwarth and S. Grimme, J. Chem. Phys., 2019, 150, 154122.
     DOI: 10.1063/1.5090222
   * E. Caldeweyher, J.-M. Mewes, S. Ehlert and S. Grimme, Phys. Chem. Chem. Phys.
     2020, 22, 8499-8512. DOI: 10.1039/D0CP00502A
   
   for sTDA-xTB:
   * S. Grimme and C. Bannwarth, J. Chem. Phys., 2016, 145, 054103.
     DOI: 10.1063/1.4959605
   
   in the mass-spec context:
   * V. Asgeirsson, C. Bauer and S. Grimme, Chem. Sci., 2017, 8, 4879.
     DOI: 10.1039/c7sc00601b
   * J. Koopman and S. Grimme, ACS Omega 2019, 4, 12, 15120-15133.
     DOI: 10.1021/acsomega.9b02011
   
   for metadynamics refer to:
   * S. Grimme, J. Chem. Theory Comput., 2019, 155, 2847-2862
     DOI: 10.1021/acs.jctc.9b00143
   
   for SPH calculations refer to:
   * S. Spicher and S. Grimme, J. Chem. Theory Comput., 2021, 17, 1701-1714
     DOI: 10.1021/acs.jctc.0c01306
   
   for ONIOM refer to:
   * C. Plett, A. Katbashev, S. Ehlert, S. Grimme, M. Bursch,
     Phys. Chem. Chem. Phys., 2023, 25, 17860-17868. DOI: 10.1039/D3CP02178E
   
   for DIPRO refer to:
   * J. Kohn, N. Gildemeister, S. Grimme, D. Fazzi, A. Hansen,
     J. Chem. Phys., 2023, just accepted.
   
   for PTB refer to:
   * S. Grimme, M. Mueller, A. Hansen, J. Chem. Phys., 2023, 158, 124111.
     DOI: 10.1063/5.0137838
   
   with help from (in alphabetical order)
   P. Atkinson, C. Bannwarth, F. Bohle, G. Brandenburg, E. Caldeweyher
   M. Checinski, S. Dohm, S. Ehlert, S. Ehrlich, I. Gerasimov, C. Hölzer
   A. Katbashev, J. Kohn, J. Koopman, C. Lavigne, S. Lehtola, F. März, M. Müller,
   F. Musil, H. Neugebauer, J. Pisarek, C. Plett, P. Pracht, F. Pultar,
   J. Seibert, P. Shushkov, S. Spicher, M. Stahn, M. Steiner, T. Strunk,
   J. Stückrath, T. Rose, and J. Unsleber
   
 * started run on 2026/09/10 at 23:03:39.185     
   ID    Z sym.   atoms
    1    6 C      1, 2, 4-19
    2    7 N      3
    3    1 H      20-34

           -------------------------------------------------
          |                Calculation Setup                |
           -------------------------------------------------

          program call               : C:\Users\HUIWEI\miniconda3\envs\phase2ff\Library\bin\xtb.exe xtbopt.xyz --gfn 2 --chrg 0 --uhf 0 --alpb ch2cl2 --acc 0.2 --hess --strict
          coordinate file            : xtbopt.xyz
          omp threads                :                     1


           -------------------------------------------------
          |                 G F N 2 - x T B                 |
           -------------------------------------------------

        Reference                      10.1021/acs.jctc.8b01176
      * Hamiltonian:
        H0-scaling (s, p, d)           1.850000    2.230000    2.230000
        zeta-weighting                 0.500000
      * Dispersion:
        s8                             2.700000
        a1                             0.520000
        a2                             5.000000
        s9                             5.000000
      * Repulsion:
        kExp                           1.500000    1.000000
        rExp                           1.000000
      * Coulomb:
        alpha                          2.000000
        third order                    shell-resolved
        anisotropic                    true
        a3                             3.000000
        a5                             4.000000
        cn-shift                       1.200000
        cn-exp                         4.000000
        max-rad                        5.000000

      * Solvation model:               ALPB
        Solvent                        ch2cl2
        Parameter file                 internal GFN2-xTB/ALPB
        Dielectric constant                8.9300E+00
        Reference state                gsolv [1 M gas/solution]
        Free energy shift                  4.1487E-03 Eh       2.6033E+00 kcal/mol
        Temperature                        2.9815E+02 K
        Density                            1.3300E+00 kg/L
        Solvent mass                       8.4930E+01 g/mol
        Interaction kernel             P16
        Born radius scaling (c1)           1.5691E+00
        Born radii integrator          GBOBC
        Born offset                        0.0000E+00 a0       0.0000E+00 AA
        H-bond correction              false
        Ion screening                  false
        Surface tension                    1.0000E-05 Eh       1.5569E+01 dyn/cm
        Grid points                               230 per atom
q/qsh data taken from xtbrestart
CAMM data taken from xtbrestart

          ...................................................
          :                      SETUP                      :
          :.................................................:
          :  # basis functions                  91          :
          :  # atomic orbitals                  91          :
          :  # shells                           53          :
          :  # electrons                        92          :
          :  max. iterations                   250          :
          :  Hamiltonian                  GFN2-xTB          :
          :  restarted?                       true          :
          :  GBSA solvation                   true          :
          :  PC potential                    false          :
          :  electronic temp.          300.0000000     K    :
          :  accuracy                    0.2000000          :
          :  -> integral cutoff          0.3198970E+02      :
          :  -> integral neglect         0.2000000E-08      :
          :  -> SCF convergence          0.2000000E-06 Eh   :
          :  -> wf. convergence          0.2000000E-04 e    :
          :  Broyden damping             0.4000000          :
          :  net charge                          0          :
          :  unpaired electrons                  0          :
          ...................................................

 iter      E             dE          RMSdq      gap      omega  full diag
   1    -50.0403245 -0.500403E+02  0.139E-06    2.58       0.0  T
   2    -50.0403245  0.355271E-13  0.973E-07    2.58   17632.4  T
   3    -50.0403245 -0.142109E-12  0.318E-07    2.58   53919.0  T

   *** convergence criteria satisfied after 3 iterations ***

         #    Occupation            Energy/Eh            Energy/eV
      -------------------------------------------------------------
         1        2.0000           -0.6582170             -17.9110
       ...           ...                  ...                  ...
        40        2.0000           -0.4206887             -11.4475
        41        2.0000           -0.4119376             -11.2094
        42        2.0000           -0.4049962             -11.0205
        43        2.0000           -0.4033638             -10.9761
        44        2.0000           -0.3994763             -10.8703
        45        2.0000           -0.3808377             -10.3631
        46        2.0000           -0.3583976              -9.7525 (HOMO)
        47                         -0.2635646              -7.1720 (LUMO)
        48                         -0.2388045              -6.4982
        49                         -0.2313245              -6.2947
        50                         -0.2172289              -5.9111
        51                         -0.2056248              -5.5953
       ...                                ...                  ...
        91                          0.6928493              18.8534
      -------------------------------------------------------------
                  HL-Gap            0.0948329 Eh            2.5805 eV
             Fermi-level           -0.3109811 Eh           -8.4622 eV

 SCC (total)                   0 d,  0 h,  0 min,  0.031 sec
 SCC setup                      ...        0 min,  0.001 sec (  3.856%)
 Dispersion                     ...        0 min,  0.000 sec (  1.317%)
 classical contributions        ...        0 min,  0.000 sec (  0.327%)
 integral evaluation            ...        0 min,  0.006 sec ( 19.713%)
 iterations                     ...        0 min,  0.006 sec ( 19.655%)
 molecular gradient             ...        0 min,  0.017 sec ( 54.137%)
 printout                       ...        0 min,  0.000 sec (  0.945%)

         :::::::::::::::::::::::::::::::::::::::::::::::::::::
         ::                     SUMMARY                     ::
         :::::::::::::::::::::::::::::::::::::::::::::::::::::
         :: total energy             -49.109994601159 Eh    ::
         :: total w/o Gsasa/hb       -49.087662226191 Eh    ::
         :: gradient norm              0.000118319192 Eh/a0 ::
         :: HOMO-LUMO gap              2.580535797474 eV    ::
         ::.................................................::
         :: SCC energy               -50.040289542962 Eh    ::
         :: -> isotropic ES            0.010940554642 Eh    ::
         :: -> anisotropic ES          0.006720855262 Eh    ::
         :: -> anisotropic XC          0.035654399499 Eh    ::
         :: -> dispersion             -0.037388547006 Eh    ::
         :: -> Gsolv                  -0.023199371113 Eh    ::
         ::    -> Gelec               -0.000866996146 Eh    ::
         ::    -> Gsasa               -0.026481072328 Eh    ::
         ::    -> Ghb                  0.000000000000 Eh    ::
         ::    -> Gshift               0.004148697361 Eh    ::
         :: repulsion energy           0.930294941803 Eh    ::
         :: add. restraining           0.000000000000 Eh    ::
         :: total charge              -0.000000000000 e     ::
         :::::::::::::::::::::::::::::::::::::::::::::::::::::

           ------------------------------------------------- 
          |                Numerical Hessian                |
           ------------------------------------------------- 
step length          :   0.00500
SCC accuracy         :   0.30000
Hessian scale factor :   1.00000
frozen atoms in %    :   0.00000    0
RMS gradient         :   0.00012
estimated CPU  time      0.03 min
estimated wall time      0.12 min

writing file <hessian>.

 projected vibrational frequencies (cm⁻¹)
eigval :       -0.00    -0.00    -0.00    -0.00     0.00     0.00
eigval :       11.03    27.38    46.97    54.98    98.92   129.97
eigval :      144.64   150.45   167.04   229.89   238.49   298.13
eigval :      357.21   368.79   400.97   430.25   447.56   474.47
eigval :      480.31   502.17   525.65   546.23   570.27   589.88
eigval :      598.80   630.21   659.00   709.30   726.60   760.21
eigval :      765.63   779.15   810.01   816.98   853.87   866.42
eigval :      877.69   879.32   895.76   917.30   920.49   924.73
eigval :      924.84   929.46   950.59   987.42   996.97  1007.50
eigval :     1079.74  1079.85  1108.94  1115.27  1128.34  1170.99
eigval :     1179.40  1179.72  1187.85  1197.83  1222.27  1235.80
eigval :     1247.82  1277.44  1282.51  1316.28  1337.22  1370.40
eigval :     1375.32  1391.05  1417.10  1433.03  1452.01  1459.40
eigval :     1464.80  1468.23  1507.10  1565.21  1570.37  1595.31
eigval :     1597.14  1608.70  1741.48  2999.92  3025.49  3030.84
eigval :     3061.57  3064.05  3066.40  3069.02  3070.41  3072.36
eigval :     3074.14  3076.54  3078.88  3085.27  3086.08  3088.18
           -------------------------------------------------
          |                Property Printout                |
           -------------------------------------------------

    * Orbital Energies and Occupations

         #    Occupation            Energy/Eh            Energy/eV
      -------------------------------------------------------------
         1        2.0000           -0.6582170             -17.9110
       ...           ...                  ...                  ...
        34        2.0000           -0.4543500             -12.3635
        35        2.0000           -0.4461609             -12.1407
        36        2.0000           -0.4432082             -12.0603
        37        2.0000           -0.4325558             -11.7704
        38        2.0000           -0.4266731             -11.6104
        39        2.0000           -0.4235367             -11.5250
        40        2.0000           -0.4206887             -11.4475
        41        2.0000           -0.4119376             -11.2094
        42        2.0000           -0.4049962             -11.0205
        43        2.0000           -0.4033638             -10.9761
        44        2.0000           -0.3994763             -10.8703
        45        2.0000           -0.3808377             -10.3631
        46        2.0000           -0.3583976              -9.7525 (HOMO)
        47                         -0.2635646              -7.1720 (LUMO)
        48                         -0.2388045              -6.4982
        49                         -0.2313245              -6.2947
        50                         -0.2172289              -5.9111
        51                         -0.2056248              -5.5953
        52                         -0.1924380              -5.2365
        53                         -0.1477441              -4.0203
        54                         -0.0848723              -2.3095
        55                         -0.0611960              -1.6652
        56                          0.0648337               1.7642
        57                          0.1111858               3.0255
       ...                                ...                  ...
        91                          0.6928493              18.8534
      -------------------------------------------------------------
                  HL-Gap            0.0948329 Eh            2.5805 eV
             Fermi-level           -0.3109811 Eh           -8.4622 eV

     #   Z          covCN         q      C6AA      α(0)
     1   6 C        3.755    -0.116    22.771     6.804
     2   6 C        2.900     0.121    25.331     8.252
     3   7 N        1.844    -0.219    26.627     7.647
     4   6 C        2.926     0.083    26.153     8.387
     5   6 C        2.924    -0.049    29.220     8.865
     6   6 C        2.919    -0.032    28.798     8.800
     7   6 C        2.919    -0.043    29.069     8.841
     8   6 C        2.919    -0.032    28.805     8.801
     9   6 C        2.922    -0.051    29.266     8.871
    10   6 C        2.980     0.001    28.005     8.681
    11   6 C        2.922    -0.030    28.744     8.792
    12   6 C        2.914    -0.030    28.748     8.792
    13   6 C        2.918    -0.036    28.905     8.816
    14   6 C        2.986     0.014    27.696     8.633
    15   6 C        2.919    -0.035    28.865     8.810
    16   6 C        2.915    -0.030    28.746     8.792
    17   6 C        2.916    -0.030    28.748     8.792
    18   6 C        2.917    -0.034    28.845     8.807
    19   6 C        2.988     0.012    27.732     8.638
    20   1 H        0.925     0.057     2.232     2.337
    21   1 H        0.925     0.047     2.355     2.400
    22   1 H        0.924     0.061     2.186     2.312
    23   1 H        0.926     0.027     2.626     2.534
    24   1 H        0.926     0.028     2.622     2.532
    25   1 H        0.926     0.025     2.659     2.550
    26   1 H        0.926     0.027     2.630     2.536
    27   1 H        0.926     0.023     2.686     2.563
    28   1 H        0.926     0.033     2.547     2.496
    29   1 H        0.926     0.037     2.487     2.466
    30   1 H        0.926     0.037     2.486     2.466
    31   1 H        0.926     0.036     2.507     2.476
    32   1 H        0.926     0.034     2.531     2.488
    33   1 H        0.926     0.033     2.544     2.494
    34   1 H        0.926     0.031     2.574     2.509

 Mol. C6AA /au·bohr⁶  :      15400.919327
 Mol. C8AA /au·bohr⁸  :     382873.636915
 Mol. α(0) /au        :        199.981367


Wiberg/Mayer (AO) data.
largest (>0.10) Wiberg bond orders for each atom

 ---------------------------------------------------------------------------
     #   Z sym  total        # sym  WBO       # sym  WBO       # sym  WBO
 ---------------------------------------------------------------------------
     1   6 C    3.995 --     2 C    1.000    21 H    0.980    20 H    0.971
                            22 H    0.958
     2   6 C    3.961 --     3 N    1.827     1 C    1.000    10 C    0.997
     3   7 N    3.223 --     2 C    1.827     4 C    1.119
     4   6 C    3.975 --     5 C    1.348     9 C    1.348     3 N    1.119
     5   6 C    3.989 --     6 C    1.461     4 C    1.348    23 H    0.971
                             8 C    0.106
     6   6 C    3.992 --     5 C    1.461     7 C    1.427    24 H    0.971
                             9 C    0.105
     7   6 C    3.991 --     8 C    1.432     6 C    1.427    25 H    0.972
     8   6 C    3.992 --     9 C    1.455     7 C    1.432    26 H    0.970
                             5 C    0.106
     9   6 C    3.988 --     8 C    1.455     4 C    1.348    27 H    0.971
                             6 C    0.105
    10   6 C    3.987 --    11 C    1.516    19 C    1.245     2 C    0.997
                            13 C    0.115
    11   6 C    3.990 --    10 C    1.516    12 C    1.323    28 H    0.970
    12   6 C    3.991 --    13 C    1.555    11 C    1.323    29 H    0.970
    13   6 C    3.990 --    12 C    1.555    14 C    1.278    30 H    0.968
                            10 C    0.115
    14   6 C    3.990 --    15 C    1.279    13 C    1.278    19 C    1.254
    15   6 C    3.991 --    16 C    1.558    14 C    1.279    31 H    0.968
                            18 C    0.119
    16   6 C    3.992 --    15 C    1.558    17 C    1.321    32 H    0.971
    17   6 C    3.992 --    18 C    1.556    16 C    1.321    33 H    0.971
    18   6 C    3.992 --    17 C    1.556    19 C    1.282    34 H    0.966
                            15 C    0.119
    19   6 C    3.989 --    18 C    1.282    14 C    1.254    10 C    1.245
    20   1 H    0.997 --     1 C    0.971
    21   1 H    0.997 --     1 C    0.980
    22   1 H    0.996 --     1 C    0.958
    23   1 H    0.999 --     5 C    0.971
    24   1 H    0.998 --     6 C    0.971
    25   1 H    0.999 --     7 C    0.972
    26   1 H    0.999 --     8 C    0.970
    27   1 H    0.999 --     9 C    0.971
    28   1 H    0.998 --    11 C    0.970
    29   1 H    0.998 --    12 C    0.970
    30   1 H    0.998 --    13 C    0.968
    31   1 H    0.998 --    15 C    0.968
    32   1 H    0.998 --    16 C    0.971
    33   1 H    0.998 --    17 C    0.971
    34   1 H    0.999 --    18 C    0.966
 ---------------------------------------------------------------------------

Topologies differ in total number of bonds
Writing topology from bond orders to xtbtopo.mol

molecular dipole:
                 x           y           z       tot (Debye)
 q only:       -0.878       0.376       0.175
   full:       -1.020       0.332      -0.065       2.732
molecular quadrupole (traceless):
                xx          xy          yy          xz          yz          zz
 q only:       -2.179       2.172       0.905      -0.809       0.084       1.274
  q+dip:       -6.668       4.084       5.689      -7.025       1.788       0.980
   full:       -4.105       3.460       3.110      -2.825       0.815       0.994

           -------------------------------------------------
          |               Frequency Printout                |
           -------------------------------------------------
 projected vibrational frequencies (cm⁻¹)
eigval :       -0.00    -0.00    -0.00    -0.00     0.00     0.00
eigval :       11.03    27.38    46.97    54.98    98.92   129.97
eigval :      144.64   150.45   167.04   229.89   238.49   298.13
eigval :      357.21   368.79   400.97   430.25   447.56   474.47
eigval :      480.31   502.17   525.65   546.23   570.27   589.88
eigval :      598.80   630.21   659.00   709.30   726.60   760.21
eigval :      765.63   779.15   810.01   816.98   853.87   866.42
eigval :      877.69   879.32   895.76   917.30   920.49   924.73
eigval :      924.84   929.46   950.59   987.42   996.97  1007.50
eigval :     1079.74  1079.85  1108.94  1115.27  1128.34  1170.99
eigval :     1179.40  1179.72  1187.85  1197.83  1222.27  1235.80
eigval :     1247.82  1277.44  1282.51  1316.28  1337.22  1370.40
eigval :     1375.32  1391.05  1417.10  1433.03  1452.01  1459.40
eigval :     1464.80  1468.23  1507.10  1565.21  1570.37  1595.31
eigval :     1597.14  1608.70  1741.48  2999.92  3025.49  3030.84
eigval :     3061.57  3064.05  3066.40  3069.02  3070.41  3072.36
eigval :     3074.14  3076.54  3078.88  3085.27  3086.08  3088.18
 reduced masses (amu)
   1: 11.08   2: 11.17   3: 11.39   4: 11.04   5: 10.71   6: 11.31   7: 10.16   8: 10.00
   9: 10.67  10: 10.51  11:  9.72  12:  5.33  13:  7.73  14: 10.02  15:  9.16  16:  9.60
  17: 10.48  18:  9.81  19: 10.32  20:  9.07  21:  9.49  22:  9.61  23: 10.58  24: 10.83
  25: 11.24  26: 11.61  27: 10.99  28: 10.03  29:  9.95  30: 11.00  31: 10.88  32: 10.78
  33: 10.04  34:  8.60  35:  9.39  36:  4.65  37:  7.30  38: 10.81  39: 10.03  40:  4.56
  41: 10.55  42:  3.31  43:  3.72  44:  3.86  45:  4.02  46:  3.80  47:  3.80  48:  3.40
  49:  2.97  50:  3.23  51: 10.62  52:  8.90  53:  6.85  54:  6.88  55:  6.68  56:  7.08
  57:  6.72  58:  4.11  59:  7.25  60:  2.83  61:  1.57  62:  1.51  63:  2.44  64:  3.52
  65:  6.34  66:  8.77  67:  5.25  68:  4.12  69:  8.49  70: 11.43  71:  9.51  72:  8.84
  73:  3.22  74:  9.76  75:  9.57  76:  8.99  77:  9.73  78:  1.89  79:  2.77  80:  7.81
  81: 10.82  82: 11.70  83: 11.44  84: 11.46  85: 11.44  86: 11.40  87: 12.82  88:  1.83
  89:  1.45  90:  1.87  91:  1.76  92:  1.77  93:  1.77  94:  1.76  95:  1.78  96:  1.84
  97:  1.82  98:  1.86  99:  1.86 100:  1.91 101:  1.92 102:  1.91
 IR intensities (km·mol⁻¹)
   1:  0.06   2:  0.07   3:  0.03   4:  0.13   5:  0.14   6:  0.07   7:  0.15   8:  0.85
Molecule has no symmetry elements
It seems to be the C1 point group
   9:  0.16  10:  1.35  11:  1.97  12:  0.31  13:  0.32  14:  0.99  15:  0.94  16:  0.51
  17:  0.42  18:  0.14  19:  0.31  20:  0.58  21:  1.73  22:  0.17  23:  5.72  24:  2.34
  25:  1.24  26:  1.88  27:  1.21  28:  2.02  29:  3.31  30:  2.08  31: 10.54  32:  2.29
  33:  0.26  34: 19.99  35:  2.12  36:  0.29  37: 22.03  38:  0.53  39: 46.87  40: 33.13
  41:  0.52  42:  0.73  43:  0.39  44:  1.43  45:  0.67  46:  0.11  47:  0.07  48:  0.08
  49:  0.06  50:  0.04  51: 13.78  52:  6.33  53: 12.93  54: 21.42  55:  0.29  56:  0.67
  57: 13.98  58:  0.75  59: 49.95  60:  8.63  61:  0.02  62:  0.75  63: 23.97  64:  8.63
  65:  6.16  66: 98.97  67: 11.35  68:  2.89  69:  5.67  70:  3.85  71:  0.63  72:  4.78
  73: 18.58  74:  0.17  75:  0.37  76:  6.49  77:  6.04  78:  3.08  79:  6.11  80: 38.85
  81:  0.75  82:  0.10  83:  2.56  84:103.27  85:  3.95  86:  0.12  87:335.52  88: 10.80
  89: 17.32  90: 29.30  91: 14.98  92:  8.55  93:  4.47  94:  3.13  95: 11.73  96: 94.53
  97: 59.42  98:136.70  99:137.31 100:191.41 101: 64.47 102: 20.17
 Raman intensities (Ä⁴*amu⁻¹)
   1:  0.00   2:  0.00   3:  0.00   4:  0.00   5:  0.00   6:  0.00   7:  0.00   8:  0.00
   9:  0.00  10:  0.00  11:  0.00  12:  0.00  13:  0.00  14:  0.00  15:  0.00  16:  0.00
  17:  0.00  18:  0.00  19:  0.00  20:  0.00  21:  0.00  22:  0.00  23:  0.00  24:  0.00
  25:  0.00  26:  0.00  27:  0.00  28:  0.00  29:  0.00  30:  0.00  31:  0.00  32:  0.00
  33:  0.00  34:  0.00  35:  0.00  36:  0.00  37:  0.00  38:  0.00  39:  0.00  40:  0.00
  41:  0.00  42:  0.00  43:  0.00  44:  0.00  45:  0.00  46:  0.00  47:  0.00  48:  0.00
  49:  0.00  50:  0.00  51:  0.00  52:  0.00  53:  0.00  54:  0.00  55:  0.00  56:  0.00
  57:  0.00  58:  0.00  59:  0.00  60:  0.00  61:  0.00  62:  0.00  63:  0.00  64:  0.00
  65:  0.00  66:  0.00  67:  0.00  68:  0.00  69:  0.00  70:  0.00  71:  0.00  72:  0.00
  73:  0.00  74:  0.00  75:  0.00  76:  0.00  77:  0.00  78:  0.00  79:  0.00  80:  0.00
  81:  0.00  82:  0.00  83:  0.00  84:  0.00  85:  0.00  86:  0.00  87:  0.00  88:  0.00
  89:  0.00  90:  0.00  91:  0.00  92:  0.00  93:  0.00  94:  0.00  95:  0.00  96:  0.00
  97:  0.00  98:  0.00  99:  0.00 100:  0.00 101:  0.00 102:  0.00
 output can be read by thermo (or use thermo option).
 writing <g98.out> molden fake output.
 recommended (thermochemical) frequency scaling factor: 1.0
           -------------------------------------------------
          |             Thermodynamic Functions             |
           -------------------------------------------------

c1  symmetry found (for desy threshold:  0.10E+00) used in thermo

          ...................................................
          :                      SETUP                      :
          :.................................................:
          :  # frequencies                          96      :
          :  # imaginary freq.                       0      :
          :  linear?                             false      :
          :  only rotor calc.                    false      :
          :  symmetry                               c1      :
          :  rotational number                       1      :
          :  scaling factor                  1.0000000      :
          :  rotor cutoff                   50.0000000 cm⁻¹ :
          :  imag. cutoff                  -20.0000000 cm⁻¹ :
          :.................................................:

    mode    ω/cm⁻¹     T·S(HO)/kcal·mol⁻¹    T·S(FR)/kcal·mol⁻¹   T·S(vib)
   ------------------------------------------------------------------------
       1     11.03    -2.33021 (  0.24%)    -1.50396 ( 99.76%)    -1.50592
       2     27.38    -1.79206 (  8.25%)    -1.23484 ( 91.75%)    -1.28082
       3     46.97    -1.47315 ( 43.78%)    -1.07501 ( 56.22%)    -1.24933
       4     54.98    -1.38039 ( 59.38%)    -1.02840 ( 40.62%)    -1.23739
       5     98.92    -1.03619 ( 93.87%)    -0.85439 (  6.13%)    -1.02506
       6    129.97    -0.87851 ( 97.86%)    -0.77354 (  2.14%)    -0.87626
Note: The following floating-point exceptions are signalling: IEEE_DIVIDE_BY_ZERO IEEE_UNDERFLOW_FLAG IEEE_DENORMAL
normal termination of xtb
       7    144.64    -0.81740 ( 98.59%)    -0.74186 (  1.41%)    -0.81634
       8    150.45    -0.79504 ( 98.79%)    -0.73020 (  1.21%)    -0.79426
       9    167.04    -0.73599 ( 99.20%)    -0.69920 (  0.80%)    -0.73569
      10    229.89    -0.56047 ( 99.78%)    -0.60460 (  0.22%)    -0.56056
      11    238.49    -0.54087 ( 99.81%)    -0.59372 (  0.19%)    -0.54098
      12    298.13    -0.42558 ( 99.92%)    -0.52760 (  0.08%)    -0.42566
   ------------------------------------------------------------------------

   temp. (K)  partition function   enthalpy   heat capacity  entropy
                                   cal/mol     cal/K/mol   cal/K/mol   J/K/mol
 298.15  VIB  0.259E+07             8393.960     54.796     51.743
         ROT  0.491E+07              888.752      2.981     33.599
         INT  0.127E+14             9282.712     57.777     85.341
         TR   0.372E+28             1481.254      4.968     42.374
         TOT                       10763.9659    62.7455   127.7151   534.3600

       T/K    H(0)-H(T)+PV         H(T)/Eh          T*S/Eh         G(T)/Eh
   ------------------------------------------------------------------------
    298.15    0.171535E-01    0.285506E+00    0.606816E-01    0.224824E+00
   ------------------------------------------------------------------------

         :::::::::::::::::::::::::::::::::::::::::::::::::::::
         ::                  THERMODYNAMIC                  ::
         :::::::::::::::::::::::::::::::::::::::::::::::::::::
         :: total free energy         -48.885170496166 Eh   ::
         ::.................................................::
         :: total energy              -49.109994602403 Eh   ::
         :: zero point energy           0.268352201938 Eh   ::
         :: G(RRHO) w/o ZPVE           -0.043528095701 Eh   ::
         :: G(RRHO) contrib.            0.224824106237 Eh   ::
         :::::::::::::::::::::::::::::::::::::::::::::::::::::

           -------------------------------------------------
          | TOTAL ENERGY              -49.109994602403 Eh   |
          | TOTAL ENTHALPY            -48.824488928914 Eh   |
          | TOTAL FREE ENERGY         -48.885170496166 Eh   |
          | GRADIENT NORM               0.000118320636 Eh/α |
          | HOMO-LUMO GAP               2.580535740541 eV   |
           -------------------------------------------------

------------------------------------------------------------------------
 * finished run on 2026/09/10 at 23:03:46.368     
------------------------------------------------------------------------
 total:
 * wall-time:     0 d,  0 h,  0 min,  7.183 sec
 *  cpu-time:     0 d,  0 h,  0 min,  1.125 sec
 * ratio c/w:     0.157 speedup
 SCF:
 * wall-time:     0 d,  0 h,  0 min,  0.031 sec
 *  cpu-time:     0 d,  0 h,  0 min,  0.000 sec
 * ratio c/w:     0.000 speedup
 analytical hessian:
 * wall-time:     0 d,  0 h,  0 min,  7.104 sec
 *  cpu-time:     0 d,  0 h,  0 min,  1.109 sec
 * ratio c/w:     0.156 speedup

