 Entering Gaussian System
 *********************************************
 Gaussian 98:
 frequency output generated by the xtb code
 *********************************************
                         Standard orientation:
 --------------------------------------------------------------------
  Center     Atomic     Atomic              Coordinates (Angstroms)
  Number     Number      Type              X           Y           Z
 --------------------------------------------------------------------
    1          8             0        0.428968    3.437604   -0.321866
    2         15             0       -0.101079    2.221350    0.290486
    3          8             0       -0.965267    2.465557    1.606527
    4          8             0       -1.035203    1.400367   -0.699308
    5          6             0       -1.554008    0.212732   -0.179536
    6          6             0       -2.898681    0.190177    0.251167
    7          6             0       -3.390678   -0.981105    0.773862
    8          6             0       -2.577882   -2.120999    0.927897
    9          6             0       -3.082386   -3.306660    1.505274
   10          6             0       -2.271270   -4.387224    1.708777
   11          6             0       -0.914282   -4.320961    1.358842
   12          6             0       -0.397770   -3.192717    0.782972
   13          6             0       -1.216610   -2.072640    0.524649
   14          6             0       -0.723975   -0.877980   -0.075983
   15          6             0        0.675056   -0.770238   -0.541838
   16          6             0        1.490036    0.217839   -0.029711
   17          8             0        0.962120    1.152659    0.856741
   18          6             0        2.876755    0.252558   -0.309321
   19          6             0        3.397674   -0.690150   -1.161804
   20          6             0        2.581786   -1.637663   -1.809065
   21          6             0        3.107980   -2.544519   -2.754219
   22          6             0        2.295086   -3.436941   -3.394832
   23          6             0        0.918323   -3.452569   -3.124279
   24          6             0        0.380370   -2.597616   -2.201921
   25          6             0        1.196354   -1.680335   -1.505307
   26          6             0       -3.730242    1.402553    0.169938
   27          6             0       -4.444832    1.822205    1.289555
   28          6             0       -5.220388    2.965821    1.237144
   29          6             0       -5.297322    3.701004    0.065391
   30          6             0       -4.595587    3.285693   -1.054278
   31          6             0       -3.815264    2.144531   -1.004862
   32          6             0        3.771483    1.232619    0.337065
   33          6             0        3.559566    2.602105    0.222273
   34          6             0        4.429747    3.492659    0.827078
   35          6             0        5.517038    3.029884    1.549265
   36          6             0        5.736508    1.666696    1.662542
   37          6             0        4.871764    0.773213    1.057513
   38          1             0       -0.874107    3.371270    1.901276
   39          1             0       -4.423352   -1.029995    1.088319
   40          1             0       -4.123742   -3.336542    1.792127
   41          1             0       -2.663801   -5.290671    2.151609
   42          1             0       -0.274069   -5.169223    1.551205
   43          1             0        0.650547   -3.149577    0.530089
   44          1             0        4.457548   -0.682447   -1.373059
   45          1             0        4.166506   -2.508946   -2.968131
   46          1             0        2.702852   -4.125465   -4.120114
   47          1             0        0.280811   -4.144465   -3.654659
   48          1             0       -0.682025   -2.608856   -2.009855
   49          1             0       -4.370918    1.257573    2.207955
   50          1             0       -5.764989    3.286214    2.113693
   51          1             0       -5.902275    4.595077    0.025042
   52          1             0       -4.655368    3.853316   -1.971629
   53          1             0       -3.275861    1.819964   -1.882431
   54          1             0        2.720660    2.972062   -0.345538
   55          1             0        4.255022    4.554420    0.729578
   56          1             0        6.192375    3.728773    2.021214
   57          1             0        6.583471    1.298953    2.223913
   58          1             0        5.036829   -0.290942    1.152566
 --------------------------------------------------------------------
     1 basis functions        1 primitive gaussians
     1 alpha electrons        1 beta electrons

 Harmonic frequencies (cm**-1), IR intensities (km*mol⁻¹),
 Raman scattering activities (A**4/amu), Raman depolarization ratios,
 reduced masses (AMU), force constants (mDyne/A) and normal coordinates:
                      1                      2                      3
                        a                      a                      a 
 Frequencies --    20.9720                22.0315                33.6754
 Red. masses --    14.8730                11.0837                11.8647
 Frc consts  --     0.0000                 0.0000                 0.0000
 IR Inten    --     0.8883                 0.0801                 0.1029
 Raman Activ --     0.0000                 0.0000                 0.0000
 Depolar     --     0.0000                 0.0000                 0.0000
 Atom AN      X      Y      Z        X      Y      Z        X      Y      Z
   1   8     0.05  -0.08  -0.41    -0.07   0.02   0.10    -0.13  -0.00   0.17
   2  15    -0.02   0.04  -0.34    -0.04  -0.04   0.04    -0.10  -0.12   0.07
   3   8     0.01   0.24  -0.27    -0.05  -0.11   0.03    -0.13  -0.23   0.04
   4   8    -0.06  -0.04  -0.14     0.02  -0.02  -0.02     0.01  -0.08  -0.04
   5   6    -0.02  -0.02  -0.05     0.00  -0.02  -0.03     0.00  -0.06  -0.03
   6   6    -0.00  -0.01   0.02     0.00  -0.00  -0.05     0.02  -0.03   0.01
   7   6     0.02  -0.00   0.06    -0.03  -0.01  -0.10     0.02   0.00   0.08
   8   6     0.03  -0.00   0.02    -0.06  -0.03  -0.12     0.02  -0.00   0.10
   9   6     0.05   0.00   0.06    -0.10  -0.05  -0.18     0.03   0.04   0.18
  10   6     0.06   0.00   0.04    -0.12  -0.06  -0.19     0.03   0.03   0.19
  11   6     0.05   0.00  -0.01    -0.10  -0.06  -0.12     0.01  -0.01   0.10
  12   6     0.02  -0.00  -0.04    -0.06  -0.05  -0.06    -0.01  -0.05   0.02
  13   6     0.01  -0.01  -0.03    -0.04  -0.04  -0.07    -0.00  -0.04   0.02
  14   6    -0.01  -0.01  -0.06    -0.01  -0.03  -0.03    -0.00  -0.06  -0.02
  15   6    -0.01  -0.00  -0.06     0.01  -0.04   0.01    -0.01  -0.05  -0.03
  16   6    -0.03   0.01  -0.06    -0.01  -0.02   0.01    -0.02  -0.04  -0.02
  17   8    -0.07   0.04  -0.12    -0.01  -0.02  -0.00    -0.04  -0.07   0.00
  18   6    -0.02   0.00  -0.01    -0.00  -0.01   0.02    -0.03   0.01  -0.04
  19   6     0.00  -0.00   0.01     0.03  -0.04   0.07    -0.02   0.05  -0.09
  20   6     0.02  -0.00  -0.01     0.05  -0.08   0.09    -0.01   0.05  -0.09
  21   6     0.05  -0.01   0.01     0.08  -0.12   0.15    -0.00   0.10  -0.15
  22   6     0.07  -0.02   0.00     0.10  -0.14   0.15     0.01   0.09  -0.15
  23   6     0.06  -0.03  -0.03     0.09  -0.11   0.09     0.02   0.02  -0.10
  24   6     0.04  -0.02  -0.05     0.06  -0.07   0.03     0.02  -0.03  -0.05
  25   6     0.01  -0.01  -0.04     0.04  -0.06   0.04     0.00  -0.01  -0.05
  26   6     0.01   0.00   0.08     0.05   0.03   0.02     0.07   0.00  -0.03
  27   6     0.11   0.01   0.14     0.10   0.01   0.07     0.21   0.17  -0.00
  28   6     0.14   0.03   0.21     0.16   0.06   0.15     0.32   0.24  -0.04
  29   6     0.06   0.04   0.22     0.18   0.13   0.20     0.28   0.14  -0.10
  30   6    -0.05   0.02   0.16     0.13   0.16   0.16     0.12  -0.04  -0.13
  31   6    -0.07   0.01   0.09     0.06   0.11   0.07     0.02  -0.11  -0.10
  32   6    -0.05  -0.01   0.05    -0.04   0.05  -0.03    -0.06   0.02  -0.02
  33   6    -0.01  -0.01   0.04    -0.06   0.04  -0.17    -0.11   0.01   0.03
  34   6    -0.04  -0.03   0.12    -0.09   0.11  -0.24    -0.15   0.02   0.09
  35   6    -0.12  -0.06   0.22    -0.10   0.20  -0.16    -0.15   0.03   0.09
  36   6    -0.15  -0.06   0.23    -0.08   0.21  -0.02    -0.10   0.04   0.04
  37   6    -0.12  -0.04   0.14    -0.05   0.14   0.04    -0.06   0.03  -0.01
  38   1     0.02   0.07  -0.09    -0.03  -0.03   0.01    -0.06  -0.06   0.02
  39   1     0.01   0.00   0.03    -0.01  -0.00  -0.03     0.01   0.01   0.04
  40   1     0.02   0.00   0.03    -0.03  -0.01  -0.07     0.01   0.02   0.07
  41   1     0.02   0.00   0.02    -0.04  -0.02  -0.07     0.01   0.02   0.08
  42   1     0.02   0.00  -0.01    -0.03  -0.02  -0.03    -0.00  -0.00   0.03
  43   1     0.00  -0.00  -0.02    -0.01  -0.02  -0.00    -0.01  -0.02  -0.02
  44   1     0.00  -0.00   0.02     0.01  -0.01   0.03    -0.01   0.03  -0.03
  45   1     0.01  -0.00   0.01     0.03  -0.04   0.06    -0.00   0.04  -0.05
  46   1     0.03  -0.01   0.01     0.04  -0.05   0.06     0.00   0.04  -0.06
  47   1     0.02  -0.01  -0.01     0.03  -0.04   0.02     0.01   0.00  -0.03
  48   1     0.01  -0.01  -0.02     0.01  -0.02  -0.00     0.01  -0.02  -0.00
  49   1     0.05   0.00   0.04     0.03  -0.02   0.01     0.07   0.07   0.01
  50   1     0.06   0.01   0.07     0.06   0.01   0.05     0.12   0.11  -0.01
  51   1     0.02   0.02   0.08     0.07   0.05   0.08     0.10   0.06  -0.04
  52   1    -0.03   0.01   0.05     0.04   0.06   0.06     0.03  -0.04  -0.05
  53   1    -0.04  -0.00   0.01     0.01   0.04   0.01    -0.02  -0.07  -0.03
  54   1     0.01   0.00  -0.01    -0.01  -0.01  -0.07    -0.03   0.00   0.01
  55   1    -0.00  -0.01   0.03    -0.03   0.03  -0.10    -0.06   0.01   0.04
  56   1    -0.04  -0.02   0.08    -0.04   0.07  -0.06    -0.06   0.01   0.04
  57   1    -0.06  -0.02   0.09    -0.03   0.08   0.01    -0.03   0.01   0.01
  58   1    -0.04  -0.01   0.04    -0.01   0.04   0.04    -0.01   0.01  -0.02
                      4                      5                      6
                        a                      a                      a 
 Frequencies --    40.3326                48.8307                53.3662
 Red. masses --    11.1408                11.0297                11.4831
 Frc consts  --     0.0000                 0.0000                 0.0000
 IR Inten    --     0.0836                 0.2045                 0.7818
 Raman Activ --     0.0000                 0.0000                 0.0000
 Depolar     --     0.0000                 0.0000                 0.0000
 Atom AN      X      Y      Z        X      Y      Z        X      Y      Z
   1   8     0.15  -0.04   0.03    -0.07   0.09   0.17     0.09  -0.16  -0.22
   2  15     0.16  -0.02   0.08    -0.02  -0.02   0.01     0.03  -0.07  -0.08
   3   8     0.16   0.03   0.08    -0.05  -0.23   0.03    -0.00   0.17  -0.12
   4   8     0.05   0.02   0.09     0.05   0.03  -0.09     0.02  -0.13   0.01
   5   6     0.03   0.02   0.06     0.01   0.03  -0.11    -0.01  -0.08   0.04
   6   6     0.03   0.02   0.07     0.01   0.03  -0.10    -0.03  -0.07  -0.02
   7   6     0.03   0.02   0.07     0.02   0.03  -0.09    -0.05  -0.07  -0.04
   8   6     0.02   0.01   0.05     0.04   0.05  -0.02    -0.05  -0.07   0.02
   9   6     0.02   0.02   0.06     0.07   0.10   0.10    -0.08  -0.07   0.00
  10   6     0.00  -0.00   0.02     0.11   0.14   0.21    -0.08  -0.06   0.06
  11   6    -0.01  -0.03  -0.04     0.10   0.14   0.19    -0.07  -0.06   0.13
  12   6    -0.01  -0.03  -0.04     0.06   0.09   0.06    -0.04  -0.07   0.14
  13   6     0.01  -0.01   0.01     0.03   0.05  -0.03    -0.03  -0.07   0.09
  14   6     0.01  -0.00   0.02     0.01   0.02  -0.09    -0.01  -0.08   0.10
  15   6     0.01  -0.02   0.00     0.01   0.00  -0.10     0.00  -0.06   0.12
  16   6     0.03  -0.04   0.01     0.02  -0.00  -0.11    -0.02  -0.04   0.11
  17   8     0.08  -0.05   0.04     0.04  -0.02  -0.10    -0.05  -0.04   0.11
  18   6     0.02  -0.06  -0.01     0.02  -0.01  -0.11    -0.03   0.02   0.06
  19   6     0.01  -0.05  -0.01     0.01  -0.02  -0.10    -0.03   0.08   0.00
  20   6    -0.01  -0.02  -0.04     0.01  -0.03  -0.08    -0.02   0.08  -0.01
  21   6    -0.05   0.01  -0.08     0.01  -0.08  -0.04    -0.04   0.20  -0.13
  22   6    -0.08   0.07  -0.12     0.01  -0.12   0.01    -0.04   0.22  -0.16
  23   6    -0.08   0.09  -0.11     0.01  -0.11   0.02    -0.02   0.11  -0.06
  24   6    -0.04   0.05  -0.06     0.01  -0.07  -0.03    -0.00  -0.01   0.07
  25   6    -0.01   0.00  -0.03     0.01  -0.02  -0.08    -0.00  -0.01   0.07
  26   6     0.02   0.01   0.03     0.00   0.03  -0.05     0.01  -0.05  -0.03
  27   6    -0.04   0.01  -0.01    -0.17  -0.17  -0.08    -0.15  -0.15  -0.10
  28   6    -0.08  -0.02  -0.07    -0.19  -0.18  -0.00    -0.07  -0.09  -0.07
  29   6    -0.08  -0.06  -0.09    -0.04   0.02   0.12     0.18   0.08   0.02
  30   6    -0.02  -0.07  -0.06     0.14   0.23   0.15     0.33   0.17   0.08
  31   6     0.03  -0.03   0.00     0.15   0.23   0.06     0.23   0.10   0.05
  32   6    -0.01  -0.02  -0.02    -0.00  -0.02  -0.07    -0.02   0.03   0.04
  33   6     0.11  -0.03  -0.33    -0.01  -0.02  -0.04    -0.03   0.03   0.02
  34   6     0.05   0.02  -0.32    -0.07  -0.03   0.06    -0.00   0.04  -0.03
  35   6    -0.15   0.08   0.01    -0.13  -0.04   0.13     0.03   0.06  -0.07
  36   6    -0.27   0.09   0.32    -0.11  -0.05   0.10     0.04   0.06  -0.06
  37   6    -0.20   0.03   0.30    -0.05  -0.04  -0.00     0.01   0.05   0.00
  38   1     0.05   0.01   0.02    -0.03  -0.06   0.03     0.01   0.05  -0.06
  39   1     0.01   0.01   0.02     0.01   0.01  -0.03    -0.02  -0.02  -0.03
  40   1     0.01   0.01   0.03     0.02   0.03   0.03    -0.03  -0.02  -0.02
  41   1     0.00   0.00   0.01     0.04   0.05   0.09    -0.03  -0.02   0.01
  42   1    -0.01  -0.01  -0.02     0.04   0.05   0.08    -0.02  -0.02   0.05
  43   1    -0.00  -0.01  -0.02     0.02   0.03   0.01    -0.01  -0.02   0.05
  44   1     0.00  -0.02  -0.00     0.00  -0.01  -0.03    -0.01   0.04  -0.02
  45   1    -0.01  -0.00  -0.02     0.00  -0.02  -0.01    -0.02   0.08  -0.06
  46   1    -0.03   0.03  -0.05     0.00  -0.04   0.01    -0.02   0.09  -0.08
  47   1    -0.03   0.04  -0.04     0.00  -0.04   0.02    -0.01   0.03  -0.02
  48   1    -0.01   0.02  -0.01     0.00  -0.02  -0.01     0.00  -0.03   0.04
  49   1    -0.01   0.01   0.00    -0.08  -0.09  -0.05    -0.10  -0.08  -0.04
  50   1    -0.04  -0.01  -0.03    -0.10  -0.10  -0.01    -0.06  -0.05  -0.03
  51   1    -0.03  -0.03  -0.04    -0.01   0.00   0.05     0.08   0.04   0.01
  52   1    -0.00  -0.03  -0.02     0.08   0.11   0.07     0.15   0.09   0.04
  53   1     0.02  -0.01   0.01     0.08   0.11   0.02     0.09   0.05   0.02
  54   1     0.07  -0.03  -0.16     0.01  -0.00  -0.03    -0.01   0.01   0.01
  55   1     0.04   0.00  -0.16    -0.02  -0.01   0.02    -0.00   0.01  -0.01
  56   1    -0.06   0.03   0.01    -0.05  -0.02   0.06     0.02   0.02  -0.03
  57   1    -0.12   0.04   0.17    -0.04  -0.02   0.04     0.02   0.02  -0.03
  58   1    -0.08   0.01   0.15    -0.01  -0.01  -0.01     0.00   0.01   0.00
                      7                      8                      9
                        a                      a                      a 
 Frequencies --    63.7492                70.5767                76.5032
 Red. masses --    11.7204                10.7944                11.0192
 Frc consts  --     0.0000                 0.0000                 0.0000
 IR Inten    --     0.0286                 0.3351                 0.4320
 Raman Activ --     0.0000                 0.0000                 0.0000
 Depolar     --     0.0000                 0.0000                 0.0000
 Atom AN      X      Y      Z        X      Y      Z        X      Y      Z
   1   8     0.08   0.00  -0.08    -0.10   0.05   0.04     0.13  -0.06   0.06
   2  15     0.16   0.05   0.04    -0.11   0.05   0.05     0.09  -0.08   0.01
   3   8     0.23   0.12   0.09    -0.07   0.00   0.05    -0.01  -0.05  -0.04
   4   8     0.03   0.03   0.12    -0.08   0.03   0.04     0.11  -0.04  -0.06
   5   6     0.04   0.02   0.11    -0.04  -0.01  -0.00     0.06  -0.01  -0.04
   6   6     0.03   0.00   0.08    -0.07  -0.09  -0.10     0.06   0.07  -0.04
   7   6     0.02  -0.02   0.02    -0.07  -0.13  -0.19    -0.01   0.10  -0.04
   8   6     0.01  -0.02  -0.01    -0.01  -0.09  -0.12    -0.08   0.07  -0.02
   9   6    -0.02  -0.07  -0.14     0.02  -0.13  -0.19    -0.17   0.11  -0.00
  10   6    -0.04  -0.09  -0.19     0.09  -0.05  -0.05    -0.24   0.07   0.05
  11   6    -0.01  -0.06  -0.08     0.14   0.08   0.15    -0.23  -0.01   0.09
  12   6     0.02  -0.01   0.04     0.11   0.11   0.18    -0.14  -0.05   0.07
  13   6     0.03   0.00   0.06     0.03   0.02   0.04    -0.07  -0.01   0.01
  14   6     0.04   0.01   0.09    -0.00   0.03   0.04     0.01  -0.05  -0.00
  15   6     0.02   0.00   0.03    -0.01   0.05   0.03     0.03  -0.08   0.02
  16   6     0.04   0.03  -0.06    -0.02   0.08  -0.01     0.01  -0.04   0.01
  17   8     0.12   0.02  -0.02    -0.02   0.08   0.00    -0.01  -0.10   0.05
  18   6     0.02   0.07  -0.18    -0.04   0.10  -0.06    -0.01   0.07  -0.06
  19   6    -0.03   0.08  -0.22    -0.06   0.13  -0.10     0.01   0.17  -0.15
  20   6    -0.06   0.02  -0.10    -0.05   0.09  -0.05     0.05   0.11  -0.11
  21   6    -0.10  -0.03  -0.08    -0.07   0.09  -0.06     0.09   0.19  -0.16
  22   6    -0.12  -0.14   0.08    -0.06   0.00   0.05     0.16   0.06  -0.07
  23   6    -0.09  -0.17   0.19    -0.04  -0.07   0.16     0.19  -0.15   0.09
  24   6    -0.05  -0.10   0.15    -0.03  -0.05   0.14     0.15  -0.20   0.11
  25   6    -0.03  -0.02   0.02    -0.03   0.04   0.04     0.07  -0.06   0.02
  26   6     0.03  -0.00   0.04    -0.06  -0.08  -0.08     0.06   0.08   0.00
  27   6    -0.01   0.02  -0.00     0.05  -0.03  -0.03     0.11   0.03   0.05
  28   6    -0.01   0.02  -0.06     0.16   0.05   0.04    -0.03  -0.06   0.08
  29   6     0.04  -0.00  -0.08     0.14   0.06   0.04    -0.22  -0.11   0.06
  30   6     0.08  -0.03  -0.05     0.01  -0.01  -0.02    -0.23  -0.05   0.03
  31   6     0.07  -0.03   0.01    -0.09  -0.08  -0.07    -0.08   0.05   0.00
  32   6     0.00   0.06  -0.15    -0.00   0.04  -0.03    -0.01   0.06  -0.03
  33   6    -0.09   0.06   0.02     0.19   0.06  -0.12     0.05   0.07  -0.02
  34   6    -0.21   0.05   0.22     0.28  -0.03  -0.11     0.08   0.02  -0.01
  35   6    -0.23   0.03   0.24     0.15  -0.14   0.00     0.05  -0.03  -0.00
  36   6    -0.11   0.03   0.02    -0.06  -0.16   0.13    -0.01  -0.04   0.00
  37   6     0.00   0.05  -0.16    -0.13  -0.07   0.10    -0.04   0.01  -0.02
  38   1     0.06   0.04   0.00    -0.01  -0.00   0.02    -0.01  -0.01  -0.01
  39   1     0.00  -0.01  -0.01    -0.03  -0.05  -0.08    -0.00   0.05  -0.01
  40   1    -0.01  -0.03  -0.06    -0.01  -0.07  -0.10    -0.05   0.05  -0.01
  41   1    -0.02  -0.04  -0.09     0.03  -0.02  -0.03    -0.09   0.03   0.02
  42   1    -0.01  -0.02  -0.03     0.06   0.04   0.08    -0.08  -0.01   0.04
  43   1     0.01   0.01   0.04     0.04   0.06   0.09    -0.04  -0.04   0.03
  44   1    -0.01   0.03  -0.09    -0.02   0.04  -0.04    -0.00   0.08  -0.07
  45   1    -0.04  -0.00  -0.05    -0.03   0.04  -0.04     0.02   0.10  -0.08
  46   1    -0.04  -0.06   0.03    -0.02  -0.00   0.02     0.05   0.03  -0.03
  47   1    -0.03  -0.07   0.09    -0.01  -0.04   0.07     0.07  -0.08   0.05
  48   1    -0.01  -0.04   0.07    -0.00  -0.03   0.06     0.05  -0.10   0.06
  49   1    -0.01   0.01   0.00     0.02  -0.01  -0.01     0.07   0.02   0.02
  50   1    -0.01   0.01  -0.03     0.07   0.03   0.02    -0.00  -0.03   0.03
  51   1     0.01  -0.00  -0.04     0.07   0.03   0.03    -0.10  -0.06   0.02
  52   1     0.03  -0.02  -0.02    -0.00  -0.00  -0.00    -0.11  -0.02   0.01
  53   1     0.03  -0.02   0.01    -0.05  -0.04  -0.03    -0.03   0.03  -0.01
  54   1    -0.02   0.02   0.00     0.08   0.04  -0.05     0.02   0.03  -0.01
  55   1    -0.09   0.01   0.11     0.13  -0.00  -0.06     0.04   0.01  -0.00
  56   1    -0.10   0.01   0.12     0.06  -0.06   0.00     0.02  -0.02   0.00
  57   1    -0.03   0.01   0.01    -0.05  -0.07   0.07    -0.01  -0.02   0.00
  58   1     0.02   0.01  -0.09    -0.09  -0.03   0.05    -0.03  -0.00  -0.01
                     10                     11                     12
                        a                      a                      a 
 Frequencies --    81.2963                98.4068               133.8762
 Red. masses --    10.9239                13.9012                13.0229
 Frc consts  --     0.0000                 0.0000                 0.0000
 IR Inten    --     0.1097                 0.7512                 6.9764
 Raman Activ --     0.0000                 0.0000                 0.0000
 Depolar     --     0.0000                 0.0000                 0.0000
 Atom AN      X      Y      Z        X      Y      Z        X      Y      Z
   1   8    -0.11   0.03   0.01     0.30  -0.19  -0.00     0.35  -0.17   0.14
   2  15    -0.14   0.03  -0.00     0.12  -0.05   0.19     0.00  -0.13  -0.03
   3   8    -0.12  -0.01  -0.01     0.22   0.26   0.17    -0.39  -0.03  -0.29
   4   8    -0.06  -0.02   0.00    -0.11   0.11   0.20     0.07   0.00  -0.14
   5   6    -0.03  -0.01   0.05    -0.08   0.02  -0.00    -0.00   0.04  -0.06
   6   6     0.01   0.02   0.17    -0.10  -0.04  -0.06     0.03   0.07   0.04
   7   6     0.06   0.04   0.27    -0.09  -0.07  -0.10     0.07   0.06   0.08
   8   6     0.05   0.02   0.16    -0.04  -0.04  -0.08     0.06   0.04   0.03
   9   6     0.06   0.01   0.16     0.05  -0.00   0.08     0.10  -0.03  -0.09
  10   6     0.01  -0.07  -0.07     0.11   0.07   0.17     0.14  -0.02  -0.18
  11   6    -0.04  -0.13  -0.27     0.08   0.08   0.05     0.17   0.07  -0.07
  12   6    -0.04  -0.10  -0.21    -0.01   0.03  -0.12     0.14   0.13   0.04
  13   6    -0.00  -0.03  -0.02    -0.06  -0.01  -0.14     0.06   0.07   0.04
  14   6    -0.02  -0.02  -0.01    -0.09   0.00  -0.13    -0.00   0.05  -0.02
  15   6    -0.04   0.03  -0.06    -0.08   0.01  -0.12    -0.02   0.01  -0.02
  16   6    -0.07   0.05  -0.05    -0.08  -0.05   0.00    -0.02  -0.05   0.09
  17   8    -0.08   0.03  -0.02    -0.13  -0.22   0.16    -0.13  -0.18   0.16
  18   6    -0.07   0.11  -0.06    -0.09   0.03   0.00    -0.02  -0.04   0.08
  19   6    -0.04   0.14  -0.08    -0.06   0.08  -0.04    -0.06   0.03  -0.03
  20   6     0.00   0.09  -0.04    -0.01   0.05  -0.04    -0.06   0.05  -0.06
  21   6     0.07   0.04   0.04     0.08  -0.00   0.06    -0.09   0.04  -0.07
  22   6     0.13  -0.08   0.13     0.16  -0.09   0.09    -0.08  -0.04   0.04
  23   6     0.13  -0.12   0.10     0.14  -0.10  -0.01    -0.07  -0.10   0.11
  24   6     0.06  -0.06   0.00     0.04  -0.02  -0.13    -0.06  -0.04   0.06
  25   6     0.00   0.04  -0.04    -0.03   0.03  -0.12    -0.05   0.02  -0.03
  26   6     0.01   0.01   0.10    -0.10  -0.04  -0.04     0.02   0.07   0.05
  27   6    -0.15   0.02   0.00    -0.06  -0.01  -0.03     0.00   0.08   0.03
  28   6    -0.13   0.03  -0.11     0.03   0.06  -0.00    -0.03   0.05  -0.01
  29   6     0.06   0.05  -0.11     0.07   0.08   0.01    -0.05   0.02  -0.03
  30   6     0.20   0.03  -0.02     0.00   0.03  -0.01    -0.02   0.02  -0.01
  31   6     0.16   0.01   0.09    -0.08  -0.03  -0.04     0.02   0.05   0.03
  32   6    -0.05   0.07  -0.02    -0.10   0.02   0.02    -0.02  -0.05   0.09
  33   6     0.09   0.09  -0.03    -0.09   0.02   0.03    -0.06  -0.06   0.04
  34   6     0.19  -0.01  -0.05    -0.05   0.01  -0.01    -0.06  -0.01  -0.03
  35   6     0.14  -0.12  -0.03    -0.00  -0.00  -0.08    -0.02   0.05  -0.06
  36   6    -0.03  -0.14   0.01    -0.02  -0.00  -0.09     0.02   0.06  -0.01
  37   6    -0.12  -0.05   0.01    -0.07   0.00  -0.04     0.01   0.01   0.07
  38   1    -0.03  -0.00   0.00     0.10   0.07   0.02     0.18  -0.11   0.16
  39   1     0.03   0.02   0.11    -0.03  -0.03  -0.03     0.02   0.02   0.04
  40   1     0.03   0.02   0.09     0.02  -0.00   0.04     0.03  -0.03  -0.04
  41   1     0.00  -0.02  -0.03     0.05   0.03   0.09     0.04  -0.03  -0.09
  42   1    -0.02  -0.06  -0.13     0.04   0.04   0.03     0.06   0.02  -0.02
  43   1    -0.02  -0.04  -0.10    -0.01   0.01  -0.06     0.04   0.06   0.03
  44   1    -0.01   0.05  -0.02    -0.02   0.04  -0.01    -0.02   0.01  -0.02
  45   1     0.02   0.03   0.01     0.03   0.00   0.04    -0.03   0.02  -0.04
  46   1     0.05  -0.04   0.06     0.07  -0.05   0.06    -0.03  -0.02   0.02
  47   1     0.05  -0.06   0.05     0.06  -0.05   0.00    -0.02  -0.05   0.06
  48   1     0.02  -0.03  -0.01     0.01  -0.01  -0.06    -0.02  -0.02   0.03
  49   1    -0.08   0.01   0.01    -0.03  -0.01  -0.01     0.00   0.03   0.01
  50   1    -0.07   0.01  -0.05     0.02   0.03   0.00    -0.02   0.02  -0.01
  51   1     0.02   0.02  -0.06     0.04   0.04   0.01    -0.03  -0.00  -0.02
  52   1     0.10   0.01  -0.01     0.01   0.01  -0.00    -0.01  -0.00  -0.01
  53   1     0.07  -0.00   0.04    -0.03  -0.02  -0.01     0.01   0.01   0.01
  54   1     0.03   0.05  -0.01    -0.03   0.01   0.02    -0.02  -0.03   0.02
  55   1     0.09   0.00  -0.02    -0.01   0.00  -0.00    -0.03  -0.00  -0.02
  56   1     0.06  -0.05  -0.01     0.01  -0.00  -0.04    -0.00   0.02  -0.04
  57   1    -0.02  -0.07   0.01     0.00  -0.00  -0.04     0.01   0.03  -0.01
  58   1    -0.07  -0.02   0.01    -0.02   0.00  -0.01     0.01   0.00   0.03
                     13                     14                     15
                        a                      a                      a 
 Frequencies --   136.5432               150.7537               158.8892
 Red. masses --    11.1938                10.2877                 5.6694
 Frc consts  --     0.0000                 0.0000                 0.0000
 IR Inten    --     1.1955                 2.0703                80.5860
 Raman Activ --     0.0000                 0.0000                 0.0000
 Depolar     --     0.0000                 0.0000                 0.0000
 Atom AN      X      Y      Z        X      Y      Z        X      Y      Z
   1   8     0.16  -0.09   0.04    -0.06   0.07  -0.01     0.03   0.08   0.03
   2  15     0.05  -0.07   0.02     0.02   0.05   0.00    -0.08   0.13  -0.04
   3   8    -0.18  -0.00  -0.13     0.11   0.02   0.07    -0.14   0.06  -0.08
   4   8     0.12  -0.07  -0.04    -0.01   0.05  -0.01    -0.12   0.08   0.14
   5   6     0.04  -0.05  -0.05    -0.01   0.02  -0.06    -0.03   0.01   0.08
   6   6     0.02  -0.06  -0.16    -0.04  -0.03  -0.15    -0.06  -0.04   0.01
   7   6     0.02  -0.02  -0.09     0.01  -0.00  -0.04    -0.06  -0.04  -0.02
   8   6     0.01  -0.01   0.02     0.05   0.04   0.06    -0.03  -0.02   0.01
   9   6    -0.00   0.07   0.17     0.11   0.09   0.21    -0.04   0.01   0.06
  10   6    -0.06   0.03   0.14     0.07   0.03   0.03    -0.06   0.00   0.07
  11   6    -0.11  -0.11  -0.09    -0.00  -0.07  -0.27    -0.08  -0.03  -0.01
  12   6    -0.07  -0.15  -0.14    -0.01  -0.05  -0.23    -0.07  -0.04  -0.04
  13   6     0.01  -0.06  -0.02     0.01   0.02  -0.05    -0.03  -0.01  -0.01
  14   6     0.04  -0.04   0.04    -0.00   0.04  -0.02    -0.00   0.01   0.02
  15   6     0.04   0.04   0.07     0.01   0.02   0.03     0.02  -0.01   0.01
  16   6     0.04   0.05   0.06     0.03  -0.01   0.05     0.04   0.02  -0.06
  17   8     0.02  -0.02   0.14     0.03   0.06  -0.01     0.11   0.10  -0.15
  18   6     0.01   0.14  -0.08     0.05  -0.10   0.13     0.06  -0.03  -0.03
  19   6    -0.02   0.11  -0.08     0.00  -0.03   0.02     0.06  -0.07   0.03
  20   6    -0.03   0.04   0.01    -0.04   0.05  -0.06     0.05  -0.05   0.03
  21   6    -0.08  -0.12   0.14    -0.11   0.15  -0.19     0.05   0.02  -0.03
  22   6    -0.15  -0.10   0.19    -0.11   0.03  -0.03     0.07   0.06  -0.10
  23   6    -0.18   0.13   0.03    -0.06  -0.17   0.24     0.08  -0.01  -0.03
  24   6    -0.13   0.23  -0.04    -0.02  -0.14   0.22     0.08  -0.09   0.05
  25   6    -0.03   0.11   0.00    -0.01  -0.01   0.06     0.04  -0.06   0.05
  26   6     0.02  -0.07  -0.15    -0.08  -0.06  -0.17    -0.09  -0.06  -0.02
  27   6     0.09  -0.13  -0.08    -0.02  -0.11  -0.11    -0.08  -0.05  -0.02
  28   6     0.11  -0.12   0.04     0.06  -0.05   0.03     0.00   0.01   0.00
  29   6     0.04  -0.06   0.09     0.05   0.05   0.09     0.07   0.05   0.03
  30   6    -0.04  -0.00   0.02    -0.06   0.07   0.01     0.01  -0.00   0.01
  31   6    -0.04  -0.01  -0.10    -0.13   0.01  -0.12    -0.08  -0.06  -0.02
  32   6     0.04   0.14  -0.11     0.06  -0.11   0.15     0.07  -0.02  -0.05
  33   6     0.10   0.16  -0.05    -0.02  -0.13   0.07     0.05  -0.02  -0.05
  34   6     0.10   0.09   0.06    -0.05  -0.03  -0.04    -0.01  -0.01   0.01
  35   6     0.03   0.02   0.12     0.01   0.08  -0.06    -0.03   0.01   0.06
  36   6    -0.01   0.00   0.03     0.08   0.10   0.05     0.02   0.01   0.01
  37   6    -0.00   0.07  -0.09     0.10  -0.00   0.16     0.07  -0.00  -0.04
  38   1     0.06  -0.04   0.05    -0.09   0.05  -0.08     0.61  -0.21   0.47
  39   1     0.00  -0.00  -0.03     0.00  -0.00  -0.01    -0.02  -0.02  -0.02
  40   1     0.01   0.05   0.08     0.05   0.04   0.12    -0.01   0.01   0.03
  41   1    -0.02   0.03   0.08     0.03   0.02   0.03    -0.01   0.01   0.03
  42   1    -0.05  -0.05  -0.06    -0.01  -0.04  -0.14    -0.02  -0.01  -0.01
  43   1    -0.03  -0.07  -0.08    -0.01  -0.03  -0.10    -0.02  -0.02  -0.02
  44   1    -0.01   0.04  -0.04     0.00  -0.01   0.00     0.02  -0.03   0.01
  45   1    -0.02  -0.08   0.05    -0.05   0.08  -0.11     0.01   0.02  -0.01
  46   1    -0.05  -0.07   0.09    -0.04   0.02  -0.03     0.02   0.04  -0.05
  47   1    -0.07   0.06  -0.00    -0.01  -0.09   0.12     0.02  -0.00  -0.01
  48   1    -0.04   0.12  -0.03     0.00  -0.06   0.10     0.02  -0.04   0.02
  49   1     0.04  -0.05  -0.03     0.00  -0.05  -0.04    -0.03  -0.02  -0.01
  50   1     0.05  -0.05   0.03     0.04  -0.02   0.02     0.01   0.01   0.00
  51   1     0.02  -0.01   0.05     0.04   0.03   0.06     0.05   0.03   0.02
  52   1    -0.03   0.02   0.02    -0.02   0.04   0.02     0.01   0.00   0.00
  53   1    -0.02   0.01  -0.04    -0.05   0.01  -0.05    -0.03  -0.02  -0.01
  54   1     0.04   0.06  -0.02    -0.02  -0.06   0.02     0.02  -0.01  -0.02
  55   1     0.04   0.03   0.03    -0.03  -0.01  -0.03    -0.01  -0.00   0.01
  56   1     0.00  -0.01   0.06     0.00   0.04  -0.05    -0.02   0.00   0.03
  57   1    -0.02  -0.02   0.02     0.03   0.05   0.01     0.00   0.01   0.01
  58   1    -0.01   0.02  -0.04     0.05   0.00   0.07     0.03   0.00  -0.02
                     16                     17                     18
                        a                      a                      a 
 Frequencies --   182.7084               189.9268               207.5823
 Red. masses --    12.0372                12.8266                10.6778
 Frc consts  --     0.0000                 0.0000                 0.0000
 IR Inten    --     3.1294                 2.6741                 2.3867
 Raman Activ --     0.0000                 0.0000                 0.0000
 Depolar     --     0.0000                 0.0000                 0.0000
 Atom AN      X      Y      Z        X      Y      Z        X      Y      Z
   1   8    -0.08   0.17   0.03     0.12   0.17   0.20    -0.04   0.09   0.01
   2  15    -0.05   0.20   0.02     0.01   0.21   0.10     0.03   0.07  -0.02
   3   8    -0.10   0.21  -0.04    -0.11   0.27  -0.03     0.09   0.02   0.04
   4   8     0.07   0.02   0.05     0.09   0.09   0.00     0.02   0.03   0.01
   5   6     0.09  -0.01   0.02     0.08   0.05  -0.02     0.06   0.01   0.02
   6   6     0.12  -0.01   0.04     0.08   0.01  -0.08     0.05  -0.01  -0.05
   7   6     0.02  -0.05  -0.14     0.07   0.03  -0.02     0.06   0.06   0.10
   8   6    -0.03  -0.09  -0.21     0.06   0.03   0.07     0.06   0.09   0.21
   9   6    -0.04  -0.02  -0.08     0.08   0.02   0.07    -0.05   0.06   0.04
  10   6    -0.01   0.06   0.19     0.06  -0.02  -0.07    -0.16  -0.05  -0.15
  11   6    -0.02   0.00   0.12     0.05  -0.03  -0.11    -0.11  -0.03   0.03
  12   6    -0.05  -0.12  -0.14     0.06   0.03   0.00     0.02   0.04   0.26
  13   6    -0.02  -0.11  -0.20     0.04   0.03   0.06     0.07   0.07   0.24
  14   6     0.02  -0.06  -0.09     0.02   0.01   0.03     0.05   0.01   0.08
  15   6    -0.00   0.03  -0.03    -0.01  -0.08   0.08    -0.01   0.03  -0.07
  16   6    -0.04   0.05   0.00    -0.10   0.01   0.02    -0.02   0.02  -0.06
  17   8    -0.02   0.11  -0.01    -0.11   0.02   0.05     0.03   0.02  -0.06
  18   6    -0.04  -0.03   0.05    -0.13   0.01  -0.03    -0.02  -0.02  -0.01
  19   6    -0.04   0.02  -0.01    -0.06  -0.08   0.12    -0.01   0.07  -0.09
  20   6    -0.03   0.06  -0.09     0.01  -0.16   0.17    -0.01   0.11  -0.15
  21   6    -0.07   0.03  -0.08     0.03  -0.04   0.07     0.03  -0.01  -0.01
  22   6    -0.08  -0.06   0.06     0.02   0.13  -0.14     0.07  -0.12   0.10
  23   6    -0.07  -0.06   0.10     0.03   0.05  -0.08     0.04   0.01  -0.05
  24   6    -0.06   0.04   0.00     0.04  -0.16   0.12    -0.01   0.13  -0.19
  25   6    -0.02   0.06  -0.06     0.01  -0.17   0.16    -0.02   0.12  -0.17
  26   6     0.22   0.03   0.12     0.08  -0.01  -0.11     0.01  -0.07  -0.15
  27   6     0.21   0.03   0.10     0.12  -0.08  -0.06     0.05  -0.16  -0.10
  28   6     0.05  -0.09  -0.01     0.08  -0.11   0.01     0.09  -0.14   0.02
  29   6    -0.04  -0.21  -0.09     0.01  -0.08   0.03     0.10  -0.06   0.07
  30   6     0.13  -0.13  -0.01     0.00   0.00  -0.00     0.01  -0.02  -0.00
  31   6     0.27  -0.01   0.09     0.05   0.03  -0.08    -0.02  -0.05  -0.12
  32   6    -0.05  -0.07   0.12    -0.16   0.04  -0.11    -0.11  -0.07   0.14
  33   6    -0.10  -0.08   0.10    -0.12   0.04  -0.07    -0.18  -0.08   0.15
  34   6    -0.06  -0.04  -0.02    -0.07  -0.05  -0.02    -0.10  -0.05  -0.02
  35   6     0.02   0.00  -0.12    -0.09  -0.15  -0.05     0.03  -0.03  -0.20
  36   6     0.00   0.01  -0.01    -0.14  -0.16  -0.12    -0.03  -0.02  -0.02
  37   6    -0.04  -0.03   0.12    -0.19  -0.08  -0.15    -0.13  -0.06   0.17
  38   1     0.10   0.02   0.07    -0.05   0.09  -0.05     0.13  -0.03   0.08
  39   1     0.01  -0.00  -0.04     0.02   0.01  -0.02     0.01   0.02   0.01
  40   1    -0.01   0.01  -0.02     0.03   0.01   0.04    -0.02   0.03  -0.01
  41   1     0.01   0.05   0.12     0.02  -0.01  -0.04    -0.07  -0.04  -0.12
  42   1    -0.00   0.01   0.08     0.01  -0.02  -0.06    -0.05  -0.03  -0.01
  43   1    -0.02  -0.05  -0.06     0.02   0.01   0.01     0.01   0.01   0.10
  44   1    -0.01   0.00   0.01    -0.02  -0.01   0.04     0.00   0.01  -0.01
  45   1    -0.02   0.01  -0.04     0.01  -0.00   0.03     0.01  -0.02   0.02
  46   1    -0.03  -0.04   0.03    -0.00   0.09  -0.09     0.03  -0.08   0.08
  47   1    -0.02  -0.04   0.05     0.01   0.04  -0.06     0.02  -0.01  -0.01
  48   1    -0.02   0.03   0.00     0.01  -0.07   0.04    -0.01   0.06  -0.07
  49   1     0.07   0.02   0.04     0.05  -0.03  -0.03     0.02  -0.07  -0.04
  50   1    -0.01  -0.03  -0.02     0.03  -0.05   0.01     0.04  -0.05   0.02
  51   1    -0.07  -0.10  -0.06    -0.01  -0.03   0.02     0.05  -0.00   0.05
  52   1     0.03  -0.05  -0.01    -0.01   0.01   0.01    -0.01   0.02   0.01
  53   1     0.10  -0.00   0.04     0.01   0.02  -0.03    -0.02  -0.00  -0.04
  54   1    -0.04  -0.03   0.04    -0.03   0.03  -0.02    -0.07  -0.04   0.06
  55   1    -0.02  -0.01  -0.02    -0.00  -0.01   0.01    -0.03  -0.02  -0.02
  56   1     0.02   0.01  -0.07    -0.02  -0.06  -0.00     0.05   0.00  -0.12
  57   1     0.01   0.02  -0.01    -0.04  -0.07  -0.04     0.00   0.00  -0.02
  58   1    -0.01  -0.01   0.05    -0.08  -0.03  -0.06    -0.05  -0.02   0.07
                     19                     20                     21
                        a                      a                      a 
 Frequencies --   221.6767               237.8426               246.3100
 Red. masses --    11.1808                12.6069                12.6876
 Frc consts  --     0.0000                 0.0000                 0.0000
 IR Inten    --     9.6601                 3.6644                 1.1274
 Raman Activ --     0.0000                 0.0000                 0.0000
 Depolar     --     0.0000                 0.0000                 0.0000
 Atom AN      X      Y      Z        X      Y      Z        X      Y      Z
   1   8     0.13   0.13   0.21     0.25   0.13   0.16    -0.01   0.08  -0.03
   2  15    -0.01   0.14   0.06     0.20   0.05  -0.13     0.18   0.02  -0.04
   3   8    -0.26   0.23  -0.15     0.07  -0.17  -0.11    -0.07  -0.10  -0.13
   4   8     0.03   0.05  -0.01     0.09   0.07  -0.12     0.22  -0.13   0.01
   5   6     0.02   0.05   0.04     0.03   0.08  -0.02     0.04  -0.01   0.13
   6   6     0.02  -0.01   0.07     0.05   0.02   0.09    -0.01   0.04   0.02
   7   6     0.02  -0.01   0.05     0.04   0.01   0.03     0.01  -0.06  -0.12
   8   6    -0.00  -0.00   0.01    -0.01  -0.02  -0.07     0.01  -0.08  -0.08
   9   6    -0.08   0.01  -0.03    -0.05   0.01  -0.06     0.05  -0.08  -0.02
  10   6    -0.11   0.00   0.02    -0.05   0.04   0.05     0.08  -0.03   0.10
  11   6    -0.10   0.02   0.08    -0.05   0.05   0.05     0.06  -0.10   0.01
  12   6    -0.05  -0.01   0.04    -0.05  -0.01  -0.07     0.03  -0.12  -0.07
  13   6    -0.00   0.01   0.00    -0.02   0.00  -0.11     0.03  -0.10   0.00
  14   6     0.01   0.02  -0.00    -0.01   0.03  -0.07     0.03  -0.03   0.13
  15   6     0.00   0.05  -0.04    -0.01  -0.02  -0.04     0.03   0.01   0.14
  16   6     0.01   0.03   0.02     0.01  -0.01  -0.10     0.04   0.00   0.10
  17   8    -0.05   0.05   0.05     0.07   0.01  -0.13     0.24   0.17   0.06
  18   6     0.03  -0.07   0.04     0.00   0.05  -0.06    -0.01  -0.03  -0.02
  19   6    -0.00  -0.03  -0.02     0.02  -0.02   0.01     0.05   0.08  -0.08
  20   6    -0.01   0.05  -0.10     0.01  -0.07   0.06     0.04   0.09  -0.02
  21   6     0.04   0.04  -0.06    -0.05  -0.07   0.01     0.07   0.07   0.03
  22   6     0.09  -0.06   0.02    -0.10   0.02  -0.07     0.08   0.02   0.10
  23   6     0.09  -0.05   0.00    -0.09  -0.01  -0.02     0.07   0.11   0.06
  24   6     0.03   0.05  -0.11    -0.03  -0.09   0.08     0.06   0.14   0.03
  25   6    -0.01   0.08  -0.10     0.01  -0.09   0.04     0.06   0.09   0.07
  26   6    -0.10  -0.11   0.06    -0.11  -0.11   0.13    -0.10   0.04   0.02
  27   6    -0.16  -0.12   0.03    -0.22  -0.12   0.06    -0.16   0.11  -0.02
  28   6    -0.01  -0.02   0.01    -0.05  -0.00   0.01    -0.09   0.17  -0.01
  29   6     0.17   0.03   0.03     0.20   0.05   0.03    -0.07   0.20   0.00
  30   6     0.04  -0.11   0.00     0.05  -0.14   0.00    -0.13   0.09   0.00
  31   6    -0.10  -0.20   0.02    -0.13  -0.25   0.05    -0.16   0.06   0.03
  32   6     0.16  -0.14  -0.06    -0.12   0.12   0.07    -0.09  -0.08  -0.00
  33   6     0.12  -0.16  -0.18    -0.09   0.15   0.20    -0.17  -0.11  -0.03
  34   6    -0.04  -0.08  -0.07     0.05   0.10   0.10    -0.16  -0.11  -0.07
  35   6    -0.14   0.01   0.12     0.16   0.05  -0.10    -0.12  -0.14  -0.15
  36   6     0.06   0.03   0.02    -0.02   0.03   0.00    -0.10  -0.14  -0.09
  37   6     0.23  -0.06  -0.10    -0.17   0.09   0.13    -0.13  -0.14  -0.01
  38   1    -0.24   0.12  -0.19    -0.08  -0.03  -0.05    -0.04  -0.03  -0.00
  39   1     0.00   0.00   0.01     0.02   0.01   0.02    -0.00  -0.03  -0.06
  40   1    -0.03   0.01  -0.03    -0.02   0.01  -0.03     0.01  -0.03  -0.00
  41   1    -0.04   0.00   0.00    -0.01   0.02   0.04     0.03   0.01   0.07
  42   1    -0.03   0.01   0.04    -0.01   0.02   0.04     0.02  -0.03   0.00
  43   1    -0.01  -0.02   0.02    -0.01  -0.02  -0.02     0.00  -0.04  -0.04
  44   1     0.00  -0.01   0.00     0.01  -0.01   0.00     0.01   0.05  -0.03
  45   1     0.01   0.02  -0.01    -0.02  -0.03  -0.01     0.02   0.02   0.01
  46   1     0.03  -0.04   0.03    -0.04   0.03  -0.05     0.02  -0.02   0.05
  47   1     0.03  -0.03   0.02    -0.03   0.01  -0.01     0.01   0.04   0.02
  48   1     0.01   0.01  -0.04    -0.00  -0.02   0.04     0.01   0.05  -0.01
  49   1    -0.07  -0.04   0.01    -0.10  -0.04   0.02    -0.07   0.03  -0.00
  50   1    -0.00   0.01  -0.00    -0.02   0.02  -0.01    -0.01   0.05   0.00
  51   1     0.10   0.04   0.01     0.12   0.06   0.01     0.00   0.07   0.00
  52   1     0.02  -0.03  -0.00     0.03  -0.05  -0.01    -0.03   0.01  -0.01
  53   1    -0.04  -0.08   0.01    -0.05  -0.11   0.02    -0.05   0.02   0.01
  54   1     0.04  -0.07  -0.08    -0.03   0.07   0.08    -0.05  -0.05  -0.01
  55   1    -0.04  -0.03  -0.03     0.03   0.03   0.04    -0.04  -0.03  -0.01
  56   1    -0.09   0.02   0.09     0.10   0.00  -0.08    -0.02  -0.04  -0.06
  57   1     0.02   0.03   0.02    -0.01  -0.01  -0.01    -0.02  -0.03  -0.03
  58   1     0.10  -0.01  -0.04    -0.08   0.02   0.05    -0.05  -0.04  -0.00
                     22                     23                     24
                        a                      a                      a 
 Frequencies --   269.0211               286.2547               297.5874
 Red. masses --    12.1169                12.3208                10.9274
 Frc consts  --     0.0000                 0.0000                 0.0000
 IR Inten    --     1.9869                 4.0622                 0.5394
 Raman Activ --     0.0000                 0.0000                 0.0000
 Depolar     --     0.0000                 0.0000                 0.0000
 Atom AN      X      Y      Z        X      Y      Z        X      Y      Z
   1   8    -0.05   0.11   0.16    -0.20  -0.15  -0.14    -0.07  -0.09  -0.06
   2  15    -0.07   0.07   0.08    -0.16  -0.08   0.15    -0.08  -0.05   0.07
   3   8    -0.13   0.30  -0.04    -0.02   0.16   0.14    -0.16   0.07  -0.03
   4   8     0.03  -0.07   0.07     0.01  -0.01   0.01    -0.13   0.06   0.07
   5   6     0.05  -0.07   0.08     0.04  -0.05  -0.14    -0.02   0.03   0.04
   6   6     0.00   0.01  -0.01     0.10   0.07   0.03    -0.04  -0.02   0.00
   7   6     0.07  -0.05  -0.03     0.21   0.14   0.24    -0.15  -0.03  -0.17
   8   6     0.09  -0.07   0.02     0.16   0.08  -0.07    -0.07   0.06  -0.04
   9   6     0.06  -0.08  -0.00    -0.01   0.10  -0.20    -0.00   0.11   0.09
  10   6     0.00  -0.12   0.04    -0.08   0.09  -0.04     0.02   0.11  -0.02
  11   6     0.02  -0.17   0.08    -0.03   0.06   0.16    -0.02   0.09  -0.18
  12   6     0.06  -0.19   0.07     0.05  -0.09  -0.07    -0.02   0.17  -0.01
  13   6     0.10  -0.13   0.05     0.12  -0.06  -0.19    -0.05   0.14   0.05
  14   6     0.06  -0.10   0.03     0.08  -0.04  -0.18     0.04   0.08   0.04
  15   6     0.04  -0.09  -0.05     0.11   0.03  -0.03     0.10  -0.05   0.08
  16   6     0.01  -0.02  -0.09     0.03   0.03   0.05     0.09  -0.03   0.04
  17   8    -0.04  -0.04  -0.05    -0.10  -0.08   0.14     0.00  -0.03   0.03
  18   6     0.04   0.01  -0.07     0.02   0.01  -0.01     0.08   0.01  -0.11
  19   6    -0.02  -0.02  -0.11     0.10   0.03  -0.01     0.06   0.21  -0.36
  20   6     0.01  -0.10  -0.09     0.17  -0.04   0.01     0.12  -0.05  -0.07
  21   6    -0.02  -0.17  -0.06     0.03  -0.08  -0.04     0.08  -0.23   0.06
  22   6    -0.04  -0.14  -0.11    -0.11   0.02  -0.02    -0.02  -0.08  -0.05
  23   6    -0.05  -0.08  -0.17    -0.09   0.07   0.09    -0.04   0.15  -0.14
  24   6    -0.00  -0.12  -0.09     0.06   0.07   0.15     0.11  -0.05   0.13
  25   6     0.01  -0.13  -0.07     0.18   0.01   0.06     0.16  -0.12   0.14
  26   6    -0.04   0.07  -0.06    -0.01   0.00  -0.02    -0.01  -0.02   0.09
  27   6    -0.06   0.13  -0.08    -0.11  -0.07  -0.06    -0.00  -0.00   0.09
  28   6    -0.06   0.14  -0.03    -0.04  -0.02  -0.01    -0.01  -0.01   0.01
  29   6    -0.14   0.19   0.00     0.09   0.10   0.05     0.03  -0.06  -0.03
  30   6    -0.14   0.16   0.01    -0.06   0.00  -0.01     0.07  -0.07   0.00
  31   6    -0.11   0.16  -0.02    -0.12  -0.05  -0.05     0.05  -0.07   0.06
  32   6     0.03   0.03   0.04    -0.01  -0.00  -0.02     0.06  -0.08   0.03
  33   6     0.05   0.06   0.15    -0.05  -0.02  -0.03    -0.05  -0.10   0.08
  34   6     0.09   0.08   0.08    -0.04  -0.03  -0.03    -0.06  -0.04  -0.01
  35   6     0.16   0.12  -0.00    -0.04  -0.06  -0.04     0.03   0.01  -0.10
  36   6     0.06   0.12   0.09    -0.04  -0.06  -0.01     0.01   0.02   0.06
  37   6     0.02   0.10   0.13    -0.04  -0.05  -0.02     0.02  -0.05   0.12
  38   1    -0.01   0.09  -0.07     0.10   0.03   0.05    -0.08   0.04  -0.05
  39   1     0.02  -0.03  -0.02     0.09   0.05   0.15    -0.05  -0.02  -0.09
  40   1     0.01  -0.02  -0.01    -0.01   0.05  -0.10     0.01   0.03   0.06
  41   1    -0.02  -0.03   0.01    -0.05   0.03  -0.02     0.02   0.03   0.01
  42   1    -0.00  -0.05   0.03    -0.02   0.03   0.12    -0.01   0.01  -0.09
  43   1     0.02  -0.07   0.02     0.02  -0.06  -0.02    -0.00   0.06   0.01
  44   1    -0.00  -0.01  -0.04     0.03   0.04  -0.00     0.01   0.12  -0.16
  45   1    -0.00  -0.07  -0.01     0.00  -0.05  -0.04     0.03  -0.11   0.04
  46   1    -0.01  -0.04  -0.03    -0.06   0.01  -0.03    -0.02  -0.03  -0.02
  47   1    -0.02  -0.01  -0.06    -0.05   0.04   0.03    -0.04   0.11  -0.09
  48   1     0.00  -0.03  -0.02     0.02   0.05   0.07     0.04  -0.01   0.06
  49   1    -0.02   0.04  -0.02    -0.05  -0.03  -0.02    -0.01   0.00   0.03
  50   1    -0.00   0.03   0.00    -0.01  -0.01  -0.00    -0.01   0.01  -0.01
  51   1    -0.04   0.05   0.01     0.07   0.06   0.03     0.01  -0.02  -0.02
  52   1    -0.04   0.04  -0.00    -0.02  -0.00  -0.00     0.03  -0.03  -0.00
  53   1    -0.03   0.07  -0.02    -0.05  -0.02  -0.02     0.02  -0.04   0.03
  54   1     0.01   0.03   0.06    -0.02  -0.01  -0.00    -0.03  -0.05   0.03
  55   1     0.02   0.02   0.02    -0.00  -0.01  -0.01    -0.03  -0.02  -0.01
  56   1     0.07   0.04  -0.03    -0.01  -0.02  -0.01     0.02   0.02  -0.07
  57   1     0.01   0.03   0.03    -0.01  -0.01   0.00     0.00   0.02   0.03
  58   1     0.01   0.03   0.06    -0.02  -0.02  -0.01     0.01  -0.01   0.05
                     25                     26                     27
                        a                      a                      a 
 Frequencies --   304.6629               321.5758               327.9695
 Red. masses --    11.5096                12.4669                13.3111
 Frc consts  --     0.0000                 0.0000                 0.0000
 IR Inten    --     5.7025                14.4396                 1.6796
 Raman Activ --     0.0000                 0.0000                 0.0000
 Depolar     --     0.0000                 0.0000                 0.0000
 Atom AN      X      Y      Z        X      Y      Z        X      Y      Z
   1   8    -0.14   0.23   0.05     0.32   0.03   0.27     0.07   0.12   0.14
   2  15     0.07   0.09  -0.12    -0.05   0.01  -0.11    -0.11   0.05  -0.19
   3   8     0.19   0.01   0.01     0.08   0.01  -0.01     0.28  -0.05   0.10
   4   8     0.14  -0.02  -0.13    -0.25   0.09  -0.03    -0.08   0.08  -0.22
   5   6     0.01   0.01  -0.10    -0.13  -0.06  -0.14     0.03   0.01  -0.13
   6   6     0.04   0.03   0.00    -0.12  -0.11  -0.05     0.04   0.00  -0.06
   7   6     0.04   0.11   0.22    -0.05  -0.03   0.24     0.10  -0.11  -0.28
   8   6    -0.10  -0.03   0.03    -0.08  -0.10   0.11     0.17  -0.03  -0.08
   9   6    -0.03  -0.12  -0.07    -0.03  -0.19   0.03     0.07   0.10   0.09
  10   6     0.09  -0.04  -0.02    -0.01  -0.18   0.00    -0.08  -0.02   0.03
  11   6     0.11   0.07   0.07     0.01  -0.04   0.11    -0.10  -0.16  -0.06
  12   6    -0.04   0.04  -0.11    -0.09  -0.03   0.02     0.10  -0.12   0.16
  13   6    -0.15  -0.04  -0.11    -0.12  -0.06  -0.07     0.21  -0.03   0.09
  14   6    -0.09  -0.05  -0.03    -0.07  -0.04  -0.11     0.05   0.00  -0.02
  15   6    -0.03  -0.16   0.17     0.01   0.03  -0.00     0.03  -0.03  -0.01
  16   6    -0.03  -0.18   0.23     0.03   0.05  -0.10    -0.04  -0.03   0.04
  17   8    -0.05  -0.01   0.03     0.01   0.06  -0.19    -0.34  -0.16  -0.06
  18   6    -0.06  -0.03   0.10     0.05   0.01  -0.06    -0.05   0.02   0.09
  19   6    -0.17   0.23  -0.23     0.16   0.07  -0.06    -0.04   0.12  -0.02
  20   6    -0.13   0.05  -0.01     0.17   0.04  -0.01     0.01   0.07   0.02
  21   6    -0.02  -0.01   0.12     0.06  -0.02  -0.01     0.01   0.03   0.06
  22   6     0.06  -0.04   0.08    -0.07   0.04   0.06    -0.03   0.05   0.09
  23   6     0.01   0.07  -0.15    -0.05   0.13   0.11    -0.05   0.09   0.02
  24   6    -0.05  -0.08  -0.04     0.08   0.14   0.15    -0.03   0.04   0.06
  25   6    -0.09  -0.14   0.12     0.17   0.06   0.08     0.03  -0.01   0.04
  26   6     0.01  -0.00  -0.06    -0.02  -0.02  -0.09    -0.02  -0.00   0.14
  27   6    -0.00  -0.05  -0.05     0.12   0.07  -0.03    -0.07   0.07   0.10
  28   6     0.01  -0.05  -0.00     0.02   0.00  -0.01    -0.07   0.09  -0.02
  29   6     0.04   0.01   0.03    -0.12  -0.03  -0.02    -0.02   0.05  -0.04
  30   6    -0.02   0.01  -0.01     0.03   0.10   0.02     0.02  -0.02   0.01
  31   6    -0.03  -0.01  -0.06     0.04   0.10  -0.03    -0.02  -0.04   0.12
  32   6     0.04  -0.05   0.05     0.02  -0.04   0.01     0.00  -0.03   0.05
  33   6     0.07  -0.05  -0.02    -0.02  -0.06  -0.01     0.02  -0.05  -0.06
  34   6     0.04  -0.01  -0.03    -0.06  -0.04  -0.01    -0.00  -0.03  -0.07
  35   6    -0.01   0.04   0.07    -0.03  -0.02  -0.04    -0.07  -0.02   0.04
  36   6     0.05   0.05   0.03     0.00  -0.02  -0.01     0.01  -0.02  -0.01
  37   6     0.11   0.01  -0.00     0.00  -0.04   0.03     0.07  -0.04  -0.05
  38   1     0.14  -0.02   0.06    -0.05   0.04  -0.08     0.11  -0.02   0.03
  39   1     0.03   0.07   0.12     0.00   0.01   0.13     0.02  -0.06  -0.11
  40   1    -0.01  -0.07  -0.03    -0.01  -0.07  -0.00     0.02   0.08   0.04
  41   1     0.04  -0.02  -0.00     0.00  -0.07  -0.02    -0.05   0.01   0.01
  42   1     0.06   0.05   0.06     0.03   0.02   0.06    -0.06  -0.08  -0.05
  43   1    -0.02   0.03  -0.04    -0.03   0.00   0.00     0.04  -0.07   0.07
  44   1    -0.07   0.13  -0.15     0.05   0.04  -0.01    -0.01   0.06  -0.02
  45   1     0.00  -0.00   0.07     0.01  -0.03  -0.02     0.00  -0.01   0.02
  46   1     0.04  -0.03   0.05    -0.05   0.00   0.01    -0.01   0.01   0.03
  47   1     0.01   0.06  -0.10    -0.04   0.06   0.03    -0.01   0.04  -0.01
  48   1    -0.02  -0.04  -0.03     0.03   0.07   0.06    -0.01   0.02   0.03
  49   1     0.00  -0.02  -0.02     0.06   0.03  -0.00    -0.04   0.04   0.04
  50   1     0.01  -0.02   0.00     0.01  -0.01   0.00    -0.03   0.04  -0.02
  51   1     0.02   0.01   0.02    -0.07  -0.04  -0.01    -0.00   0.02  -0.03
  52   1    -0.01   0.01   0.00     0.02   0.05   0.02     0.02  -0.03  -0.01
  53   1    -0.02   0.00  -0.02     0.01   0.05  -0.02    -0.01  -0.03   0.04
  54   1     0.02  -0.02  -0.01    -0.01  -0.03  -0.01     0.01  -0.03  -0.03
  55   1     0.01  -0.01  -0.03    -0.02  -0.01   0.00     0.01  -0.01  -0.04
  56   1    -0.02   0.02   0.04    -0.01  -0.00  -0.02    -0.04  -0.00   0.04
  57   1     0.02   0.02   0.01     0.01   0.01  -0.01     0.01   0.01  -0.00
  58   1     0.05   0.00  -0.01     0.00  -0.01   0.01     0.03  -0.01  -0.03
                     28                     29                     30
                        a                      a                      a 
 Frequencies --   340.2709               357.4188               371.9919
 Red. masses --    11.6226                12.4026                 8.9808
 Frc consts  --     0.0000                 0.0000                 0.0000
 IR Inten    --    12.6050                 3.8638                 0.2767
 Raman Activ --     0.0000                 0.0000                 0.0000
 Depolar     --     0.0000                 0.0000                 0.0000
 Atom AN      X      Y      Z        X      Y      Z        X      Y      Z
   1   8     0.22  -0.13  -0.15     0.06   0.04   0.01     0.02   0.00   0.02
   2  15    -0.04   0.08   0.00    -0.11   0.06  -0.14     0.01  -0.01  -0.01
   3   8    -0.07  -0.25   0.04     0.03  -0.11  -0.01     0.01   0.00  -0.01
   4   8    -0.17   0.12   0.11    -0.26   0.13   0.03     0.01  -0.01  -0.00
   5   6     0.03   0.07   0.17     0.11   0.08   0.29    -0.00   0.00   0.02
   6   6     0.03   0.03   0.07     0.08   0.05   0.15    -0.00  -0.00   0.02
   7   6     0.12   0.00   0.07    -0.03   0.04   0.01    -0.02  -0.00   0.02
   8   6     0.15   0.01  -0.04    -0.03   0.03  -0.01    -0.02  -0.00   0.01
   9   6     0.01   0.01  -0.17    -0.04  -0.05  -0.18    -0.01  -0.02  -0.00
  10   6    -0.04   0.03   0.09     0.07   0.08   0.11     0.01  -0.01   0.01
  11   6    -0.03  -0.05   0.10     0.04   0.04  -0.00     0.00   0.01   0.00
  12   6     0.03  -0.17  -0.12    -0.04  -0.02  -0.18    -0.02   0.01  -0.01
  13   6     0.15  -0.04  -0.01     0.00   0.06   0.11    -0.02   0.01   0.01
  14   6     0.06   0.08   0.11     0.12   0.07   0.26    -0.00   0.00   0.01
  15   6    -0.05   0.13  -0.07     0.11  -0.18   0.16    -0.01   0.02  -0.02
  16   6    -0.05   0.16  -0.14     0.05  -0.13   0.11    -0.00   0.02  -0.05
  17   8    -0.05   0.06  -0.05    -0.27  -0.15  -0.08    -0.01  -0.01  -0.02
  18   6    -0.04   0.09  -0.05     0.03  -0.06   0.05     0.01   0.01  -0.02
  19   6    -0.15   0.10  -0.10     0.08  -0.06   0.05     0.02  -0.01   0.01
  20   6    -0.17   0.04   0.04     0.10  -0.04  -0.04     0.02   0.00   0.01
  21   6    -0.00  -0.03   0.23    -0.00   0.06  -0.21     0.01  -0.00   0.01
  22   6     0.05   0.12  -0.02    -0.01  -0.14   0.05    -0.01   0.02  -0.00
  23   6     0.04   0.06  -0.10    -0.01  -0.05   0.03    -0.00   0.01   0.02
  24   6    -0.05  -0.20   0.10     0.02   0.15  -0.13     0.01   0.01   0.02
  25   6    -0.15  -0.02   0.03     0.11  -0.07   0.05     0.01   0.02  -0.01
  26   6     0.03   0.01  -0.10     0.06   0.04  -0.07     0.01   0.00  -0.01
  27   6     0.07  -0.02  -0.07     0.05  -0.01  -0.07    -0.14  -0.11  -0.06
  28   6     0.03  -0.05  -0.01    -0.02  -0.07  -0.02     0.15   0.09   0.05
  29   6    -0.01  -0.01   0.02     0.03   0.02   0.04     0.00  -0.01   0.00
  30   6    -0.01   0.05  -0.01    -0.01   0.05   0.00    -0.14  -0.10  -0.05
  31   6     0.01   0.05  -0.08    -0.04   0.01  -0.09     0.16   0.11   0.05
  32   6     0.07  -0.10   0.05    -0.03   0.05  -0.03    -0.01  -0.01   0.00
  33   6     0.01  -0.12   0.01    -0.03   0.06   0.00    -0.23  -0.02   0.33
  34   6    -0.05  -0.05  -0.03     0.03   0.02  -0.00     0.19   0.00  -0.31
  35   6    -0.03   0.02  -0.02     0.01  -0.02   0.00    -0.01  -0.00  -0.01
  36   6     0.04   0.03   0.02    -0.04  -0.03  -0.00    -0.21  -0.01   0.30
  37   6     0.08  -0.06   0.06    -0.04   0.02  -0.05     0.21   0.00  -0.31
  38   1    -0.15  -0.06   0.04    -0.06  -0.02  -0.01     0.00   0.00  -0.00
  39   1     0.03  -0.03   0.01    -0.02  -0.00  -0.05    -0.01  -0.00  -0.00
  40   1    -0.01   0.02  -0.10    -0.02  -0.04  -0.10    -0.00  -0.01  -0.00
  41   1    -0.03   0.03   0.05     0.03   0.04   0.07     0.01  -0.00   0.00
  42   1    -0.02  -0.02   0.06     0.01   0.01  -0.01     0.01   0.00   0.00
  43   1     0.00  -0.10  -0.06    -0.03  -0.02  -0.11    -0.01   0.00  -0.01
  44   1    -0.04   0.01  -0.04     0.02   0.01   0.01     0.01  -0.01   0.01
  45   1     0.01  -0.02   0.13    -0.01   0.04  -0.12     0.00  -0.01   0.00
  46   1     0.03   0.06  -0.02    -0.01  -0.07   0.04    -0.01   0.01  -0.01
  47   1     0.03   0.03  -0.07    -0.02  -0.01   0.02    -0.00   0.00   0.01
  48   1    -0.01  -0.12   0.05     0.00   0.11  -0.07     0.00   0.00   0.01
  49   1     0.04  -0.01  -0.03     0.03  -0.01  -0.03    -0.09  -0.07  -0.04
  50   1     0.01  -0.03   0.01    -0.02  -0.04  -0.00     0.09   0.06   0.03
  51   1    -0.01  -0.01   0.02     0.02   0.01   0.03    -0.00  -0.00   0.00
  52   1    -0.01   0.03   0.01    -0.01   0.03   0.01    -0.09  -0.06  -0.03
  53   1    -0.00   0.03  -0.03    -0.03   0.00  -0.04     0.10   0.07   0.03
  54   1     0.00  -0.06  -0.01    -0.01   0.03   0.01    -0.13  -0.01   0.20
  55   1    -0.03  -0.02  -0.02     0.02   0.01   0.00     0.13   0.00  -0.20
  56   1    -0.02   0.02  -0.01     0.01  -0.01   0.00    -0.00   0.00  -0.01
  57   1     0.02   0.03   0.01    -0.02  -0.02   0.00    -0.13  -0.00   0.19
  58   1     0.04  -0.01   0.03    -0.02   0.00  -0.02     0.13   0.00  -0.19
                     31                     32                     33
                        a                      a                      a 
 Frequencies --   372.3287               387.1287               398.6391
 Red. masses --     9.0541                14.5088                12.0554
 Frc consts  --     0.0000                 0.0000                 0.0000
 IR Inten    --     0.6507                23.0542                 8.5488
 Raman Activ --     0.0000                 0.0000                 0.0000
 Depolar     --     0.0000                 0.0000                 0.0000
 Atom AN      X      Y      Z        X      Y      Z        X      Y      Z
   1   8    -0.02  -0.00  -0.01    -0.12  -0.04   0.33    -0.05   0.09  -0.12
   2  15     0.04  -0.01   0.02    -0.13  -0.33  -0.08     0.07   0.14   0.00
   3   8    -0.02   0.01  -0.02     0.15   0.29  -0.00     0.03  -0.10   0.01
   4   8     0.03  -0.00   0.01     0.08  -0.23  -0.21     0.23  -0.09  -0.01
   5   6    -0.01  -0.00  -0.03    -0.02  -0.06   0.07     0.13   0.04   0.18
   6   6    -0.01  -0.01  -0.03    -0.01   0.03   0.06     0.11   0.06   0.13
   7   6     0.01  -0.00  -0.01    -0.07   0.04   0.01    -0.10   0.03  -0.06
   8   6     0.02  -0.00  -0.01    -0.05   0.05  -0.01    -0.19  -0.05   0.05
   9   6     0.01   0.01   0.01    -0.05  -0.01  -0.16    -0.03  -0.15   0.09
  10   6    -0.01  -0.00  -0.01     0.07   0.13   0.10     0.08  -0.11   0.02
  11   6    -0.01  -0.01   0.00     0.03   0.05  -0.05     0.05  -0.02  -0.03
  12   6     0.01  -0.01   0.02    -0.02   0.00  -0.16    -0.10   0.07   0.02
  13   6     0.02  -0.01  -0.01     0.00   0.07   0.15    -0.17   0.00   0.05
  14   6    -0.00  -0.00  -0.01     0.05   0.04   0.22    -0.01  -0.08  -0.02
  15   6    -0.00   0.01   0.00    -0.02   0.07  -0.02    -0.04   0.06  -0.19
  16   6     0.01  -0.00   0.01     0.06   0.07  -0.19    -0.12   0.11  -0.17
  17   8     0.07   0.03   0.03     0.02  -0.10  -0.09    -0.27  -0.20   0.08
  18   6     0.01  -0.00  -0.00     0.07   0.07  -0.13    -0.08   0.07  -0.02
  19   6    -0.01  -0.02   0.00     0.04  -0.04   0.00     0.07   0.05   0.06
  20   6    -0.02  -0.01   0.01    -0.08   0.06   0.04     0.15   0.06  -0.08
  21   6    -0.01   0.01   0.01     0.01   0.05   0.15     0.06  -0.16   0.06
  22   6     0.01   0.00  -0.01     0.03   0.14   0.03    -0.10   0.07  -0.08
  23   6     0.01  -0.01  -0.01     0.03   0.04   0.04    -0.08   0.04   0.04
  24   6    -0.01  -0.01  -0.01    -0.05  -0.04   0.07     0.08  -0.03   0.17
  25   6    -0.03   0.00  -0.01    -0.10   0.08  -0.04     0.12   0.14  -0.15
  26   6    -0.03  -0.01   0.00     0.02   0.03  -0.01     0.11   0.07  -0.02
  27   6     0.29   0.22   0.12     0.01  -0.01   0.00     0.02  -0.00  -0.06
  28   6    -0.29  -0.18  -0.10    -0.02  -0.04   0.00    -0.07  -0.06  -0.03
  29   6    -0.01   0.00  -0.00     0.04  -0.01   0.02     0.06   0.07   0.05
  30   6     0.28   0.20   0.11     0.01  -0.01  -0.00    -0.05   0.02  -0.00
  31   6    -0.31  -0.21  -0.10    -0.02  -0.03  -0.03    -0.08  -0.02  -0.07
  32   6    -0.01   0.00  -0.01     0.08  -0.03  -0.04    -0.02  -0.05   0.09
  33   6    -0.12   0.00   0.17    -0.01  -0.04  -0.00     0.05  -0.05  -0.03
  34   6     0.10   0.01  -0.15    -0.06  -0.02   0.02     0.02  -0.01  -0.04
  35   6     0.00  -0.00  -0.01     0.00  -0.01  -0.07    -0.04   0.02   0.07
  36   6    -0.12  -0.01   0.15    -0.00  -0.01   0.02     0.06   0.02  -0.03
  37   6     0.10   0.01  -0.16     0.01  -0.04   0.06     0.06  -0.01   0.00
  38   1     0.00   0.00  -0.00     0.20   0.10  -0.13    -0.01  -0.05   0.08
  39   1     0.01   0.00   0.01    -0.03   0.01  -0.02    -0.05   0.03  -0.08
  40   1     0.00   0.01   0.01    -0.03  -0.04  -0.09    -0.00  -0.08   0.05
  41   1    -0.01  -0.00  -0.00     0.03   0.05   0.07     0.04  -0.04   0.01
  42   1    -0.00  -0.00   0.00     0.00   0.00  -0.04     0.04   0.01  -0.03
  43   1     0.01  -0.00   0.01    -0.02  -0.01  -0.11    -0.03   0.06   0.00
  44   1    -0.00  -0.01  -0.00     0.01  -0.07   0.02     0.03   0.00   0.09
  45   1    -0.00   0.01   0.01     0.01   0.01   0.08     0.03  -0.12   0.04
  46   1     0.01   0.00  -0.00     0.01   0.05  -0.00    -0.05   0.02  -0.04
  47   1     0.01  -0.01  -0.00     0.03  -0.01   0.01    -0.04   0.00   0.04
  48   1    -0.00  -0.01  -0.01    -0.01  -0.05   0.04     0.04  -0.03   0.12
  49   1     0.19   0.13   0.07     0.01  -0.01  -0.00     0.00  -0.01  -0.02
  50   1    -0.18  -0.12  -0.06    -0.01  -0.02  -0.00    -0.04  -0.05  -0.01
  51   1    -0.00   0.00  -0.00     0.02   0.00   0.01     0.04   0.04   0.03
  52   1     0.19   0.13   0.07    -0.00   0.00   0.00    -0.03   0.00  -0.00
  53   1    -0.18  -0.13  -0.06    -0.02  -0.02  -0.01    -0.05  -0.02  -0.04
  54   1    -0.07   0.00   0.10    -0.01  -0.03   0.01     0.03  -0.02  -0.03
  55   1     0.07   0.00  -0.10    -0.03  -0.01   0.02     0.01  -0.01  -0.03
  56   1     0.00  -0.00  -0.01     0.01   0.00  -0.04    -0.03   0.01   0.04
  57   1    -0.07  -0.00   0.10    -0.00   0.01   0.02     0.03   0.01  -0.03
  58   1     0.06   0.00  -0.10    -0.01  -0.01   0.03     0.04  -0.00  -0.00
                     34                     35                     36
                        a                      a                      a 
 Frequencies --   418.2870               433.5773               440.7296
 Red. masses --    14.7920                12.4292                12.3544
 Frc consts  --     0.0000                 0.0000                 0.0000
 IR Inten    --    64.2399                 5.4018                27.8209
 Raman Activ --     0.0000                 0.0000                 0.0000
 Depolar     --     0.0000                 0.0000                 0.0000
 Atom AN      X      Y      Z        X      Y      Z        X      Y      Z
   1   8     0.28  -0.25  -0.05    -0.02   0.01   0.17    -0.18   0.12  -0.04
   2  15    -0.33   0.08   0.11     0.04  -0.17  -0.09     0.19  -0.01  -0.00
   3   8    -0.01   0.02   0.28    -0.01   0.05  -0.14    -0.05  -0.02  -0.15
   4   8     0.13  -0.09  -0.13    -0.20  -0.10   0.22    -0.08   0.13   0.11
   5   6     0.08  -0.06  -0.09     0.02  -0.08   0.28     0.04   0.05   0.03
   6   6     0.14   0.07   0.02     0.03   0.05   0.19     0.05   0.01   0.04
   7   6     0.00   0.08  -0.05    -0.05   0.01  -0.02     0.04   0.00   0.02
   8   6    -0.13  -0.04  -0.10     0.02   0.05  -0.15    -0.04  -0.08  -0.11
   9   6     0.01  -0.02   0.10     0.06   0.19   0.10     0.04  -0.00   0.14
  10   6     0.06  -0.02  -0.03    -0.02   0.09  -0.16    -0.03  -0.10  -0.06
  11   6     0.05  -0.03  -0.07     0.02   0.02  -0.02    -0.02  -0.03   0.01
  12   6    -0.00   0.06   0.09     0.12   0.03   0.10    -0.01   0.03   0.11
  13   6    -0.11  -0.06  -0.05     0.01  -0.12  -0.21    -0.06  -0.07  -0.19
  14   6     0.02  -0.09   0.02    -0.01  -0.11  -0.12     0.00   0.01  -0.04
  15   6     0.03  -0.09   0.13    -0.05  -0.06  -0.09     0.01  -0.01   0.02
  16   6    -0.06   0.14  -0.14    -0.01  -0.13  -0.03     0.08   0.00  -0.13
  17   8     0.03   0.22  -0.20     0.16   0.02  -0.20    -0.17  -0.31   0.05
  18   6    -0.03   0.06  -0.08    -0.01  -0.07   0.13     0.09   0.10  -0.21
  19   6    -0.05  -0.02   0.01     0.03   0.09   0.00     0.03  -0.06  -0.04
  20   6    -0.05  -0.02   0.03     0.01   0.10   0.01    -0.07  -0.06   0.17
  21   6    -0.03   0.12  -0.08    -0.01   0.06   0.07     0.01   0.19   0.05
  22   6     0.05  -0.07   0.10    -0.04   0.06   0.11     0.05   0.13   0.13
  23   6     0.02   0.02  -0.02    -0.07   0.04  -0.01     0.04   0.03   0.12
  24   6    -0.04   0.06  -0.08    -0.05  -0.03   0.04    -0.12   0.10  -0.05
  25   6    -0.01  -0.12   0.13     0.01  -0.05  -0.01    -0.08  -0.07   0.09
  26   6     0.18   0.12   0.07     0.15   0.11  -0.04     0.06   0.03  -0.01
  27   6    -0.04  -0.02  -0.02     0.03  -0.03  -0.08     0.01  -0.01  -0.04
  28   6    -0.09  -0.05  -0.04    -0.03  -0.08  -0.01    -0.01  -0.02  -0.02
  29   6     0.12   0.11   0.05     0.09   0.04   0.06     0.02   0.04   0.02
  30   6    -0.09  -0.05  -0.02    -0.07  -0.01  -0.03    -0.04   0.00  -0.01
  31   6    -0.06  -0.03  -0.01    -0.01   0.02  -0.10    -0.01   0.02  -0.02
  32   6     0.05  -0.04  -0.02    -0.15   0.03   0.17     0.22  -0.04  -0.23
  33   6     0.01  -0.05   0.03    -0.00   0.04  -0.03     0.00  -0.06   0.02
  34   6    -0.02  -0.01   0.01     0.06   0.01  -0.07    -0.11  -0.02   0.09
  35   6     0.02   0.02  -0.03    -0.07  -0.02   0.12     0.09   0.00  -0.18
  36   6    -0.00   0.03   0.03     0.04  -0.01  -0.09    -0.05   0.00   0.12
  37   6     0.03  -0.02   0.03    -0.01   0.02  -0.04     0.04  -0.05   0.07
  38   1    -0.04   0.02   0.05     0.00   0.03  -0.10    -0.01  -0.01  -0.01
  39   1     0.00   0.06  -0.00    -0.02  -0.03  -0.02     0.02   0.02   0.03
  40   1     0.02  -0.01   0.09     0.04   0.09   0.11     0.03   0.03   0.12
  41   1     0.03  -0.00   0.01    -0.02   0.03  -0.05    -0.00  -0.03  -0.01
  42   1     0.02  -0.00  -0.02    -0.01   0.01   0.05     0.01   0.01   0.04
  43   1     0.01   0.07   0.07     0.05   0.05   0.12     0.01   0.04   0.11
  44   1    -0.01  -0.02   0.01     0.00   0.04  -0.02     0.00  -0.05  -0.03
  45   1    -0.02   0.08  -0.06    -0.00  -0.00   0.02    -0.01   0.12  -0.03
  46   1     0.02  -0.03   0.05    -0.00   0.01   0.04     0.01   0.06   0.02
  47   1     0.01   0.03  -0.04    -0.01   0.02  -0.02     0.04   0.00   0.01
  48   1    -0.02   0.05  -0.08    -0.01  -0.00   0.03    -0.05   0.06  -0.07
  49   1    -0.05  -0.02  -0.02    -0.00  -0.04  -0.04    -0.01  -0.01  -0.01
  50   1    -0.07  -0.05  -0.02    -0.03  -0.06  -0.01    -0.01  -0.02  -0.00
  51   1     0.07   0.05   0.03     0.04   0.02   0.03     0.01   0.02   0.01
  52   1    -0.06  -0.04  -0.02    -0.06  -0.01  -0.01    -0.02  -0.01  -0.00
  53   1    -0.05  -0.03  -0.02    -0.03  -0.00  -0.04    -0.01   0.01  -0.01
  54   1    -0.01  -0.02   0.02     0.02   0.02  -0.04    -0.03  -0.03   0.04
  55   1    -0.02  -0.01   0.00     0.05   0.00  -0.06    -0.08  -0.01   0.08
  56   1     0.01   0.01  -0.02    -0.04  -0.01   0.06     0.05   0.01  -0.09
  57   1    -0.01   0.01   0.02     0.04  -0.01  -0.07    -0.05   0.02   0.10
  58   1     0.02  -0.00   0.02     0.01   0.01  -0.05    -0.02  -0.01   0.07
                     37                     38                     39
                        a                      a                      a 
 Frequencies --   459.1293               469.6493               487.0507
 Red. masses --    11.4293                13.3551                10.3155
 Frc consts  --     0.0000                 0.0000                 0.0000
 IR Inten    --    13.3166                27.3386                11.2965
 Raman Activ --     0.0000                 0.0000                 0.0000
 Depolar     --     0.0000                 0.0000                 0.0000
 Atom AN      X      Y      Z        X      Y      Z        X      Y      Z
   1   8    -0.02   0.01  -0.05     0.16   0.08   0.09    -0.02  -0.02  -0.06
   2  15     0.09   0.05   0.09    -0.15   0.09  -0.19     0.01   0.04   0.08
   3   8    -0.05   0.00  -0.00     0.16  -0.09   0.05    -0.06   0.02   0.02
   4   8     0.23  -0.17   0.07     0.10  -0.31  -0.01     0.06   0.03   0.00
   5   6    -0.01  -0.01   0.11    -0.03  -0.10   0.28     0.07   0.01  -0.03
   6   6    -0.08  -0.03  -0.06    -0.10  -0.04   0.09     0.03  -0.05  -0.06
   7   6    -0.03  -0.02  -0.02    -0.08  -0.03   0.09     0.10   0.03   0.15
   8   6     0.07   0.10   0.14     0.01   0.03  -0.12    -0.06  -0.10  -0.22
   9   6    -0.02   0.09  -0.05     0.00   0.19   0.07    -0.04   0.02   0.03
  10   6    -0.01   0.10  -0.08    -0.04   0.13  -0.17    -0.01   0.05   0.01
  11   6     0.03   0.10   0.06     0.01   0.09   0.00    -0.04   0.04  -0.11
  12   6     0.04  -0.01  -0.12     0.11   0.04   0.01     0.03   0.09   0.07
  13   6     0.03   0.00   0.03    -0.01  -0.11  -0.21    -0.05  -0.04  -0.14
  14   6    -0.03  -0.05  -0.03     0.02  -0.06   0.05     0.10   0.04   0.18
  15   6    -0.06  -0.07  -0.07     0.02   0.09   0.05     0.11  -0.15   0.16
  16   6    -0.12   0.08  -0.32    -0.05   0.11   0.17     0.07   0.01  -0.14
  17   8    -0.08  -0.13  -0.13    -0.17   0.11   0.15    -0.08  -0.12  -0.11
  18   6    -0.07   0.09  -0.09    -0.07   0.04  -0.02     0.09  -0.01   0.02
  19   6     0.02   0.09  -0.02    -0.10  -0.03   0.01     0.10  -0.13   0.15
  20   6     0.08  -0.08   0.16     0.01  -0.09  -0.04    -0.07   0.29  -0.26
  21   6    -0.02   0.16  -0.10     0.02  -0.12  -0.06    -0.03   0.06   0.00
  22   6    -0.02  -0.03   0.17     0.02  -0.06  -0.15     0.01  -0.07   0.14
  23   6    -0.05   0.03   0.01     0.06  -0.04   0.03    -0.05   0.14  -0.18
  24   6    -0.04   0.09  -0.05     0.08   0.04  -0.01     0.00  -0.16   0.14
  25   6     0.09  -0.25   0.21     0.01   0.10  -0.01    -0.03   0.03  -0.07
  26   6    -0.22  -0.13  -0.04    -0.15  -0.09  -0.09    -0.17  -0.16  -0.05
  27   6    -0.01   0.01   0.05     0.01  -0.00  -0.02    -0.03  -0.00  -0.01
  28   6     0.07   0.07   0.04     0.07   0.03   0.04     0.08   0.08   0.01
  29   6    -0.11  -0.10  -0.05    -0.09  -0.08  -0.02    -0.14  -0.04  -0.05
  30   6     0.10   0.04   0.03     0.07   0.05   0.03     0.07   0.06   0.05
  31   6    -0.00  -0.03   0.02     0.00  -0.00  -0.04    -0.03  -0.01   0.04
  32   6    -0.07  -0.06   0.16     0.12  -0.02  -0.16    -0.03   0.05   0.04
  33   6     0.04  -0.06   0.01     0.02  -0.03   0.01    -0.04   0.05  -0.02
  34   6     0.04  -0.01  -0.06    -0.05  -0.00   0.07     0.01   0.01  -0.03
  35   6    -0.05   0.03   0.10     0.07   0.02  -0.10    -0.04  -0.04   0.02
  36   6     0.06   0.04  -0.05    -0.05   0.02   0.07     0.01  -0.03  -0.03
  37   6     0.05  -0.02   0.03     0.02  -0.01   0.01    -0.02   0.01  -0.02
  38   1    -0.01  -0.01   0.03     0.01  -0.02   0.02    -0.02   0.00   0.02
  39   1    -0.02  -0.03  -0.04    -0.02  -0.04   0.03     0.05   0.04   0.12
  40   1    -0.02   0.01  -0.06     0.02   0.08   0.09     0.01   0.04   0.09
  41   1    -0.01   0.01  -0.07    -0.01   0.04  -0.05     0.03   0.03   0.07
  42   1    -0.01   0.02   0.03    -0.01   0.03   0.07    -0.01   0.02  -0.01
  43   1     0.00  -0.02  -0.07     0.05   0.05   0.07     0.03   0.06   0.10
  44   1     0.01   0.03   0.00    -0.03   0.01   0.02     0.04  -0.12   0.11
  45   1    -0.03   0.12  -0.13     0.01  -0.03  -0.01     0.01  -0.06   0.08
  46   1    -0.01   0.00   0.04    -0.01  -0.01  -0.06     0.03  -0.10   0.14
  47   1    -0.02   0.06  -0.06    -0.00  -0.02   0.04    -0.01   0.05  -0.07
  48   1    -0.03   0.13  -0.09     0.02  -0.00  -0.01     0.01  -0.12   0.11
  49   1     0.04   0.03   0.03     0.04   0.01   0.00     0.02   0.04   0.02
  50   1     0.06   0.06   0.02     0.06   0.03   0.03     0.08   0.06   0.03
  51   1    -0.05  -0.04  -0.03    -0.04  -0.03  -0.01    -0.05  -0.02  -0.02
  52   1     0.08   0.05   0.03     0.05   0.05   0.03     0.08   0.04   0.03
  53   1     0.04   0.01   0.03     0.03   0.02  -0.00     0.03   0.03   0.02
  54   1     0.03  -0.03  -0.03    -0.02  -0.01   0.04    -0.00   0.01  -0.01
  55   1     0.02  -0.01  -0.07    -0.05  -0.00   0.06     0.02   0.01  -0.01
  56   1    -0.03   0.01   0.04     0.03   0.01  -0.04    -0.01  -0.01   0.01
  57   1     0.05   0.02  -0.05    -0.04   0.01   0.07     0.01  -0.01  -0.02
  58   1     0.05  -0.00  -0.01    -0.01  -0.00   0.04    -0.01  -0.00  -0.02
                     40                     41                     42
                        a                      a                      a 
 Frequencies --   496.7454               510.5939               521.3606
 Red. masses --    10.7516                12.4160                12.0509
 Frc consts  --     0.0000                 0.0000                 0.0000
 IR Inten    --    11.9180                15.8302                22.4901
 Raman Activ --     0.0000                 0.0000                 0.0000
 Depolar     --     0.0000                 0.0000                 0.0000
 Atom AN      X      Y      Z        X      Y      Z        X      Y      Z
   1   8     0.08   0.02  -0.04     0.02  -0.15  -0.05     0.10   0.07  -0.08
   2  15    -0.05   0.12   0.02    -0.21  -0.00   0.07     0.01   0.22   0.06
   3   8    -0.04  -0.02   0.03    -0.06   0.07   0.15    -0.07  -0.02   0.04
   4   8     0.02  -0.07   0.11     0.15   0.07  -0.21     0.04  -0.13   0.18
   5   6     0.03  -0.09   0.01     0.15   0.19   0.19    -0.05  -0.18  -0.12
   6   6    -0.02  -0.03  -0.13     0.14   0.05   0.14    -0.05  -0.05  -0.06
   7   6    -0.10   0.00  -0.18     0.11  -0.05  -0.09    -0.03   0.05   0.16
   8   6     0.06   0.18   0.32     0.01  -0.08   0.05    -0.06   0.01  -0.13
   9   6     0.02   0.09   0.05    -0.00  -0.08   0.13    -0.09   0.04  -0.19
  10   6     0.00   0.03  -0.21    -0.06  -0.16  -0.04     0.08   0.24   0.15
  11   6     0.11   0.09   0.22    -0.04   0.08   0.07    -0.00  -0.06  -0.23
  12   6    -0.01  -0.10  -0.22    -0.09   0.05  -0.04     0.14   0.04   0.14
  13   6    -0.02  -0.04   0.04    -0.05   0.04  -0.12     0.04  -0.03   0.18
  14   6    -0.02  -0.15  -0.12     0.03   0.09  -0.03    -0.03  -0.15  -0.04
  15   6     0.03  -0.15   0.05     0.01  -0.03  -0.09    -0.01  -0.16  -0.01
  16   6     0.03  -0.14   0.05     0.12  -0.21   0.10     0.00  -0.20   0.03
  17   8    -0.05  -0.04  -0.15     0.05   0.00  -0.21    -0.04  -0.06  -0.20
  18   6     0.05  -0.09   0.04     0.12  -0.10   0.09     0.01  -0.06  -0.00
  19   6     0.05  -0.08   0.06     0.09   0.09  -0.12     0.06   0.07  -0.09
  20   6    -0.05   0.18  -0.15     0.02  -0.02   0.13     0.05  -0.02   0.08
  21   6     0.04   0.06   0.07     0.01  -0.01   0.16     0.08  -0.03   0.16
  22   6    -0.00   0.08   0.13    -0.05   0.20  -0.03    -0.06   0.24  -0.03
  23   6    -0.04   0.12  -0.02    -0.02  -0.12   0.11    -0.02  -0.10   0.17
  24   6    -0.07  -0.08   0.12    -0.10   0.03  -0.09    -0.11   0.09  -0.08
  25   6    -0.03   0.05  -0.10    -0.04   0.02  -0.12    -0.02   0.05  -0.16
  26   6     0.05   0.04   0.08    -0.15  -0.14  -0.08    -0.01  -0.02   0.00
  27   6    -0.01   0.01   0.06    -0.02  -0.01  -0.05    -0.01  -0.00  -0.00
  28   6    -0.04  -0.00  -0.02     0.08   0.07   0.02     0.00   0.01  -0.00
  29   6     0.04   0.03  -0.00    -0.14  -0.05  -0.03    -0.02   0.01  -0.00
  30   6    -0.02  -0.03  -0.01     0.07   0.07   0.05     0.00   0.00   0.01
  31   6    -0.01  -0.02   0.06    -0.03  -0.02  -0.01    -0.01  -0.01   0.01
  32   6     0.10   0.02  -0.20     0.00   0.05   0.01     0.01  -0.02  -0.05
  33   6    -0.00   0.02  -0.03    -0.04   0.05  -0.03     0.01  -0.02  -0.00
  34   6    -0.05  -0.01   0.09    -0.01  -0.00  -0.01    -0.00  -0.02   0.03
  35   6     0.09  -0.00  -0.11    -0.02  -0.04  -0.01     0.04   0.02  -0.02
  36   6    -0.06  -0.01   0.09     0.01  -0.04   0.01    -0.01   0.01   0.03
  37   6     0.00   0.03  -0.04    -0.02   0.02  -0.00     0.01   0.02  -0.01
  38   1    -0.06  -0.01   0.03    -0.00   0.03  -0.01    -0.09  -0.01   0.06
  39   1    -0.05  -0.01  -0.11     0.00  -0.01  -0.11     0.01   0.03   0.12
  40   1    -0.02  -0.02  -0.07     0.01   0.00   0.06    -0.03  -0.01  -0.06
  41   1    -0.04  -0.04  -0.18    -0.00  -0.06  -0.03     0.04   0.10   0.11
  42   1     0.02   0.03   0.10     0.02   0.06   0.06    -0.05  -0.07  -0.14
  43   1    -0.02  -0.05  -0.15    -0.02   0.01   0.02     0.04   0.03   0.02
  44   1     0.02  -0.05   0.02     0.01   0.07  -0.12     0.01   0.05  -0.07
  45   1     0.03  -0.04   0.08     0.00  -0.01   0.04     0.02  -0.03   0.05
  46   1     0.01  -0.03   0.09    -0.01   0.10  -0.05    -0.03   0.11  -0.05
  47   1     0.01   0.01  -0.01     0.03  -0.09   0.06     0.03  -0.10   0.09
  48   1    -0.01  -0.08   0.10    -0.03   0.01  -0.02    -0.03   0.02   0.00
  49   1    -0.03  -0.00   0.02     0.04   0.03   0.00    -0.00   0.01   0.00
  50   1    -0.04  -0.01  -0.02     0.08   0.05   0.03     0.01   0.00   0.00
  51   1     0.01   0.01  -0.01    -0.05  -0.02  -0.01    -0.00   0.00  -0.00
  52   1    -0.02  -0.03  -0.02     0.08   0.06   0.04     0.01   0.00   0.00
  53   1    -0.01  -0.03   0.02     0.03   0.03   0.00     0.00   0.00   0.00
  54   1    -0.02   0.01   0.03    -0.01   0.01  -0.01     0.00  -0.00   0.01
  55   1    -0.05  -0.00   0.08     0.01   0.00   0.01    -0.01  -0.01   0.02
  56   1     0.03  -0.00  -0.04    -0.01  -0.01  -0.01     0.01   0.01  -0.01
  57   1    -0.06  -0.01   0.08     0.00  -0.01  -0.00    -0.01  -0.00   0.02
  58   1    -0.03   0.01   0.03    -0.02   0.00  -0.02     0.00   0.01   0.01
                     43                     44                     45
                        a                      a                      a 
 Frequencies --   526.4485               539.9085               546.3696
 Red. masses --    11.2590                11.1013                11.4418
 Frc consts  --     0.0000                 0.0000                 0.0000
 IR Inten    --     6.7698                 0.4144                 8.6019
 Raman Activ --     0.0000                 0.0000                 0.0000
 Depolar     --     0.0000                 0.0000                 0.0000
 Atom AN      X      Y      Z        X      Y      Z        X      Y      Z
   1   8     0.02   0.05   0.02     0.02   0.02   0.02     0.03   0.02  -0.02
   2  15     0.02   0.02  -0.05     0.00   0.00  -0.02    -0.01   0.05   0.01
   3   8     0.02  -0.03  -0.04     0.03  -0.01  -0.01    -0.01  -0.00   0.02
   4   8    -0.10  -0.03   0.09     0.04  -0.10   0.03     0.06  -0.05  -0.01
   5   6     0.08  -0.15  -0.09     0.02  -0.06   0.04    -0.09   0.01   0.01
   6   6     0.03  -0.19  -0.19     0.07  -0.15   0.17    -0.13   0.13  -0.01
   7   6    -0.02  -0.06   0.01     0.03  -0.20   0.05    -0.15   0.16   0.02
   8   6    -0.02  -0.02   0.08     0.07  -0.13   0.08    -0.06   0.15  -0.08
   9   6    -0.07   0.03   0.11    -0.16  -0.10  -0.04     0.20   0.04  -0.09
  10   6    -0.04   0.02  -0.13    -0.07   0.04   0.15     0.08  -0.06   0.03
  11   6     0.00   0.18   0.07    -0.15   0.19  -0.16     0.08  -0.26   0.05
  12   6    -0.01   0.06  -0.13     0.05   0.17   0.00    -0.11  -0.11   0.11
  13   6    -0.05  -0.01  -0.07     0.08   0.14   0.08    -0.03  -0.01   0.01
  14   6     0.20  -0.02   0.15     0.03  -0.03  -0.27    -0.02   0.02  -0.02
  15   6     0.20  -0.06   0.14     0.03   0.10  -0.22     0.01   0.06  -0.07
  16   6     0.10   0.13  -0.02    -0.00   0.03   0.06     0.09   0.01   0.02
  17   8    -0.04   0.00   0.06     0.03   0.07   0.06    -0.03  -0.01  -0.01
  18   6     0.08   0.24  -0.05     0.02   0.03   0.18     0.14   0.10   0.13
  19   6     0.02   0.11   0.04    -0.02   0.09   0.11     0.17   0.15   0.10
  20   6    -0.00   0.01   0.13     0.04   0.06   0.05     0.07   0.14   0.14
  21   6    -0.12  -0.05   0.12    -0.07   0.12  -0.04    -0.23   0.07   0.06
  22   6    -0.07   0.06  -0.13    -0.04  -0.07   0.15    -0.09  -0.08   0.02
  23   6    -0.04  -0.26  -0.03    -0.10  -0.00  -0.17    -0.11  -0.19  -0.21
  24   6    -0.00  -0.03  -0.20    -0.00  -0.14   0.01     0.12  -0.12  -0.11
  25   6    -0.04   0.01  -0.09     0.06  -0.15   0.03     0.05  -0.05   0.00
  26   6     0.13  -0.06   0.08     0.12  -0.10  -0.04    -0.11   0.12  -0.02
  27   6     0.01   0.02  -0.01     0.05   0.04  -0.15    -0.04  -0.02   0.09
  28   6    -0.03   0.02  -0.10    -0.01   0.02  -0.07    -0.01  -0.02   0.10
  29   6    -0.03   0.16  -0.01    -0.08   0.15   0.02     0.08  -0.15   0.01
  30   6    -0.07  -0.01   0.04    -0.06   0.01   0.09     0.05  -0.01  -0.07
  31   6    -0.03   0.01   0.15    -0.01   0.01   0.03     0.03  -0.01  -0.10
  32   6     0.03   0.06   0.20     0.14   0.07  -0.10     0.15   0.13   0.01
  33   6    -0.05   0.03   0.01    -0.02   0.05  -0.07    -0.07   0.08  -0.08
  34   6    -0.03   0.05  -0.12    -0.09   0.01   0.05    -0.11   0.04  -0.01
  35   6    -0.17  -0.09   0.01     0.01  -0.07  -0.14    -0.08  -0.14  -0.14
  36   6     0.06  -0.07  -0.06    -0.02  -0.06   0.10     0.03  -0.11   0.08
  37   6     0.04  -0.12   0.07     0.06  -0.03  -0.03     0.08  -0.07   0.01
  38   1    -0.01  -0.01   0.00     0.00  -0.01   0.00    -0.02  -0.00   0.02
  39   1     0.01   0.02   0.04    -0.00  -0.07  -0.02    -0.04   0.03   0.01
  40   1    -0.02   0.01   0.03    -0.06  -0.01  -0.06     0.06  -0.01  -0.01
  41   1     0.01  -0.02  -0.08     0.04  -0.01   0.05    -0.04   0.02   0.02
  42   1     0.01   0.07   0.06    -0.05   0.03  -0.11     0.03  -0.07   0.00
  43   1    -0.01   0.02  -0.04     0.01   0.00  -0.02    -0.03  -0.01   0.03
  44   1     0.01  -0.00   0.02    -0.01   0.05   0.01     0.04   0.05   0.00
  45   1    -0.04  -0.02   0.03    -0.03   0.04  -0.05    -0.07  -0.00  -0.01
  46   1     0.02   0.07  -0.07     0.02  -0.03   0.07     0.05   0.00   0.02
  47   1    -0.00  -0.11   0.03    -0.03   0.04  -0.11    -0.05  -0.04  -0.07
  48   1    -0.00  -0.00  -0.06    -0.00  -0.00   0.00     0.04  -0.01  -0.02
  49   1    -0.05   0.02   0.01    -0.01   0.02  -0.03     0.02  -0.03   0.01
  50   1    -0.03  -0.03  -0.03     0.01  -0.04   0.00    -0.01   0.03   0.01
  51   1    -0.01   0.04  -0.00    -0.02   0.04   0.01     0.02  -0.04  -0.00
  52   1    -0.02  -0.05  -0.02    -0.01  -0.02   0.01     0.00   0.03   0.00
  53   1    -0.04   0.00   0.03    -0.02   0.04  -0.02     0.03  -0.03  -0.01
  54   1    -0.00  -0.04  -0.04    -0.04  -0.00   0.01    -0.04  -0.02  -0.01
  55   1     0.04   0.02  -0.07    -0.04   0.01   0.08    -0.01   0.02   0.05
  56   1    -0.05  -0.03   0.01     0.00  -0.02  -0.04    -0.03  -0.03  -0.04
  57   1     0.06   0.02  -0.05    -0.04  -0.00   0.08    -0.00   0.01   0.06
  58   1     0.01  -0.04  -0.03    -0.03  -0.01   0.02    -0.03  -0.03  -0.00
                     46                     47                     48
                        a                      a                      a 
 Frequencies --   572.4607               585.5506               586.7060
 Red. masses --    12.1291                11.3377                11.3342
 Frc consts  --     0.0000                 0.0000                 0.0000
 IR Inten    --    23.0164                 7.4145                 5.2158
 Raman Activ --     0.0000                 0.0000                 0.0000
 Depolar     --     0.0000                 0.0000                 0.0000
 Atom AN      X      Y      Z        X      Y      Z        X      Y      Z
   1   8     0.06   0.06  -0.06     0.03   0.03   0.01    -0.00   0.00  -0.03
   2  15    -0.05   0.17   0.03    -0.03   0.04  -0.04     0.02   0.04   0.05
   3   8    -0.02   0.00   0.07     0.02  -0.01  -0.00    -0.03   0.01   0.03
   4   8     0.20  -0.18  -0.03    -0.03  -0.05   0.04     0.05   0.03  -0.07
   5   6    -0.15  -0.01   0.03     0.06  -0.12  -0.06    -0.11   0.06  -0.07
   6   6    -0.21  -0.12  -0.07     0.05  -0.04   0.06    -0.07   0.01   0.06
   7   6    -0.08  -0.13   0.10    -0.19   0.06   0.00     0.07  -0.10  -0.03
   8   6     0.08  -0.05  -0.04    -0.04   0.16  -0.01     0.07  -0.10   0.02
   9   6     0.03  -0.00   0.03     0.20   0.04  -0.09    -0.11  -0.01   0.07
  10   6    -0.07  -0.06   0.00     0.06  -0.07   0.04    -0.06   0.04  -0.04
  11   6    -0.07   0.07   0.02     0.02  -0.13   0.03    -0.02   0.10   0.01
  12   6    -0.01   0.02  -0.04    -0.21   0.01   0.07     0.15  -0.02  -0.07
  13   6     0.07   0.06  -0.08    -0.04   0.11  -0.00     0.06  -0.05   0.00
  14   6     0.02   0.16   0.11     0.17  -0.03  -0.14    -0.13   0.04   0.06
  15   6    -0.02   0.20  -0.08     0.20   0.03  -0.06    -0.10  -0.06   0.12
  16   6     0.17  -0.02  -0.01     0.12   0.07   0.06    -0.02  -0.08  -0.01
  17   8    -0.15  -0.16  -0.05    -0.01   0.02   0.08    -0.01  -0.05  -0.06
  18   6     0.22  -0.19   0.05     0.08   0.03  -0.01    -0.00   0.01  -0.09
  19   6     0.10  -0.10  -0.17    -0.14  -0.10  -0.03     0.14   0.01   0.02
  20   6    -0.08  -0.07   0.01    -0.06  -0.12  -0.08     0.01   0.10   0.03
  21   6    -0.01   0.02  -0.03     0.19   0.01  -0.07    -0.14  -0.00   0.06
  22   6     0.07  -0.05  -0.00     0.06   0.06   0.07    -0.03  -0.03  -0.06
  23   6     0.07   0.08   0.02     0.02   0.11   0.07     0.00  -0.07  -0.04
  24   6    -0.02   0.00   0.05    -0.23  -0.03   0.04     0.15   0.03  -0.03
  25   6    -0.08   0.01   0.09    -0.06  -0.09  -0.05     0.01   0.09   0.04
  26   6     0.09   0.09   0.02     0.02  -0.07  -0.09     0.03   0.08  -0.13
  27   6     0.08   0.06   0.02    -0.09   0.15  -0.20    -0.03   0.25  -0.19
  28   6    -0.10  -0.07  -0.02    -0.10   0.17   0.15    -0.25   0.13   0.23
  29   6     0.13   0.06   0.05    -0.11   0.00   0.08     0.04  -0.02   0.16
  30   6    -0.09  -0.06  -0.04     0.09  -0.16   0.24     0.04  -0.25   0.19
  31   6     0.08   0.06  -0.01     0.10  -0.16  -0.11     0.24  -0.12  -0.24
  32   6    -0.10   0.10   0.03     0.01   0.04   0.07     0.02  -0.07   0.01
  33   6    -0.20   0.08  -0.06    -0.02   0.05   0.06     0.13  -0.04   0.08
  34   6     0.04  -0.14  -0.06     0.02   0.09  -0.06     0.01   0.13   0.02
  35   6    -0.01  -0.08   0.10    -0.09  -0.03   0.04    -0.01   0.07  -0.01
  36   6     0.16  -0.04   0.02     0.01  -0.03  -0.08    -0.13   0.03  -0.08
  37   6    -0.07   0.19   0.04    -0.03  -0.06   0.05    -0.01  -0.13  -0.02
  38   1    -0.05  -0.01   0.05    -0.01  -0.00   0.01    -0.01   0.00   0.01
  39   1    -0.00  -0.07   0.08    -0.06   0.03  -0.01     0.02  -0.06   0.00
  40   1     0.01   0.03   0.01     0.05  -0.01  -0.04    -0.03   0.02   0.02
  41   1    -0.01  -0.02   0.00    -0.04   0.00   0.00     0.01  -0.01  -0.02
  42   1    -0.01   0.03   0.02     0.04  -0.02  -0.03    -0.03   0.01   0.02
  43   1     0.00  -0.02   0.01    -0.06   0.01  -0.01     0.04  -0.03  -0.01
  44   1     0.01  -0.04  -0.12    -0.04  -0.05  -0.03     0.04  -0.01   0.02
  45   1    -0.00   0.04  -0.00     0.05   0.02  -0.02    -0.04  -0.02   0.03
  46   1     0.01  -0.01  -0.01    -0.03  -0.00   0.01     0.03  -0.00  -0.00
  47   1     0.01   0.04  -0.01     0.05   0.02  -0.01    -0.03  -0.02   0.02
  48   1    -0.01  -0.01  -0.02    -0.07  -0.02  -0.01     0.05  -0.00   0.01
  49   1    -0.02  -0.02  -0.01     0.00   0.04  -0.06     0.01   0.02  -0.09
  50   1    -0.09  -0.06  -0.03     0.01   0.03   0.08    -0.08  -0.01   0.08
  51   1     0.03   0.01   0.01    -0.01   0.01  -0.06     0.04   0.01  -0.06
  52   1    -0.10  -0.05  -0.03     0.04  -0.02   0.08    -0.05  -0.05   0.07
  53   1    -0.02  -0.02  -0.02     0.03   0.00  -0.05     0.04  -0.01  -0.09
  54   1    -0.03   0.05  -0.04     0.00  -0.00  -0.01     0.03  -0.03   0.02
  55   1     0.07  -0.03  -0.03     0.04   0.03  -0.05    -0.02   0.03  -0.01
  56   1    -0.02   0.01   0.01    -0.01  -0.02   0.01     0.02  -0.02   0.01
  57   1     0.06  -0.04  -0.04     0.03   0.01  -0.05    -0.03   0.02  -0.02
  58   1    -0.03   0.05  -0.04    -0.00  -0.02  -0.01     0.02  -0.03   0.01
                     49                     50                     51
                        a                      a                      a 
 Frequencies --   590.1447               618.8150               631.1549
 Red. masses --    11.4480                11.4077                11.2624
 Frc consts  --     0.0000                 0.0000                 0.0000
 IR Inten    --     6.0569                 3.6906                 0.2497
 Raman Activ --     0.0000                 0.0000                 0.0000
 Depolar     --     0.0000                 0.0000                 0.0000
 Atom AN      X      Y      Z        X      Y      Z        X      Y      Z
   1   8     0.03   0.02  -0.02    -0.04  -0.05   0.01     0.00   0.01  -0.00
   2  15    -0.05   0.07   0.00     0.08  -0.09   0.05    -0.02   0.02  -0.01
   3   8    -0.02   0.01   0.04    -0.01   0.01  -0.02     0.00   0.00   0.00
   4   8     0.09  -0.09  -0.02     0.06   0.00  -0.00    -0.04   0.02  -0.00
   5   6    -0.05   0.02   0.07     0.01   0.05   0.05     0.10  -0.05  -0.04
   6   6    -0.10  -0.04  -0.01    -0.12  -0.12  -0.28     0.14  -0.11  -0.06
   7   6    -0.04  -0.05   0.06    -0.00   0.00   0.11    -0.09   0.08   0.02
   8   6     0.05  -0.00  -0.02     0.02  -0.00  -0.13    -0.09   0.11  -0.06
   9   6     0.06  -0.01  -0.02     0.13   0.03   0.01     0.08   0.10  -0.04
  10   6    -0.02  -0.06   0.04    -0.03  -0.10  -0.03     0.06   0.07  -0.07
  11   6    -0.05   0.01  -0.01    -0.03   0.01   0.06     0.08  -0.12   0.05
  12   6    -0.05   0.03   0.01    -0.12   0.01  -0.04    -0.09  -0.06   0.02
  13   6     0.03   0.07  -0.04     0.00   0.08  -0.06    -0.06  -0.02   0.03
  14   6     0.01   0.07  -0.03     0.15   0.18   0.32     0.06  -0.02   0.12
  15   6     0.01   0.06  -0.07     0.00  -0.06  -0.12    -0.12   0.21  -0.14
  16   6     0.10  -0.09   0.09    -0.15   0.01  -0.09     0.00  -0.01  -0.01
  17   8    -0.03  -0.05  -0.04     0.03   0.06  -0.12    -0.01  -0.05   0.02
  18   6     0.08  -0.04  -0.00    -0.17  -0.07   0.27     0.02  -0.24   0.06
  19   6     0.04  -0.06  -0.02    -0.15   0.16   0.07     0.15   0.00  -0.11
  20   6    -0.01  -0.02  -0.01     0.14  -0.02  -0.05    -0.04   0.04   0.16
  21   6     0.03   0.03  -0.03     0.18  -0.05  -0.04    -0.25   0.08   0.08
  22   6     0.02  -0.00   0.05    -0.05   0.08   0.04     0.00  -0.08   0.00
  23   6     0.00   0.05  -0.01    -0.07  -0.04   0.03     0.02  -0.02  -0.08
  24   6    -0.05  -0.03   0.04    -0.09  -0.00  -0.03     0.20  -0.00   0.02
  25   6    -0.02  -0.02  -0.01     0.09  -0.11  -0.09    -0.01   0.10   0.09
  26   6    -0.00   0.03   0.06     0.01  -0.02   0.00     0.15  -0.19   0.03
  27   6     0.07  -0.09   0.12     0.04   0.09   0.01     0.01  -0.04  -0.16
  28   6     0.06  -0.11  -0.10    -0.12   0.00   0.01     0.09   0.04  -0.14
  29   6     0.07   0.02  -0.04     0.07   0.07   0.04    -0.18   0.16  -0.02
  30   6    -0.07   0.10  -0.15    -0.04  -0.12   0.04     0.02  -0.04   0.20
  31   6    -0.06   0.11   0.08     0.10  -0.00   0.03    -0.05  -0.11   0.16
  32   6     0.07  -0.08   0.08    -0.02  -0.04  -0.02    -0.12  -0.11  -0.07
  33   6     0.28   0.02   0.21     0.11  -0.03  -0.10     0.09  -0.09   0.02
  34   6     0.04   0.42   0.00    -0.06  -0.01   0.13     0.05  -0.04   0.07
  35   6    -0.12   0.10  -0.04     0.12   0.04  -0.12     0.12   0.12   0.04
  36   6    -0.32   0.01  -0.25    -0.11   0.02   0.09    -0.16   0.07  -0.07
  37   6    -0.05  -0.37  -0.02     0.06   0.00  -0.13    -0.10   0.04  -0.10
  38   1    -0.02   0.00   0.02     0.03   0.00  -0.02    -0.01  -0.00   0.00
  39   1    -0.01  -0.04   0.02     0.02   0.01   0.10    -0.02   0.07   0.01
  40   1     0.02   0.02  -0.01     0.05   0.05   0.05     0.03   0.01   0.01
  41   1    -0.01  -0.01   0.02    -0.02  -0.00   0.03    -0.03   0.04  -0.01
  42   1     0.00   0.01  -0.01     0.03   0.04   0.06     0.02  -0.03   0.03
  43   1    -0.01  -0.01   0.02    -0.02   0.01   0.04    -0.03   0.02  -0.00
  44   1     0.00  -0.02  -0.04    -0.04   0.12   0.04     0.03   0.02  -0.07
  45   1     0.01   0.01  -0.01     0.05  -0.05  -0.04    -0.07   0.07   0.01
  46   1    -0.00  -0.01   0.02    -0.05   0.02  -0.00     0.06   0.02  -0.01
  47   1     0.01   0.02  -0.02     0.00  -0.02  -0.01    -0.03   0.04  -0.03
  48   1    -0.01  -0.02   0.01    -0.02   0.04   0.01     0.05   0.02  -0.02
  49   1    -0.00  -0.03   0.03    -0.01   0.02  -0.00    -0.03   0.04  -0.01
  50   1    -0.01  -0.03  -0.05    -0.07  -0.03  -0.01     0.06  -0.03   0.00
  51   1     0.00  -0.01   0.04     0.02   0.02  -0.02    -0.05   0.05  -0.02
  52   1    -0.03   0.00  -0.05    -0.05  -0.06  -0.00     0.06  -0.05   0.03
  53   1    -0.02  -0.00   0.03     0.01  -0.01   0.00    -0.03   0.01   0.02
  54   1     0.07  -0.05   0.04     0.01  -0.00   0.01     0.04   0.01   0.01
  55   1    -0.02   0.11  -0.04    -0.07  -0.01   0.09    -0.03  -0.02  -0.00
  56   1     0.04  -0.08   0.04     0.03   0.00  -0.02     0.05   0.01   0.02
  57   1    -0.06   0.06  -0.07    -0.07  -0.01   0.08    -0.06  -0.03  -0.02
  58   1     0.02  -0.09   0.01     0.00   0.00   0.01     0.00   0.02  -0.00
                     52                     53                     54
                        a                      a                      a 
 Frequencies --   632.9016               647.4456               661.5271
 Red. masses --    11.3127                12.3717                12.3010
 Frc consts  --     0.0000                 0.0000                 0.0000
 IR Inten    --     4.8320                21.7173                13.4458
 Raman Activ --     0.0000                 0.0000                 0.0000
 Depolar     --     0.0000                 0.0000                 0.0000
 Atom AN      X      Y      Z        X      Y      Z        X      Y      Z
   1   8     0.01   0.00  -0.00    -0.04  -0.05   0.01    -0.00  -0.05   0.06
   2  15    -0.03   0.02  -0.01     0.12  -0.08   0.09    -0.12  -0.08  -0.11
   3   8     0.01   0.00   0.02    -0.01   0.01  -0.05     0.05  -0.03  -0.07
   4   8     0.06  -0.05  -0.07     0.08  -0.04   0.08    -0.01  -0.08   0.23
   5   6    -0.06   0.05   0.07    -0.02   0.03  -0.00     0.20   0.03   0.29
   6   6    -0.08  -0.09   0.13     0.03  -0.02   0.11     0.01   0.02  -0.48
   7   6    -0.11  -0.12   0.06    -0.03  -0.05  -0.02     0.25   0.15  -0.02
   8   6     0.17   0.09  -0.03     0.10   0.08   0.04     0.05   0.03   0.17
   9   6     0.28   0.05  -0.11     0.15   0.03  -0.09    -0.03  -0.14  -0.09
  10   6    -0.04  -0.13   0.09    -0.00  -0.04   0.08     0.02  -0.07   0.18
  11   6    -0.10  -0.01   0.00    -0.05  -0.02  -0.02    -0.07   0.02  -0.14
  12   6    -0.20   0.08   0.05    -0.11   0.06   0.06    -0.07   0.14   0.11
  13   6     0.05   0.19  -0.09     0.01   0.09  -0.06    -0.07   0.00  -0.14
  14   6     0.01   0.09  -0.16    -0.08   0.00  -0.18     0.05  -0.08  -0.15
  15   6     0.08  -0.21   0.19    -0.00  -0.09   0.25     0.03   0.06  -0.01
  16   6    -0.05  -0.07   0.08    -0.03   0.10  -0.19     0.02   0.03   0.04
  17   8     0.05   0.03   0.07    -0.11  -0.06  -0.28    -0.07   0.02  -0.05
  18   6    -0.14   0.14  -0.30     0.02  -0.06   0.21     0.01  -0.04  -0.00
  19   6     0.11  -0.02   0.09    -0.18   0.01  -0.01    -0.00  -0.02  -0.02
  20   6     0.03   0.14  -0.01    -0.17   0.07  -0.12    -0.06   0.02   0.05
  21   6    -0.07   0.06   0.10    -0.13  -0.15   0.05    -0.12   0.03   0.04
  22   6    -0.06   0.09   0.04     0.05  -0.08  -0.27     0.01  -0.03  -0.02
  23   6    -0.06  -0.11  -0.06     0.15   0.02   0.15     0.02   0.00  -0.02
  24   6     0.04  -0.01  -0.08     0.15   0.21  -0.01     0.09   0.01   0.01
  25   6     0.04  -0.01  -0.04    -0.02   0.08   0.20    -0.01   0.06   0.03
  26   6     0.01  -0.05  -0.01     0.04  -0.06  -0.00    -0.10   0.04   0.00
  27   6     0.08   0.00  -0.02     0.04  -0.02  -0.06    -0.04   0.08   0.10
  28   6     0.00  -0.06  -0.07     0.04  -0.02  -0.07    -0.13   0.05   0.10
  29   6     0.02   0.07   0.01    -0.05   0.06  -0.01     0.08  -0.04   0.02
  30   6    -0.06   0.00  -0.01    -0.01   0.00   0.04     0.00  -0.08  -0.02
  31   6     0.02   0.05   0.04    -0.02  -0.01   0.04     0.07  -0.00  -0.01
  32   6    -0.11  -0.13  -0.08     0.03   0.08   0.09     0.00  -0.04  -0.09
  33   6    -0.00  -0.17   0.03     0.02   0.10  -0.07    -0.01  -0.04   0.06
  34   6     0.06  -0.21  -0.00    -0.06   0.11   0.05     0.05  -0.04  -0.04
  35   6     0.10   0.11   0.11    -0.02  -0.07  -0.11     0.01   0.04   0.07
  36   6     0.01   0.10  -0.03    -0.01  -0.06   0.08    -0.01   0.03  -0.08
  37   6    -0.06   0.10  -0.01     0.08  -0.05  -0.03    -0.07   0.02   0.02
  38   1     0.00   0.00   0.01     0.02   0.00  -0.02     0.02   0.00  -0.05
  39   1    -0.03  -0.09   0.00    -0.01  -0.03  -0.02     0.07   0.08  -0.00
  40   1     0.07   0.06  -0.06     0.03   0.02  -0.07    -0.02  -0.05  -0.07
  41   1    -0.06  -0.01   0.02    -0.04  -0.01  -0.00     0.03  -0.04   0.03
  42   1     0.02   0.03  -0.04     0.01   0.00  -0.05     0.01   0.02  -0.08
  43   1    -0.05  -0.02   0.02    -0.03  -0.01  -0.00    -0.02   0.04   0.04
  44   1     0.04  -0.03   0.09    -0.05  -0.02  -0.01    -0.00  -0.00  -0.02
  45   1    -0.01  -0.03   0.05    -0.02  -0.04   0.09    -0.03   0.03   0.02
  46   1     0.03   0.02   0.04     0.01  -0.04  -0.06     0.03   0.00  -0.00
  47   1    -0.00  -0.07   0.01    -0.02   0.01   0.12    -0.01   0.01   0.00
  48   1     0.02  -0.02   0.03     0.04   0.02  -0.02     0.02  -0.00  -0.01
  49   1     0.01   0.00  -0.00     0.00   0.01  -0.01     0.00   0.02   0.03
  50   1    -0.01  -0.04  -0.02     0.02  -0.02  -0.01    -0.05   0.04   0.01
  51   1    -0.00   0.01   0.02    -0.01   0.02   0.01     0.04  -0.00  -0.03
  52   1    -0.03  -0.02  -0.01     0.01  -0.01   0.00    -0.01  -0.01   0.00
  53   1    -0.01   0.02   0.00    -0.01   0.02   0.01     0.04  -0.02   0.02
  54   1     0.02  -0.01   0.01    -0.00   0.01  -0.02    -0.01   0.00   0.04
  55   1    -0.02  -0.07  -0.05     0.00   0.04   0.04    -0.01  -0.02  -0.01
  56   1     0.01   0.06   0.01     0.00  -0.03  -0.03    -0.01   0.01   0.04
  57   1    -0.00  -0.02  -0.03    -0.00   0.01   0.04    -0.02  -0.01  -0.02
  58   1     0.03   0.04   0.02    -0.00  -0.02  -0.03    -0.02   0.01   0.03
                     55                     56                     57
                        a                      a                      a 
 Frequencies --   665.2345               674.4061               680.2186
 Red. masses --    10.9056                 9.5583                10.4567
 Frc consts  --     0.0000                 0.0000                 0.0000
 IR Inten    --     7.9441                10.3665                 3.4748
 Raman Activ --     0.0000                 0.0000                 0.0000
 Depolar     --     0.0000                 0.0000                 0.0000
 Atom AN      X      Y      Z        X      Y      Z        X      Y      Z
   1   8     0.02   0.03   0.02    -0.02  -0.02  -0.00    -0.01  -0.03  -0.01
   2  15    -0.01   0.03  -0.03     0.08  -0.04   0.06    -0.01  -0.01   0.02
   3   8     0.03  -0.02  -0.04    -0.01   0.01  -0.02    -0.03   0.02   0.04
   4   8    -0.02  -0.14   0.16     0.04  -0.00   0.01     0.06   0.04  -0.07
   5   6    -0.05  -0.14  -0.13    -0.04   0.02  -0.02     0.02   0.14   0.19
   6   6    -0.00   0.07   0.04    -0.03  -0.03  -0.01    -0.08  -0.10  -0.22
   7   6     0.07  -0.03  -0.05    -0.01  -0.02   0.03     0.00   0.00   0.07
   8   6     0.06  -0.06  -0.03     0.01  -0.01  -0.07     0.03   0.03   0.03
   9   6     0.03  -0.07   0.06     0.04   0.02   0.01     0.02   0.02  -0.06
  10   6    -0.06  -0.15   0.03    -0.02  -0.02  -0.03     0.01   0.03   0.03
  11   6    -0.08   0.14   0.01    -0.01   0.01   0.03    -0.00  -0.05  -0.03
  12   6    -0.06   0.09  -0.06    -0.02  -0.01  -0.03     0.01  -0.01   0.05
  13   6     0.05   0.10   0.01     0.02   0.03   0.03    -0.01  -0.03  -0.06
  14   6     0.11   0.03   0.04    -0.02   0.05   0.08    -0.11   0.04   0.01
  15   6     0.09   0.01   0.03    -0.06  -0.02  -0.03    -0.13   0.01  -0.06
  16   6     0.01   0.10  -0.06    -0.08  -0.04  -0.01     0.00  -0.26   0.19
  17   8    -0.04  -0.01   0.04    -0.02   0.02  -0.14     0.03  -0.02  -0.15
  18   6     0.02  -0.11   0.07    -0.08  -0.00   0.11    -0.08   0.26  -0.24
  19   6     0.03   0.01  -0.04    -0.09   0.07   0.06    -0.05  -0.03   0.09
  20   6    -0.01   0.04  -0.00     0.03   0.02  -0.01     0.02  -0.10   0.06
  21   6    -0.03   0.01   0.06     0.01  -0.02  -0.01     0.01   0.01  -0.11
  22   6    -0.01   0.04   0.00    -0.02  -0.00  -0.02     0.03  -0.11   0.01
  23   6    -0.01  -0.06  -0.01    -0.01  -0.01   0.00     0.02   0.12  -0.01
  24   6    -0.01  -0.00  -0.05     0.06   0.03   0.00     0.04  -0.01   0.10
  25   6     0.01  -0.04   0.02     0.04   0.00   0.00    -0.03   0.11  -0.08
  26   6     0.20   0.31   0.09     0.14   0.06   0.04     0.25   0.08   0.08
  27   6    -0.22  -0.11   0.01    -0.05  -0.05  -0.05    -0.06  -0.06  -0.09
  28   6     0.16   0.15   0.18     0.10   0.05   0.01     0.15   0.10  -0.01
  29   6    -0.10  -0.23  -0.05    -0.08  -0.01  -0.02    -0.13   0.02  -0.03
  30   6     0.21   0.19  -0.03     0.08   0.05   0.06     0.14   0.04   0.14
  31   6    -0.18  -0.08  -0.18    -0.07  -0.06  -0.01    -0.08  -0.11   0.03
  32   6    -0.12  -0.06   0.04     0.27   0.01  -0.37     0.00   0.05   0.15
  33   6     0.07  -0.05  -0.05    -0.13  -0.00   0.20    -0.00   0.04  -0.06
  34   6    -0.01  -0.05   0.09     0.16   0.02  -0.26    -0.09   0.03   0.04
  35   6     0.10   0.06  -0.01    -0.13  -0.01   0.16    -0.04  -0.07  -0.08
  36   6    -0.13   0.04   0.01     0.19   0.00  -0.24     0.08  -0.04   0.15
  37   6    -0.03   0.04  -0.11    -0.11  -0.03   0.21     0.12  -0.03   0.02
  38   1    -0.02  -0.01   0.01     0.01  -0.00   0.00     0.00   0.01  -0.01
  39   1     0.03  -0.02   0.02     0.00  -0.01   0.03     0.00  -0.01   0.02
  40   1     0.00   0.01   0.00     0.02   0.02   0.02     0.01   0.01  -0.02
  41   1     0.01  -0.06  -0.00    -0.01   0.00   0.00    -0.01   0.02   0.01
  42   1     0.01   0.06  -0.02     0.00   0.01   0.02    -0.00  -0.01   0.01
  43   1    -0.02  -0.01  -0.02    -0.00  -0.01  -0.00     0.01   0.01   0.03
  44   1     0.01   0.00  -0.01    -0.03   0.06   0.02    -0.01  -0.01   0.03
  45   1    -0.01  -0.00   0.02     0.00  -0.02  -0.00     0.00   0.02  -0.04
  46   1     0.01   0.02   0.00    -0.01  -0.01   0.00    -0.02  -0.04  -0.00
  47   1     0.00  -0.02  -0.01    -0.01  -0.00   0.01    -0.01   0.03   0.02
  48   1    -0.00   0.01  -0.01     0.02   0.01   0.02     0.01  -0.02   0.04
  49   1    -0.13  -0.12  -0.05    -0.07  -0.05  -0.03    -0.15  -0.08  -0.06
  50   1    -0.02   0.04   0.01    -0.01  -0.03  -0.01    -0.05  -0.07  -0.02
  51   1    -0.11  -0.12  -0.04    -0.07  -0.04  -0.02    -0.14  -0.07  -0.06
  52   1    -0.02   0.05  -0.01    -0.02  -0.02  -0.00    -0.05  -0.08  -0.01
  53   1    -0.12  -0.11  -0.07    -0.08  -0.05  -0.03    -0.15  -0.10  -0.04
  54   1     0.04   0.01  -0.03    -0.15  -0.00   0.22     0.03  -0.02  -0.08
  55   1    -0.02  -0.02  -0.00    -0.04   0.00   0.06     0.04   0.01  -0.03
  56   1     0.05   0.01  -0.02    -0.14  -0.01   0.20     0.02   0.00  -0.09
  57   1    -0.04  -0.02  -0.02    -0.03   0.01   0.07     0.07   0.03  -0.01
  58   1     0.02   0.01  -0.04    -0.15  -0.01   0.23     0.07  -0.01  -0.07
                     58                     59                     60
                        a                      a                      a 
 Frequencies --   693.6695               721.2088               729.8472
 Red. masses --    11.6264                11.7194                11.4014
 Frc consts  --     0.0000                 0.0000                 0.0000
 IR Inten    --    20.2389                 4.0549                 3.4191
 Raman Activ --     0.0000                 0.0000                 0.0000
 Depolar     --     0.0000                 0.0000                 0.0000
 Atom AN      X      Y      Z        X      Y      Z        X      Y      Z
   1   8    -0.01   0.01  -0.02     0.01   0.00   0.01     0.01   0.02  -0.00
   2  15    -0.03   0.01  -0.02    -0.08   0.01  -0.06     0.02   0.02   0.01
   3   8     0.00   0.00   0.05     0.01  -0.01  -0.00    -0.01   0.01   0.00
   4   8    -0.00   0.15  -0.27     0.00  -0.03   0.07    -0.01  -0.06   0.07
   5   6     0.02   0.15   0.22     0.04   0.03   0.11    -0.08  -0.10  -0.23
   6   6    -0.12  -0.11  -0.11     0.01   0.00  -0.15     0.06   0.06   0.12
   7   6    -0.13  -0.04   0.08     0.09   0.08   0.06    -0.01  -0.02  -0.13
   8   6     0.01   0.06   0.19    -0.10  -0.11  -0.30     0.09   0.12   0.34
   9   6    -0.11   0.00  -0.08     0.02   0.02   0.11    -0.04  -0.06  -0.12
  10   6     0.04   0.14   0.05    -0.02  -0.06  -0.10     0.02   0.02   0.10
  11   6     0.03  -0.11  -0.08     0.03   0.04   0.11    -0.03  -0.04  -0.13
  12   6     0.14  -0.05   0.10    -0.04  -0.03  -0.10     0.01   0.04   0.07
  13   6    -0.03  -0.15  -0.16     0.07   0.13   0.32    -0.09  -0.13  -0.34
  14   6    -0.08  -0.01  -0.09    -0.06  -0.04  -0.12     0.10   0.10   0.32
  15   6     0.03  -0.06   0.08    -0.10   0.12  -0.18    -0.09   0.16  -0.22
  16   6    -0.01   0.19  -0.18     0.02  -0.11   0.12     0.03  -0.16   0.17
  17   8     0.07   0.01   0.28     0.03  -0.01   0.04    -0.00  -0.01  -0.09
  18   6     0.10  -0.16   0.11    -0.00   0.07  -0.13    -0.05   0.11  -0.09
  19   6     0.12  -0.02  -0.07     0.04  -0.10   0.07    -0.02  -0.03   0.10
  20   6     0.00   0.14  -0.17    -0.09   0.27  -0.30    -0.02   0.18  -0.20
  21   6     0.10  -0.05   0.08     0.01  -0.09   0.11     0.04  -0.08   0.06
  22   6    -0.03   0.14  -0.01    -0.02   0.10  -0.10    -0.02   0.04  -0.05
  23   6    -0.03  -0.12   0.05     0.03  -0.09   0.12     0.01  -0.07   0.08
  24   6    -0.12   0.02  -0.12    -0.01   0.10  -0.09     0.00   0.04  -0.04
  25   6     0.02  -0.20   0.12     0.07  -0.28   0.31     0.06  -0.19   0.19
  26   6     0.11   0.04   0.03     0.01  -0.01   0.00     0.01   0.00   0.00
  27   6    -0.00  -0.01  -0.03    -0.00  -0.00  -0.01    -0.01  -0.01  -0.01
  28   6     0.07   0.04   0.00    -0.00   0.00  -0.02    -0.00  -0.01  -0.01
  29   6    -0.03   0.02  -0.00    -0.01   0.02  -0.00    -0.02  -0.00  -0.01
  30   6     0.07   0.02   0.06     0.00  -0.03   0.03    -0.01  -0.01  -0.00
  31   6    -0.01  -0.03   0.02     0.00  -0.02   0.02    -0.02  -0.01  -0.00
  32   6    -0.00   0.01  -0.01     0.01   0.02   0.01     0.00  -0.00  -0.00
  33   6     0.00   0.03   0.00    -0.01   0.02   0.00    -0.00  -0.02   0.00
  34   6     0.02   0.04   0.00    -0.02   0.02   0.00    -0.00  -0.02  -0.01
  35   6     0.00  -0.00  -0.00    -0.02  -0.02  -0.01     0.00   0.00   0.00
  36   6    -0.03  -0.01  -0.03     0.03  -0.01   0.03     0.01   0.01   0.00
  37   6    -0.02   0.00  -0.02     0.02  -0.00   0.02     0.01   0.00   0.00
  38   1     0.02   0.00   0.00    -0.01   0.00  -0.01    -0.02  -0.00   0.02
  39   1    -0.05  -0.04  -0.02     0.04   0.05   0.06    -0.02  -0.01  -0.08
  40   1    -0.03  -0.03  -0.03     0.01   0.01   0.06    -0.01  -0.01  -0.02
  41   1     0.00   0.04   0.01     0.00  -0.01  -0.01     0.01   0.01   0.05
  42   1    -0.03  -0.05   0.01     0.00  -0.00  -0.01     0.02   0.03   0.06
  43   1     0.04   0.00   0.05    -0.02  -0.03  -0.07     0.02   0.06   0.11
  44   1     0.04  -0.04   0.01     0.02  -0.07   0.05     0.00  -0.02   0.06
  45   1     0.03  -0.05   0.03     0.01  -0.04   0.05     0.01  -0.01  -0.01
  46   1    -0.01   0.03   0.01    -0.00   0.01  -0.01    -0.01   0.03  -0.03
  47   1     0.03  -0.04  -0.02    -0.00   0.02  -0.01    -0.01   0.04  -0.04
  48   1    -0.04   0.03  -0.05    -0.01   0.08  -0.07    -0.01   0.08  -0.06
  49   1    -0.10  -0.07  -0.04     0.01   0.01   0.01     0.04   0.02   0.01
  50   1    -0.07  -0.06  -0.03     0.01   0.00   0.00     0.04   0.02   0.01
  51   1    -0.10  -0.06  -0.04     0.01   0.01  -0.00     0.04   0.03   0.02
  52   1    -0.07  -0.07  -0.02     0.02  -0.01   0.01     0.04   0.03   0.01
  53   1    -0.10  -0.07  -0.03     0.01   0.00   0.01     0.03   0.03   0.01
  54   1    -0.01   0.01   0.02     0.01  -0.00  -0.02    -0.00  -0.01   0.00
  55   1    -0.00   0.01   0.02     0.02   0.01  -0.02    -0.01  -0.01   0.00
  56   1    -0.00  -0.01   0.02     0.01  -0.00  -0.03    -0.01   0.01   0.00
  57   1    -0.02  -0.01   0.01     0.03   0.01  -0.02    -0.00   0.00   0.01
  58   1    -0.02  -0.00   0.01     0.02  -0.00  -0.02     0.00   0.00   0.01
                     61                     62                     63
                        a                      a                      a 
 Frequencies --   749.7214               759.9913               762.4729
 Red. masses --    12.6276                 5.8439                 5.1919
 Frc consts  --     0.0000                 0.0000                 0.0000
 IR Inten    --    60.8672                24.1654                13.4695
 Raman Activ --     0.0000                 0.0000                 0.0000
 Depolar     --     0.0000                 0.0000                 0.0000
 Atom AN      X      Y      Z        X      Y      Z        X      Y      Z
   1   8    -0.05  -0.05  -0.02    -0.01  -0.03   0.03     0.01   0.00   0.01
   2  15     0.21  -0.08   0.15     0.01  -0.04   0.00    -0.04   0.02  -0.01
   3   8    -0.06   0.02   0.02     0.04  -0.02  -0.05     0.03  -0.01  -0.04
   4   8     0.03   0.14  -0.17     0.02  -0.05   0.10    -0.02  -0.04   0.09
   5   6     0.12  -0.01   0.04    -0.08   0.04  -0.03     0.02  -0.06  -0.12
   6   6    -0.04  -0.11   0.02    -0.00   0.06  -0.01     0.10   0.08   0.12
   7   6    -0.25  -0.04   0.12     0.09   0.02  -0.05     0.12   0.05  -0.02
   8   6    -0.11  -0.03   0.01     0.03   0.01   0.02    -0.00   0.02   0.03
   9   6    -0.15  -0.02   0.06     0.02   0.00  -0.02     0.00  -0.01  -0.07
  10   6     0.02   0.07  -0.04    -0.00  -0.01   0.01     0.00  -0.01  -0.07
  11   6     0.05  -0.05   0.02    -0.00  -0.00  -0.01     0.01  -0.02  -0.04
  12   6     0.13  -0.07   0.00    -0.02   0.01   0.00    -0.10  -0.01  -0.06
  13   6     0.06  -0.03   0.01    -0.02  -0.00  -0.02    -0.03   0.03   0.09
  14   6     0.22  -0.02  -0.13    -0.11   0.05   0.08     0.01  -0.05   0.00
  15   6     0.25   0.11  -0.10    -0.09  -0.00   0.03    -0.00  -0.01  -0.02
  16   6     0.14   0.02   0.14    -0.09   0.08  -0.04    -0.01  -0.00  -0.00
  17   8    -0.13   0.04  -0.27    -0.10   0.10   0.01     0.02  -0.01   0.02
  18   6    -0.01   0.11   0.05     0.00  -0.10   0.08     0.00  -0.02   0.01
  19   6    -0.23   0.00   0.11     0.05  -0.01   0.01    -0.01  -0.01  -0.01
  20   6    -0.08   0.04  -0.01     0.08  -0.02   0.01    -0.02   0.01  -0.00
  21   6    -0.10   0.01   0.05     0.08   0.05  -0.06    -0.02  -0.00   0.02
  22   6    -0.00  -0.01  -0.03    -0.04   0.09   0.02     0.00  -0.01   0.00
  23   6     0.01  -0.01   0.00    -0.06  -0.03  -0.07     0.01   0.00   0.01
  24   6     0.10   0.03   0.00    -0.02   0.01  -0.08     0.02   0.00   0.01
  25   6     0.07  -0.01   0.04     0.02  -0.05   0.02     0.01   0.01  -0.00
  26   6    -0.05   0.03  -0.01     0.05  -0.00   0.01    -0.30  -0.21  -0.11
  27   6    -0.03   0.04   0.07     0.01  -0.03  -0.04     0.14   0.10   0.06
  28   6    -0.04   0.03   0.09     0.03  -0.02  -0.06     0.07   0.05   0.03
  29   6     0.07  -0.07   0.01    -0.05   0.04  -0.01     0.14   0.09   0.05
  30   6     0.00   0.07  -0.10    -0.00  -0.04   0.06     0.07   0.06   0.02
  31   6     0.00   0.06  -0.06    -0.01  -0.04   0.03     0.12   0.10   0.05
  32   6     0.01  -0.05  -0.11     0.20   0.01  -0.28     0.02   0.00  -0.02
  33   6    -0.02  -0.11   0.05    -0.07   0.02   0.12    -0.01   0.01   0.01
  34   6     0.01  -0.15   0.04    -0.05   0.04   0.07    -0.00   0.01   0.01
  35   6     0.05   0.08   0.10    -0.11  -0.02   0.13    -0.01  -0.01   0.01
  36   6    -0.13   0.06  -0.04    -0.03  -0.02   0.09     0.00  -0.00   0.01
  37   6    -0.11   0.02  -0.00    -0.07  -0.02   0.15    -0.00  -0.00   0.01
  38   1     0.03   0.01  -0.01     0.02  -0.00  -0.03    -0.01  -0.01   0.00
  39   1    -0.08  -0.01   0.01     0.03   0.01  -0.01    -0.00  -0.01  -0.13
  40   1    -0.04  -0.04   0.03     0.01   0.01  -0.00     0.04   0.05   0.13
  41   1     0.02   0.01  -0.02    -0.00   0.00   0.01     0.04   0.07   0.16
  42   1    -0.03  -0.04   0.01     0.01   0.01   0.01     0.05   0.06   0.14
  43   1     0.03  -0.03  -0.01    -0.00   0.01   0.01    -0.00   0.07   0.10
  44   1    -0.08   0.03  -0.02    -0.00   0.09  -0.07    -0.00  -0.01   0.00
  45   1    -0.02   0.01   0.04     0.04  -0.11   0.07    -0.01   0.02  -0.01
  46   1     0.02   0.00   0.00     0.01  -0.08   0.12     0.00   0.02  -0.02
  47   1    -0.02   0.01   0.01     0.02  -0.12   0.08    -0.01   0.02  -0.01
  48   1     0.03   0.03   0.00     0.01  -0.08   0.08     0.00   0.02  -0.01
  49   1    -0.03  -0.02   0.00     0.02   0.01  -0.00    -0.20  -0.14  -0.07
  50   1    -0.06   0.01  -0.00     0.04  -0.01   0.00    -0.27  -0.18  -0.10
  51   1    -0.02  -0.05  -0.01     0.02   0.03   0.01    -0.31  -0.22  -0.11
  52   1    -0.06   0.02  -0.02     0.04  -0.01   0.02    -0.27  -0.18  -0.10
  53   1    -0.01  -0.02  -0.01     0.01   0.01   0.01    -0.19  -0.14  -0.06
  54   1     0.06  -0.01  -0.07     0.12   0.00  -0.18     0.01   0.00  -0.01
  55   1     0.04  -0.05  -0.12     0.19   0.02  -0.26     0.02   0.00  -0.02
  56   1     0.10   0.03  -0.11     0.22   0.00  -0.33     0.02  -0.00  -0.03
  57   1     0.03  -0.03  -0.13     0.19   0.01  -0.27     0.02   0.00  -0.02
  58   1     0.05   0.01  -0.08     0.14  -0.00  -0.20     0.01  -0.00  -0.02
                     64                     65                     66
                        a                      a                      a 
 Frequencies --   770.3660               773.1038               786.1726
 Red. masses --     4.4134                 4.1262                12.9049
 Frc consts  --     0.0000                 0.0000                 0.0000
 IR Inten    --    23.2464                23.3377                13.5511
 Raman Activ --     0.0000                 0.0000                 0.0000
 Depolar     --     0.0000                 0.0000                 0.0000
 Atom AN      X      Y      Z        X      Y      Z        X      Y      Z
   1   8    -0.01  -0.03   0.02     0.00   0.01  -0.01    -0.05  -0.13   0.06
   2  15    -0.02  -0.02   0.01     0.01   0.01  -0.01     0.04  -0.12   0.11
   3   8     0.03  -0.02  -0.05    -0.02   0.01   0.03     0.11  -0.07  -0.20
   4   8     0.05   0.00   0.08    -0.03  -0.00  -0.05     0.18   0.02   0.22
   5   6    -0.02   0.03  -0.03     0.00  -0.00   0.03    -0.11   0.14  -0.04
   6   6     0.03   0.06   0.10    -0.01  -0.02  -0.01    -0.05   0.08   0.01
   7   6     0.04   0.00  -0.08     0.01  -0.02   0.00     0.01   0.05  -0.01
   8   6    -0.04  -0.05  -0.12     0.03   0.00  -0.02    -0.03  -0.00   0.03
   9   6     0.03   0.07   0.18     0.05   0.02  -0.01    -0.09  -0.04  -0.01
  10   6     0.06   0.08   0.13    -0.01  -0.01   0.01    -0.01   0.00  -0.05
  11   6     0.05   0.02   0.12    -0.02   0.03  -0.00     0.04  -0.08  -0.01
  12   6     0.02   0.06   0.18    -0.03   0.02  -0.00     0.07  -0.08  -0.03
  13   6    -0.07  -0.08  -0.17    -0.00   0.01   0.01     0.03   0.02   0.06
  14   6    -0.01   0.05   0.11    -0.03  -0.03   0.00    -0.15   0.09  -0.10
  15   6    -0.02   0.06  -0.00    -0.01  -0.11   0.07     0.06   0.10   0.15
  16   6     0.02   0.01   0.05    -0.05  -0.02  -0.03     0.10   0.13   0.16
  17   8    -0.06   0.04  -0.05     0.04  -0.01   0.02    -0.38   0.28  -0.18
  18   6     0.01   0.02  -0.01    -0.01  -0.07   0.07     0.09   0.04  -0.05
  19   6     0.03   0.01   0.01    -0.02   0.04  -0.04     0.17  -0.00  -0.03
  20   6     0.03   0.01  -0.03    -0.01   0.10  -0.10     0.06   0.01  -0.05
  21   6     0.06  -0.02  -0.01     0.03  -0.13   0.16     0.14  -0.05  -0.02
  22   6    -0.01   0.01   0.02     0.02  -0.10   0.12     0.00   0.01   0.06
  23   6    -0.02  -0.03  -0.01     0.02  -0.10   0.10    -0.05  -0.10  -0.05
  24   6    -0.04  -0.03  -0.01     0.06  -0.13   0.14    -0.15  -0.12  -0.03
  25   6    -0.01  -0.02   0.01    -0.02   0.14  -0.15    -0.07   0.02  -0.02
  26   6    -0.11  -0.09  -0.05     0.03   0.02   0.01     0.04  -0.00   0.01
  27   6     0.06   0.02  -0.00    -0.01  -0.00  -0.00     0.03  -0.03  -0.05
  28   6     0.05   0.00  -0.02    -0.01  -0.00   0.00     0.06  -0.04  -0.09
  29   6     0.04   0.05   0.02    -0.01  -0.01  -0.00    -0.05   0.06  -0.00
  30   6     0.03   0.02   0.03    -0.01  -0.00  -0.01     0.01  -0.05   0.09
  31   6     0.05   0.03   0.02    -0.01  -0.00  -0.01    -0.00  -0.05   0.04
  32   6    -0.01  -0.00   0.00     0.09   0.01  -0.13    -0.07  -0.01   0.09
  33   6     0.00  -0.01  -0.00    -0.03   0.02   0.05     0.02  -0.04  -0.03
  34   6     0.00  -0.02   0.00    -0.02   0.04   0.02     0.02  -0.07  -0.00
  35   6     0.01   0.01   0.00    -0.05  -0.02   0.05     0.06   0.04  -0.01
  36   6    -0.01   0.01  -0.01    -0.01  -0.01   0.04    -0.05   0.02  -0.06
  37   6    -0.01   0.00  -0.01    -0.02  -0.00   0.05    -0.02   0.01  -0.06
  38   1     0.02  -0.00  -0.03    -0.01   0.00   0.01     0.09  -0.01  -0.11
  39   1     0.06   0.05   0.14     0.01  -0.02   0.01    -0.01   0.01  -0.04
  40   1    -0.09  -0.13  -0.32     0.01   0.01  -0.02    -0.00   0.00   0.09
  41   1    -0.10  -0.15  -0.41    -0.01  -0.00  -0.01     0.03   0.04   0.09
  42   1    -0.08  -0.16  -0.38     0.00   0.01  -0.01     0.01  -0.00   0.10
  43   1    -0.07  -0.11  -0.28    -0.01   0.01   0.00     0.03   0.00   0.06
  44   1     0.01   0.00   0.01     0.02  -0.10   0.13     0.05  -0.02   0.02
  45   1     0.01   0.00  -0.03    -0.06   0.24  -0.27     0.02   0.02  -0.09
  46   1    -0.01   0.02  -0.02    -0.07   0.30  -0.32    -0.02   0.07  -0.06
  47   1     0.00   0.01  -0.04    -0.06   0.29  -0.31     0.02   0.02  -0.11
  48   1    -0.01   0.00  -0.02    -0.04   0.24  -0.22    -0.06   0.00  -0.07
  49   1    -0.07  -0.05  -0.03     0.01   0.01   0.00     0.01   0.00  -0.01
  50   1    -0.09  -0.08  -0.04     0.02   0.02   0.01     0.03  -0.03  -0.01
  51   1    -0.13  -0.08  -0.04     0.03   0.02   0.01    -0.00   0.02   0.01
  52   1    -0.10  -0.08  -0.04     0.02   0.02   0.01     0.03  -0.03   0.01
  53   1    -0.07  -0.05  -0.03     0.01   0.01   0.00     0.00   0.00   0.01
  54   1    -0.00  -0.00   0.00     0.04   0.00  -0.06    -0.02  -0.00   0.03
  55   1    -0.01  -0.01  -0.00     0.08   0.01  -0.09    -0.05  -0.02   0.04
  56   1     0.00   0.00   0.00     0.08  -0.00  -0.13    -0.04   0.01   0.08
  57   1    -0.01  -0.00  -0.00     0.07   0.01  -0.10    -0.06  -0.02   0.04
  58   1    -0.00   0.00   0.00     0.05  -0.00  -0.07    -0.03   0.00   0.03
                     67                     68                     69
                        a                      a                      a 
 Frequencies --   804.5840               831.8107               849.8666
 Red. masses --    19.0908                16.2142                14.8442
 Frc consts  --     0.0000                 0.0000                 0.0000
 IR Inten    --   375.2263                97.6342               175.0077
 Raman Activ --     0.0000                 0.0000                 0.0000
 Depolar     --     0.0000                 0.0000                 0.0000
 Atom AN      X      Y      Z        X      Y      Z        X      Y      Z
   1   8    -0.01  -0.08   0.02    -0.04  -0.09   0.01    -0.00  -0.01   0.02
   2  15    -0.49   0.18   0.09     0.03   0.10   0.42    -0.01  -0.19  -0.33
   3   8     0.27  -0.12  -0.41     0.21  -0.08  -0.35    -0.14  -0.01   0.22
   4   8     0.26   0.21   0.21    -0.13  -0.01  -0.20     0.28   0.24   0.26
   5   6    -0.01   0.07  -0.07     0.15  -0.07   0.01     0.06   0.04  -0.08
   6   6    -0.03  -0.03   0.04     0.09  -0.18   0.00     0.04  -0.10   0.05
   7   6    -0.13  -0.04   0.04     0.01  -0.13   0.05    -0.13  -0.11  -0.01
   8   6    -0.03  -0.00   0.02     0.05  -0.02  -0.01     0.00  -0.00   0.03
   9   6    -0.06  -0.01   0.01     0.08   0.08  -0.04    -0.02   0.02  -0.01
  10   6    -0.00   0.03  -0.01     0.02   0.07  -0.03     0.01   0.05  -0.03
  11   6     0.02  -0.05   0.01    -0.01   0.02  -0.00     0.02  -0.04  -0.00
  12   6     0.08  -0.05   0.00    -0.13   0.05   0.01     0.00  -0.03   0.00
  13   6     0.04   0.01  -0.02    -0.06  -0.02   0.01     0.02   0.02  -0.00
  14   6     0.04   0.09  -0.00     0.06  -0.12   0.06     0.06   0.05   0.02
  15   6     0.06  -0.06  -0.02    -0.11   0.00  -0.07     0.00  -0.02  -0.02
  16   6     0.01  -0.02  -0.05    -0.14  -0.03   0.06    -0.10   0.00   0.04
  17   8     0.27  -0.27   0.04    -0.16   0.23   0.01    -0.11   0.11   0.01
  18   6    -0.02   0.03   0.05    -0.07  -0.15  -0.12    -0.08  -0.17  -0.12
  19   6    -0.14   0.03   0.05     0.14  -0.11  -0.11    -0.09  -0.16  -0.17
  20   6    -0.02  -0.00   0.01    -0.02  -0.01  -0.01    -0.05  -0.07  -0.04
  21   6    -0.03   0.00   0.01    -0.03   0.04   0.04     0.01   0.08   0.07
  22   6    -0.01  -0.01  -0.00    -0.01   0.06   0.04    -0.08   0.16   0.16
  23   6     0.01   0.02   0.02    -0.00  -0.01  -0.01    -0.08  -0.08  -0.07
  24   6     0.06   0.03   0.02     0.03   0.00  -0.01     0.24   0.03  -0.02
  25   6     0.03   0.01  -0.02     0.01  -0.01   0.02     0.10   0.02  -0.01
  26   6     0.02   0.01   0.01     0.03  -0.01   0.01     0.01  -0.02  -0.00
  27   6    -0.01  -0.01  -0.00    -0.04   0.05   0.04    -0.03   0.01   0.00
  28   6    -0.00  -0.01   0.00    -0.08   0.06   0.13    -0.04   0.02   0.06
  29   6    -0.01  -0.01  -0.00     0.06  -0.10   0.00     0.04  -0.04   0.01
  30   6    -0.01   0.01  -0.01    -0.02   0.08  -0.14    -0.00   0.06  -0.07
  31   6    -0.01  -0.00  -0.01    -0.03   0.05  -0.05    -0.01   0.03  -0.02
  32   6     0.02   0.00  -0.03    -0.03  -0.02   0.01    -0.06  -0.03   0.02
  33   6     0.00  -0.01  -0.00     0.01   0.07   0.00     0.02   0.08   0.00
  34   6    -0.00  -0.02   0.01    -0.01   0.16  -0.01    -0.01   0.17  -0.01
  35   6    -0.00   0.01   0.02    -0.06  -0.07  -0.06    -0.06  -0.08  -0.07
  36   6    -0.02   0.01  -0.00     0.12  -0.05   0.08     0.13  -0.05   0.09
  37   6    -0.02   0.00   0.01     0.06   0.01   0.04     0.05   0.02   0.04
  38   1     0.05  -0.01  -0.17     0.09  -0.03  -0.06     0.06   0.04  -0.10
  39   1    -0.03  -0.00   0.03     0.00  -0.06   0.00     0.01   0.02   0.15
  40   1    -0.01  -0.01   0.02     0.02   0.03  -0.03    -0.00   0.00  -0.00
  41   1     0.00   0.01   0.01    -0.02   0.03  -0.02    -0.00   0.03   0.01
  42   1    -0.02  -0.03   0.03     0.01   0.01  -0.02    -0.00  -0.01   0.04
  43   1     0.03  -0.02   0.01    -0.04   0.04  -0.01     0.00  -0.00   0.02
  44   1    -0.04   0.01   0.02     0.04  -0.04  -0.04    -0.02  -0.12  -0.00
  45   1    -0.01   0.01   0.00    -0.01   0.01   0.02    -0.00   0.03   0.01
  46   1    -0.00   0.00  -0.01     0.02   0.01   0.03     0.03   0.06   0.06
  47   1    -0.01   0.01   0.01     0.01  -0.01   0.00    -0.02  -0.03  -0.00
  48   1     0.02   0.02   0.01     0.01   0.01   0.00     0.08   0.05   0.04
  49   1     0.01   0.00   0.00    -0.03  -0.01   0.00     0.02   0.02   0.01
  50   1     0.01   0.01   0.01    -0.04   0.05   0.01    -0.02   0.02   0.01
  51   1     0.02   0.01   0.01     0.03  -0.02   0.01    -0.01  -0.02   0.00
  52   1     0.01   0.02   0.00    -0.01   0.07  -0.01    -0.04   0.01  -0.02
  53   1     0.01   0.00  -0.00     0.02   0.02   0.00    -0.02  -0.01  -0.01
  54   1    -0.00  -0.01   0.01    -0.00   0.01   0.00    -0.00   0.02   0.01
  55   1     0.01  -0.01  -0.02     0.02   0.05   0.03     0.02   0.06   0.04
  56   1     0.02   0.00  -0.03    -0.03  -0.02   0.01    -0.04  -0.02   0.02
  57   1     0.01  -0.00  -0.03     0.04   0.02   0.04     0.04   0.02   0.04
  58   1     0.01   0.00  -0.02     0.01  -0.00   0.00     0.02   0.00  -0.01
                     70                     71                     72
                        a                      a                      a 
 Frequencies --   852.2562               861.2987               867.4428
 Red. masses --    11.3608                11.1724                 4.3096
 Frc consts  --     0.0000                 0.0000                 0.0000
 IR Inten    --    20.6098                50.1119                32.6747
 Raman Activ --     0.0000                 0.0000                 0.0000
 Depolar     --     0.0000                 0.0000                 0.0000
 Atom AN      X      Y      Z        X      Y      Z        X      Y      Z
   1   8     0.00   0.00   0.00     0.00   0.02  -0.00     0.00  -0.00   0.01
   2  15    -0.03  -0.06  -0.15     0.01   0.06   0.08    -0.01  -0.04  -0.08
   3   8    -0.06  -0.00   0.09     0.04   0.04  -0.05    -0.03  -0.00   0.05
   4   8     0.12   0.11   0.10    -0.11  -0.17  -0.08     0.07   0.06   0.08
   5   6     0.04   0.03  -0.02    -0.13   0.04   0.04    -0.00  -0.02  -0.10
   6   6     0.06  -0.19   0.05    -0.08   0.04  -0.01    -0.00  -0.05  -0.05
   7   6     0.18  -0.29  -0.04     0.31  -0.07  -0.01     0.07   0.07   0.32
   8   6     0.08  -0.10   0.06     0.04  -0.09   0.02    -0.02  -0.04  -0.07
   9   6    -0.07   0.12  -0.03    -0.13   0.04   0.02    -0.02  -0.01  -0.04
  10   6     0.11   0.29  -0.15     0.09   0.20  -0.10     0.01   0.02  -0.01
  11   6     0.14  -0.18   0.02     0.14  -0.16   0.03     0.03   0.02   0.09
  12   6    -0.33   0.01   0.05    -0.25   0.00   0.06    -0.00   0.02   0.06
  13   6    -0.13   0.05   0.06    -0.10   0.05   0.01    -0.01  -0.02  -0.07
  14   6    -0.04  -0.00  -0.01    -0.08   0.06  -0.03     0.02   0.02   0.03
  15   6    -0.04   0.02  -0.00     0.08   0.06   0.05    -0.01   0.01  -0.02
  16   6     0.02   0.01  -0.01     0.14   0.04  -0.00    -0.01  -0.03   0.04
  17   8     0.01  -0.02  -0.00     0.06  -0.11  -0.04    -0.02   0.02  -0.01
  18   6     0.03   0.09   0.07     0.07   0.02   0.00    -0.01  -0.03   0.03
  19   6     0.16   0.12   0.09    -0.32  -0.10  -0.03     0.01   0.14  -0.15
  20   6     0.05   0.06   0.04    -0.05  -0.09  -0.06     0.02  -0.02   0.04
  21   6    -0.03  -0.06  -0.05     0.14   0.05   0.01    -0.01  -0.02   0.02
  22   6     0.07  -0.13  -0.14    -0.11   0.17   0.19     0.01  -0.02  -0.02
  23   6     0.08   0.08   0.06    -0.15  -0.15  -0.11     0.01   0.06  -0.03
  24   6    -0.22  -0.02   0.02     0.29   0.01  -0.04    -0.04   0.03  -0.03
  25   6    -0.09  -0.03   0.01     0.11   0.06   0.01    -0.01  -0.04   0.03
  26   6     0.07  -0.01   0.02     0.03   0.05   0.02     0.03   0.01   0.01
  27   6    -0.03   0.04   0.01     0.04   0.00  -0.00     0.06   0.06   0.04
  28   6    -0.07   0.05   0.11     0.03  -0.02  -0.04     0.00   0.04   0.03
  29   6     0.04  -0.09   0.00    -0.05   0.01  -0.01    -0.02  -0.03  -0.02
  30   6    -0.03   0.09  -0.13    -0.02  -0.04   0.03    -0.05  -0.03  -0.04
  31   6    -0.03   0.05  -0.05    -0.00  -0.02  -0.01    -0.04  -0.02  -0.01
  32   6     0.04   0.02  -0.03    -0.02   0.01   0.06     0.01  -0.00  -0.02
  33   6    -0.01  -0.04  -0.00    -0.01  -0.00  -0.01    -0.01   0.01   0.01
  34   6     0.00  -0.09   0.01     0.01  -0.03  -0.00    -0.01   0.01   0.02
  35   6     0.02   0.04   0.04     0.04   0.02  -0.02    -0.02  -0.01   0.02
  36   6    -0.07   0.02  -0.04    -0.03   0.01  -0.02     0.00  -0.00  -0.01
  37   6    -0.02  -0.01  -0.02    -0.02   0.00  -0.00     0.02   0.01  -0.04
  38   1     0.02   0.02  -0.04    -0.08  -0.02   0.10     0.01   0.01  -0.02
  39   1     0.10  -0.08   0.15     0.06  -0.10  -0.09    -0.17  -0.20  -0.57
  40   1    -0.01   0.02  -0.00    -0.03  -0.02   0.02     0.03   0.04   0.11
  41   1    -0.03   0.12  -0.01    -0.01   0.06  -0.03    -0.01  -0.01  -0.04
  42   1     0.05  -0.03   0.04     0.04  -0.04   0.00    -0.04  -0.07  -0.16
  43   1    -0.10   0.10   0.01    -0.08   0.07  -0.00    -0.03  -0.05  -0.12
  44   1     0.04   0.08   0.02    -0.09  -0.08  -0.04     0.07  -0.23   0.30
  45   1    -0.00  -0.01  -0.01     0.03  -0.01  -0.02    -0.02   0.05  -0.05
  46   1    -0.02  -0.05  -0.05     0.01   0.06   0.06     0.00  -0.02   0.01
  47   1     0.03   0.02   0.01    -0.04  -0.04  -0.03     0.02  -0.07   0.08
  48   1    -0.07  -0.05  -0.03     0.09   0.07   0.04    -0.00  -0.07   0.05
  49   1    -0.02  -0.00  -0.01    -0.04  -0.04  -0.02    -0.14  -0.10  -0.05
  50   1    -0.02   0.04   0.02     0.02  -0.01  -0.00    -0.05  -0.02  -0.01
  51   1     0.04  -0.00   0.02     0.04   0.04   0.02     0.06   0.04   0.01
  52   1    -0.01   0.07  -0.01     0.06   0.02   0.02     0.11   0.08   0.04
  53   1     0.00   0.02  -0.01     0.02   0.01   0.00     0.07   0.05   0.02
  54   1     0.00  -0.01  -0.00    -0.00   0.00  -0.00     0.01   0.00  -0.02
  55   1    -0.01  -0.03  -0.03    -0.02  -0.01   0.02     0.03   0.00  -0.04
  56   1     0.03   0.01  -0.03    -0.03   0.00   0.05     0.03  -0.00  -0.04
  57   1    -0.02  -0.01  -0.03    -0.02  -0.01   0.01    -0.00  -0.00   0.01
  58   1    -0.01  -0.00   0.01     0.01   0.00  -0.03    -0.04   0.00   0.06
                     73                     74                     75
                        a                      a                      a 
 Frequencies --   868.2506               877.0364               878.8219
 Red. masses --     4.2274                 3.5007                 3.6691
 Frc consts  --     0.0000                 0.0000                 0.0000
 IR Inten    --    40.9818                 2.4336                 2.8040
 Raman Activ --     0.0000                 0.0000                 0.0000
 Depolar     --     0.0000                 0.0000                 0.0000
 Atom AN      X      Y      Z        X      Y      Z        X      Y      Z
   1   8     0.00   0.00   0.01    -0.00  -0.00   0.00    -0.01  -0.01   0.01
   2  15    -0.01  -0.04  -0.08    -0.00  -0.01  -0.02    -0.00  -0.01   0.00
   3   8    -0.02   0.00   0.04    -0.00   0.01   0.01     0.02   0.02  -0.01
   4   8     0.06   0.06   0.07     0.01   0.01   0.01    -0.01  -0.01  -0.02
   5   6     0.00  -0.01  -0.06     0.00   0.00   0.01     0.01   0.01   0.04
   6   6    -0.00  -0.03  -0.03     0.00   0.01   0.01     0.01   0.01   0.02
   7   6     0.03   0.04   0.19    -0.04   0.01  -0.03    -0.05  -0.02  -0.13
   8   6    -0.01  -0.02  -0.04    -0.02   0.01  -0.04     0.01   0.03   0.07
   9   6     0.00  -0.00  -0.02     0.04   0.04   0.15    -0.03  -0.05  -0.13
  10   6     0.00   0.01   0.00     0.00   0.01   0.11    -0.03  -0.06  -0.10
  11   6     0.01   0.02   0.05    -0.03  -0.04  -0.12     0.01   0.04   0.07
  12   6     0.01   0.01   0.03     0.01  -0.06  -0.14     0.05   0.05   0.12
  13   6    -0.01  -0.02  -0.04     0.02   0.02   0.05    -0.00  -0.02  -0.03
  14   6     0.01   0.01   0.03     0.00  -0.01  -0.02     0.00   0.00  -0.00
  15   6    -0.00  -0.03   0.02     0.01  -0.01  -0.01    -0.01   0.01  -0.00
  16   6    -0.05   0.05  -0.07    -0.00  -0.01   0.01    -0.00   0.01  -0.01
  17   8    -0.01   0.01   0.03    -0.00   0.01   0.00     0.01  -0.00   0.00
  18   6    -0.03   0.02  -0.07    -0.00  -0.00   0.00    -0.00   0.00  -0.00
  19   6     0.08  -0.24   0.26     0.00   0.02  -0.03     0.01  -0.04   0.05
  20   6    -0.02   0.06  -0.06     0.00  -0.01   0.02    -0.01   0.04  -0.05
  21   6    -0.01   0.03  -0.03    -0.02   0.04  -0.04     0.03  -0.11   0.12
  22   6     0.01  -0.00   0.01    -0.00   0.02  -0.04     0.01  -0.07   0.08
  23   6     0.02  -0.07   0.07     0.01  -0.02   0.03    -0.02   0.08  -0.08
  24   6     0.01  -0.04   0.05     0.00  -0.03   0.04    -0.02   0.10  -0.11
  25   6    -0.01   0.05  -0.05    -0.00   0.01  -0.02     0.01  -0.03   0.03
  26   6     0.02   0.00   0.00    -0.02   0.00  -0.00    -0.01  -0.00  -0.00
  27   6     0.04   0.04   0.02     0.15   0.10   0.05     0.08   0.05   0.03
  28   6     0.00   0.02   0.02     0.15   0.09   0.03     0.10   0.05   0.02
  29   6    -0.01  -0.02  -0.01    -0.01   0.00  -0.00     0.01   0.01   0.00
  30   6    -0.03  -0.01  -0.02    -0.14  -0.11  -0.04    -0.09  -0.06  -0.02
  31   6    -0.02  -0.01  -0.01    -0.13  -0.10  -0.05    -0.08  -0.06  -0.03
  32   6    -0.02  -0.01   0.01     0.00  -0.00  -0.00     0.00   0.00  -0.00
  33   6     0.02   0.00  -0.02    -0.00   0.00   0.00     0.03  -0.00  -0.04
  34   6     0.02   0.02  -0.04    -0.00   0.00   0.00     0.03  -0.00  -0.05
  35   6     0.01  -0.01  -0.04    -0.00  -0.00   0.00     0.01   0.00  -0.01
  36   6     0.03  -0.01   0.04     0.00  -0.00  -0.00    -0.03  -0.00   0.05
  37   6    -0.02  -0.01   0.07     0.00   0.00  -0.01    -0.04  -0.00   0.06
  38   1    -0.00   0.01  -0.00    -0.01  -0.00   0.01    -0.05  -0.01   0.06
  39   1    -0.10  -0.11  -0.32     0.02   0.03   0.09     0.06   0.08   0.24
  40   1     0.02   0.02   0.05    -0.07  -0.11  -0.28     0.07   0.08   0.24
  41   1    -0.01  -0.01  -0.03    -0.03  -0.06  -0.12     0.05   0.06   0.17
  42   1    -0.02  -0.04  -0.09     0.04   0.07   0.18    -0.03  -0.04  -0.10
  43   1    -0.01  -0.02  -0.05     0.07   0.11   0.27    -0.05  -0.12  -0.25
  44   1    -0.10   0.43  -0.52     0.01  -0.03   0.04    -0.02   0.06  -0.07
  45   1     0.02  -0.08   0.09     0.02  -0.07   0.08    -0.06   0.22  -0.24
  46   1    -0.01   0.04  -0.04     0.01  -0.04   0.04    -0.03   0.10  -0.11
  47   1    -0.03   0.13  -0.13    -0.00   0.03  -0.03     0.02  -0.11   0.11
  48   1    -0.02   0.09  -0.09    -0.02   0.08  -0.08     0.04  -0.22   0.22
  49   1    -0.08  -0.06  -0.03    -0.30  -0.20  -0.10    -0.16  -0.11  -0.05
  50   1    -0.03  -0.01  -0.01    -0.26  -0.19  -0.10    -0.17  -0.13  -0.07
  51   1     0.03   0.02   0.01    -0.00   0.00   0.00    -0.02  -0.01  -0.00
  52   1     0.06   0.05   0.02     0.28   0.19   0.10     0.16   0.11   0.06
  53   1     0.04   0.03   0.01     0.26   0.19   0.09     0.17   0.12   0.06
  54   1    -0.03  -0.00   0.04     0.00   0.00  -0.00    -0.05   0.00   0.08
  55   1    -0.06   0.00   0.08     0.01   0.00  -0.01    -0.07  -0.00   0.10
  56   1    -0.05   0.00   0.05     0.00  -0.00  -0.01    -0.01   0.00   0.02
  57   1     0.03   0.01  -0.02    -0.00  -0.00   0.00     0.06   0.00  -0.09
  58   1     0.07  -0.00  -0.11    -0.01   0.00   0.01     0.07   0.00  -0.11
                     76                     77                     78
                        a                      a                      a 
 Frequencies --   880.0071               881.3983               890.0688
 Red. masses --     3.6644                 3.6058                 5.1786
 Frc consts  --     0.0000                 0.0000                 0.0000
 IR Inten    --     8.0204                12.1985               127.1551
 Raman Activ --     0.0000                 0.0000                 0.0000
 Depolar     --     0.0000                 0.0000                 0.0000
 Atom AN      X      Y      Z        X      Y      Z        X      Y      Z
   1   8     0.01   0.01  -0.02    -0.01  -0.02   0.02    -0.09  -0.11   0.13
   2  15    -0.00   0.03   0.02    -0.00  -0.03  -0.01    -0.04  -0.15  -0.09
   3   8    -0.03  -0.04   0.02     0.04   0.04  -0.03     0.20   0.24  -0.17
   4   8    -0.02  -0.00  -0.02     0.01   0.01  -0.00     0.07   0.04   0.04
   5   6     0.00  -0.00   0.03     0.01   0.01   0.01     0.03   0.06  -0.02
   6   6    -0.00   0.01   0.01     0.01  -0.01   0.00     0.03  -0.04   0.00
   7   6    -0.02  -0.02  -0.10    -0.02  -0.01  -0.04    -0.06  -0.01   0.01
   8   6     0.02   0.02   0.07     0.01   0.01   0.03    -0.01  -0.00   0.01
   9   6    -0.02  -0.05  -0.14    -0.01  -0.02  -0.07    -0.03  -0.01   0.01
  10   6    -0.02  -0.05  -0.10    -0.01  -0.02  -0.05     0.00   0.01  -0.01
  11   6     0.01   0.05   0.09     0.01   0.03   0.05     0.02  -0.03   0.01
  12   6     0.03   0.06   0.12     0.02   0.03   0.06     0.03  -0.02   0.01
  13   6    -0.01  -0.03  -0.02    -0.00  -0.01  -0.01     0.02   0.03  -0.02
  14   6    -0.01  -0.01   0.01    -0.01  -0.00   0.00     0.03   0.06  -0.02
  15   6    -0.00   0.01   0.02    -0.01   0.00   0.00     0.01  -0.01   0.00
  16   6     0.01   0.00   0.00     0.01  -0.02   0.03    -0.05   0.01   0.02
  17   8     0.01  -0.02  -0.00    -0.01   0.01  -0.02    -0.01   0.04  -0.03
  18   6     0.01   0.01  -0.00     0.00  -0.01   0.02    -0.04  -0.03  -0.03
  19   6    -0.03  -0.00  -0.01    -0.01   0.10  -0.10     0.05  -0.02  -0.00
  20   6     0.00  -0.03   0.03     0.02  -0.05   0.07     0.00   0.01  -0.00
  21   6    -0.00   0.09  -0.11    -0.02   0.11  -0.13    -0.02   0.01   0.00
  22   6    -0.01   0.07  -0.05    -0.00   0.07  -0.10     0.01  -0.01  -0.00
  23   6    -0.00  -0.09   0.07     0.02  -0.07   0.08     0.01   0.00   0.01
  24   6     0.03  -0.08   0.08    -0.00  -0.11   0.10    -0.02  -0.00   0.00
  25   6    -0.00   0.04  -0.02    -0.01   0.02  -0.01    -0.01  -0.00  -0.01
  26   6    -0.01   0.00  -0.00    -0.00  -0.00  -0.00     0.01  -0.02  -0.00
  27   6     0.04   0.02   0.01     0.00   0.00  -0.00    -0.01   0.01  -0.00
  28   6     0.05   0.02   0.01     0.01   0.01   0.01    -0.02   0.01   0.02
  29   6     0.00   0.01   0.00     0.01  -0.00   0.00     0.01  -0.02  -0.00
  30   6    -0.04  -0.03  -0.01    -0.01  -0.00  -0.01     0.00   0.02  -0.02
  31   6    -0.04  -0.03  -0.02    -0.01  -0.00  -0.00     0.00   0.02   0.01
  32   6    -0.01  -0.00   0.01     0.01   0.01  -0.01    -0.02  -0.02   0.00
  33   6    -0.06  -0.00   0.10     0.07   0.00  -0.12     0.02   0.01  -0.00
  34   6    -0.08   0.00   0.12     0.09  -0.01  -0.13    -0.04   0.04   0.06
  35   6    -0.01  -0.00   0.02     0.01   0.00  -0.01    -0.05  -0.02   0.04
  36   6     0.08   0.00  -0.11    -0.11  -0.00   0.13     0.06  -0.01  -0.02
  37   6     0.08   0.00  -0.12    -0.09  -0.00   0.12     0.06   0.01  -0.06
  38   1     0.08   0.02  -0.10    -0.09  -0.02   0.12    -0.51  -0.11   0.63
  39   1     0.05   0.05   0.16     0.02   0.02   0.06    -0.01   0.02   0.02
  40   1     0.07   0.10   0.26     0.04   0.05   0.13    -0.01  -0.01   0.01
  41   1     0.04   0.06   0.15     0.02   0.03   0.07     0.00   0.00   0.00
  42   1    -0.03  -0.05  -0.14    -0.02  -0.03  -0.08    -0.01  -0.02   0.01
  43   1    -0.06  -0.11  -0.25    -0.03  -0.06  -0.12     0.01  -0.02   0.00
  44   1    -0.01   0.00  -0.01     0.04  -0.16   0.20     0.01   0.03  -0.03
  45   1     0.05  -0.18   0.20     0.06  -0.21   0.23    -0.00  -0.00   0.02
  46   1     0.02  -0.07   0.08     0.03  -0.12   0.12     0.00   0.01  -0.01
  47   1    -0.03   0.11  -0.12    -0.02   0.09  -0.10     0.00   0.01  -0.01
  48   1    -0.03   0.18  -0.17    -0.05   0.21  -0.21    -0.01  -0.00  -0.00
  49   1    -0.07  -0.05  -0.02    -0.01  -0.00  -0.00     0.00   0.01   0.00
  50   1    -0.09  -0.07  -0.03    -0.01  -0.01  -0.00     0.01   0.02   0.01
  51   1    -0.01  -0.01  -0.00    -0.01  -0.00  -0.00     0.01  -0.00   0.00
  52   1     0.08   0.05   0.03     0.01   0.01   0.00    -0.01   0.00  -0.01
  53   1     0.08   0.06   0.03     0.01   0.01   0.00    -0.02  -0.01  -0.01
  54   1     0.13  -0.00  -0.20    -0.16   0.00   0.24     0.00   0.01   0.01
  55   1     0.16   0.01  -0.23    -0.18  -0.01   0.26     0.08   0.01  -0.11
  56   1     0.02   0.00  -0.03    -0.01  -0.00   0.02     0.05  -0.00  -0.09
  57   1    -0.14  -0.01   0.21     0.17   0.00  -0.27    -0.03   0.01   0.07
  58   1    -0.16  -0.00   0.24     0.17   0.00  -0.25    -0.09  -0.00   0.14
                     79                     80                     81
                        a                      a                      a 
 Frequencies --   905.4868               906.5178               914.6747
 Red. masses --     3.6100                 3.8954                 9.1540
 Frc consts  --     0.0000                 0.0000                 0.0000
 IR Inten    --     0.0441                 1.4024                 4.3515
 Raman Activ --     0.0000                 0.0000                 0.0000
 Depolar     --     0.0000                 0.0000                 0.0000
 Atom AN      X      Y      Z        X      Y      Z        X      Y      Z
   1   8    -0.00  -0.00  -0.00     0.02   0.03  -0.03     0.01   0.01  -0.00
   2  15     0.01  -0.00   0.00     0.02   0.02   0.02     0.03   0.02   0.04
   3   8    -0.00  -0.00   0.00    -0.03  -0.04   0.03     0.00  -0.02  -0.00
   4   8    -0.00  -0.00   0.00    -0.02  -0.02  -0.01    -0.05  -0.14   0.00
   5   6     0.02   0.00   0.00    -0.01  -0.01   0.01    -0.10   0.04   0.01
   6   6     0.01   0.03   0.03    -0.01   0.01   0.00    -0.11   0.11   0.01
   7   6    -0.03   0.02  -0.06     0.01   0.00  -0.01     0.05   0.01  -0.07
   8   6    -0.01   0.02   0.01     0.00  -0.00   0.00    -0.01  -0.03   0.03
   9   6     0.01  -0.00   0.01    -0.01  -0.00   0.01    -0.26  -0.11  -0.07
  10   6    -0.01  -0.03  -0.01     0.00   0.00  -0.00     0.08   0.13   0.10
  11   6    -0.02   0.01  -0.01     0.00  -0.00  -0.00     0.13  -0.13   0.10
  12   6     0.03   0.01   0.01    -0.01   0.00   0.00    -0.08  -0.08  -0.07
  13   6     0.00  -0.01   0.00    -0.00   0.00   0.00     0.08   0.14  -0.06
  14   6     0.01  -0.01  -0.00     0.00  -0.00  -0.00     0.17   0.19  -0.06
  15   6     0.01  -0.00  -0.01     0.01   0.01   0.01     0.18  -0.17  -0.12
  16   6    -0.01  -0.00   0.00     0.02   0.00  -0.01    -0.09  -0.04  -0.02
  17   8    -0.01   0.01   0.00    -0.01   0.00   0.01    -0.04   0.11   0.07
  18   6    -0.00  -0.00  -0.00     0.00   0.01  -0.03    -0.11  -0.08  -0.05
  19   6     0.01   0.00  -0.00    -0.01  -0.06   0.02     0.05  -0.01  -0.03
  20   6    -0.00   0.00   0.00    -0.02  -0.01  -0.02    -0.01   0.03   0.03
  21   6    -0.01   0.00   0.00     0.01   0.01  -0.00    -0.24   0.07   0.04
  22   6     0.00  -0.00  -0.01    -0.01   0.01   0.03     0.06  -0.10  -0.02
  23   6     0.01   0.01   0.01    -0.01  -0.02  -0.00     0.12   0.10   0.12
  24   6    -0.01   0.00   0.00     0.03   0.01  -0.01    -0.06   0.06   0.01
  25   6     0.00  -0.01  -0.00     0.01   0.01   0.00     0.08  -0.10  -0.12
  26   6    -0.07  -0.04  -0.03    -0.01   0.01  -0.00    -0.04   0.07  -0.00
  27   6     0.20   0.14   0.06     0.01   0.00   0.00     0.02  -0.04   0.03
  28   6    -0.05  -0.05  -0.03     0.00  -0.01  -0.01     0.07  -0.04  -0.09
  29   6    -0.24  -0.16  -0.08    -0.01   0.00  -0.00    -0.06   0.06  -0.00
  30   6    -0.02  -0.01  -0.00     0.00  -0.01   0.01     0.01  -0.07   0.09
  31   6     0.19   0.13   0.08     0.01   0.00  -0.00     0.04  -0.03  -0.03
  32   6     0.00  -0.00  -0.00    -0.06  -0.00   0.09    -0.04  -0.05  -0.04
  33   6    -0.00   0.00   0.01     0.12   0.01  -0.18     0.04   0.00   0.04
  34   6    -0.00   0.00   0.00     0.04  -0.00  -0.06    -0.01   0.11  -0.01
  35   6     0.00  -0.00  -0.01    -0.18  -0.01   0.27    -0.05  -0.05  -0.04
  36   6     0.00  -0.00   0.00    -0.04   0.00   0.07     0.08  -0.03   0.06
  37   6    -0.00   0.00   0.01     0.15  -0.00  -0.21     0.01   0.05   0.01
  38   1     0.01   0.00  -0.01     0.08   0.02  -0.10     0.04   0.00  -0.04
  39   1     0.03   0.04   0.10     0.01  -0.00   0.00     0.04   0.02   0.07
  40   1    -0.00  -0.01  -0.02    -0.00  -0.00  -0.00     0.01   0.04   0.30
  41   1     0.01   0.01   0.05     0.00   0.00   0.00    -0.03  -0.09  -0.27
  42   1     0.00   0.01   0.02     0.00   0.00   0.01    -0.01  -0.09  -0.08
  43   1     0.00  -0.02  -0.03    -0.00   0.00  -0.00     0.02   0.05   0.16
  44   1     0.00  -0.00   0.00    -0.02   0.05  -0.08     0.02  -0.01   0.02
  45   1    -0.00   0.00   0.01     0.00  -0.00   0.01    -0.04  -0.02   0.13
  46   1     0.00  -0.00  -0.00    -0.00   0.03  -0.02     0.02   0.07  -0.09
  47   1     0.00   0.00  -0.00    -0.01   0.01  -0.01     0.01   0.08  -0.01
  48   1    -0.00  -0.00   0.00     0.01  -0.01   0.02    -0.00  -0.04   0.07
  49   1    -0.38  -0.26  -0.14    -0.01  -0.01  -0.00     0.00  -0.01   0.01
  50   1     0.17   0.11   0.06     0.01   0.00   0.00     0.01  -0.03  -0.02
  51   1     0.36   0.25   0.14     0.01   0.01   0.01     0.00   0.03   0.01
  52   1     0.09   0.06   0.03     0.00  -0.00   0.00     0.02  -0.02   0.02
  53   1    -0.38  -0.28  -0.13    -0.01  -0.01  -0.00     0.00  -0.01  -0.01
  54   1     0.01  -0.00  -0.01    -0.24   0.01   0.36     0.02   0.00  -0.00
  55   1     0.00   0.00   0.00    -0.04  -0.00   0.06     0.00   0.03   0.02
  56   1    -0.01  -0.00   0.02     0.28   0.02  -0.43    -0.02  -0.01  -0.00
  57   1    -0.00  -0.00   0.01     0.11   0.01  -0.16     0.03   0.01   0.01
  58   1     0.01   0.00  -0.01    -0.26  -0.01   0.38     0.01   0.01  -0.00
                     82                     83                     84
                        a                      a                      a 
 Frequencies --   916.5869               919.1095               927.5348
 Red. masses --     5.0338                 5.1231                 3.2767
 Frc consts  --     0.0000                 0.0000                 0.0000
 IR Inten    --     1.9409                 3.0849                 0.3062
 Raman Activ --     0.0000                 0.0000                 0.0000
 Depolar     --     0.0000                 0.0000                 0.0000
 Atom AN      X      Y      Z        X      Y      Z        X      Y      Z
   1   8    -0.01  -0.01   0.00    -0.00  -0.00   0.00    -0.00  -0.00   0.00
   2  15    -0.02  -0.01  -0.01    -0.01  -0.00  -0.01    -0.00  -0.00   0.00
   3   8     0.00   0.01  -0.00    -0.00   0.01   0.00     0.00   0.00  -0.00
   4   8     0.02   0.07  -0.00     0.01   0.05  -0.00     0.01   0.01  -0.00
   5   6     0.05  -0.02   0.00     0.05  -0.02  -0.00     0.00  -0.00   0.00
   6   6     0.05  -0.04   0.01     0.06  -0.06   0.00     0.00  -0.00   0.00
   7   6    -0.04  -0.02  -0.03    -0.03  -0.01   0.00    -0.01  -0.01  -0.01
   8   6     0.01   0.02   0.00     0.00   0.02  -0.01     0.03   0.03   0.07
   9   6     0.05  -0.05  -0.25     0.08  -0.00  -0.12     0.02   0.01   0.02
  10   6     0.03   0.04   0.25     0.00   0.00   0.13    -0.05  -0.07  -0.14
  11   6    -0.04   0.10   0.06    -0.06   0.07  -0.02     0.06   0.12   0.28
  12   6    -0.00  -0.04  -0.17     0.02  -0.00  -0.07    -0.03  -0.07  -0.19
  13   6    -0.02  -0.04   0.09    -0.02  -0.05   0.06    -0.02  -0.03  -0.04
  14   6    -0.09  -0.10   0.01    -0.09  -0.09   0.02    -0.01  -0.02   0.01
  15   6    -0.08   0.07   0.06    -0.09   0.09   0.05    -0.01   0.00  -0.00
  16   6     0.05   0.02   0.00     0.05   0.01   0.01     0.01  -0.00  -0.00
  17   8     0.01  -0.04  -0.03     0.02  -0.05  -0.03    -0.00   0.01   0.00
  18   6     0.06   0.05   0.02     0.06   0.04   0.03     0.02   0.01   0.01
  19   6    -0.02  -0.01   0.03    -0.04   0.04  -0.02    -0.00  -0.00   0.00
  20   6     0.00  -0.00  -0.02     0.01  -0.03  -0.00    -0.01   0.01  -0.02
  21   6     0.13  -0.10   0.06     0.07   0.14  -0.21     0.00   0.02  -0.03
  22   6    -0.04   0.11  -0.07     0.01  -0.14   0.23     0.01  -0.06   0.07
  23   6    -0.06   0.00  -0.11    -0.04  -0.13   0.04    -0.02   0.06  -0.07
  24   6     0.05  -0.09   0.06     0.01   0.13  -0.17     0.01  -0.02   0.02
  25   6    -0.04   0.06   0.04    -0.02   0.01   0.10     0.00  -0.02   0.02
  26   6     0.01  -0.04  -0.00     0.02  -0.04  -0.00     0.00  -0.00  -0.00
  27   6     0.00   0.02  -0.01    -0.01   0.02  -0.02    -0.03  -0.02  -0.01
  28   6    -0.02   0.02   0.04    -0.03   0.02   0.05     0.03   0.03   0.02
  29   6     0.01  -0.04  -0.00     0.02  -0.04   0.00    -0.00  -0.01  -0.00
  30   6    -0.01   0.02  -0.04    -0.01   0.03  -0.05    -0.03  -0.02  -0.01
  31   6    -0.00   0.02   0.02    -0.01   0.02   0.02     0.03   0.02   0.01
  32   6     0.02   0.03   0.03     0.03   0.03   0.02     0.00   0.01   0.01
  33   6    -0.02  -0.00  -0.03    -0.03   0.00  -0.01    -0.00   0.00  -0.02
  34   6     0.00  -0.06   0.01     0.01  -0.05   0.01    -0.00  -0.01   0.00
  35   6     0.02   0.03   0.03     0.03   0.03   0.01    -0.00   0.01   0.02
  36   6    -0.04   0.02  -0.04    -0.05   0.02  -0.03     0.00   0.00  -0.03
  37   6    -0.00  -0.03  -0.01    -0.01  -0.03  -0.00    -0.01  -0.01   0.01
  38   1    -0.02  -0.00   0.02    -0.01  -0.00   0.01    -0.00  -0.00   0.00
  39   1     0.01   0.03   0.07    -0.00   0.01   0.02     0.01   0.01   0.02
  40   1     0.13   0.17   0.36     0.07   0.09   0.13    -0.03  -0.04  -0.14
  41   1    -0.12  -0.16  -0.40    -0.07  -0.08  -0.19     0.07   0.11   0.30
  42   1    -0.04  -0.02  -0.12    -0.00   0.03   0.02    -0.13  -0.22  -0.54
  43   1     0.06   0.11   0.22     0.02   0.04   0.06     0.09   0.19   0.40
  44   1    -0.02   0.03  -0.04     0.00  -0.05   0.06    -0.00  -0.00  -0.00
  45   1    -0.01   0.13  -0.19     0.10  -0.30   0.26     0.02  -0.06   0.07
  46   1     0.02  -0.16   0.18    -0.09   0.32  -0.33    -0.03   0.12  -0.13
  47   1     0.01  -0.12   0.09    -0.03   0.11  -0.15     0.03  -0.12   0.13
  48   1    -0.02   0.13  -0.14     0.05  -0.24   0.22    -0.01   0.06  -0.06
  49   1    -0.02  -0.01  -0.01    -0.01   0.00  -0.01     0.05   0.03   0.02
  50   1    -0.01   0.01   0.01    -0.02   0.01   0.01    -0.06  -0.04  -0.02
  51   1     0.02   0.00   0.01     0.01  -0.01   0.00     0.01   0.01   0.00
  52   1     0.01   0.02  -0.00     0.00   0.02  -0.01     0.05   0.04   0.02
  53   1    -0.03  -0.01  -0.00    -0.02  -0.00   0.00    -0.05  -0.04  -0.02
  54   1    -0.02   0.00   0.01    -0.00   0.00  -0.01    -0.01   0.00   0.01
  55   1     0.00  -0.02  -0.01    -0.00  -0.02  -0.01    -0.00  -0.00  -0.00
  56   1     0.02   0.01  -0.01    -0.00   0.00   0.02     0.02   0.00  -0.02
  57   1    -0.02  -0.00   0.00    -0.01  -0.00  -0.02    -0.03  -0.00   0.03
  58   1    -0.01  -0.01   0.01     0.00  -0.01  -0.01     0.02  -0.00  -0.02
                     85                     86                     87
                        a                      a                      a 
 Frequencies --   928.0555               928.6771               929.8101
 Red. masses --     4.1037                 3.3936                 3.2330
 Frc consts  --     0.0000                 0.0000                 0.0000
 IR Inten    --     2.6687                 0.5962                 0.3085
 Raman Activ --     0.0000                 0.0000                 0.0000
 Depolar     --     0.0000                 0.0000                 0.0000
 Atom AN      X      Y      Z        X      Y      Z        X      Y      Z
   1   8    -0.00  -0.00   0.00    -0.00  -0.00   0.00     0.00   0.00  -0.00
   2  15    -0.00  -0.00  -0.01    -0.00  -0.00  -0.00    -0.00   0.00   0.00
   3   8    -0.00   0.00   0.01     0.00   0.00  -0.00    -0.00   0.00   0.00
   4   8     0.01   0.02  -0.00     0.00   0.00   0.00    -0.00  -0.00  -0.00
   5   6    -0.00  -0.01   0.01     0.00   0.00  -0.00     0.01   0.00   0.00
   6   6    -0.00   0.00   0.00     0.00  -0.00  -0.00     0.01  -0.01  -0.00
   7   6    -0.01  -0.00  -0.02    -0.00  -0.00  -0.00    -0.01  -0.00  -0.01
   8   6     0.00   0.01   0.01     0.00   0.00   0.01     0.01   0.01   0.02
   9   6     0.01  -0.00  -0.01     0.00   0.00  -0.00     0.01   0.00  -0.00
  10   6    -0.01  -0.01  -0.01    -0.00  -0.01  -0.01    -0.02  -0.02  -0.03
  11   6     0.00   0.02   0.04     0.00   0.01   0.02     0.02   0.04   0.09
  12   6    -0.00  -0.01  -0.03    -0.00  -0.01  -0.02    -0.01  -0.03  -0.08
  13   6    -0.00  -0.01   0.00    -0.00  -0.00  -0.00    -0.01  -0.01  -0.01
  14   6    -0.00  -0.01   0.00    -0.00  -0.00  -0.00    -0.01  -0.01  -0.00
  15   6    -0.00   0.00  -0.00    -0.00   0.00   0.00    -0.01   0.01   0.01
  16   6     0.00   0.00  -0.00    -0.00   0.00  -0.00     0.01  -0.00   0.00
  17   8     0.00   0.00   0.00     0.00  -0.01  -0.00     0.00  -0.01  -0.01
  18   6     0.00   0.00   0.00    -0.00   0.00  -0.00     0.00   0.00   0.00
  19   6    -0.00  -0.00   0.00     0.00  -0.01   0.01    -0.01   0.01  -0.01
  20   6    -0.00   0.00  -0.01    -0.00   0.00  -0.00     0.02  -0.06   0.06
  21   6    -0.00   0.01  -0.01     0.01  -0.01   0.00     0.02  -0.04   0.03
  22   6     0.00  -0.02   0.02    -0.00   0.00  -0.00    -0.04   0.14  -0.13
  23   6    -0.00   0.02  -0.02    -0.00  -0.00  -0.00     0.04  -0.21   0.22
  24   6     0.00  -0.01   0.01     0.00  -0.00   0.00    -0.01   0.13  -0.14
  25   6     0.00  -0.01   0.00    -0.00   0.00   0.00    -0.02   0.04  -0.03
  26   6    -0.00   0.01   0.00     0.00  -0.00   0.00     0.00  -0.01  -0.00
  27   6     0.19   0.13   0.08     0.00   0.00   0.00     0.01   0.01   0.00
  28   6    -0.20  -0.15  -0.09    -0.01  -0.00   0.00    -0.01  -0.00   0.00
  29   6     0.01   0.01   0.00     0.00  -0.00   0.00     0.00  -0.01   0.00
  30   6     0.21   0.14   0.09     0.00   0.00  -0.00     0.01   0.01  -0.00
  31   6    -0.21  -0.15  -0.08    -0.01  -0.00  -0.00    -0.01  -0.00  -0.00
  32   6     0.00   0.00   0.00     0.03  -0.00  -0.06     0.00   0.00   0.00
  33   6     0.00   0.00  -0.01    -0.07  -0.00   0.11     0.00   0.00  -0.01
  34   6    -0.00  -0.00   0.00    -0.01   0.01   0.01     0.00  -0.01  -0.00
  35   6    -0.00   0.00   0.01     0.12   0.00  -0.18    -0.00   0.00   0.01
  36   6     0.00   0.00  -0.01    -0.18  -0.01   0.28     0.00   0.00  -0.01
  37   6    -0.00  -0.00   0.01     0.11   0.00  -0.16    -0.00  -0.00   0.00
  38   1    -0.00   0.00   0.00    -0.01  -0.00   0.01     0.00   0.00  -0.00
  39   1     0.01   0.01   0.04     0.00   0.00   0.00     0.00   0.01   0.01
  40   1     0.00  -0.00  -0.00    -0.00  -0.00  -0.01    -0.01  -0.01  -0.03
  41   1     0.01   0.01   0.03     0.00   0.01   0.02     0.01   0.03   0.08
  42   1    -0.02  -0.03  -0.08    -0.01  -0.02  -0.05    -0.04  -0.07  -0.18
  43   1     0.01   0.03   0.06     0.01   0.02   0.04     0.04   0.07   0.15
  44   1    -0.00  -0.00  -0.00    -0.00   0.03  -0.02     0.00  -0.02   0.02
  45   1     0.00  -0.02   0.02    -0.00   0.01  -0.01    -0.03   0.12  -0.14
  46   1    -0.01   0.03  -0.04     0.00  -0.01   0.01     0.06  -0.26   0.29
  47   1     0.01  -0.04   0.04    -0.00  -0.00  -0.00    -0.09   0.40  -0.42
  48   1    -0.00   0.02  -0.02    -0.00   0.00  -0.00     0.06  -0.30   0.29
  49   1    -0.30  -0.21  -0.10    -0.01  -0.00  -0.00    -0.02  -0.01  -0.01
  50   1     0.33   0.23   0.12     0.01   0.01   0.00     0.02   0.01   0.01
  51   1    -0.02  -0.01  -0.01    -0.00  -0.00  -0.00    -0.00  -0.00  -0.00
  52   1    -0.33  -0.24  -0.12    -0.01  -0.00  -0.00    -0.02  -0.01  -0.01
  53   1     0.34   0.25   0.11     0.01   0.01   0.00     0.02   0.01   0.01
  54   1    -0.00   0.00   0.01     0.06  -0.00  -0.10    -0.00  -0.00   0.00
  55   1     0.00  -0.00  -0.00     0.07   0.00  -0.11    -0.00  -0.00   0.00
  56   1     0.01   0.00  -0.01    -0.24  -0.01   0.36     0.01   0.00  -0.01
  57   1    -0.01  -0.00   0.02     0.35   0.01  -0.51    -0.01  -0.00   0.02
  58   1     0.01  -0.00  -0.01    -0.24  -0.01   0.35     0.01  -0.00  -0.01
                     88                     89                     90
                        a                      a                      a 
 Frequencies --   932.5739               935.8608               960.1943
 Red. masses --     3.0268                 3.5967                11.6817
 Frc consts  --     0.0000                 0.0000                 0.0000
 IR Inten    --     0.0555                 3.1160                51.3622
 Raman Activ --     0.0000                 0.0000                 0.0000
 Depolar     --     0.0000                 0.0000                 0.0000
 Atom AN      X      Y      Z        X      Y      Z        X      Y      Z
   1   8     0.00   0.00  -0.00     0.01   0.01  -0.01    -0.02  -0.04   0.02
   2  15     0.00   0.00   0.00     0.01   0.00   0.01    -0.02  -0.06  -0.02
   3   8    -0.00  -0.00   0.00    -0.01  -0.01   0.01     0.04   0.00  -0.04
   4   8    -0.00  -0.01   0.00    -0.00   0.00  -0.01     0.12   0.25  -0.01
   5   6    -0.00   0.00   0.00    -0.01  -0.01   0.00    -0.00  -0.09   0.01
   6   6    -0.00   0.00  -0.00    -0.01   0.01   0.00    -0.15   0.06   0.03
   7   6    -0.00  -0.00  -0.01     0.01  -0.00  -0.00     0.05  -0.07   0.01
   8   6     0.00   0.00   0.00     0.00  -0.00  -0.00     0.05  -0.03  -0.01
   9   6    -0.01  -0.00  -0.00     0.00   0.00   0.00     0.12   0.04  -0.05
  10   6     0.00   0.00  -0.00     0.00   0.00  -0.00     0.00   0.01  -0.00
  11   6     0.00  -0.00   0.00    -0.00   0.00  -0.00    -0.07   0.10  -0.03
  12   6    -0.00  -0.00  -0.00    -0.01   0.00   0.00    -0.06   0.05   0.01
  13   6     0.00   0.00  -0.00    -0.00  -0.00   0.00    -0.10  -0.14   0.08
  14   6     0.00   0.01  -0.00     0.00  -0.01   0.01    -0.01  -0.20   0.11
  15   6     0.00  -0.00   0.00     0.00  -0.02  -0.02     0.02  -0.14  -0.18
  16   6    -0.00  -0.00   0.00     0.00  -0.01  -0.01    -0.01  -0.05  -0.04
  17   8    -0.00   0.00  -0.00    -0.01   0.02   0.01    -0.11   0.20   0.10
  18   6    -0.00  -0.00  -0.00     0.01   0.00  -0.00     0.14   0.05   0.01
  19   6     0.00   0.00  -0.00    -0.00  -0.00  -0.01    -0.05  -0.06  -0.04
  20   6     0.00   0.00  -0.00    -0.00  -0.00   0.00    -0.04  -0.03  -0.01
  21   6    -0.00   0.00   0.00    -0.02   0.00   0.00    -0.13   0.03   0.05
  22   6     0.00  -0.00   0.00     0.00  -0.00  -0.00    -0.00   0.01   0.00
  23   6     0.00   0.00  -0.00     0.01   0.01   0.01     0.06   0.08   0.07
  24   6    -0.00  -0.00   0.00     0.00   0.01   0.00     0.06   0.05   0.02
  25   6    -0.00  -0.00  -0.00     0.01  -0.01  -0.01     0.10  -0.11  -0.12
  26   6     0.06   0.04   0.02    -0.00   0.01   0.00    -0.08   0.15   0.00
  27   6     0.02   0.02  -0.00     0.00  -0.01   0.01    -0.01  -0.11   0.18
  28   6    -0.17  -0.12  -0.06     0.01  -0.00  -0.01     0.08  -0.05  -0.14
  29   6     0.23   0.16   0.09    -0.01   0.01   0.00    -0.11   0.16  -0.00
  30   6    -0.17  -0.11  -0.06    -0.00  -0.01   0.01    -0.00  -0.08   0.14
  31   6     0.03   0.02   0.01     0.01  -0.00  -0.01     0.11  -0.05  -0.19
  32   6    -0.00  -0.00  -0.00     0.03   0.01  -0.01     0.09   0.10   0.09
  33   6     0.00  -0.00   0.00     0.14   0.01  -0.25    -0.18   0.09  -0.09
  34   6     0.00   0.00  -0.00    -0.19  -0.03   0.28     0.04  -0.15   0.00
  35   6    -0.00  -0.00   0.00     0.07   0.01  -0.08     0.12   0.12   0.08
  36   6     0.00  -0.00   0.00     0.02   0.01  -0.06    -0.13   0.06  -0.08
  37   6     0.00   0.00  -0.00    -0.07  -0.03   0.11     0.06  -0.20   0.01
  38   1     0.00   0.00  -0.00     0.03   0.01  -0.03    -0.03  -0.01   0.04
  39   1     0.00   0.00   0.01     0.00  -0.01   0.00     0.03  -0.13   0.03
  40   1    -0.00  -0.00   0.00     0.00   0.00  -0.00     0.03   0.03  -0.02
  41   1     0.00   0.00   0.00     0.00  -0.00  -0.00    -0.01   0.01  -0.00
  42   1    -0.00  -0.00  -0.01     0.00   0.01   0.01     0.01   0.05  -0.01
  43   1     0.00   0.00   0.01    -0.00  -0.00  -0.01    -0.03   0.05  -0.04
  44   1     0.00   0.00   0.00    -0.00  -0.01  -0.00    -0.03  -0.09  -0.08
  45   1    -0.00  -0.00   0.00    -0.00   0.00   0.00    -0.03   0.02   0.04
  46   1    -0.00   0.00  -0.00     0.00  -0.00   0.00     0.01   0.00   0.01
  47   1     0.00  -0.00   0.00    -0.00   0.01  -0.00    -0.00   0.04   0.02
  48   1    -0.00   0.00  -0.00     0.00   0.00   0.01     0.03   0.03   0.05
  49   1    -0.13  -0.09  -0.05     0.00  -0.00   0.00     0.01  -0.01   0.06
  50   1     0.36   0.25   0.13     0.00  -0.00  -0.00     0.02  -0.01  -0.04
  51   1    -0.45  -0.32  -0.17    -0.00   0.00  -0.00    -0.03   0.04   0.00
  52   1     0.35   0.25   0.13     0.01   0.00   0.00     0.00  -0.00   0.05
  53   1    -0.15  -0.11  -0.05    -0.00  -0.00  -0.00     0.01  -0.02  -0.06
  54   1     0.00  -0.00  -0.00    -0.32   0.01   0.47    -0.01   0.03  -0.07
  55   1    -0.00   0.00   0.00     0.35   0.00  -0.50     0.00  -0.04   0.04
  56   1     0.00  -0.00  -0.00    -0.13  -0.00   0.19     0.04   0.03   0.02
  57   1    -0.00  -0.00   0.00    -0.01   0.01   0.00    -0.03   0.02  -0.02
  58   1    -0.00   0.00   0.00     0.08  -0.00  -0.10     0.01  -0.05   0.03
                     91                     92                     93
                        a                      a                      a 
 Frequencies --   967.9327              1000.2616              1021.3854
 Red. masses --    11.5447                11.0173                11.0741
 Frc consts  --     0.0000                 0.0000                 0.0000
 IR Inten    --    27.8933                35.5093                33.0155
 Raman Activ --     0.0000                 0.0000                 0.0000
 Depolar     --     0.0000                 0.0000                 0.0000
 Atom AN      X      Y      Z        X      Y      Z        X      Y      Z
   1   8    -0.02  -0.01  -0.01     0.01   0.02  -0.01     0.01   0.00   0.01
   2  15    -0.00  -0.01  -0.00     0.01   0.03   0.00    -0.01   0.00  -0.01
   3   8    -0.01   0.02   0.00    -0.02   0.00   0.02     0.01  -0.01  -0.00
   4   8     0.06   0.20  -0.06    -0.07  -0.13   0.01    -0.07  -0.19   0.07
   5   6     0.04  -0.15   0.04     0.11   0.02  -0.03     0.08   0.20  -0.08
   6   6    -0.10   0.05   0.02     0.15  -0.10  -0.02     0.21  -0.17  -0.02
   7   6     0.03  -0.05   0.00    -0.10  -0.01   0.03    -0.07  -0.03   0.04
   8   6     0.04  -0.03   0.00    -0.01   0.01   0.00    -0.04   0.01   0.01
   9   6     0.05   0.02  -0.03    -0.11  -0.03   0.04     0.04   0.01  -0.02
  10   6     0.02   0.02  -0.01     0.01   0.02  -0.01    -0.03  -0.00   0.01
  11   6    -0.04   0.07  -0.02     0.06  -0.09   0.02     0.01  -0.04   0.01
  12   6    -0.08   0.04  -0.01     0.01  -0.03   0.00     0.10  -0.03  -0.01
  13   6    -0.05  -0.09   0.07     0.11   0.15  -0.09    -0.00   0.06  -0.03
  14   6     0.06  -0.18  -0.01     0.11   0.13  -0.09    -0.14   0.13   0.02
  15   6     0.06   0.18   0.07    -0.11   0.09   0.14    -0.13  -0.13  -0.04
  16   6     0.04   0.12   0.10    -0.11   0.00   0.03     0.08  -0.14  -0.14
  17   8     0.07  -0.17  -0.14     0.07  -0.11  -0.06    -0.08   0.16   0.14
  18   6    -0.11  -0.04  -0.01    -0.15  -0.08  -0.04     0.22   0.14   0.07
  19   6     0.04   0.04   0.03     0.10  -0.00  -0.02    -0.07   0.02   0.03
  20   6     0.04   0.03   0.02     0.01   0.01  -0.00    -0.04  -0.01   0.00
  21   6     0.06  -0.02  -0.03     0.12  -0.02  -0.04     0.03  -0.01  -0.01
  22   6     0.02  -0.02  -0.01    -0.01   0.01   0.02    -0.03   0.00   0.01
  23   6    -0.04  -0.06  -0.05    -0.06  -0.07  -0.06     0.01   0.03   0.03
  24   6    -0.09  -0.03  -0.03    -0.01  -0.03  -0.01     0.10   0.02   0.01
  25   6    -0.06   0.07   0.10    -0.11   0.12   0.13     0.00  -0.05  -0.06
  26   6    -0.09   0.14  -0.00    -0.02  -0.00  -0.01     0.05  -0.08  -0.00
  27   6    -0.01  -0.12   0.24    -0.02  -0.12   0.31    -0.02  -0.10   0.27
  28   6     0.08  -0.04  -0.14    -0.00   0.02  -0.03    -0.04   0.05   0.03
  29   6    -0.13   0.18  -0.01    -0.12   0.17  -0.01    -0.09   0.13  -0.01
  30   6    -0.00  -0.08   0.14    -0.02   0.00   0.04    -0.02   0.05  -0.03
  31   6     0.13  -0.05  -0.24     0.14  -0.04  -0.29     0.12  -0.03  -0.25
  32   6    -0.10  -0.11  -0.08     0.02   0.02  -0.01     0.06   0.06   0.05
  33   6     0.22  -0.13   0.13    -0.23   0.17  -0.14     0.20  -0.15   0.12
  34   6    -0.04   0.16  -0.02     0.03  -0.03   0.02    -0.02  -0.06  -0.01
  35   6    -0.14  -0.15  -0.10     0.12   0.13   0.08    -0.10  -0.11  -0.07
  36   6     0.13  -0.07   0.09    -0.01   0.04  -0.00    -0.06  -0.01  -0.04
  37   6    -0.08   0.27  -0.04     0.11  -0.30   0.07    -0.10   0.26  -0.06
  38   1    -0.02   0.00   0.02     0.02   0.01  -0.02     0.01  -0.00   0.00
  39   1     0.02  -0.09   0.03    -0.04   0.08  -0.01    -0.03   0.11  -0.02
  40   1     0.02   0.02  -0.01    -0.03  -0.03   0.02     0.01   0.02  -0.01
  41   1     0.01   0.00  -0.01     0.01  -0.00  -0.00    -0.05   0.02   0.00
  42   1     0.01   0.03  -0.02     0.00  -0.03   0.01    -0.03  -0.03   0.02
  43   1    -0.03   0.06   0.01     0.01  -0.05   0.03     0.03  -0.04   0.00
  44   1     0.02   0.08   0.06     0.04   0.06   0.05    -0.03  -0.09  -0.07
  45   1     0.02  -0.02  -0.01     0.03  -0.02  -0.03     0.01  -0.01  -0.01
  46   1     0.01  -0.00  -0.01    -0.01  -0.00  -0.00    -0.04  -0.01  -0.00
  47   1     0.01  -0.03  -0.03    -0.00  -0.03  -0.02    -0.03   0.03   0.03
  48   1    -0.03  -0.05  -0.02    -0.01  -0.03  -0.05     0.03   0.04   0.02
  49   1    -0.00  -0.02   0.08    -0.05  -0.01   0.10    -0.05  -0.00   0.10
  50   1     0.01   0.01  -0.05    -0.03   0.06  -0.04    -0.04   0.07  -0.03
  51   1    -0.03   0.05   0.00    -0.03   0.05  -0.01    -0.02   0.04  -0.01
  52   1    -0.01   0.00   0.05    -0.05   0.05   0.04    -0.05   0.06   0.02
  53   1     0.01  -0.02  -0.08     0.01   0.01  -0.11     0.01   0.03  -0.10
  54   1     0.04  -0.05   0.05    -0.05   0.09  -0.04     0.04  -0.10   0.03
  55   1    -0.03   0.04  -0.03     0.06   0.01   0.04    -0.06  -0.03  -0.04
  56   1    -0.04  -0.04  -0.03     0.03   0.04   0.02    -0.03  -0.03  -0.02
  57   1     0.03  -0.04   0.02     0.02   0.08   0.02    -0.04  -0.07  -0.03
  58   1    -0.03   0.07  -0.03     0.07  -0.08   0.03    -0.07   0.07  -0.04
                     94                     95                     96
                        a                      a                      a 
 Frequencies --  1081.2049              1083.3011              1083.6561
 Red. masses --     7.9719                 6.9440                 6.7770
 Frc consts  --     0.0000                 0.0000                 0.0000
 IR Inten    --     5.4533                 0.9181                 0.2906
 Raman Activ --     0.0000                 0.0000                 0.0000
 Depolar     --     0.0000                 0.0000                 0.0000
 Atom AN      X      Y      Z        X      Y      Z        X      Y      Z
   1   8    -0.00  -0.00  -0.00     0.00  -0.00   0.00    -0.00  -0.00  -0.00
   2  15    -0.00  -0.01   0.00    -0.01  -0.00  -0.00     0.00   0.00   0.00
   3   8     0.01  -0.00  -0.01     0.00  -0.00  -0.00     0.00   0.00  -0.00
   4   8     0.02   0.05  -0.01    -0.00  -0.02   0.01     0.01   0.02  -0.01
   5   6     0.05  -0.09   0.01     0.03   0.02  -0.02    -0.01  -0.03   0.01
   6   6    -0.02   0.04  -0.01     0.01  -0.01  -0.00    -0.02   0.01   0.00
   7   6    -0.05   0.02   0.01    -0.02  -0.01   0.01     0.01  -0.00  -0.00
   8   6     0.04  -0.01  -0.01    -0.00  -0.02   0.01     0.02   0.03  -0.02
   9   6    -0.04  -0.05   0.03     0.03  -0.02  -0.00    -0.08   0.03   0.01
  10   6     0.13   0.09  -0.06     0.06   0.05  -0.03    -0.11  -0.09   0.06
  11   6    -0.09   0.05   0.00    -0.06   0.03   0.00     0.14  -0.07  -0.00
  12   6    -0.14  -0.04   0.04    -0.03  -0.02   0.01     0.06   0.04  -0.03
  13   6     0.13   0.05  -0.05     0.02  -0.00  -0.01    -0.03   0.02   0.00
  14   6     0.12  -0.02  -0.03     0.01   0.01  -0.00     0.01  -0.01   0.00
  15   6    -0.12  -0.02   0.03    -0.03  -0.03  -0.02     0.01  -0.00  -0.00
  16   6    -0.06  -0.06  -0.03     0.00  -0.04  -0.04    -0.03   0.01   0.01
  17   8    -0.01   0.03   0.02    -0.01   0.03   0.03     0.00  -0.01  -0.01
  18   6     0.03   0.04   0.02     0.01  -0.00  -0.00    -0.02  -0.02  -0.02
  19   6     0.06   0.02   0.01     0.00  -0.01  -0.01     0.01  -0.02  -0.02
  20   6    -0.03  -0.01  -0.01    -0.05   0.03   0.05    -0.02   0.01   0.01
  21   6     0.01  -0.05  -0.05     0.17   0.06   0.02     0.07   0.03   0.02
  22   6    -0.18   0.09   0.12     0.23  -0.14  -0.17     0.12  -0.07  -0.08
  23   6     0.16   0.07   0.04    -0.29  -0.14  -0.07    -0.14  -0.07  -0.04
  24   6     0.16  -0.04  -0.06    -0.12   0.07   0.08    -0.07   0.03   0.04
  25   6    -0.14   0.02   0.05     0.04   0.04   0.02     0.04   0.02   0.01
  26   6    -0.05   0.06  -0.01    -0.02   0.02  -0.00     0.00  -0.00  -0.00
  27   6    -0.03   0.07  -0.04    -0.06   0.09  -0.01     0.03  -0.04   0.00
  28   6     0.07  -0.01  -0.17     0.09  -0.00  -0.24    -0.04  -0.00   0.10
  29   6     0.11  -0.17   0.01     0.17  -0.25   0.01    -0.07   0.10  -0.01
  30   6    -0.02  -0.07   0.17    -0.04  -0.07   0.24     0.02   0.03  -0.10
  31   6    -0.06   0.06   0.04    -0.06   0.09   0.00     0.02  -0.04   0.00
  32   6     0.06   0.06   0.03     0.00   0.00   0.00     0.01   0.01   0.01
  33   6     0.09   0.03   0.07    -0.00  -0.00   0.00     0.08   0.08   0.06
  34   6     0.08  -0.20   0.05    -0.00   0.00  -0.00     0.13  -0.26   0.08
  35   6    -0.16  -0.16  -0.11     0.00   0.00   0.00    -0.22  -0.23  -0.16
  36   6    -0.15   0.13  -0.10     0.00  -0.00   0.00    -0.19   0.20  -0.12
  37   6     0.04   0.10   0.03    -0.00   0.00  -0.00     0.08   0.08   0.05
  38   1    -0.00  -0.00   0.00    -0.00  -0.00  -0.00    -0.00  -0.00   0.00
  39   1    -0.01  -0.03   0.01    -0.01  -0.00  -0.01     0.00  -0.01   0.01
  40   1     0.00  -0.13   0.05     0.02  -0.06   0.01    -0.04   0.14  -0.04
  41   1     0.15  -0.03  -0.03     0.04   0.00  -0.01    -0.09  -0.00   0.02
  42   1    -0.03   0.01   0.00    -0.04  -0.01   0.01     0.10   0.01  -0.03
  43   1    -0.02  -0.15   0.08     0.00  -0.06   0.03    -0.00   0.13  -0.06
  44   1     0.01  -0.02  -0.03    -0.00  -0.02  -0.01     0.00   0.00  -0.01
  45   1    -0.02  -0.16  -0.14     0.08   0.23   0.18     0.04   0.12   0.10
  46   1    -0.19  -0.03   0.01     0.17   0.00  -0.04     0.10   0.01  -0.01
  47   1     0.08   0.01  -0.01    -0.20   0.01   0.05    -0.09   0.00   0.02
  48   1     0.02  -0.15  -0.17    -0.00   0.19   0.21    -0.01   0.10   0.11
  49   1    -0.06   0.08   0.03    -0.13   0.15   0.08     0.06  -0.06  -0.04
  50   1    -0.02   0.08  -0.10    -0.04   0.15  -0.17     0.02  -0.07   0.07
  51   1     0.04  -0.05  -0.00     0.05  -0.07   0.01    -0.02   0.03  -0.00
  52   1    -0.07   0.05   0.10    -0.14   0.12   0.16     0.06  -0.05  -0.07
  53   1    -0.06   0.08  -0.03    -0.09   0.15  -0.09     0.04  -0.07   0.04
  54   1     0.07   0.11   0.03    -0.00  -0.01  -0.00     0.09   0.22   0.05
  55   1     0.13  -0.04   0.09    -0.01   0.00  -0.00     0.24  -0.03   0.17
  56   1    -0.05  -0.04  -0.03     0.00   0.00   0.00    -0.07  -0.07  -0.05
  57   1    -0.01   0.16  -0.00    -0.00  -0.01  -0.00     0.01   0.29   0.01
  58   1     0.10   0.05   0.07    -0.00  -0.00  -0.00     0.20   0.07   0.14
                     97                     98                     99
                        a                      a                      a 
 Frequencies --  1084.3800              1090.6685              1121.1966
 Red. masses --     6.6573                 9.1147                 4.1886
 Frc consts  --     0.0000                 0.0000                 0.0000
 IR Inten    --     0.0933                48.8390                 0.6743
 Raman Activ --     0.0000                 0.0000                 0.0000
 Depolar     --     0.0000                 0.0000                 0.0000
 Atom AN      X      Y      Z        X      Y      Z        X      Y      Z
   1   8     0.00  -0.00   0.00     0.00   0.00   0.00    -0.00  -0.00  -0.00
   2  15    -0.00   0.00  -0.00     0.01   0.02  -0.01    -0.00  -0.00  -0.00
   3   8     0.00  -0.00  -0.00    -0.02   0.00   0.02     0.00   0.00  -0.00
   4   8    -0.01  -0.01   0.01    -0.05  -0.13   0.03     0.00   0.01  -0.01
   5   6    -0.00   0.02  -0.01    -0.06   0.20  -0.03    -0.01  -0.02   0.01
   6   6    -0.01   0.03  -0.01     0.07  -0.09   0.00    -0.02  -0.02  -0.02
   7   6    -0.01   0.03  -0.01     0.09  -0.03  -0.01     0.02   0.02  -0.00
   8   6    -0.04  -0.04   0.03    -0.12  -0.06   0.06    -0.00   0.00   0.00
   9   6     0.16  -0.08  -0.01     0.26   0.02  -0.07    -0.01   0.00   0.00
  10   6     0.27   0.21  -0.14     0.03   0.06  -0.03     0.01  -0.00  -0.00
  11   6    -0.32   0.17   0.01    -0.15   0.08   0.01    -0.00   0.00  -0.00
  12   6    -0.16  -0.10   0.07     0.11  -0.03  -0.01    -0.01  -0.00   0.00
  13   6     0.08  -0.04  -0.01    -0.17  -0.11   0.08     0.01   0.00  -0.00
  14   6     0.01   0.03  -0.01    -0.22   0.07   0.04     0.02  -0.00  -0.00
  15   6    -0.01  -0.02  -0.01     0.22   0.09  -0.01    -0.00  -0.01  -0.00
  16   6     0.00  -0.02  -0.02     0.08   0.16   0.11    -0.01  -0.01  -0.00
  17   8    -0.00   0.01   0.01     0.05  -0.11  -0.07    -0.00   0.00   0.00
  18   6    -0.00  -0.00  -0.00    -0.09  -0.08  -0.04     0.00   0.00   0.01
  19   6     0.00  -0.00  -0.00    -0.09  -0.03  -0.01     0.01   0.00  -0.00
  20   6    -0.02   0.01   0.02     0.12  -0.03  -0.06    -0.01   0.00   0.00
  21   6     0.07   0.02   0.01    -0.25   0.00   0.06     0.02   0.00  -0.00
  22   6     0.08  -0.05  -0.06    -0.02   0.04   0.04    -0.00  -0.00  -0.00
  23   6    -0.11  -0.05  -0.03     0.14   0.06   0.03    -0.01  -0.00   0.00
  24   6    -0.04   0.03   0.03    -0.11  -0.03  -0.00     0.01   0.00  -0.00
  25   6     0.01   0.02   0.01     0.17  -0.07  -0.10    -0.01   0.00   0.00
  26   6    -0.00   0.01  -0.00     0.07  -0.09   0.02    -0.04  -0.03   0.16
  27   6     0.05  -0.06  -0.00    -0.03   0.01   0.05    -0.08   0.20  -0.14
  28   6    -0.06  -0.00   0.17     0.00   0.02  -0.05     0.10  -0.07  -0.13
  29   6    -0.12   0.18  -0.01     0.04  -0.07   0.01    -0.06  -0.01   0.19
  30   6     0.03   0.04  -0.16    -0.03   0.02   0.04    -0.02   0.12  -0.17
  31   6     0.03  -0.06   0.01     0.01   0.01  -0.07     0.16  -0.17  -0.12
  32   6     0.00   0.00  -0.00    -0.08  -0.09  -0.04    -0.01   0.02  -0.01
  33   6     0.01   0.01   0.01    -0.03   0.07  -0.02     0.04   0.00   0.03
  34   6     0.01  -0.02   0.01     0.05  -0.02   0.03     0.00  -0.03   0.00
  35   6    -0.02  -0.02  -0.01    -0.05  -0.06  -0.04    -0.02   0.02  -0.01
  36   6    -0.02   0.02  -0.01    -0.02   0.06  -0.01     0.02  -0.01   0.02
  37   6     0.01   0.01   0.01     0.05  -0.04   0.03    -0.01  -0.04  -0.01
  38   1     0.00  -0.00   0.00     0.00   0.01  -0.01    -0.00  -0.00   0.00
  39   1     0.00   0.01   0.01     0.01   0.08  -0.04    -0.01   0.06  -0.04
  40   1     0.08  -0.32   0.09     0.08  -0.08   0.00    -0.00   0.01  -0.00
  41   1     0.22  -0.01  -0.05    -0.08   0.06  -0.01     0.01  -0.01  -0.00
  42   1    -0.21  -0.02   0.05    -0.17  -0.06   0.06     0.01   0.00  -0.00
  43   1    -0.00  -0.29   0.15     0.03  -0.02   0.00    -0.00  -0.01   0.01
  44   1     0.00  -0.00  -0.00    -0.01   0.08   0.06     0.00  -0.01  -0.01
  45   1     0.03   0.08   0.06    -0.08  -0.06  -0.03     0.00   0.00   0.00
  46   1     0.06   0.00  -0.01     0.09   0.05   0.03    -0.01  -0.01  -0.00
  47   1    -0.07   0.01   0.02     0.17  -0.04  -0.07    -0.01   0.00   0.01
  48   1     0.00   0.06   0.08    -0.03  -0.01  -0.00     0.00  -0.00  -0.00
  49   1     0.10  -0.12  -0.07    -0.08   0.08   0.07    -0.25   0.30   0.13
  50   1     0.04  -0.12   0.13    -0.03   0.08  -0.06     0.12  -0.23   0.10
  51   1    -0.03   0.05  -0.01     0.01  -0.02   0.02    -0.13  -0.06   0.45
  52   1     0.11  -0.10  -0.12    -0.08   0.09   0.07    -0.16   0.19   0.05
  53   1     0.06  -0.11   0.07    -0.03   0.08  -0.07     0.19  -0.31   0.15
  54   1     0.01   0.02   0.00     0.02   0.13   0.02     0.03   0.05   0.02
  55   1     0.02  -0.00   0.02     0.12   0.02   0.09    -0.03  -0.02  -0.02
  56   1    -0.01  -0.01  -0.00    -0.01  -0.02  -0.01    -0.04   0.06  -0.03
  57   1     0.00   0.03   0.00     0.03   0.13   0.02     0.02   0.03   0.01
  58   1     0.02   0.01   0.01     0.12   0.01   0.08    -0.05  -0.02  -0.04
                    100                    101                    102
                        a                      a                      a 
 Frequencies --  1121.6576              1150.1152              1167.5917
 Red. masses --     4.1965                 5.4635                 4.7710
 Frc consts  --     0.0000                 0.0000                 0.0000
 IR Inten    --     1.5961                 6.4927                 6.0802
 Raman Activ --     0.0000                 0.0000                 0.0000
 Depolar     --     0.0000                 0.0000                 0.0000
 Atom AN      X      Y      Z        X      Y      Z        X      Y      Z
   1   8     0.00   0.00  -0.00     0.00  -0.00   0.00     0.01   0.01  -0.01
   2  15     0.00  -0.00  -0.00    -0.00   0.00  -0.00    -0.01  -0.01   0.01
   3   8    -0.00   0.00   0.00     0.00  -0.00   0.00     0.01  -0.00  -0.01
   4   8     0.00   0.01  -0.00    -0.02  -0.05   0.02     0.02   0.02  -0.00
   5   6    -0.00  -0.01   0.00     0.07   0.05  -0.04    -0.12   0.04   0.03
   6   6    -0.00  -0.00  -0.00    -0.04   0.02   0.00    -0.01  -0.04   0.02
   7   6    -0.00   0.01  -0.00     0.07  -0.06   0.00    -0.01   0.06  -0.02
   8   6     0.01   0.00  -0.00    -0.12  -0.08   0.07     0.07   0.02  -0.03
   9   6    -0.01  -0.00   0.00     0.18  -0.03  -0.03    -0.07   0.07  -0.01
  10   6     0.00  -0.00  -0.00    -0.06   0.03   0.01     0.07  -0.04  -0.01
  11   6     0.00  -0.00  -0.00    -0.03  -0.03   0.02    -0.01   0.04  -0.02
  12   6    -0.01  -0.00   0.00     0.18   0.06  -0.07    -0.12  -0.07   0.05
  13   6     0.01   0.01  -0.01    -0.17   0.03   0.03     0.03  -0.14   0.05
  14   6     0.01  -0.00  -0.00     0.10   0.06  -0.05    -0.14  -0.02   0.04
  15   6    -0.02  -0.00   0.01     0.10  -0.04  -0.07     0.13  -0.01  -0.05
  16   6    -0.01  -0.01  -0.00     0.07  -0.04  -0.04     0.19   0.01  -0.04
  17   8    -0.00   0.00   0.00    -0.02   0.04   0.04    -0.04   0.04   0.03
  18   6     0.00   0.01  -0.04    -0.04  -0.02  -0.00     0.01  -0.04  -0.03
  19   6    -0.01   0.01   0.02     0.07   0.06   0.03    -0.02   0.05   0.04
  20   6     0.00  -0.00  -0.00    -0.13   0.06   0.09    -0.05   0.03   0.03
  21   6     0.00   0.00   0.00     0.19   0.04  -0.01     0.07   0.05   0.03
  22   6    -0.01  -0.00  -0.00    -0.06  -0.03  -0.01    -0.06  -0.03  -0.01
  23   6     0.00  -0.00  -0.00    -0.04   0.02   0.03     0.01   0.04   0.04
  24   6     0.00   0.00   0.00     0.19  -0.04  -0.08     0.11  -0.05  -0.07
  25   6    -0.01   0.00   0.00    -0.17  -0.04   0.01    -0.04  -0.09  -0.08
  26   6    -0.01  -0.01   0.02    -0.07   0.10   0.01     0.10  -0.13   0.00
  27   6    -0.01   0.03  -0.02    -0.01   0.02  -0.04     0.01  -0.04   0.04
  28   6     0.02  -0.01  -0.02     0.03  -0.02  -0.03    -0.04   0.02   0.05
  29   6    -0.01  -0.00   0.03     0.00  -0.01   0.00    -0.00   0.01  -0.01
  30   6    -0.00   0.02  -0.03     0.01  -0.03   0.03    -0.01   0.03  -0.04
  31   6     0.03  -0.03  -0.02    -0.01   0.01   0.02     0.01  -0.01  -0.03
  32   6     0.09  -0.12   0.06    -0.07  -0.07  -0.06    -0.14  -0.13  -0.09
  33   6    -0.22  -0.04  -0.15    -0.03   0.01  -0.02    -0.04   0.01  -0.03
  34   6    -0.02   0.19  -0.01     0.00   0.04   0.00     0.00   0.07   0.00
  35   6     0.11  -0.15   0.07     0.00   0.00   0.00     0.00   0.01   0.00
  36   6    -0.15   0.04  -0.10     0.03  -0.01   0.02     0.06  -0.02   0.04
  37   6     0.06   0.25   0.05     0.01  -0.04   0.01     0.00  -0.06   0.00
  38   1    -0.00   0.00   0.00     0.00  -0.00   0.00    -0.00  -0.00   0.00
  39   1    -0.00   0.01  -0.01     0.03  -0.10   0.02    -0.02   0.17  -0.05
  40   1    -0.00   0.00   0.00     0.07  -0.16   0.04    -0.06   0.30  -0.10
  41   1     0.01  -0.01  -0.00    -0.33   0.16   0.02     0.38  -0.18  -0.02
  42   1     0.01   0.01  -0.00    -0.22  -0.14   0.11     0.11   0.08  -0.06
  43   1    -0.00  -0.01   0.00     0.03   0.14  -0.08    -0.03  -0.06   0.04
  44   1    -0.00   0.05   0.02     0.03   0.07   0.06     0.01   0.16   0.13
  45   1     0.00   0.01   0.01     0.07   0.13   0.10     0.05   0.19   0.17
  46   1    -0.01  -0.00  -0.00    -0.33  -0.14  -0.06    -0.32  -0.13  -0.05
  47   1    -0.00   0.00   0.00    -0.24   0.11   0.15    -0.13   0.07   0.09
  48   1    -0.00  -0.01  -0.01     0.03  -0.12  -0.13     0.02  -0.07  -0.07
  49   1    -0.04   0.05   0.02     0.04  -0.03  -0.04    -0.05   0.04   0.05
  50   1     0.02  -0.04   0.02     0.02  -0.03   0.01    -0.02   0.03  -0.00
  51   1    -0.02  -0.01   0.07    -0.00  -0.00   0.01     0.01   0.01  -0.04
  52   1    -0.02   0.03   0.01     0.02  -0.02  -0.00    -0.02   0.03   0.00
  53   1     0.03  -0.05   0.02     0.02  -0.04   0.04    -0.03   0.07  -0.06
  54   1    -0.17  -0.34  -0.10     0.01   0.05   0.00     0.02   0.12   0.01
  55   1     0.20   0.10   0.13     0.02   0.02   0.02     0.02   0.03   0.02
  56   1     0.26  -0.36   0.16     0.00  -0.00   0.00    -0.01   0.01  -0.00
  57   1    -0.11  -0.23  -0.09     0.02   0.03   0.01     0.03   0.04   0.02
  58   1     0.31   0.14   0.22     0.06   0.00   0.04     0.09  -0.00   0.06
                    103                    104                    105
                        a                      a                      a 
 Frequencies --  1174.2325              1178.5487              1180.2408
 Red. masses --     6.6419                 3.6477                 1.3045
 Frc consts  --     0.0000                 0.0000                 0.0000
 IR Inten    --    45.6697                47.3818                 0.1178
 Raman Activ --     0.0000                 0.0000                 0.0000
 Depolar     --     0.0000                 0.0000                 0.0000
 Atom AN      X      Y      Z        X      Y      Z        X      Y      Z
   1   8    -0.01   0.01  -0.01    -0.01  -0.03   0.02    -0.00  -0.00   0.00
   2  15     0.03  -0.01   0.02     0.02   0.03  -0.02     0.00   0.00  -0.00
   3   8    -0.01   0.00  -0.00    -0.01   0.00   0.01     0.00   0.00  -0.00
   4   8     0.05   0.11  -0.06    -0.05  -0.09   0.03     0.00   0.00  -0.00
   5   6    -0.25  -0.17   0.13     0.19   0.10  -0.08    -0.00  -0.00   0.00
   6   6    -0.00  -0.02   0.01    -0.01   0.00  -0.00     0.00   0.00  -0.00
   7   6     0.12   0.02  -0.04    -0.08  -0.01   0.03     0.00  -0.00  -0.00
   8   6    -0.07   0.05   0.00     0.08  -0.06   0.00    -0.00   0.01  -0.00
   9   6     0.01  -0.03   0.01     0.03   0.00  -0.01    -0.00  -0.00   0.00
  10   6    -0.03   0.01   0.00     0.05  -0.02  -0.00    -0.00   0.00   0.00
  11   6     0.01   0.01  -0.01    -0.04  -0.05   0.03     0.00   0.00  -0.00
  12   6     0.02   0.00  -0.01     0.01   0.01  -0.01    -0.00  -0.00   0.00
  13   6     0.05   0.07  -0.04    -0.09  -0.01   0.03     0.01  -0.00  -0.00
  14   6     0.02  -0.01   0.01     0.03   0.06  -0.03    -0.00  -0.00   0.00
  15   6     0.04   0.03   0.03    -0.03   0.04   0.04    -0.00   0.00   0.00
  16   6    -0.28   0.15   0.18    -0.16   0.05   0.07     0.00   0.00  -0.00
  17   8     0.06  -0.11  -0.10     0.04  -0.06  -0.04    -0.00   0.00  -0.00
  18   6     0.01   0.01  -0.00     0.00   0.00  -0.00     0.00  -0.01   0.00
  19   6     0.14  -0.00  -0.02     0.07  -0.00  -0.01     0.00  -0.00  -0.00
  20   6    -0.10  -0.07  -0.04    -0.06  -0.05  -0.03    -0.00  -0.01  -0.00
  21   6     0.01   0.04   0.03    -0.02  -0.00   0.00    -0.00   0.00   0.00
  22   6    -0.07  -0.02  -0.00    -0.04  -0.01  -0.00    -0.01  -0.00   0.00
  23   6     0.04  -0.01  -0.01     0.03  -0.03  -0.03     0.00  -0.00  -0.00
  24   6     0.04  -0.00  -0.01    -0.01   0.01   0.01     0.00   0.00  -0.00
  25   6     0.07  -0.08  -0.09     0.07   0.01  -0.01     0.01   0.00  -0.00
  26   6     0.11  -0.15   0.00    -0.08   0.12  -0.02     0.01  -0.00  -0.01
  27   6     0.02  -0.04   0.04    -0.02   0.04  -0.03    -0.01   0.01   0.00
  28   6    -0.04   0.03   0.06     0.03  -0.01  -0.05    -0.00   0.01  -0.00
  29   6    -0.00   0.01  -0.01    -0.00  -0.01   0.02    -0.00  -0.00   0.01
  30   6    -0.01   0.04  -0.04     0.01  -0.04   0.04     0.00  -0.00  -0.00
  31   6     0.01  -0.00  -0.03    -0.00  -0.01   0.03     0.01  -0.01  -0.00
  32   6     0.12   0.12   0.08     0.08   0.08   0.05     0.05  -0.05   0.03
  33   6     0.03  -0.01   0.02     0.02  -0.01   0.01     0.05   0.05   0.03
  34   6    -0.00  -0.07  -0.00     0.00  -0.04  -0.00     0.02   0.01   0.02
  35   6    -0.00  -0.01  -0.00    -0.00  -0.01  -0.00    -0.04   0.06  -0.03
  36   6    -0.06   0.02  -0.04    -0.04   0.01  -0.02    -0.01  -0.04  -0.01
  37   6    -0.00   0.05  -0.00     0.00   0.03   0.00    -0.05  -0.04  -0.03
  38   1    -0.00   0.00  -0.00     0.01   0.00  -0.01    -0.00  -0.00   0.00
  39   1     0.01   0.17  -0.06    -0.01  -0.07   0.03     0.00  -0.00   0.00
  40   1     0.02  -0.17   0.06    -0.02   0.25  -0.09     0.00  -0.02   0.01
  41   1    -0.19   0.09   0.01     0.31  -0.14  -0.02    -0.03   0.01   0.00
  42   1     0.09   0.06  -0.04    -0.32  -0.21   0.16     0.03   0.02  -0.01
  43   1     0.02  -0.09   0.04    -0.03   0.22  -0.09     0.00  -0.02   0.01
  44   1     0.03  -0.09  -0.08     0.01  -0.03  -0.03     0.00   0.02   0.01
  45   1     0.04   0.24   0.22     0.02   0.15   0.13     0.00   0.02   0.02
  46   1    -0.33  -0.14  -0.05    -0.23  -0.09  -0.04    -0.03  -0.01  -0.00
  47   1     0.15  -0.06  -0.10     0.26  -0.12  -0.16     0.02  -0.01  -0.02
  48   1     0.03   0.10   0.09     0.02   0.13   0.13     0.00   0.01   0.01
  49   1    -0.07   0.06   0.07     0.08  -0.07  -0.07     0.01  -0.01  -0.01
  50   1    -0.01   0.01   0.02    -0.02   0.06  -0.06    -0.02   0.05  -0.03
  51   1     0.02   0.01  -0.08    -0.05  -0.03   0.18    -0.03  -0.01   0.09
  52   1    -0.04   0.05   0.01     0.08  -0.09  -0.05     0.04  -0.04  -0.03
  53   1    -0.03   0.07  -0.06     0.02  -0.04   0.03    -0.01   0.02  -0.01
  54   1    -0.02  -0.10  -0.01    -0.01  -0.07  -0.00    -0.04  -0.14  -0.02
  55   1    -0.03  -0.03  -0.02    -0.02  -0.02  -0.01     0.36   0.08   0.25
  56   1     0.02  -0.03   0.01     0.01  -0.02   0.01    -0.38   0.52  -0.24
  57   1    -0.02  -0.01  -0.01    -0.01  -0.01  -0.01    -0.13  -0.45  -0.10
  58   1    -0.10  -0.00  -0.07    -0.07  -0.00  -0.04     0.13   0.02   0.09
                    106                    107                    108
                        a                      a                      a 
 Frequencies --  1180.2846              1183.3308              1196.8191
 Red. masses --     1.4502                 4.0228                 4.8319
 Frc consts  --     0.0000                 0.0000                 0.0000
 IR Inten    --     2.0748                12.2657                90.3094
 Raman Activ --     0.0000                 0.0000                 0.0000
 Depolar     --     0.0000                 0.0000                 0.0000
 Atom AN      X      Y      Z        X      Y      Z        X      Y      Z
   1   8    -0.00  -0.01   0.00    -0.00   0.01  -0.01     0.03   0.06  -0.04
   2  15     0.00   0.01  -0.00     0.02  -0.01   0.02    -0.03  -0.06   0.04
   3   8    -0.00   0.00   0.00    -0.01   0.00  -0.00     0.02  -0.00  -0.02
   4   8    -0.01  -0.02   0.00     0.05   0.09  -0.04     0.07   0.12  -0.03
   5   6     0.04   0.01  -0.02    -0.20  -0.15   0.10    -0.13  -0.19   0.10
   6   6    -0.01   0.00   0.01    -0.05  -0.03   0.03    -0.04   0.01   0.01
   7   6    -0.02  -0.00   0.01     0.10   0.04  -0.04     0.08   0.02  -0.03
   8   6     0.02  -0.02   0.00    -0.01  -0.02   0.01    -0.01   0.04  -0.01
   9   6     0.02  -0.00  -0.00     0.05  -0.02  -0.01     0.02  -0.05   0.02
  10   6     0.02  -0.01  -0.00     0.03  -0.01  -0.00    -0.01  -0.01   0.01
  11   6    -0.02  -0.02   0.01    -0.03  -0.03   0.02    -0.00  -0.04   0.02
  12   6     0.01   0.01  -0.01     0.03   0.02  -0.01     0.03   0.04  -0.02
  13   6    -0.04   0.01   0.01    -0.05   0.06  -0.01    -0.00   0.10  -0.04
  14   6     0.02   0.02  -0.01     0.05   0.04  -0.01     0.09  -0.00  -0.03
  15   6    -0.01   0.00   0.01     0.06  -0.04  -0.03    -0.09  -0.03   0.02
  16   6    -0.04   0.01   0.01    -0.18   0.10   0.12     0.14  -0.15  -0.14
  17   8     0.01  -0.01  -0.01     0.04  -0.06  -0.06    -0.07   0.10   0.07
  18   6    -0.01   0.00   0.00    -0.04   0.02   0.02     0.03   0.02   0.01
  19   6     0.02  -0.01  -0.01     0.09  -0.02  -0.04    -0.08   0.02   0.03
  20   6    -0.01  -0.00  -0.00     0.00   0.01   0.01    -0.00   0.07   0.06
  21   6     0.00  -0.00  -0.00     0.05   0.02   0.01    -0.00  -0.05  -0.04
  22   6     0.00   0.00   0.00     0.04   0.02   0.01     0.03  -0.01  -0.02
  23   6    -0.00  -0.00  -0.00    -0.04   0.03   0.04    -0.00  -0.03  -0.03
  24   6    -0.00   0.00   0.00     0.03  -0.01  -0.01    -0.04   0.02   0.03
  25   6     0.00   0.01   0.01    -0.07  -0.06  -0.03     0.00   0.09   0.08
  26   6    -0.04   0.03   0.06     0.09  -0.11  -0.01     0.06  -0.08  -0.01
  27   6     0.04  -0.05  -0.01     0.00  -0.02   0.03    -0.02   0.01   0.04
  28   6     0.02  -0.04   0.01    -0.03   0.02   0.04    -0.01  -0.02   0.06
  29   6     0.02   0.01  -0.08    -0.00   0.00   0.01     0.01  -0.01   0.00
  30   6    -0.01   0.01   0.02    -0.00   0.02  -0.04     0.02  -0.01  -0.05
  31   6    -0.05   0.06   0.00     0.01  -0.01  -0.02    -0.01   0.04  -0.04
  32   6     0.03   0.01   0.02     0.08   0.07   0.05    -0.09  -0.07  -0.06
  33   6     0.01   0.01   0.01     0.02  -0.01   0.01    -0.01   0.05   0.00
  34   6     0.00  -0.01   0.00     0.01  -0.04   0.00    -0.04   0.04  -0.03
  35   6    -0.01   0.01  -0.00    -0.00  -0.00  -0.00    -0.01  -0.01  -0.01
  36   6    -0.01  -0.00  -0.01    -0.04   0.02  -0.02     0.03  -0.07   0.02
  37   6    -0.01   0.00  -0.00    -0.00   0.03  -0.00     0.04  -0.03   0.03
  38   1     0.00   0.00  -0.00    -0.00   0.00  -0.00    -0.01  -0.01   0.01
  39   1    -0.01   0.00  -0.00    -0.00   0.24  -0.08     0.01   0.08  -0.03
  40   1    -0.01   0.09  -0.03    -0.00   0.15  -0.05     0.01  -0.06   0.02
  41   1     0.11  -0.05  -0.01     0.18  -0.08  -0.01     0.01  -0.01   0.00
  42   1    -0.14  -0.10   0.07    -0.28  -0.18   0.14    -0.20  -0.14   0.11
  43   1    -0.01   0.10  -0.04    -0.01   0.15  -0.07    -0.01   0.14  -0.06
  44   1     0.00  -0.02  -0.02     0.00  -0.16  -0.14    -0.02  -0.00   0.00
  45   1    -0.00  -0.01  -0.01    -0.01  -0.14  -0.13    -0.01  -0.07  -0.07
  46   1     0.01   0.00   0.00     0.24   0.10   0.04    -0.04  -0.02  -0.01
  47   1     0.01  -0.01  -0.01    -0.35   0.16   0.22     0.22  -0.11  -0.15
  48   1    -0.00   0.01   0.01    -0.02  -0.15  -0.15     0.01   0.12   0.13
  49   1    -0.08   0.08   0.06    -0.05   0.04   0.04    -0.16   0.16   0.12
  50   1     0.17  -0.36   0.23    -0.04   0.07  -0.03     0.05  -0.11   0.08
  51   1     0.17   0.09  -0.63    -0.02  -0.01   0.07     0.00  -0.00   0.00
  52   1    -0.26   0.27   0.19     0.05  -0.05  -0.05     0.12  -0.13  -0.10
  53   1     0.06  -0.12   0.09    -0.05   0.10  -0.08    -0.10   0.19  -0.13
  54   1    -0.01  -0.04  -0.01    -0.02  -0.09  -0.01     0.08   0.27   0.04
  55   1     0.06   0.01   0.04     0.03  -0.01   0.02    -0.17  -0.03  -0.12
  56   1    -0.06   0.08  -0.04    -0.01   0.01  -0.01    -0.00  -0.00  -0.00
  57   1    -0.02  -0.07  -0.02    -0.02  -0.02  -0.01    -0.04  -0.17  -0.03
  58   1     0.00   0.00   0.00    -0.06  -0.00  -0.04     0.25   0.04   0.17
                    109                    110                    111
                        a                      a                      a 
 Frequencies --  1199.7438              1202.1355              1203.8919
 Red. masses --     1.9490                 5.2369                 4.9723
 Frc consts  --     0.0000                 0.0000                 0.0000
 IR Inten    --     1.9413               139.2259                 7.6546
 Raman Activ --     0.0000                 0.0000                 0.0000
 Depolar     --     0.0000                 0.0000                 0.0000
 Atom AN      X      Y      Z        X      Y      Z        X      Y      Z
   1   8     0.00  -0.00   0.00    -0.03  -0.06   0.04    -0.01  -0.01   0.01
   2  15    -0.00  -0.00  -0.00     0.03   0.06  -0.04     0.01   0.01  -0.01
   3   8     0.00  -0.00   0.00    -0.02   0.00   0.02    -0.00   0.00   0.00
   4   8    -0.01  -0.02   0.01    -0.07  -0.13   0.04    -0.02  -0.04   0.01
   5   6     0.06   0.04  -0.03     0.17   0.20  -0.11     0.07   0.04  -0.04
   6   6    -0.01   0.04  -0.01     0.03   0.04  -0.02    -0.05  -0.06   0.03
   7   6    -0.02   0.00   0.01    -0.08  -0.01   0.03    -0.05  -0.04   0.03
   8   6     0.01   0.04  -0.02     0.02   0.06  -0.03    -0.02  -0.34   0.13
   9   6    -0.02  -0.00   0.01    -0.04   0.03  -0.00     0.08   0.06  -0.04
  10   6    -0.02  -0.01   0.01    -0.02  -0.01   0.01     0.10   0.06  -0.05
  11   6     0.00   0.00  -0.00     0.00   0.03  -0.01    -0.03   0.01   0.00
  12   6     0.00  -0.00   0.00    -0.01  -0.04   0.02    -0.04   0.04  -0.01
  13   6    -0.01  -0.02   0.01    -0.02  -0.08   0.04     0.03  -0.10   0.03
  14   6     0.00  -0.01  -0.00    -0.07  -0.00   0.03     0.02   0.06  -0.02
  15   6    -0.01   0.00  -0.00     0.07   0.03  -0.01     0.03  -0.03  -0.03
  16   6     0.07  -0.04  -0.04    -0.19   0.16   0.17    -0.04   0.03   0.03
  17   8    -0.02   0.02   0.02     0.08  -0.12  -0.08     0.02  -0.02  -0.01
  18   6    -0.01  -0.03  -0.02    -0.01   0.01   0.01    -0.05   0.04   0.04
  19   6    -0.02  -0.00   0.00     0.09  -0.01  -0.03     0.01   0.01   0.01
  20   6     0.01  -0.02  -0.02    -0.01  -0.03  -0.03    -0.03   0.15   0.14
  21   6    -0.01  -0.00   0.00     0.01   0.03   0.03     0.06  -0.02  -0.03
  22   6    -0.01   0.01   0.01    -0.01   0.00   0.01     0.06  -0.02  -0.03
  23   6    -0.00  -0.00  -0.00     0.01   0.02   0.02    -0.01  -0.01  -0.00
  24   6     0.00   0.00   0.00     0.02  -0.02  -0.02    -0.01  -0.02  -0.02
  25   6    -0.01   0.02   0.02     0.02  -0.08  -0.08     0.01   0.03   0.03
  26   6     0.00  -0.00  -0.01    -0.03   0.03  -0.00    -0.12   0.19  -0.01
  27   6    -0.06   0.05   0.05    -0.04   0.05   0.03    -0.03   0.05  -0.01
  28   6     0.02  -0.06   0.06     0.03  -0.05   0.02     0.05  -0.05  -0.04
  29   6     0.02  -0.03   0.00     0.01  -0.02   0.00     0.02  -0.02  -0.00
  30   6     0.05  -0.05  -0.04     0.03  -0.04  -0.02     0.03  -0.07   0.05
  31   6    -0.03   0.07  -0.06    -0.02   0.04  -0.03    -0.05   0.07   0.00
  32   6     0.00  -0.00   0.00     0.07   0.06   0.05    -0.05  -0.05  -0.04
  33   6    -0.02  -0.08  -0.01     0.03   0.07   0.02    -0.02  -0.01  -0.01
  34   6     0.06   0.00   0.04    -0.06  -0.04  -0.04     0.00   0.03   0.00
  35   6     0.02   0.02   0.01    -0.02  -0.02  -0.01     0.01   0.00   0.00
  36   6     0.01   0.07   0.01    -0.04  -0.05  -0.03     0.02  -0.00   0.01
  37   6    -0.07  -0.01  -0.05     0.07   0.03   0.04    -0.00  -0.02  -0.00
  38   1    -0.00  -0.00   0.00     0.01   0.01  -0.01     0.00   0.00  -0.00
  39   1     0.01  -0.14   0.03     0.01  -0.28   0.08    -0.08   0.44  -0.12
  40   1     0.00  -0.05   0.02    -0.01  -0.04   0.02    -0.01   0.27  -0.10
  41   1     0.01  -0.01   0.00     0.04  -0.02  -0.00    -0.17   0.11  -0.00
  42   1     0.00   0.00  -0.00     0.13   0.09  -0.07     0.13   0.10  -0.07
  43   1    -0.00   0.03  -0.01     0.00  -0.05   0.02     0.01  -0.16   0.07
  44   1     0.01   0.10   0.09     0.01  -0.12  -0.11    -0.04  -0.26  -0.21
  45   1    -0.00   0.03   0.03     0.01   0.03   0.03    -0.00  -0.13  -0.12
  46   1     0.01   0.01   0.00     0.01   0.01   0.00    -0.10  -0.06  -0.03
  47   1     0.02  -0.01  -0.01    -0.17   0.08   0.11     0.05  -0.03  -0.04
  48   1    -0.00  -0.01  -0.01    -0.00  -0.07  -0.08     0.01   0.07   0.07
  49   1    -0.23   0.25   0.17    -0.12   0.14   0.09    -0.01   0.01  -0.01
  50   1     0.12  -0.26   0.17     0.08  -0.18   0.11     0.07  -0.13   0.07
  51   1     0.01  -0.01  -0.00     0.00  -0.01   0.00     0.01  -0.01  -0.01
  52   1     0.22  -0.23  -0.16     0.13  -0.14  -0.09     0.12  -0.13  -0.06
  53   1    -0.13   0.27  -0.18    -0.07   0.15  -0.10    -0.02   0.03  -0.01
  54   1    -0.09  -0.29  -0.05     0.07   0.22   0.05    -0.01   0.00  -0.00
  55   1     0.25   0.05   0.17    -0.23  -0.06  -0.16     0.04   0.02   0.03
  56   1     0.00   0.01   0.00     0.00  -0.01  -0.00     0.01  -0.00   0.00
  57   1     0.08   0.27   0.06    -0.08  -0.27  -0.06     0.01   0.03   0.01
  58   1    -0.26  -0.05  -0.18     0.18   0.05   0.13     0.02   0.00   0.02
                    112                    113                    114
                        a                      a                      a 
 Frequencies --  1206.1273              1247.0701              1248.3319
 Red. masses --     4.9848                 5.5922                 6.3410
 Frc consts  --     0.0000                 0.0000                 0.0000
 IR Inten    --     1.7941                 6.7930                29.8219
 Raman Activ --     0.0000                 0.0000                 0.0000
 Depolar     --     0.0000                 0.0000                 0.0000
 Atom AN      X      Y      Z        X      Y      Z        X      Y      Z
   1   8    -0.01  -0.03   0.02    -0.02  -0.05   0.03    -0.05  -0.11   0.06
   2  15     0.01   0.02  -0.01     0.02   0.04  -0.02     0.04   0.09  -0.05
   3   8    -0.01   0.00   0.01    -0.00  -0.00   0.00    -0.01  -0.00   0.01
   4   8    -0.01  -0.02   0.00     0.00   0.00  -0.01    -0.02  -0.03   0.01
   5   6    -0.03   0.06  -0.01    -0.01  -0.02   0.01     0.07   0.04  -0.04
   6   6     0.02   0.04  -0.02    -0.02   0.01   0.00    -0.08  -0.01   0.03
   7   6     0.03   0.03  -0.02     0.06  -0.00  -0.02    -0.13   0.12  -0.01
   8   6    -0.00   0.21  -0.07    -0.10   0.02   0.02     0.23  -0.10  -0.03
   9   6    -0.05  -0.01   0.01     0.03   0.01  -0.01    -0.06   0.04   0.00
  10   6    -0.06  -0.04   0.03     0.01  -0.01   0.00     0.02   0.01  -0.01
  11   6     0.01   0.01  -0.01     0.03   0.01  -0.01    -0.16  -0.02   0.04
  12   6     0.02  -0.05   0.02     0.05  -0.03  -0.00    -0.13   0.07   0.00
  13   6    -0.04  -0.00   0.01    -0.14   0.03   0.02     0.31  -0.30   0.04
  14   6    -0.04  -0.02   0.02     0.05   0.02  -0.04    -0.04   0.08  -0.03
  15   6     0.06  -0.03  -0.05     0.06   0.06   0.02    -0.02   0.04   0.07
  16   6     0.01   0.07   0.05    -0.06   0.03   0.04    -0.03   0.00   0.01
  17   8     0.02  -0.02  -0.02     0.01  -0.02  -0.02     0.01  -0.01   0.00
  18   6    -0.05   0.06   0.06     0.06  -0.02  -0.02     0.06   0.00  -0.01
  19   6    -0.02   0.03   0.02     0.14   0.09   0.05     0.02   0.05   0.04
  20   6    -0.02   0.26   0.24    -0.25  -0.09  -0.02    -0.05  -0.03  -0.02
  21   6     0.08  -0.02  -0.03     0.07   0.03   0.01     0.01   0.03   0.02
  22   6     0.09  -0.04  -0.06    -0.01   0.01   0.01    -0.02  -0.00  -0.00
  23   6    -0.02   0.01   0.01     0.15  -0.01  -0.04     0.07   0.00  -0.01
  24   6    -0.02  -0.05  -0.05     0.14   0.07   0.03     0.03   0.01   0.01
  25   6     0.05   0.02   0.01    -0.34  -0.23  -0.14    -0.06  -0.12  -0.09
  26   6     0.09  -0.13   0.01     0.02  -0.02   0.01     0.04  -0.05  -0.01
  27   6     0.02  -0.03   0.01     0.00  -0.00  -0.00     0.01  -0.01   0.00
  28   6    -0.03   0.03   0.03    -0.01   0.01   0.01    -0.01   0.00   0.02
  29   6    -0.01   0.02  -0.00    -0.00   0.00  -0.00    -0.00   0.01  -0.01
  30   6    -0.02   0.04  -0.04    -0.00   0.01  -0.01    -0.01   0.02  -0.01
  31   6     0.03  -0.04  -0.00     0.01  -0.01  -0.00     0.01  -0.02   0.01
  32   6    -0.13  -0.14  -0.10    -0.02  -0.01  -0.02    -0.03  -0.04  -0.02
  33   6    -0.05  -0.05  -0.04    -0.00  -0.01  -0.01    -0.01  -0.02  -0.01
  34   6     0.02   0.08   0.01     0.00   0.01   0.00     0.00   0.02   0.00
  35   6     0.02   0.02   0.01     0.00   0.01   0.00     0.00   0.01   0.00
  36   6     0.06   0.01   0.04     0.01  -0.01   0.00     0.01  -0.01   0.01
  37   6    -0.03  -0.04  -0.02    -0.00  -0.01  -0.00    -0.01  -0.01  -0.00
  38   1     0.00   0.00  -0.00     0.00   0.00  -0.00     0.01   0.00  -0.01
  39   1     0.05  -0.30   0.08     0.03  -0.11   0.02    -0.06   0.19  -0.05
  40   1     0.00  -0.12   0.05    -0.01   0.12  -0.04     0.03  -0.33   0.11
  41   1     0.12  -0.08  -0.00     0.02  -0.01  -0.00    -0.05   0.03   0.00
  42   1     0.01   0.00  -0.01     0.01   0.01  -0.01     0.06   0.06  -0.04
  43   1    -0.00   0.04  -0.02     0.04  -0.17   0.06    -0.11   0.52  -0.20
  44   1    -0.07  -0.42  -0.33     0.06   0.19   0.15     0.01   0.02   0.02
  45   1     0.00  -0.18  -0.17    -0.02  -0.27  -0.24    -0.01  -0.07  -0.06
  46   1    -0.20  -0.11  -0.06     0.05   0.03   0.01     0.01   0.00   0.00
  47   1     0.04  -0.02  -0.02    -0.05   0.04   0.04    -0.05   0.03   0.04
  48   1     0.01   0.08   0.08     0.10   0.41   0.38     0.03   0.12   0.11
  49   1     0.00  -0.00   0.01     0.00   0.00   0.00    -0.01   0.00   0.01
  50   1    -0.04   0.08  -0.04    -0.00   0.00  -0.00    -0.01   0.03  -0.01
  51   1    -0.01   0.00   0.01    -0.00   0.00   0.00    -0.00   0.00  -0.00
  52   1    -0.07   0.08   0.04    -0.01   0.01   0.00    -0.02   0.02   0.01
  53   1     0.01  -0.01  -0.01    -0.01   0.01  -0.01    -0.00   0.01  -0.01
  54   1    -0.03  -0.03  -0.01    -0.00   0.01   0.00     0.00   0.02   0.01
  55   1     0.14   0.05   0.10     0.01   0.01   0.01     0.02   0.01   0.02
  56   1     0.01   0.00   0.01    -0.00   0.00  -0.00     0.00   0.00   0.00
  57   1     0.05   0.13   0.04     0.01   0.01   0.00     0.01   0.02   0.01
  58   1    -0.00  -0.01   0.00     0.00  -0.00  -0.00     0.00  -0.00   0.00
                    115                    116                    117
                        a                      a                      a 
 Frequencies --  1260.0322              1265.2039              1281.2486
 Red. masses --    20.7768                10.1529                 3.5596
 Frc consts  --     0.0000                 0.0000                 0.0000
 IR Inten    --   403.0860                 3.6506                 0.1580
 Raman Activ --     0.0000                 0.0000                 0.0000
 Depolar     --     0.0000                 0.0000                 0.0000
 Atom AN      X      Y      Z        X      Y      Z        X      Y      Z
   1   8    -0.27  -0.62   0.31    -0.01  -0.02   0.01    -0.01  -0.02   0.01
   2  15     0.22   0.50  -0.25     0.01   0.02  -0.00     0.01   0.02  -0.01
   3   8    -0.03  -0.02   0.04    -0.00   0.00   0.00    -0.00  -0.00   0.00
   4   8    -0.00   0.02  -0.03     0.00   0.04  -0.02    -0.00  -0.00  -0.00
   5   6    -0.06  -0.06   0.03    -0.05  -0.06   0.04    -0.02   0.01   0.00
   6   6    -0.04   0.01   0.01     0.25  -0.05  -0.06     0.04  -0.00  -0.00
   7   6     0.05  -0.01  -0.01    -0.06  -0.17   0.07    -0.01  -0.03   0.01
   8   6    -0.03   0.02   0.00     0.07   0.11  -0.06     0.01   0.01  -0.01
   9   6     0.01  -0.02   0.00    -0.02  -0.10   0.04     0.00  -0.01   0.00
  10   6    -0.00  -0.00   0.00    -0.08   0.04   0.00    -0.02   0.01   0.00
  11   6     0.03   0.00  -0.01     0.10   0.00  -0.02     0.01   0.01  -0.00
  12   6     0.02   0.00  -0.00    -0.03  -0.02   0.02    -0.01  -0.01   0.01
  13   6    -0.03   0.07  -0.02     0.08   0.26  -0.13     0.01   0.02  -0.01
  14   6     0.04  -0.05   0.01    -0.14  -0.20   0.10    -0.03  -0.02   0.01
  15   6    -0.02  -0.05  -0.03    -0.14   0.15   0.15     0.01   0.02   0.01
  16   6     0.05  -0.03  -0.04    -0.05   0.05   0.05     0.00   0.01   0.01
  17   8    -0.01   0.00   0.04     0.00  -0.03  -0.03     0.01  -0.01  -0.01
  18   6     0.01   0.00  -0.00     0.26   0.05  -0.00     0.01   0.01   0.05
  19   6    -0.04  -0.02  -0.01    -0.06   0.13   0.12     0.03   0.01  -0.00
  20   6     0.02   0.02   0.01     0.08  -0.08  -0.09    -0.02  -0.04  -0.04
  21   6    -0.00  -0.02  -0.02    -0.02   0.08   0.08    -0.01  -0.01  -0.01
  22   6     0.01   0.00  -0.00    -0.08  -0.04  -0.02    -0.02   0.01   0.01
  23   6    -0.04  -0.00   0.01     0.10   0.00  -0.02     0.01   0.00   0.00
  24   6    -0.01  -0.00   0.00    -0.03   0.01   0.03     0.01   0.01   0.00
  25   6     0.02   0.06   0.06     0.08  -0.20  -0.20    -0.00  -0.02  -0.02
  26   6     0.02  -0.03   0.00    -0.14   0.20  -0.05     0.00   0.04  -0.07
  27   6     0.01  -0.01  -0.00    -0.03   0.04   0.00     0.02  -0.02  -0.01
  28   6    -0.01   0.00   0.01     0.04  -0.03  -0.05     0.01  -0.02   0.02
  29   6    -0.00   0.00   0.00     0.01  -0.03   0.02    -0.01  -0.01   0.04
  30   6    -0.00   0.00  -0.01     0.01  -0.05   0.08    -0.02   0.01   0.03
  31   6     0.00  -0.00  -0.00    -0.05   0.08  -0.01    -0.02   0.04  -0.01
  32   6    -0.00  -0.01   0.00    -0.14  -0.19  -0.09    -0.19   0.23  -0.12
  33   6    -0.00  -0.00  -0.01    -0.05  -0.08  -0.04     0.07   0.10   0.04
  34   6    -0.01   0.00  -0.00    -0.01   0.10  -0.01     0.11  -0.01   0.08
  35   6     0.00   0.00   0.00     0.01   0.04   0.01     0.08  -0.10   0.05
  36   6     0.00   0.00   0.00     0.06  -0.02   0.04     0.01  -0.14   0.00
  37   6     0.00  -0.00   0.00    -0.03  -0.03  -0.02    -0.11  -0.07  -0.07
  38   1     0.03   0.01  -0.04     0.00   0.00  -0.00     0.00   0.00  -0.00
  39   1     0.01   0.04  -0.01    -0.04   0.12  -0.03    -0.00   0.01  -0.00
  40   1    -0.00   0.04  -0.01     0.00  -0.06   0.03     0.00  -0.01   0.00
  41   1    -0.01   0.00   0.00     0.01  -0.00  -0.00     0.01  -0.00  -0.00
  42   1    -0.03  -0.03   0.02    -0.10  -0.08   0.05    -0.00  -0.00   0.00
  43   1     0.02  -0.07   0.03    -0.00  -0.02   0.01    -0.00   0.01  -0.00
  44   1    -0.00   0.03   0.03    -0.03  -0.09  -0.07     0.00  -0.03  -0.03
  45   1     0.00   0.03   0.02    -0.00   0.05   0.05     0.00   0.03   0.02
  46   1     0.01   0.00   0.00     0.01   0.00   0.00     0.03   0.02   0.01
  47   1     0.04  -0.02  -0.03    -0.10   0.06   0.07     0.00   0.00   0.00
  48   1    -0.01  -0.05  -0.05    -0.00   0.02   0.01     0.00   0.01   0.00
  49   1    -0.01   0.01   0.01    -0.00   0.00  -0.01    -0.06   0.07   0.05
  50   1    -0.01   0.01  -0.00     0.03  -0.05   0.01    -0.03   0.06  -0.04
  51   1     0.00   0.00  -0.00     0.01  -0.01  -0.02     0.02   0.01  -0.05
  52   1    -0.00   0.00  -0.00     0.09  -0.11  -0.04     0.05  -0.06  -0.03
  53   1    -0.01   0.01  -0.01     0.04  -0.11   0.09     0.05  -0.10   0.07
  54   1    -0.00   0.02   0.01     0.03   0.14   0.03    -0.13  -0.46  -0.08
  55   1    -0.00   0.00  -0.00     0.11   0.05   0.08    -0.25  -0.07  -0.17
  56   1     0.01  -0.01   0.00     0.02  -0.01   0.01    -0.12   0.18  -0.08
  57   1    -0.00  -0.01  -0.00     0.03   0.04   0.02     0.11   0.32   0.08
  58   1    -0.00  -0.00  -0.00    -0.00  -0.01   0.00     0.39   0.07   0.26
                    118                    119                    120
                        a                      a                      a 
 Frequencies --  1281.8109              1287.9264              1310.2818
 Red. masses --     3.6124                 8.8145                 9.5310
 Frc consts  --     0.0000                 0.0000                 0.0000
 IR Inten    --     0.1530                 1.7310                 1.0259
 Raman Activ --     0.0000                 0.0000                 0.0000
 Depolar     --     0.0000                 0.0000                 0.0000
 Atom AN      X      Y      Z        X      Y      Z        X      Y      Z
   1   8    -0.00  -0.01   0.00    -0.00   0.00   0.00    -0.00  -0.00  -0.00
   2  15     0.00   0.00  -0.00     0.00   0.00  -0.00     0.00   0.00   0.00
   3   8    -0.00  -0.00  -0.00    -0.00   0.00   0.00    -0.00   0.00  -0.00
   4   8     0.00   0.01  -0.00    -0.00  -0.01   0.00    -0.00   0.02  -0.01
   5   6    -0.01  -0.01   0.01    -0.14   0.10   0.01     0.07  -0.08   0.00
   6   6     0.02  -0.05  -0.02     0.19  -0.11  -0.03    -0.00   0.13  -0.04
   7   6     0.03  -0.02   0.00     0.02  -0.20   0.07    -0.13   0.11  -0.00
   8   6    -0.01   0.06  -0.02     0.05   0.18  -0.08     0.11  -0.13   0.01
   9   6    -0.00   0.00  -0.00     0.02  -0.03   0.01    -0.05  -0.10   0.05
  10   6    -0.03  -0.01   0.01    -0.15   0.05   0.02     0.11  -0.01  -0.02
  11   6     0.01  -0.00  -0.00     0.05   0.04  -0.02     0.04  -0.00  -0.01
  12   6     0.01  -0.02   0.00    -0.01  -0.12   0.05    -0.08   0.12  -0.03
  13   6     0.01   0.04  -0.02     0.04   0.10  -0.05     0.10   0.05  -0.05
  14   6     0.01  -0.04   0.01    -0.11  -0.17   0.09    -0.09  -0.04   0.04
  15   6    -0.02   0.03   0.03     0.10  -0.13  -0.14    -0.11   0.03   0.06
  16   6    -0.02  -0.01  -0.00     0.15   0.12   0.05     0.06   0.06   0.03
  17   8    -0.00  -0.00  -0.00     0.00  -0.01  -0.01    -0.01  -0.02  -0.01
  18   6     0.04   0.02   0.02    -0.21  -0.10  -0.05     0.01  -0.10  -0.09
  19   6     0.00   0.03   0.02    -0.02  -0.17  -0.14    -0.13  -0.07  -0.03
  20   6     0.01  -0.03  -0.03    -0.04   0.15   0.15     0.12   0.10   0.06
  21   6    -0.00   0.00   0.00    -0.02  -0.02  -0.01    -0.05   0.08   0.09
  22   6    -0.03  -0.01   0.00     0.16   0.04   0.01     0.09   0.00  -0.02
  23   6     0.01  -0.00  -0.00    -0.04   0.03   0.04     0.05  -0.00  -0.01
  24   6    -0.00   0.01   0.01     0.01  -0.10  -0.10    -0.08  -0.09  -0.07
  25   6     0.01  -0.02  -0.02    -0.03   0.06   0.07     0.10  -0.04  -0.06
  26   6    -0.11  -0.01   0.29    -0.12   0.16   0.02     0.08  -0.06  -0.14
  27   6    -0.10   0.13   0.03    -0.02   0.03  -0.00    -0.09   0.09   0.08
  28   6    -0.01   0.08  -0.12     0.02   0.01  -0.07     0.03  -0.09   0.09
  29   6     0.04   0.01  -0.14     0.01  -0.03   0.03     0.04   0.04  -0.17
  30   6     0.08  -0.07  -0.08     0.02  -0.05   0.05    -0.08   0.10   0.03
  31   6     0.06  -0.10   0.02    -0.04   0.08  -0.04     0.07  -0.16   0.11
  32   6    -0.07   0.03  -0.05     0.15   0.10   0.11     0.15  -0.12   0.11
  33   6     0.01   0.01   0.00     0.04   0.10   0.03     0.07   0.25   0.05
  34   6     0.03   0.01   0.02    -0.01  -0.08  -0.01    -0.14  -0.05  -0.10
  35   6     0.02  -0.02   0.01    -0.00  -0.05  -0.00     0.12  -0.19   0.08
  36   6     0.01  -0.04   0.01    -0.05   0.06  -0.03     0.03   0.18   0.02
  37   6    -0.03  -0.02  -0.02     0.02   0.03   0.01    -0.17  -0.03  -0.12
  38   1     0.00  -0.00  -0.00    -0.00   0.00   0.00    -0.00   0.00  -0.00
  39   1    -0.00   0.06  -0.02    -0.03   0.21  -0.06    -0.02  -0.10   0.04
  40   1     0.00  -0.04   0.02     0.02  -0.16   0.06    -0.03   0.12  -0.04
  41   1     0.03  -0.02   0.00     0.12  -0.06  -0.01    -0.17   0.09   0.01
  42   1     0.00  -0.00   0.00     0.03   0.02  -0.02    -0.13  -0.09   0.07
  43   1     0.00   0.01  -0.00    -0.03   0.12  -0.05    -0.00  -0.09   0.04
  44   1    -0.00  -0.03  -0.02     0.02   0.16   0.13    -0.03   0.06   0.05
  45   1     0.00   0.02   0.02    -0.02  -0.13  -0.12    -0.03  -0.08  -0.07
  46   1     0.02   0.01   0.01    -0.14  -0.06  -0.03    -0.17  -0.08  -0.04
  47   1    -0.00   0.00   0.00    -0.04   0.02   0.03    -0.13   0.06   0.08
  48   1    -0.00  -0.01  -0.01     0.02   0.10   0.10    -0.01   0.06   0.06
  49   1     0.28  -0.30  -0.22     0.04  -0.04  -0.04    -0.00   0.00   0.01
  50   1     0.14  -0.29   0.17     0.04  -0.06   0.02     0.00  -0.01   0.02
  51   1    -0.06  -0.03   0.22     0.01  -0.01  -0.00    -0.02  -0.00   0.04
  52   1    -0.18   0.19   0.12     0.05  -0.07  -0.02    -0.06   0.06   0.03
  53   1    -0.18   0.37  -0.26     0.02  -0.05   0.04    -0.03   0.05  -0.04
  54   1    -0.03  -0.09  -0.02    -0.01  -0.07  -0.01    -0.02  -0.06  -0.01
  55   1    -0.04  -0.01  -0.03    -0.07  -0.04  -0.05    -0.07  -0.02  -0.05
  56   1    -0.03   0.04  -0.02    -0.01  -0.01  -0.00    -0.03   0.04  -0.02
  57   1     0.03   0.08   0.02    -0.04  -0.06  -0.03     0.00   0.04   0.00
  58   1     0.10   0.02   0.07    -0.06  -0.00  -0.04     0.00   0.00   0.01
                    121                    122                    123
                        a                      a                      a 
 Frequencies --  1314.8424              1318.2954              1333.0331
 Red. masses --    11.6855                10.4058                 9.6819
 Frc consts  --     0.0000                 0.0000                 0.0000
 IR Inten    --     0.3272                 0.4232                 8.2456
 Raman Activ --     0.0000                 0.0000                 0.0000
 Depolar     --     0.0000                 0.0000                 0.0000
 Atom AN      X      Y      Z        X      Y      Z        X      Y      Z
   1   8    -0.00  -0.00   0.00    -0.00  -0.00   0.00    -0.01  -0.02   0.01
   2  15     0.00   0.00   0.00     0.00   0.00  -0.00     0.01   0.02  -0.01
   3   8    -0.00   0.00   0.00     0.00  -0.00  -0.00     0.00  -0.00  -0.00
   4   8    -0.00   0.01  -0.00     0.01  -0.01   0.00     0.02   0.02  -0.01
   5   6    -0.01  -0.00   0.00    -0.07   0.05   0.00     0.03  -0.12   0.02
   6   6     0.03   0.05  -0.02     0.02  -0.11   0.04    -0.05  -0.18   0.08
   7   6    -0.05   0.01   0.01     0.11  -0.10   0.00     0.17  -0.01  -0.04
   8   6     0.06  -0.03  -0.01    -0.08   0.09  -0.01    -0.19   0.05   0.04
   9   6    -0.01  -0.06   0.02     0.05   0.08  -0.04     0.03   0.20  -0.09
  10   6     0.02   0.01  -0.01    -0.10   0.01   0.02    -0.04  -0.04   0.03
  11   6     0.03   0.01  -0.01    -0.03  -0.00   0.01    -0.10  -0.09   0.06
  12   6    -0.04   0.02   0.00     0.07  -0.11   0.03     0.14  -0.03  -0.02
  13   6     0.04   0.03  -0.02    -0.10  -0.03   0.04    -0.14  -0.05   0.06
  14   6    -0.07  -0.05   0.04     0.06   0.04  -0.03     0.16   0.22  -0.13
  15   6     0.01  -0.02  -0.02     0.09  -0.04  -0.06    -0.15   0.17   0.20
  16   6     0.05   0.05   0.02    -0.05  -0.05  -0.02    -0.05  -0.12  -0.08
  17   8     0.00  -0.01  -0.01     0.00   0.01   0.01    -0.03   0.02   0.02
  18   6    -0.04  -0.02  -0.00    -0.00   0.09   0.07     0.08  -0.17  -0.15
  19   6    -0.02  -0.05  -0.04     0.11   0.07   0.04    -0.19  -0.00   0.03
  20   6     0.00   0.03   0.02    -0.09  -0.07  -0.04     0.19   0.06   0.01
  21   6    -0.02  -0.00   0.00     0.05  -0.07  -0.07    -0.03   0.18   0.17
  22   6     0.05   0.02   0.01    -0.09  -0.01   0.01     0.05  -0.04  -0.05
  23   6    -0.01   0.01   0.01    -0.04   0.00   0.01     0.11  -0.07  -0.09
  24   6    -0.01  -0.04  -0.04     0.07   0.08   0.06    -0.15  -0.03   0.01
  25   6     0.02   0.01   0.00    -0.09   0.03   0.05     0.15  -0.03  -0.07
  26   6     0.08   0.02  -0.24     0.04   0.12  -0.28    -0.03   0.08  -0.03
  27   6    -0.16   0.16   0.12    -0.19   0.20   0.13    -0.04   0.05   0.02
  28   6     0.08  -0.17   0.12     0.11  -0.22   0.11     0.03  -0.04  -0.02
  29   6     0.07   0.04  -0.25     0.08   0.02  -0.26     0.02  -0.02  -0.02
  30   6    -0.14   0.15   0.10    -0.17   0.16   0.15    -0.04   0.02   0.05
  31   6     0.09  -0.21   0.14     0.08  -0.18   0.13    -0.01   0.02  -0.01
  32   6    -0.15   0.27  -0.08     0.05  -0.17   0.01     0.03   0.09   0.04
  33   6    -0.07  -0.28  -0.05     0.03   0.11   0.02     0.00   0.02   0.00
  34   6     0.23   0.03   0.16    -0.14  -0.00  -0.09     0.06  -0.02   0.04
  35   6    -0.18   0.23  -0.11     0.09  -0.11   0.06    -0.03   0.00  -0.02
  36   6    -0.09  -0.25  -0.07     0.06   0.13   0.05    -0.04  -0.02  -0.03
  37   6     0.27   0.06   0.18    -0.15  -0.04  -0.10     0.06   0.03   0.04
  38   1    -0.00   0.00  -0.00     0.00  -0.00  -0.00    -0.00  -0.00  -0.00
  39   1    -0.01  -0.01   0.01     0.02   0.09  -0.03     0.05  -0.00  -0.02
  40   1    -0.01   0.03  -0.01     0.03  -0.10   0.03     0.03  -0.11   0.03
  41   1    -0.06   0.03   0.00     0.14  -0.08  -0.01     0.18  -0.10  -0.00
  42   1    -0.05  -0.03   0.02     0.11   0.07  -0.05     0.14   0.08  -0.06
  43   1    -0.01  -0.02   0.01     0.00   0.07  -0.03     0.04   0.01  -0.01
  44   1     0.00   0.04   0.03     0.02  -0.05  -0.05    -0.06   0.00   0.01
  45   1    -0.01  -0.02  -0.02     0.02   0.07   0.06    -0.03  -0.10  -0.09
  46   1    -0.04  -0.02  -0.01     0.14   0.06   0.03    -0.19  -0.10  -0.05
  47   1    -0.03   0.01   0.02     0.11  -0.05  -0.07    -0.15   0.06   0.08
  48   1     0.00   0.03   0.03     0.01  -0.05  -0.05    -0.04  -0.00  -0.00
  49   1     0.00  -0.00  -0.00     0.02  -0.01  -0.01     0.02  -0.01  -0.02
  50   1     0.01  -0.03   0.02     0.02  -0.04   0.02     0.01  -0.02   0.00
  51   1    -0.01  -0.00   0.04     0.00  -0.01   0.01     0.01  -0.00  -0.02
  52   1    -0.03   0.03   0.02     0.01  -0.02  -0.00     0.04  -0.05  -0.02
  53   1    -0.01   0.01  -0.01     0.02  -0.04   0.03     0.02  -0.04   0.03
  54   1    -0.00  -0.01   0.00     0.01   0.04   0.01    -0.02  -0.05  -0.01
  55   1     0.02  -0.00   0.01     0.02   0.01   0.02    -0.05  -0.02  -0.04
  56   1     0.01  -0.02   0.01     0.01   0.00   0.00    -0.02   0.01  -0.01
  57   1    -0.02  -0.05  -0.01     0.02   0.03   0.01    -0.02  -0.02  -0.01
  58   1    -0.02  -0.00  -0.01     0.02   0.00   0.01    -0.03  -0.00  -0.01
                    124                    125                    126
                        a                      a                      a 
 Frequencies --  1367.0355              1381.1161              1383.6654
 Red. masses --    10.2175                 9.1764                10.1526
 Frc consts  --     0.0000                 0.0000                 0.0000
 IR Inten    --    10.5327                15.1223                 5.6059
 Raman Activ --     0.0000                 0.0000                 0.0000
 Depolar     --     0.0000                 0.0000                 0.0000
 Atom AN      X      Y      Z        X      Y      Z        X      Y      Z
   1   8    -0.00  -0.00  -0.00    -0.01  -0.02   0.01    -0.00  -0.00   0.00
   2  15     0.01   0.00   0.01     0.00   0.02  -0.01     0.01   0.01   0.00
   3   8    -0.00   0.00  -0.00     0.00  -0.00  -0.00    -0.00  -0.00  -0.00
   4   8     0.01   0.04  -0.02     0.01   0.01  -0.01     0.01   0.02  -0.01
   5   6     0.12  -0.22   0.03    -0.20   0.00   0.06    -0.22  -0.03   0.07
   6   6    -0.02  -0.19   0.06     0.22   0.11  -0.10     0.29   0.04  -0.11
   7   6     0.06   0.13  -0.06    -0.03  -0.07   0.03     0.00  -0.05   0.02
   8   6    -0.01  -0.01   0.01    -0.23  -0.04   0.08    -0.39  -0.06   0.13
   9   6    -0.10   0.23  -0.06     0.08  -0.08   0.01     0.03   0.10  -0.04
  10   6     0.06  -0.14   0.04     0.07   0.07  -0.04     0.17  -0.04  -0.03
  11   6    -0.04  -0.17   0.08    -0.12   0.04   0.01    -0.19  -0.08   0.08
  12   6     0.06   0.22  -0.11    -0.01  -0.12   0.05    -0.00   0.06  -0.02
  13   6    -0.00   0.01  -0.00     0.15  -0.03  -0.03     0.32  -0.04  -0.07
  14   6    -0.12   0.17  -0.01     0.10   0.01  -0.06    -0.00   0.03   0.01
  15   6    -0.21  -0.15  -0.03    -0.06   0.04   0.07    -0.01  -0.03   0.00
  16   6     0.17   0.21   0.11     0.24  -0.04  -0.08    -0.15   0.01   0.04
  17   8     0.02  -0.04  -0.04    -0.02   0.02   0.02     0.01  -0.01  -0.01
  18   6    -0.06   0.17   0.14    -0.32   0.04   0.09     0.20  -0.00  -0.04
  19   6     0.05  -0.11  -0.10     0.02  -0.04  -0.03     0.01   0.02   0.01
  20   6     0.09  -0.00  -0.02     0.34  -0.03  -0.11    -0.29   0.02   0.09
  21   6    -0.12  -0.17  -0.13    -0.06   0.01   0.02     0.01  -0.09  -0.08
  22   6     0.04   0.12   0.10    -0.14   0.00   0.03     0.13   0.05   0.02
  23   6     0.01   0.12   0.11     0.18  -0.02  -0.05    -0.14   0.06   0.08
  24   6     0.04  -0.19  -0.19    -0.00  -0.02  -0.02     0.00  -0.07  -0.06
  25   6    -0.03  -0.02  -0.01    -0.25  -0.06   0.01     0.23   0.04  -0.02
  26   6    -0.04   0.06   0.01    -0.01   0.00  -0.03    -0.02   0.03  -0.03
  27   6    -0.03   0.03   0.02    -0.00  -0.01   0.02    -0.02   0.01   0.04
  28   6     0.01   0.00  -0.04    -0.02   0.03  -0.01    -0.01   0.04  -0.03
  29   6     0.01  -0.03   0.01     0.01  -0.00  -0.02     0.02  -0.02  -0.02
  30   6    -0.01  -0.00   0.04     0.02  -0.03   0.00     0.01  -0.03   0.03
  31   6    -0.02   0.05  -0.03    -0.01   0.01   0.01    -0.02   0.04  -0.01
  32   6    -0.04  -0.04  -0.03     0.02   0.05  -0.00    -0.02  -0.03  -0.00
  33   6    -0.01  -0.05  -0.01     0.03   0.03   0.02    -0.01  -0.03  -0.01
  34   6    -0.03   0.02  -0.02    -0.01  -0.05  -0.01    -0.00   0.03  -0.00
  35   6     0.01   0.02   0.01    -0.03   0.00  -0.02     0.02   0.00   0.01
  36   6     0.03  -0.02   0.02     0.01   0.06   0.01    -0.00  -0.03  -0.00
  37   6    -0.04  -0.02  -0.02     0.03  -0.02   0.02    -0.03   0.01  -0.02
  38   1    -0.00   0.00  -0.00    -0.00  -0.00   0.00     0.00  -0.00  -0.00
  39   1     0.03  -0.04   0.00     0.01  -0.14   0.05     0.03  -0.22   0.07
  40   1    -0.01  -0.14   0.05    -0.00   0.17  -0.07    -0.01   0.15  -0.06
  41   1     0.06  -0.06   0.01    -0.02   0.04  -0.01     0.00   0.01  -0.01
  42   1    -0.01  -0.05   0.03     0.06   0.07  -0.04     0.05   0.04  -0.03
  43   1     0.05  -0.13   0.05    -0.03   0.18  -0.07    -0.02   0.15  -0.06
  44   1     0.02  -0.00  -0.00    -0.02  -0.18  -0.15     0.02   0.13   0.11
  45   1    -0.01   0.14   0.13     0.01   0.14   0.13    -0.01  -0.07  -0.07
  46   1     0.05   0.05   0.04     0.01   0.02   0.02     0.01   0.00  -0.00
  47   1    -0.05   0.06   0.07    -0.07   0.05   0.06     0.03  -0.02  -0.02
  48   1     0.05   0.14   0.13     0.02   0.14   0.13    -0.00  -0.07  -0.06
  49   1     0.03  -0.03  -0.02    -0.00  -0.00   0.01     0.01  -0.02  -0.00
  50   1     0.02  -0.03   0.01     0.01  -0.03   0.02     0.02  -0.05   0.03
  51   1     0.01  -0.01  -0.01    -0.01  -0.01   0.04    -0.01  -0.01   0.04
  52   1     0.03  -0.04  -0.02    -0.01   0.01   0.01     0.00  -0.01   0.01
  53   1     0.02  -0.04   0.02    -0.00  -0.01   0.01     0.01  -0.03   0.02
  54   1     0.01   0.04   0.01    -0.00  -0.04  -0.01     0.01   0.03   0.01
  55   1     0.04   0.02   0.03     0.00  -0.01   0.00     0.01   0.01   0.01
  56   1     0.02  -0.01   0.01     0.02  -0.04   0.01    -0.01   0.02  -0.00
  57   1     0.02   0.02   0.01    -0.02  -0.06  -0.01     0.01   0.04   0.01
  58   1     0.04   0.00   0.02    -0.02  -0.01  -0.01     0.02   0.01   0.01
                    127                    128                    129
                        a                      a                      a 
 Frequencies --  1393.3026              1412.5783              1413.6150
 Red. masses --    10.6021                10.8007                10.7898
 Frc consts  --     0.0000                 0.0000                 0.0000
 IR Inten    --    10.8731                37.9276                30.9021
 Raman Activ --     0.0000                 0.0000                 0.0000
 Depolar     --     0.0000                 0.0000                 0.0000
 Atom AN      X      Y      Z        X      Y      Z        X      Y      Z
   1   8    -0.00  -0.01   0.00     0.00   0.01  -0.01    -0.01  -0.02   0.01
   2  15     0.00   0.01  -0.00     0.01  -0.02   0.01     0.02   0.02   0.00
   3   8     0.00  -0.00  -0.00    -0.01   0.00   0.00     0.00  -0.00  -0.00
   4   8     0.01   0.03  -0.01    -0.01  -0.01  -0.00     0.03   0.06  -0.03
   5   6    -0.03  -0.04   0.02    -0.01  -0.03   0.01    -0.09  -0.30   0.11
   6   6     0.10  -0.13   0.01     0.02   0.06  -0.03     0.27  -0.14  -0.03
   7   6     0.02   0.04  -0.02    -0.03   0.00   0.01    -0.12   0.24  -0.04
   8   6    -0.08   0.05   0.01    -0.02  -0.09   0.03     0.30  -0.05  -0.07
   9   6    -0.13   0.21  -0.04     0.05  -0.01  -0.01     0.00  -0.18   0.07
  10   6     0.13  -0.19   0.04    -0.03   0.07  -0.02    -0.01   0.09  -0.03
  11   6     0.01  -0.12   0.04    -0.07  -0.03   0.03     0.00   0.09  -0.04
  12   6    -0.06   0.32  -0.12     0.06  -0.08   0.02     0.02  -0.16   0.06
  13   6     0.21  -0.06  -0.04    -0.03   0.06  -0.02    -0.24  -0.08   0.10
  14   6    -0.27  -0.06   0.10     0.05   0.06  -0.01    -0.15   0.36  -0.07
  15   6     0.27   0.00  -0.10    -0.13  -0.33  -0.20     0.07   0.01   0.01
  16   6     0.05  -0.04  -0.04    -0.08   0.26   0.21     0.01  -0.01  -0.02
  17   8    -0.01   0.02   0.02     0.03  -0.04  -0.05    -0.01   0.01   0.01
  18   6    -0.13  -0.11  -0.06     0.26   0.10   0.02    -0.03  -0.07  -0.05
  19   6    -0.01   0.03   0.03    -0.12  -0.19  -0.13    -0.01   0.03   0.03
  20   6     0.08   0.04   0.02     0.29   0.07  -0.01    -0.07   0.06   0.07
  21   6     0.12   0.15   0.11     0.03   0.17   0.15     0.05  -0.02  -0.03
  22   6    -0.14  -0.15  -0.11    -0.03  -0.10  -0.09    -0.03  -0.04  -0.03
  23   6    -0.01  -0.08  -0.08    -0.02  -0.08  -0.07    -0.07   0.04   0.05
  24   6     0.06   0.24   0.21     0.03   0.17   0.15     0.06   0.03   0.02
  25   6    -0.21  -0.07  -0.01    -0.26   0.03   0.09     0.02  -0.06  -0.06
  26   6    -0.03   0.04  -0.00     0.01  -0.00  -0.03    -0.00   0.04  -0.12
  27   6    -0.04   0.04   0.03     0.02  -0.03   0.01    -0.03  -0.02   0.12
  28   6     0.01   0.01  -0.04    -0.02   0.03   0.01    -0.07   0.15  -0.08
  29   6     0.02  -0.03   0.00     0.00   0.01  -0.02     0.06  -0.04  -0.08
  30   6    -0.02   0.01   0.05     0.03  -0.03  -0.01     0.04  -0.10   0.08
  31   6    -0.01   0.04  -0.04    -0.01   0.00   0.02    -0.08   0.14  -0.02
  32   6     0.03   0.03   0.02     0.03  -0.10   0.04     0.01   0.00   0.01
  33   6     0.01   0.06   0.01    -0.08  -0.10  -0.06     0.00   0.03   0.00
  34   6     0.03  -0.03   0.02     0.02   0.11   0.02     0.02  -0.01   0.02
  35   6    -0.02  -0.02  -0.02     0.08  -0.02   0.05    -0.01  -0.02  -0.01
  36   6    -0.02   0.04  -0.01    -0.05  -0.14  -0.04    -0.01   0.02  -0.01
  37   6     0.06   0.00   0.04    -0.06   0.08  -0.04     0.03   0.00   0.02
  38   1    -0.00  -0.00   0.00     0.00   0.00  -0.00    -0.00  -0.00  -0.00
  39   1     0.02  -0.06   0.01    -0.00  -0.03   0.01    -0.00  -0.13   0.04
  40   1    -0.03  -0.06   0.03     0.01   0.01  -0.01    -0.00   0.03  -0.01
  41   1    -0.02  -0.03   0.02     0.04  -0.01  -0.01    -0.06   0.05  -0.01
  42   1    -0.11  -0.11   0.07     0.07   0.05  -0.04     0.03   0.05  -0.03
  43   1     0.01  -0.12   0.05     0.00   0.08  -0.04    -0.01   0.02  -0.01
  44   1    -0.02  -0.06  -0.05    -0.01   0.10   0.08    -0.00  -0.00   0.00
  45   1     0.03  -0.04  -0.03     0.00  -0.04  -0.03     0.02   0.00  -0.00
  46   1     0.04  -0.02  -0.02    -0.05  -0.05  -0.03     0.06   0.02   0.00
  47   1     0.11  -0.07  -0.09     0.06  -0.05  -0.06     0.07  -0.03  -0.04
  48   1    -0.01  -0.08  -0.08    -0.01  -0.04  -0.04     0.01  -0.05  -0.06
  49   1     0.03  -0.03  -0.02    -0.02   0.01   0.02     0.03  -0.05   0.01
  50   1     0.02  -0.04   0.01    -0.00  -0.01   0.01     0.06  -0.13   0.09
  51   1     0.01  -0.01  -0.00    -0.01  -0.00   0.03    -0.02  -0.03   0.12
  52   1     0.03  -0.04  -0.02    -0.02   0.02   0.02     0.00  -0.02   0.03
  53   1     0.02  -0.04   0.03    -0.01   0.00   0.00     0.03  -0.09   0.08
  54   1    -0.02  -0.05  -0.01     0.01   0.11   0.02    -0.01  -0.02  -0.01
  55   1    -0.04  -0.02  -0.03    -0.01   0.03  -0.00    -0.02  -0.01  -0.02
  56   1    -0.01  -0.01  -0.00    -0.05   0.10  -0.03    -0.01   0.00  -0.00
  57   1    -0.02  -0.05  -0.02     0.04   0.14   0.03    -0.01  -0.02  -0.01
  58   1    -0.04  -0.01  -0.03     0.03   0.03   0.02    -0.03  -0.01  -0.02
                    130                    131                    132
                        a                      a                      a 
 Frequencies --  1427.5096              1428.1312              1435.1673
 Red. masses --     9.0052                 9.2897                 9.6701
 Frc consts  --     0.0000                 0.0000                 0.0000
 IR Inten    --     0.1801                 0.9135                 1.2623
 Raman Activ --     0.0000                 0.0000                 0.0000
 Depolar     --     0.0000                 0.0000                 0.0000
 Atom AN      X      Y      Z        X      Y      Z        X      Y      Z
   1   8     0.00   0.00  -0.00     0.00  -0.00   0.00    -0.00   0.00  -0.00
   2  15    -0.00  -0.00  -0.00    -0.01   0.00  -0.00     0.01  -0.00   0.01
   3   8    -0.00  -0.00   0.00     0.00   0.00   0.00    -0.00   0.00   0.00
   4   8    -0.01   0.00   0.00    -0.01  -0.00   0.01    -0.01   0.01  -0.01
   5   6     0.05  -0.01  -0.01     0.08   0.01  -0.03     0.06  -0.10   0.02
   6   6    -0.04   0.11  -0.00    -0.08   0.15  -0.00     0.02   0.12  -0.06
   7   6    -0.03  -0.06   0.03    -0.02  -0.10   0.04    -0.06   0.01   0.01
   8   6     0.01  -0.15   0.05    -0.02  -0.15   0.06     0.01  -0.19   0.07
   9   6     0.04   0.13  -0.06     0.06   0.13  -0.06     0.08   0.02  -0.03
  10   6    -0.10   0.03   0.01    -0.12   0.04   0.01    -0.09   0.11  -0.02
  11   6    -0.01  -0.11   0.04    -0.01  -0.12   0.05    -0.08  -0.09   0.06
  12   6     0.05   0.06  -0.04     0.06   0.06  -0.04     0.09  -0.06   0.00
  13   6    -0.03   0.11  -0.04    -0.01   0.14  -0.05    -0.04   0.18  -0.06
  14   6    -0.06  -0.06   0.04    -0.02  -0.11   0.03    -0.04   0.00   0.01
  15   6     0.05  -0.01  -0.04    -0.02   0.09   0.08    -0.11  -0.01   0.04
  16   6    -0.03  -0.01  -0.00     0.09  -0.01  -0.02     0.07   0.13   0.08
  17   8     0.00   0.00   0.00    -0.01   0.00   0.01    -0.00  -0.02  -0.02
  18   6     0.03   0.05   0.06    -0.10  -0.11  -0.10     0.06  -0.14  -0.10
  19   6     0.03  -0.03  -0.03    -0.02   0.08   0.08    -0.09  -0.00   0.01
  20   6    -0.02  -0.08  -0.07    -0.03   0.12   0.11     0.01   0.20   0.18
  21   6    -0.03   0.07   0.07     0.06  -0.11  -0.11     0.11  -0.04  -0.06
  22   6     0.07   0.02   0.00    -0.11  -0.03  -0.01    -0.12  -0.11  -0.07
  23   6     0.01  -0.06  -0.06    -0.01   0.09   0.09    -0.10   0.10   0.12
  24   6    -0.04   0.04   0.05     0.06  -0.05  -0.06     0.12   0.04   0.02
  25   6     0.02   0.05   0.05    -0.00  -0.11  -0.10    -0.04  -0.19  -0.17
  26   6     0.07   0.04  -0.23     0.05   0.03  -0.16    -0.06  -0.02   0.16
  27   6     0.10  -0.17   0.06     0.09  -0.14   0.01    -0.02   0.08  -0.10
  28   6    -0.13   0.16   0.06    -0.09   0.09   0.07     0.09  -0.14   0.02
  29   6     0.03   0.06  -0.18     0.00   0.06  -0.13    -0.06   0.01   0.14
  30   6     0.14  -0.20  -0.00     0.12  -0.15  -0.03    -0.05   0.11  -0.07
  31   6    -0.10   0.08   0.12    -0.06   0.03   0.11     0.09  -0.12  -0.02
  32   6    -0.14   0.18  -0.09     0.13  -0.16   0.08    -0.12   0.12  -0.06
  33   6     0.15   0.01   0.10    -0.13   0.04  -0.08     0.11   0.10   0.07
  34   6    -0.14  -0.16  -0.10     0.16   0.12   0.11    -0.03  -0.14  -0.02
  35   6    -0.09   0.16  -0.06     0.06  -0.16   0.04    -0.11   0.08  -0.07
  36   6     0.16   0.10   0.11    -0.15  -0.05  -0.10     0.10   0.13   0.07
  37   6    -0.07  -0.17  -0.05     0.10   0.15   0.07     0.02  -0.12   0.01
  38   1     0.00   0.00  -0.00    -0.00   0.00   0.00    -0.00   0.00   0.00
  39   1    -0.02   0.03  -0.00    -0.02   0.05  -0.01    -0.02  -0.03   0.01
  40   1     0.03  -0.09   0.03     0.03  -0.09   0.02     0.03  -0.02   0.00
  41   1     0.11  -0.06  -0.01     0.12  -0.06  -0.01     0.10  -0.03  -0.01
  42   1     0.05   0.00  -0.01     0.06   0.00  -0.01     0.10   0.05  -0.05
  43   1     0.02  -0.03   0.00     0.02  -0.02   0.00     0.02   0.06  -0.03
  44   1     0.01   0.02   0.02    -0.02  -0.04  -0.04    -0.02   0.02   0.03
  45   1    -0.02  -0.06  -0.05     0.03   0.08   0.06     0.04   0.04   0.03
  46   1    -0.08  -0.04  -0.02     0.13   0.06   0.03     0.14   0.04   0.01
  47   1    -0.03  -0.00   0.00     0.06   0.00  -0.01     0.13  -0.04  -0.07
  48   1    -0.02  -0.02  -0.01     0.03   0.02   0.01     0.03  -0.05  -0.06
  49   1    -0.08   0.06   0.09    -0.07   0.06   0.08     0.01   0.01  -0.04
  50   1     0.01  -0.06   0.09    -0.01  -0.01   0.05    -0.03   0.09  -0.08
  51   1    -0.07  -0.02   0.22    -0.05  -0.01   0.15     0.03   0.03  -0.15
  52   1    -0.10   0.10   0.11    -0.09   0.09   0.08     0.02  -0.01  -0.05
  53   1    -0.01  -0.02   0.06    -0.02   0.02   0.03    -0.03   0.08  -0.08
  54   1     0.02  -0.08   0.01    -0.03   0.03  -0.02    -0.02  -0.12  -0.01
  55   1     0.13  -0.01   0.09    -0.15  -0.01  -0.10     0.03  -0.03   0.02
  56   1     0.13  -0.17   0.08    -0.12   0.15  -0.08     0.07  -0.13   0.05
  57   1     0.00  -0.12   0.00    -0.02   0.07  -0.01    -0.02  -0.14  -0.02
  58   1     0.09  -0.03   0.06    -0.11   0.01  -0.07     0.01  -0.04   0.01
                    133                    134                    135
                        a                      a                      a 
 Frequencies --  1445.2678              1479.9871              1481.4312
 Red. masses --    10.5752                 9.6728                 9.6817
 Frc consts  --     0.0000                 0.0000                 0.0000
 IR Inten    --    25.3585                 7.7881                 3.2070
 Raman Activ --     0.0000                 0.0000                 0.0000
 Depolar     --     0.0000                 0.0000                 0.0000
 Atom AN      X      Y      Z        X      Y      Z        X      Y      Z
   1   8    -0.01  -0.02   0.01    -0.00  -0.01   0.00    -0.00  -0.00   0.00
   2  15     0.00   0.02  -0.00     0.00   0.01   0.00     0.01   0.00   0.00
   3   8     0.00  -0.00  -0.00     0.00  -0.00  -0.00    -0.00  -0.00  -0.00
   4   8     0.01   0.04  -0.02     0.01   0.01  -0.00     0.01   0.00  -0.00
   5   6     0.01  -0.20   0.06    -0.07  -0.04   0.03    -0.05  -0.04   0.02
   6   6     0.15   0.12  -0.10     0.17  -0.10  -0.03     0.13  -0.12  -0.01
   7   6    -0.14   0.08   0.01    -0.01  -0.03   0.02     0.01  -0.01   0.00
   8   6     0.11  -0.30   0.08     0.02   0.05  -0.02     0.01   0.08  -0.03
   9   6     0.09   0.07  -0.05    -0.03   0.03  -0.00    -0.04  -0.00   0.01
  10   6    -0.14   0.12  -0.01    -0.00  -0.05   0.02     0.05  -0.05   0.00
  11   6    -0.07  -0.15   0.07     0.06   0.04  -0.03     0.01   0.04  -0.02
  12   6     0.10   0.01  -0.02    -0.05   0.03  -0.00    -0.02  -0.00   0.01
  13   6    -0.07   0.21  -0.07    -0.02  -0.14   0.06    -0.01  -0.09   0.04
  14   6    -0.25   0.03   0.07     0.02   0.11  -0.05    -0.01   0.11  -0.03
  15   6     0.23   0.04  -0.06    -0.02   0.07   0.07    -0.01  -0.09  -0.06
  16   6    -0.01  -0.13  -0.10     0.07  -0.03  -0.03    -0.04   0.04   0.04
  17   8    -0.01   0.03   0.03    -0.01   0.00   0.01     0.01  -0.00  -0.01
  18   6    -0.13   0.09   0.09    -0.16  -0.07  -0.03     0.14   0.11   0.07
  19   6     0.12   0.04   0.01     0.02  -0.03  -0.02     0.01   0.01   0.01
  20   6    -0.08  -0.20  -0.16    -0.02   0.03   0.03     0.00  -0.07  -0.07
  21   6    -0.07   0.05   0.06     0.02   0.03   0.02    -0.04   0.00   0.01
  22   6     0.12   0.08   0.05     0.01  -0.03  -0.03     0.06   0.04   0.02
  23   6     0.05  -0.10  -0.10    -0.07   0.03   0.04     0.01  -0.03  -0.03
  24   6    -0.08   0.01   0.03     0.04   0.03   0.02    -0.02   0.01   0.01
  25   6     0.05   0.13   0.12     0.02  -0.10  -0.10    -0.01   0.07   0.07
  26   6    -0.06  -0.02   0.13    -0.19   0.26  -0.00    -0.17   0.24  -0.01
  27   6    -0.02   0.07  -0.06     0.09  -0.05  -0.16     0.09  -0.05  -0.14
  28   6     0.07  -0.09  -0.00     0.06  -0.18   0.17     0.06  -0.16   0.15
  29   6    -0.04  -0.00   0.12    -0.10   0.14  -0.00    -0.09   0.13  -0.01
  30   6    -0.04   0.08  -0.05     0.14  -0.12  -0.15     0.13  -0.11  -0.14
  31   6     0.07  -0.09  -0.02     0.02  -0.11   0.16     0.02  -0.10   0.15
  32   6     0.07  -0.06   0.03     0.18   0.18   0.12    -0.21  -0.22  -0.14
  33   6    -0.05  -0.05  -0.04     0.02  -0.18   0.02    -0.03   0.19  -0.02
  34   6     0.01   0.07   0.01    -0.18   0.01  -0.12     0.21  -0.00   0.14
  35   6     0.06  -0.05   0.04     0.09   0.11   0.07    -0.10  -0.13  -0.07
  36   6    -0.05  -0.05  -0.03    -0.02  -0.23  -0.02     0.01   0.26   0.02
  37   6    -0.00   0.06   0.00    -0.14   0.06  -0.09     0.16  -0.06   0.11
  38   1    -0.00  -0.00  -0.00    -0.00  -0.00  -0.00     0.00   0.00  -0.00
  39   1    -0.03  -0.07   0.03    -0.00  -0.01  -0.00     0.01  -0.01  -0.00
  40   1     0.04  -0.08   0.02    -0.01  -0.02   0.01    -0.01   0.01   0.00
  41   1     0.14  -0.05  -0.02    -0.02  -0.00   0.01    -0.04   0.01   0.00
  42   1     0.11   0.04  -0.04    -0.04  -0.03   0.02    -0.03  -0.01   0.01
  43   1     0.03   0.02  -0.02    -0.01  -0.04   0.02    -0.01  -0.01   0.01
  44   1     0.03  -0.04  -0.04     0.00  -0.00  -0.01     0.01   0.01   0.01
  45   1    -0.03  -0.06  -0.04     0.00  -0.02  -0.01    -0.01  -0.01  -0.01
  46   1    -0.12  -0.04  -0.01     0.01  -0.00  -0.01    -0.04  -0.01  -0.00
  47   1    -0.09   0.02   0.03     0.04  -0.02  -0.03    -0.03   0.00   0.01
  48   1    -0.02   0.01   0.01     0.01  -0.03  -0.03    -0.01   0.00   0.00
  49   1     0.01  -0.00  -0.04    -0.09   0.12   0.04    -0.09   0.11   0.04
  50   1    -0.02   0.06  -0.06    -0.07   0.13  -0.07    -0.06   0.12  -0.06
  51   1     0.03   0.02  -0.11    -0.03   0.04  -0.01    -0.03   0.04  -0.00
  52   1     0.02  -0.01  -0.04    -0.10   0.11   0.05    -0.09   0.10   0.05
  53   1    -0.02   0.05  -0.06    -0.08   0.14  -0.07    -0.07   0.12  -0.06
  54   1     0.01   0.06   0.00     0.07   0.13   0.04    -0.07  -0.14  -0.04
  55   1    -0.02   0.02  -0.01     0.12   0.04   0.08    -0.13  -0.05  -0.09
  56   1    -0.04   0.06  -0.03     0.03   0.03   0.02    -0.04  -0.03  -0.03
  57   1     0.01   0.06   0.01     0.05   0.13   0.04    -0.06  -0.15  -0.05
  58   1    -0.01   0.02  -0.01     0.11   0.05   0.08    -0.13  -0.06  -0.09
                    136                    137                    138
                        a                      a                      a 
 Frequencies --  1488.1651              1492.0238              1549.3715
 Red. masses --    10.6839                10.7679                11.7641
 Frc consts  --     0.0000                 0.0000                 0.0000
 IR Inten    --     1.8361                 0.8391                 2.0847
 Raman Activ --     0.0000                 0.0000                 0.0000
 Depolar     --     0.0000                 0.0000                 0.0000
 Atom AN      X      Y      Z        X      Y      Z        X      Y      Z
   1   8    -0.00   0.00  -0.00    -0.00  -0.00   0.00    -0.00  -0.00   0.00
   2  15     0.01  -0.00   0.00     0.00   0.00   0.00    -0.00   0.00  -0.00
   3   8     0.00  -0.00  -0.00    -0.00   0.00   0.00     0.00  -0.00  -0.00
   4   8     0.00  -0.00  -0.00     0.00  -0.02   0.00    -0.00   0.01  -0.00
   5   6    -0.12   0.02   0.03    -0.24   0.10   0.04     0.15  -0.10  -0.01
   6   6     0.14   0.04  -0.06     0.19   0.20  -0.13    -0.09  -0.05   0.05
   7   6    -0.07  -0.00   0.02    -0.13  -0.07   0.06     0.05   0.04  -0.03
   8   6     0.05  -0.09   0.02     0.05  -0.20   0.06    -0.18  -0.01   0.06
   9   6     0.02   0.08  -0.03     0.09   0.17  -0.09     0.10  -0.05  -0.01
  10   6    -0.11  -0.01   0.03    -0.31   0.01   0.07    -0.19   0.07   0.02
  11   6     0.12   0.02  -0.03     0.32   0.06  -0.10     0.18   0.10  -0.08
  12   6    -0.06   0.08  -0.02    -0.15   0.18  -0.04    -0.09  -0.07   0.05
  13   6    -0.01  -0.11   0.04    -0.01  -0.30   0.13     0.18  -0.02  -0.04
  14   6    -0.00   0.04  -0.00     0.27   0.06  -0.11    -0.16   0.08   0.01
  15   6     0.22  -0.04  -0.11    -0.17  -0.01   0.06     0.21   0.15   0.05
  16   6    -0.27  -0.08  -0.00     0.07   0.04   0.02    -0.23  -0.15  -0.06
  17   8     0.00   0.01   0.01    -0.00  -0.01  -0.01     0.00   0.01   0.01
  18   6     0.26  -0.13  -0.15    -0.03   0.07   0.06     0.14  -0.03  -0.05
  19   6    -0.16   0.02   0.05     0.04  -0.03  -0.03    -0.08   0.02   0.03
  20   6     0.11   0.18   0.14    -0.01  -0.05  -0.04     0.32   0.01  -0.07
  21   6     0.08  -0.15  -0.15    -0.03   0.04   0.04    -0.17  -0.08  -0.03
  22   6    -0.30  -0.01   0.05     0.11   0.01  -0.01     0.32   0.10   0.03
  23   6     0.31  -0.02  -0.08    -0.10   0.01   0.03    -0.30   0.11   0.17
  24   6    -0.14  -0.16  -0.13     0.04   0.04   0.03     0.16  -0.07  -0.10
  25   6    -0.06   0.23   0.23     0.02  -0.07  -0.08    -0.31  -0.07   0.02
  26   6    -0.03   0.02   0.01     0.04  -0.09   0.03    -0.00   0.00   0.00
  27   6    -0.00   0.01  -0.01    -0.04   0.04   0.04     0.00  -0.00  -0.01
  28   6     0.01  -0.02   0.00    -0.00   0.04  -0.06     0.00  -0.01   0.01
  29   6    -0.01   0.01   0.02     0.02  -0.05   0.04     0.00   0.01  -0.02
  30   6     0.01   0.00  -0.02    -0.05   0.06   0.03     0.01  -0.01   0.00
  31   6     0.01  -0.02   0.01     0.02  -0.00  -0.04    -0.01   0.01  -0.00
  32   6     0.00   0.05   0.02    -0.04  -0.05  -0.03    -0.00  -0.01   0.00
  33   6     0.03  -0.01   0.02    -0.01   0.03  -0.01     0.01   0.02   0.01
  34   6    -0.04  -0.03  -0.03     0.04   0.01   0.03    -0.01  -0.01  -0.01
  35   6    -0.01   0.05  -0.00    -0.01  -0.03  -0.01    -0.01   0.02  -0.00
  36   6     0.02  -0.04   0.01     0.00   0.05   0.00     0.00  -0.02  -0.00
  37   6    -0.04  -0.01  -0.03     0.03  -0.01   0.02    -0.00   0.00  -0.00
  38   1     0.00  -0.00  -0.00    -0.00   0.00  -0.00     0.00  -0.00  -0.00
  39   1    -0.01  -0.02   0.01    -0.04  -0.01   0.02     0.02  -0.02   0.00
  40   1     0.02  -0.06   0.02     0.05  -0.13   0.04     0.02   0.02  -0.01
  41   1     0.03  -0.03   0.00     0.10  -0.08   0.01     0.03  -0.02  -0.00
  42   1    -0.04  -0.04   0.02    -0.09  -0.10   0.06    -0.03  -0.02   0.02
  43   1    -0.00  -0.06   0.03    -0.01  -0.16   0.07    -0.03   0.01   0.00
  44   1    -0.04   0.02   0.02     0.01   0.01   0.00    -0.02  -0.02  -0.01
  45   1     0.04   0.12   0.10    -0.02  -0.03  -0.03    -0.04   0.02   0.03
  46   1     0.10   0.07   0.04    -0.03  -0.02  -0.01    -0.06  -0.03  -0.01
  47   1    -0.09   0.07   0.09     0.03  -0.02  -0.03     0.06  -0.03  -0.04
  48   1    -0.01   0.13   0.13     0.00  -0.04  -0.04     0.05   0.02   0.01
  49   1    -0.00   0.00  -0.00     0.03  -0.04  -0.02    -0.00   0.00   0.00
  50   1    -0.00   0.01  -0.01     0.02  -0.03   0.01    -0.00   0.00  -0.00
  51   1     0.00   0.00  -0.01     0.01  -0.01  -0.02    -0.00   0.00   0.01
  52   1    -0.00   0.01  -0.00     0.03  -0.03  -0.03    -0.00   0.00   0.00
  53   1    -0.01   0.01  -0.01     0.02  -0.03   0.00     0.00  -0.00   0.00
  54   1     0.01   0.00   0.01    -0.01  -0.02  -0.01    -0.00  -0.01   0.00
  55   1     0.03   0.00   0.02    -0.02  -0.01  -0.02     0.00  -0.00   0.00
  56   1     0.02  -0.02   0.02    -0.01  -0.00  -0.01     0.00  -0.00   0.00
  57   1     0.01   0.01   0.01    -0.01  -0.02  -0.01     0.00   0.00   0.00
  58   1     0.03   0.01   0.02    -0.02  -0.01  -0.02     0.00   0.00   0.00
                    139                    140                    141
                        a                      a                      a 
 Frequencies --  1556.1473              1575.5744              1578.7039
 Red. masses --    11.7265                11.5769                11.5301
 Frc consts  --     0.0000                 0.0000                 0.0000
 IR Inten    --     0.2861                 3.4710                 1.8481
 Raman Activ --     0.0000                 0.0000                 0.0000
 Depolar     --     0.0000                 0.0000                 0.0000
 Atom AN      X      Y      Z        X      Y      Z        X      Y      Z
   1   8     0.00  -0.00  -0.00     0.00   0.01  -0.00     0.00   0.00  -0.00
   2  15    -0.00  -0.00   0.00     0.00  -0.01   0.00    -0.00  -0.00  -0.00
   3   8    -0.00   0.00   0.00    -0.00   0.00   0.00     0.00   0.00   0.00
   4   8     0.00   0.02  -0.00     0.00  -0.00   0.00     0.01  -0.01   0.00
   5   6     0.20  -0.13  -0.02    -0.05   0.05  -0.00    -0.16   0.16  -0.00
   6   6    -0.15  -0.15   0.09     0.00  -0.09   0.03     0.04  -0.20   0.04
   7   6     0.09   0.16  -0.08     0.00   0.12  -0.04    -0.02   0.28  -0.08
   8   6    -0.29  -0.06   0.10    -0.00  -0.06   0.02     0.07  -0.15   0.03
   9   6     0.17  -0.10  -0.01     0.02   0.00  -0.01     0.01   0.02  -0.01
  10   6    -0.32   0.13   0.03    -0.03   0.01   0.00    -0.02   0.02  -0.00
  11   6     0.28   0.15  -0.13     0.02   0.01  -0.01    -0.01  -0.02   0.01
  12   6    -0.15  -0.12   0.08    -0.01  -0.01   0.01     0.01   0.01  -0.01
  13   6     0.30  -0.02  -0.08     0.02   0.02  -0.01    -0.02   0.08  -0.02
  14   6    -0.16   0.13   0.01     0.06  -0.04   0.01     0.11  -0.19   0.03
  15   6    -0.08  -0.09  -0.04    -0.13  -0.22  -0.14     0.01   0.06   0.04
  16   6     0.13   0.08   0.03     0.18   0.19   0.09    -0.04  -0.04  -0.02
  17   8     0.00  -0.01  -0.01    -0.01  -0.00  -0.01     0.00   0.00   0.00
  18   6    -0.09   0.04   0.05     0.00  -0.29  -0.24     0.01   0.04   0.04
  19   6     0.06  -0.04  -0.05    -0.00   0.38   0.32    -0.01  -0.06  -0.05
  20   6    -0.20   0.00   0.05    -0.03  -0.19  -0.16     0.03   0.03   0.02
  21   6     0.11   0.05   0.02    -0.06  -0.01   0.01    -0.00  -0.00  -0.00
  22   6    -0.20  -0.07  -0.02     0.10   0.05   0.03     0.00  -0.00  -0.00
  23   6     0.18  -0.06  -0.10    -0.05  -0.00   0.01    -0.01   0.01   0.01
  24   6    -0.09   0.05   0.06     0.01  -0.02  -0.02     0.01  -0.00  -0.00
  25   6     0.20   0.03  -0.02    -0.05   0.10   0.10    -0.02  -0.02  -0.02
  26   6    -0.01   0.02   0.01    -0.03   0.02   0.05    -0.14   0.01   0.34
  27   6     0.01  -0.01  -0.02     0.03  -0.02  -0.03     0.16  -0.12  -0.22
  28   6     0.00  -0.02   0.03    -0.01  -0.01   0.03    -0.03  -0.07   0.23
  29   6     0.00   0.02  -0.04     0.02   0.01  -0.07     0.13   0.05  -0.44
  30   6     0.01  -0.02   0.01    -0.02   0.01   0.04    -0.14   0.07   0.25
  31   6    -0.01   0.02  -0.01     0.00   0.01  -0.03     0.00   0.11  -0.20
  32   6    -0.00   0.00  -0.01     0.17  -0.09   0.12    -0.05   0.05  -0.03
  33   6    -0.01  -0.02  -0.00    -0.03   0.13  -0.01     0.01  -0.05   0.01
  34   6     0.00   0.01   0.00     0.13  -0.08   0.09    -0.05   0.02  -0.03
  35   6     0.01  -0.02   0.01    -0.16   0.22  -0.10     0.06  -0.07   0.04
  36   6    -0.00   0.02  -0.00     0.06  -0.13   0.04    -0.02   0.04  -0.01
  37   6     0.01  -0.00   0.01    -0.15   0.03  -0.11     0.05  -0.01   0.03
  38   1    -0.00   0.00   0.00     0.00   0.00  -0.00     0.00   0.00   0.00
  39   1     0.04  -0.06   0.01     0.01  -0.04   0.01     0.02  -0.08   0.01
  40   1     0.04   0.03  -0.02     0.01  -0.00  -0.00     0.01  -0.01   0.00
  41   1     0.06  -0.03  -0.00     0.01  -0.00  -0.00     0.01  -0.00  -0.00
  42   1    -0.05  -0.04   0.02    -0.00  -0.00   0.00     0.01   0.00  -0.00
  43   1    -0.05   0.03   0.00    -0.00   0.01  -0.00     0.00   0.00  -0.00
  44   1     0.02   0.02   0.02    -0.04  -0.11  -0.09     0.00   0.02   0.01
  45   1     0.02  -0.01  -0.02    -0.02  -0.01  -0.00     0.00   0.00   0.00
  46   1     0.04   0.02   0.01    -0.03  -0.01  -0.00     0.00  -0.00  -0.00
  47   1    -0.03   0.02   0.02    -0.01  -0.00  -0.00     0.01  -0.00  -0.00
  48   1    -0.03  -0.01  -0.01     0.00   0.01   0.01     0.00   0.00   0.00
  49   1    -0.00   0.01   0.00    -0.01   0.01   0.00    -0.05   0.07   0.01
  50   1    -0.00   0.01  -0.00    -0.01   0.01   0.00    -0.04   0.04   0.02
  51   1    -0.00   0.00   0.01    -0.00  -0.00   0.02    -0.03  -0.02   0.12
  52   1    -0.00   0.00   0.01     0.00  -0.01   0.00     0.03  -0.06   0.02
  53   1     0.00  -0.00   0.01     0.01  -0.01   0.00     0.04  -0.05   0.00
  54   1     0.00   0.00  -0.00    -0.02  -0.02  -0.02     0.01   0.01   0.01
  55   1    -0.00   0.00  -0.00    -0.02  -0.03  -0.01     0.01   0.01   0.01
  56   1    -0.00   0.00  -0.00     0.04  -0.06   0.03    -0.01   0.02  -0.01
  57   1    -0.00  -0.00  -0.00     0.03   0.01   0.02    -0.01  -0.00  -0.01
  58   1    -0.00  -0.00  -0.00     0.04   0.03   0.04    -0.01  -0.01  -0.01
                    142                    143                    144
                        a                      a                      a 
 Frequencies --  1582.9576              1585.3114              1597.2980
 Red. masses --    11.5591                11.6817                11.4743
 Frc consts  --     0.0000                 0.0000                 0.0000
 IR Inten    --     1.5281                 4.1667                 1.1567
 Raman Activ --     0.0000                 0.0000                 0.0000
 Depolar     --     0.0000                 0.0000                 0.0000
 Atom AN      X      Y      Z        X      Y      Z        X      Y      Z
   1   8    -0.00  -0.00   0.00    -0.00  -0.00   0.00     0.00   0.00  -0.00
   2  15    -0.00   0.01  -0.00     0.01   0.00   0.01     0.00  -0.00   0.00
   3   8     0.00  -0.00  -0.00    -0.00  -0.00  -0.00    -0.00   0.00   0.00
   4   8    -0.00   0.00  -0.00    -0.01   0.01  -0.01    -0.00   0.00  -0.00
   5   6     0.03  -0.04   0.00     0.20  -0.24   0.02     0.00  -0.00  -0.00
   6   6     0.00   0.07  -0.02     0.00   0.35  -0.12    -0.00   0.00  -0.00
   7   6    -0.00  -0.08   0.03    -0.01  -0.41   0.14     0.00  -0.00   0.00
   8   6     0.00   0.04  -0.01    -0.05   0.21  -0.06    -0.00   0.00  -0.00
   9   6    -0.01  -0.01   0.01    -0.02  -0.04   0.02     0.00  -0.01   0.00
  10   6     0.01  -0.00  -0.00     0.03  -0.01  -0.00    -0.00   0.00  -0.00
  11   6    -0.01  -0.01   0.01    -0.02  -0.01   0.01    -0.00  -0.00   0.00
  12   6     0.00   0.01  -0.01    -0.00   0.04  -0.02    -0.00   0.00  -0.00
  13   6    -0.01  -0.02   0.01     0.00  -0.14   0.05     0.00  -0.00   0.00
  14   6    -0.04   0.03  -0.01    -0.15   0.28  -0.04     0.00   0.01  -0.00
  15   6     0.06   0.12   0.08    -0.01  -0.08  -0.05    -0.03  -0.04  -0.02
  16   6    -0.08  -0.11  -0.06     0.05   0.06   0.03     0.03   0.03   0.02
  17   8     0.01   0.00   0.00    -0.01   0.00  -0.00    -0.00  -0.00  -0.00
  18   6    -0.04   0.20   0.15     0.00  -0.07  -0.06     0.03   0.00  -0.00
  19   6     0.02  -0.22  -0.18     0.00   0.09   0.07     0.00   0.04   0.03
  20   6    -0.01   0.10   0.09    -0.03  -0.04  -0.03    -0.02  -0.00   0.00
  21   6     0.03  -0.01  -0.01    -0.00   0.01   0.01    -0.03  -0.06  -0.04
  22   6    -0.05  -0.02  -0.01     0.00   0.00   0.00     0.04   0.05   0.03
  23   6     0.04  -0.01  -0.02     0.01  -0.01  -0.01     0.03  -0.04  -0.05
  24   6    -0.01   0.03   0.03    -0.01  -0.00   0.00    -0.01   0.06   0.06
  25   6     0.04  -0.06  -0.07     0.01   0.04   0.03    -0.00  -0.01  -0.01
  26   6    -0.01  -0.03   0.08    -0.01  -0.14   0.26     0.00  -0.00   0.00
  27   6     0.02  -0.01  -0.04     0.05   0.00  -0.12    -0.00   0.00   0.00
  28   6     0.00  -0.03   0.05     0.02  -0.11   0.17     0.00  -0.00   0.00
  29   6     0.03   0.01  -0.10     0.07   0.05  -0.28    -0.00   0.00  -0.00
  30   6    -0.02   0.01   0.05    -0.05   0.00   0.14     0.00  -0.00  -0.00
  31   6    -0.01   0.04  -0.05    -0.03   0.13  -0.17    -0.00   0.01  -0.00
  32   6     0.19  -0.34   0.10    -0.02   0.07  -0.01    -0.15  -0.20  -0.11
  33   6    -0.05   0.26  -0.03     0.01  -0.05   0.00     0.20   0.39   0.14
  34   6     0.22  -0.12   0.15    -0.03   0.02  -0.02    -0.32  -0.18  -0.22
  35   6    -0.26   0.35  -0.17     0.04  -0.06   0.03     0.12   0.15   0.08
  36   6     0.08  -0.24   0.05    -0.01   0.04  -0.01    -0.20  -0.39  -0.14
  37   6    -0.21   0.08  -0.13     0.03  -0.02   0.02     0.33   0.19   0.23
  38   1    -0.00  -0.00  -0.00    -0.00  -0.00  -0.00    -0.00   0.00   0.00
  39   1    -0.01   0.02  -0.01    -0.04   0.11  -0.02     0.00   0.00  -0.00
  40   1    -0.00   0.00  -0.00    -0.01   0.02  -0.00     0.00   0.00  -0.00
  41   1    -0.00   0.00  -0.00    -0.01   0.00   0.00     0.00   0.00  -0.00
  42   1     0.00   0.00  -0.00    -0.00   0.00   0.00     0.00   0.00  -0.00
  43   1     0.00  -0.01   0.00     0.00  -0.02   0.01    -0.00   0.00  -0.00
  44   1     0.03   0.06   0.04    -0.01  -0.02  -0.02    -0.00  -0.01  -0.00
  45   1     0.01   0.01   0.00    -0.00  -0.00  -0.00    -0.01   0.01   0.01
  46   1     0.01   0.00   0.00    -0.00  -0.00   0.00    -0.02  -0.00   0.00
  47   1    -0.00   0.00   0.00    -0.00   0.00   0.00    -0.02   0.00   0.00
  48   1    -0.01  -0.01  -0.01    -0.00   0.00   0.00    -0.01  -0.01  -0.01
  49   1    -0.01   0.01  -0.00    -0.01   0.02  -0.01     0.00  -0.00  -0.00
  50   1    -0.01   0.01   0.00    -0.03   0.04  -0.00    -0.00   0.00  -0.00
  51   1    -0.01  -0.00   0.02    -0.02  -0.01   0.07    -0.00   0.00   0.00
  52   1     0.01  -0.01   0.00     0.01  -0.03   0.02    -0.00   0.00   0.00
  53   1     0.01  -0.02   0.00     0.03  -0.05   0.01     0.00  -0.00   0.00
  54   1    -0.05  -0.05  -0.04     0.01   0.01   0.01    -0.01  -0.11  -0.01
  55   1    -0.03  -0.05  -0.03     0.00   0.01   0.00     0.08  -0.01   0.06
  56   1     0.06  -0.09   0.04    -0.01   0.01  -0.01     0.03   0.03   0.02
  57   1     0.05   0.02   0.03    -0.01  -0.01  -0.00     0.01   0.11   0.01
  58   1     0.04   0.04   0.03    -0.00  -0.01  -0.00    -0.09   0.01  -0.06
                    145                    146                    147
                        a                      a                      a 
 Frequencies --  1597.7155              1605.6109              1606.1775
 Red. masses --    11.4839                11.4075                11.4079
 Frc consts  --     0.0000                 0.0000                 0.0000
 IR Inten    --     1.3248                 0.5509                 0.4248
 Raman Activ --     0.0000                 0.0000                 0.0000
 Depolar     --     0.0000                 0.0000                 0.0000
 Atom AN      X      Y      Z        X      Y      Z        X      Y      Z
   1   8    -0.00  -0.00   0.00    -0.00   0.00  -0.00    -0.00  -0.00  -0.00
   2  15     0.00   0.00   0.00     0.00  -0.00   0.00     0.00   0.00   0.00
   3   8     0.00  -0.00  -0.00    -0.00   0.00   0.00    -0.00   0.00  -0.00
   4   8    -0.00   0.00  -0.00    -0.00  -0.00   0.00    -0.00   0.01  -0.00
   5   6     0.07  -0.07  -0.00     0.00   0.01  -0.00     0.03  -0.05   0.01
   6   6     0.02   0.04  -0.02    -0.01  -0.02   0.01     0.00   0.09  -0.03
   7   6     0.00  -0.10   0.03     0.01   0.01  -0.01    -0.03  -0.03   0.02
   8   6    -0.03   0.03  -0.00    -0.00   0.04  -0.01    -0.00  -0.20   0.07
   9   6    -0.03   0.05  -0.01     0.04  -0.10   0.03    -0.16   0.45  -0.13
  10   6     0.04  -0.05   0.01    -0.05   0.07  -0.01     0.23  -0.33   0.07
  11   6     0.02   0.05  -0.03    -0.03  -0.07   0.03     0.13   0.33  -0.16
  12   6    -0.01  -0.06   0.03     0.01   0.09  -0.04    -0.04  -0.43   0.18
  13   6     0.00  -0.01   0.00     0.02  -0.04   0.01    -0.06   0.18  -0.06
  14   6    -0.06   0.08  -0.01     0.01  -0.00  -0.00    -0.03   0.02   0.00
  15   6     0.01  -0.01  -0.01    -0.02  -0.00   0.01    -0.01  -0.00  -0.00
  16   6     0.00   0.00   0.00     0.01   0.03   0.02     0.01   0.01   0.00
  17   8    -0.00   0.00  -0.00    -0.00  -0.00  -0.00    -0.00  -0.00  -0.00
  18   6    -0.00  -0.00  -0.00     0.01  -0.06  -0.05    -0.00  -0.01  -0.01
  19   6     0.00   0.00   0.00    -0.03   0.01   0.01    -0.00   0.00   0.00
  20   6    -0.01  -0.00  -0.00     0.00   0.16   0.15    -0.01   0.04   0.03
  21   6     0.00   0.00   0.00    -0.16  -0.36  -0.30    -0.03  -0.08  -0.07
  22   6    -0.00  -0.00  -0.00     0.23   0.27   0.20     0.05   0.06   0.04
  23   6     0.00   0.00  -0.00     0.14  -0.25  -0.26     0.03  -0.06  -0.06
  24   6    -0.00  -0.00  -0.00    -0.04   0.33   0.33    -0.01   0.08   0.07
  25   6     0.01   0.00   0.00    -0.06  -0.15  -0.13    -0.01  -0.03  -0.03
  26   6    -0.15   0.21  -0.01    -0.01   0.02  -0.01     0.03  -0.06   0.02
  27   6     0.27  -0.34  -0.10     0.01  -0.01  -0.00    -0.03   0.04   0.01
  28   6    -0.21   0.37  -0.14    -0.01   0.01  -0.01     0.03  -0.05   0.03
  29   6     0.11  -0.17   0.01     0.00  -0.01   0.01    -0.01   0.02  -0.02
  30   6    -0.27   0.33   0.10    -0.01   0.01   0.00     0.03  -0.04  -0.00
  31   6     0.21  -0.37   0.14     0.01  -0.02   0.01    -0.03   0.06  -0.03
  32   6    -0.00  -0.00  -0.00     0.02   0.06   0.02     0.01   0.01   0.00
  33   6     0.00   0.01   0.00    -0.03  -0.07  -0.02    -0.00  -0.01  -0.00
  34   6    -0.00  -0.00  -0.00     0.04   0.03   0.02     0.01   0.00   0.00
  35   6     0.00   0.00   0.00    -0.01  -0.03  -0.01    -0.00  -0.00  -0.00
  36   6    -0.00  -0.01  -0.00     0.03   0.06   0.02     0.00   0.01   0.00
  37   6     0.00   0.00   0.00    -0.05  -0.03  -0.03    -0.01  -0.00  -0.01
  38   1    -0.00  -0.00  -0.00     0.00   0.00  -0.00    -0.00  -0.00   0.00
  39   1    -0.01   0.02  -0.01     0.00   0.00  -0.00    -0.01  -0.00   0.00
  40   1    -0.01  -0.01   0.00     0.01   0.02  -0.01    -0.02  -0.10   0.04
  41   1    -0.02  -0.00   0.00     0.02   0.00  -0.01    -0.11  -0.01   0.03
  42   1    -0.02  -0.00   0.01     0.02   0.00  -0.01    -0.11  -0.01   0.03
  43   1    -0.01   0.01  -0.00     0.01  -0.02   0.00    -0.04   0.09  -0.03
  44   1     0.00  -0.00  -0.00    -0.01   0.01   0.01    -0.00   0.00   0.00
  45   1     0.00  -0.00  -0.00    -0.02   0.08   0.08    -0.00   0.02   0.02
  46   1     0.00   0.00  -0.00    -0.11   0.00   0.02    -0.02   0.00   0.01
  47   1     0.00   0.00   0.00    -0.11  -0.00   0.02    -0.03  -0.00   0.00
  48   1    -0.00  -0.00  -0.00    -0.04  -0.07  -0.07    -0.01  -0.02  -0.02
  49   1    -0.06   0.05   0.07    -0.00   0.00   0.00     0.01  -0.01  -0.01
  50   1     0.02  -0.07   0.07     0.00  -0.00   0.00    -0.00   0.01  -0.01
  51   1     0.03  -0.04   0.00     0.00  -0.00  -0.00    -0.00   0.00   0.00
  52   1     0.06  -0.05  -0.07     0.00  -0.00  -0.00    -0.00   0.00   0.01
  53   1    -0.03   0.07  -0.08    -0.00   0.00  -0.00     0.01  -0.01   0.01
  54   1    -0.00  -0.00  -0.00     0.00   0.02   0.00     0.00   0.00   0.00
  55   1     0.00  -0.00   0.00    -0.01   0.00  -0.01    -0.00   0.00  -0.00
  56   1     0.00   0.00   0.00    -0.01  -0.00  -0.00    -0.00  -0.00  -0.00
  57   1     0.00   0.00   0.00    -0.00  -0.01  -0.00    -0.00  -0.00  -0.00
  58   1    -0.00   0.00  -0.00     0.01  -0.00   0.01     0.00  -0.00   0.00
                    148                    149                    150
                        a                      a                      a 
 Frequencies --  3067.1813              3070.2307              3072.0254
 Red. masses --     1.7592                 1.7523                 1.7881
 Frc consts  --     0.0000                 0.0000                 0.0000
 IR Inten    --     8.5657                 7.3795                10.1859
 Raman Activ --     0.0000                 0.0000                 0.0000
 Depolar     --     0.0000                 0.0000                 0.0000
 Atom AN      X      Y      Z        X      Y      Z        X      Y      Z
   1   8    -0.00  -0.00   0.00    -0.00  -0.00   0.00     0.00  -0.00  -0.00
   2  15     0.00   0.00  -0.00     0.00   0.00  -0.00    -0.00   0.00  -0.00
   3   8    -0.00  -0.00   0.00    -0.00  -0.00   0.00    -0.00   0.00   0.00
   4   8    -0.00  -0.00   0.00    -0.00  -0.00   0.00     0.00   0.00   0.00
   5   6     0.00   0.00  -0.00     0.00   0.00  -0.00    -0.00  -0.00   0.00
   6   6    -0.00  -0.00   0.00    -0.00   0.00   0.00     0.00   0.00  -0.00
   7   6     0.00   0.00  -0.00    -0.02  -0.00   0.01     0.00   0.00  -0.00
   8   6     0.00   0.00  -0.00    -0.00  -0.00   0.00     0.00  -0.00  -0.00
   9   6     0.00   0.00  -0.00     0.01   0.00  -0.00     0.00   0.00  -0.00
  10   6     0.00   0.00  -0.00    -0.00  -0.00   0.00    -0.00  -0.00   0.00
  11   6    -0.00   0.00  -0.00    -0.00   0.00  -0.00    -0.00   0.00  -0.00
  12   6     0.00   0.00  -0.00    -0.00  -0.00   0.00    -0.00  -0.00   0.00
  13   6     0.00  -0.00  -0.00     0.00   0.00  -0.00     0.00  -0.00  -0.00
  14   6    -0.00   0.00   0.00    -0.00   0.00  -0.00     0.00  -0.00   0.00
  15   6     0.00   0.00   0.00     0.00   0.00  -0.00    -0.00  -0.00  -0.00
  16   6    -0.00   0.00   0.00     0.00   0.00   0.00     0.00   0.00   0.00
  17   8     0.00  -0.00  -0.00    -0.00  -0.00  -0.00     0.00  -0.00   0.00
  18   6     0.00   0.00   0.00    -0.00  -0.00  -0.00    -0.00  -0.00  -0.00
  19   6     0.02  -0.00  -0.00    -0.00  -0.00   0.00    -0.02   0.00   0.00
  20   6     0.00  -0.00  -0.00    -0.00   0.00   0.00    -0.00   0.00   0.00
  21   6    -0.00  -0.00   0.00    -0.00  -0.00   0.00     0.01   0.00  -0.00
  22   6     0.00  -0.00  -0.00     0.00  -0.00  -0.00    -0.00   0.00   0.00
  23   6     0.00   0.00   0.00     0.00   0.00   0.00    -0.00  -0.00  -0.00
  24   6     0.00  -0.00  -0.00     0.00   0.00  -0.00     0.00  -0.00  -0.00
  25   6    -0.00   0.00   0.00    -0.00  -0.00  -0.00     0.00  -0.00  -0.00
  26   6    -0.00   0.00  -0.00    -0.00   0.00  -0.00    -0.00   0.00  -0.00
  27   6    -0.00   0.00  -0.00    -0.01   0.07  -0.11    -0.00   0.00  -0.00
  28   6     0.00  -0.00  -0.00    -0.09   0.06   0.15    -0.00   0.00   0.00
  29   6     0.00  -0.00   0.00     0.06  -0.09   0.01     0.00  -0.00   0.00
  30   6     0.00  -0.00   0.00    -0.00   0.03  -0.05     0.00  -0.00   0.00
  31   6    -0.00   0.00   0.00    -0.00   0.00   0.01     0.00  -0.00  -0.00
  32   6     0.00   0.01   0.00     0.00   0.00   0.00    -0.00  -0.00  -0.00
  33   6    -0.00  -0.00  -0.00    -0.00   0.00  -0.00     0.01  -0.00   0.01
  34   6    -0.01   0.03  -0.00     0.00  -0.00   0.00    -0.03   0.15  -0.01
  35   6    -0.05  -0.05  -0.03     0.00   0.00   0.00    -0.11  -0.11  -0.08
  36   6     0.13  -0.06   0.09    -0.00   0.00  -0.00     0.02  -0.01   0.01
  37   6    -0.03   0.18  -0.02    -0.00   0.00  -0.00     0.02  -0.13   0.01
  38   1     0.00   0.00   0.00     0.00  -0.00  -0.00     0.00  -0.00  -0.00
  39   1    -0.00  -0.00   0.00     0.06   0.00  -0.02    -0.00  -0.00   0.00
  40   1    -0.00  -0.00   0.00    -0.02  -0.00   0.01    -0.00  -0.00   0.00
  41   1     0.00   0.00  -0.00     0.00   0.00  -0.00     0.00   0.00  -0.00
  42   1     0.00  -0.00   0.00     0.00  -0.00   0.00     0.00  -0.00   0.00
  43   1    -0.00  -0.00   0.00     0.00   0.00  -0.00     0.00   0.00  -0.00
  44   1    -0.06  -0.00   0.01     0.00   0.00  -0.00     0.07   0.00  -0.01
  45   1     0.01   0.00  -0.00     0.00   0.00  -0.00    -0.02  -0.00   0.00
  46   1    -0.00   0.00   0.00    -0.00   0.00   0.00     0.01  -0.01  -0.01
  47   1    -0.00  -0.00  -0.00    -0.00  -0.00  -0.00     0.00   0.00   0.00
  48   1    -0.00   0.00   0.00    -0.00  -0.00  -0.00    -0.00  -0.00   0.00
  49   1     0.00  -0.00   0.00     0.03  -0.25   0.41     0.00  -0.00   0.00
  50   1    -0.00   0.00   0.00     0.35  -0.20  -0.56     0.00  -0.00  -0.00
  51   1     0.00  -0.00   0.00    -0.23   0.34  -0.02    -0.00   0.00  -0.00
  52   1    -0.00   0.00  -0.00     0.01  -0.11   0.19    -0.00   0.00  -0.00
  53   1     0.00  -0.00  -0.00     0.02  -0.01  -0.03    -0.00   0.00   0.00
  54   1    -0.00   0.00  -0.00     0.00  -0.00   0.00    -0.05   0.02  -0.03
  55   1     0.02  -0.11   0.01    -0.00   0.00  -0.00     0.09  -0.55   0.05
  56   1     0.19   0.20   0.14    -0.00  -0.00  -0.00     0.39   0.40   0.27
  57   1    -0.48   0.21  -0.32     0.00  -0.00   0.00    -0.06   0.03  -0.04
  58   1     0.10  -0.66   0.06     0.00  -0.00   0.00    -0.07   0.44  -0.04
                    151                    152                    153
                        a                      a                      a 
 Frequencies --  3073.5184              3074.3282              3074.4631
 Red. masses --     1.7809                 1.7733                 1.7756
 Frc consts  --     0.0000                 0.0000                 0.0000
 IR Inten    --     3.6706                 3.9761                 2.0088
 Raman Activ --     0.0000                 0.0000                 0.0000
 Depolar     --     0.0000                 0.0000                 0.0000
 Atom AN      X      Y      Z        X      Y      Z        X      Y      Z
   1   8    -0.00  -0.00  -0.00    -0.00  -0.00   0.00     0.00   0.00  -0.00
   2  15     0.00   0.00   0.00    -0.00   0.00  -0.00    -0.00  -0.00  -0.00
   3   8     0.00  -0.00  -0.00     0.00   0.00  -0.00    -0.00  -0.00   0.00
   4   8    -0.00   0.00  -0.00     0.00  -0.00   0.00     0.00   0.00  -0.00
   5   6    -0.00  -0.00   0.00    -0.00   0.00  -0.00     0.00  -0.00   0.00
   6   6     0.00  -0.00  -0.00     0.00  -0.00   0.00    -0.00   0.00  -0.00
   7   6     0.03   0.00  -0.01     0.05   0.00  -0.02    -0.01  -0.00   0.00
   8   6    -0.00   0.00  -0.00    -0.01   0.00   0.00     0.00  -0.00   0.00
   9   6    -0.02  -0.00   0.01    -0.20  -0.00   0.05     0.02   0.00  -0.01
  10   6     0.01   0.01  -0.01     0.05   0.11  -0.06    -0.01  -0.01   0.01
  11   6     0.00  -0.00   0.00     0.03  -0.04   0.01    -0.00   0.00  -0.00
  12   6    -0.00  -0.00   0.00    -0.01  -0.00   0.00    -0.00   0.00   0.00
  13   6    -0.00  -0.00   0.00     0.00  -0.00   0.00    -0.00   0.00   0.00
  14   6     0.00  -0.00   0.00    -0.00   0.00   0.00     0.00   0.00   0.00
  15   6    -0.00  -0.00   0.00     0.00  -0.00   0.00    -0.00  -0.00   0.00
  16   6     0.00   0.00   0.00    -0.00   0.00   0.00    -0.00  -0.00  -0.00
  17   8    -0.00   0.00  -0.00     0.00  -0.00  -0.00     0.00   0.00   0.00
  18   6    -0.00  -0.00   0.00     0.00   0.00   0.00     0.00   0.00   0.00
  19   6    -0.00  -0.00   0.00     0.01  -0.00  -0.00     0.07  -0.00  -0.02
  20   6    -0.00  -0.00  -0.00    -0.00  -0.00  -0.00    -0.01  -0.00  -0.00
  21   6    -0.00  -0.00   0.00    -0.02  -0.00   0.00    -0.20  -0.01   0.04
  22   6     0.00  -0.00  -0.00     0.01  -0.01  -0.01     0.05  -0.08  -0.09
  23   6     0.00   0.00   0.00     0.00   0.00   0.00     0.03   0.03   0.03
  24   6    -0.00   0.00   0.00    -0.00   0.00   0.00    -0.01   0.00   0.00
  25   6    -0.00  -0.00  -0.00    -0.00   0.00   0.00     0.00   0.00   0.00
  26   6    -0.00  -0.00   0.00     0.00   0.00  -0.00    -0.00  -0.00   0.00
  27   6     0.01  -0.05   0.09    -0.00   0.01  -0.01     0.00  -0.00   0.00
  28   6     0.03  -0.02  -0.04    -0.01   0.01   0.01     0.00  -0.00  -0.00
  29   6     0.06  -0.08   0.00    -0.00   0.01   0.00    -0.00   0.00  -0.00
  30   6    -0.01   0.10  -0.17     0.00  -0.01   0.02    -0.00   0.00  -0.00
  31   6    -0.04   0.03   0.06     0.01  -0.00  -0.01    -0.00   0.00   0.00
  32   6    -0.00  -0.00  -0.00    -0.00  -0.00  -0.00    -0.00  -0.00  -0.00
  33   6     0.00   0.00   0.00     0.00   0.00   0.00     0.00  -0.00   0.00
  34   6    -0.00   0.00  -0.00    -0.00   0.00  -0.00    -0.00   0.01  -0.00
  35   6    -0.00  -0.00  -0.00    -0.00  -0.00  -0.00    -0.00  -0.00  -0.00
  36   6     0.00  -0.00   0.00    -0.00   0.00  -0.00    -0.01   0.00  -0.00
  37   6     0.00  -0.00   0.00     0.00  -0.00   0.00     0.00  -0.01   0.00
  38   1    -0.00   0.00   0.00    -0.00  -0.00  -0.00     0.00   0.00   0.00
  39   1    -0.09  -0.00   0.03    -0.18  -0.01   0.06     0.02   0.00  -0.01
  40   1     0.09   0.00  -0.02     0.73   0.02  -0.20    -0.07  -0.00   0.02
  41   1    -0.02  -0.05   0.02    -0.18  -0.42   0.21     0.02   0.04  -0.02
  42   1    -0.01   0.01  -0.00    -0.12   0.15  -0.03     0.01  -0.01   0.00
  43   1     0.00   0.00  -0.00     0.04   0.00  -0.01     0.00   0.00  -0.00
  44   1     0.00   0.00  -0.00    -0.02   0.00   0.00    -0.26  -0.00   0.05
  45   1     0.00   0.00  -0.00     0.08   0.00  -0.02     0.73   0.02  -0.15
  46   1    -0.00   0.00   0.00    -0.02   0.03   0.03    -0.19   0.32   0.33
  47   1    -0.00  -0.00  -0.00    -0.02  -0.02  -0.01    -0.12  -0.13  -0.10
  48   1     0.00   0.00  -0.00     0.01   0.00  -0.00     0.06   0.00  -0.01
  49   1    -0.03   0.20  -0.32     0.00  -0.03   0.04    -0.00   0.00  -0.00
  50   1    -0.10   0.06   0.15     0.03  -0.02  -0.05    -0.00   0.00   0.00
  51   1    -0.21   0.31  -0.01     0.02  -0.02   0.00     0.00  -0.00   0.00
  52   1     0.04  -0.37   0.60    -0.01   0.05  -0.08     0.00  -0.00   0.01
  53   1     0.15  -0.09  -0.25    -0.02   0.01   0.03     0.00  -0.00  -0.00
  54   1    -0.00   0.00  -0.00    -0.00   0.00  -0.00    -0.00   0.00  -0.00
  55   1     0.00  -0.00   0.00     0.00  -0.00   0.00     0.01  -0.04   0.00
  56   1     0.00   0.00   0.00     0.00   0.00   0.00     0.01   0.01   0.01
  57   1    -0.00   0.00  -0.00     0.00  -0.00   0.00     0.02  -0.01   0.01
  58   1    -0.00   0.00  -0.00    -0.00   0.00  -0.00    -0.00   0.03  -0.00
                    154                    155                    156
                        a                      a                      a 
 Frequencies --  3078.3163              3079.2367              3079.8476
 Red. masses --     1.8476                 1.8100                 1.8301
 Frc consts  --     0.0000                 0.0000                 0.0000
 IR Inten    --    77.3149                22.4736                34.6676
 Raman Activ --     0.0000                 0.0000                 0.0000
 Depolar     --     0.0000                 0.0000                 0.0000
 Atom AN      X      Y      Z        X      Y      Z        X      Y      Z
   1   8     0.00  -0.00   0.00     0.00   0.00  -0.00    -0.00  -0.00   0.00
   2  15     0.00   0.00  -0.00     0.00  -0.00   0.00     0.00   0.00   0.00
   3   8    -0.00  -0.00   0.00    -0.00  -0.00   0.00    -0.00  -0.00  -0.00
   4   8     0.00  -0.00   0.00    -0.00  -0.00  -0.00    -0.00  -0.00   0.00
   5   6    -0.00   0.00   0.00     0.00  -0.00  -0.00     0.00  -0.00  -0.00
   6   6     0.00  -0.00   0.00    -0.00   0.00  -0.00    -0.00   0.00  -0.00
   7   6     0.01   0.00  -0.00    -0.03  -0.00   0.01    -0.14  -0.01   0.04
   8   6     0.00   0.00  -0.00    -0.00  -0.00   0.00    -0.00  -0.00   0.00
   9   6    -0.00  -0.00   0.00     0.01   0.00  -0.00     0.02   0.00  -0.01
  10   6    -0.00  -0.00   0.00     0.00   0.01  -0.00     0.02   0.05  -0.02
  11   6    -0.00   0.00  -0.00     0.01  -0.02   0.00     0.05  -0.06   0.01
  12   6     0.00   0.00  -0.00    -0.01  -0.00   0.00    -0.03  -0.00   0.01
  13   6     0.00  -0.00  -0.00    -0.00   0.00   0.00    -0.00   0.00  -0.00
  14   6    -0.00   0.00  -0.00     0.00   0.00   0.00     0.00  -0.00   0.00
  15   6    -0.00   0.00   0.00     0.00   0.00   0.00     0.00  -0.00  -0.00
  16   6    -0.00  -0.00   0.00     0.00   0.00  -0.00    -0.00  -0.00   0.00
  17   8     0.00  -0.00  -0.00    -0.00   0.00   0.00    -0.00  -0.00  -0.00
  18   6     0.00   0.00   0.00    -0.00  -0.00  -0.00     0.00   0.00   0.00
  19   6     0.09  -0.00  -0.02    -0.18  -0.00   0.04     0.03  -0.00  -0.01
  20   6     0.00  -0.00  -0.00    -0.00   0.00   0.00     0.00  -0.00  -0.00
  21   6     0.01   0.00  -0.00     0.03   0.00  -0.01    -0.00  -0.00   0.00
  22   6    -0.01   0.02   0.02     0.03  -0.05  -0.05    -0.01   0.01   0.01
  23   6    -0.02  -0.02  -0.02     0.08   0.08   0.06    -0.01  -0.01  -0.01
  24   6     0.02  -0.00  -0.00    -0.07   0.00   0.01     0.01  -0.00  -0.00
  25   6     0.00   0.00   0.00    -0.00  -0.00   0.00     0.00   0.00   0.00
  26   6     0.00   0.00  -0.00    -0.00   0.00   0.00    -0.00   0.01   0.00
  27   6    -0.00  -0.00   0.00    -0.00   0.01  -0.01    -0.01   0.07  -0.11
  28   6    -0.00   0.00   0.00     0.00  -0.00  -0.01     0.04  -0.02  -0.07
  29   6     0.00  -0.00   0.00    -0.01   0.01  -0.00    -0.05   0.07  -0.00
  30   6     0.00  -0.00   0.00    -0.00   0.00  -0.01    -0.01   0.04  -0.07
  31   6    -0.00   0.00   0.00    -0.00   0.00   0.00    -0.03   0.01   0.05
  32   6     0.00   0.00   0.00     0.00   0.00   0.00    -0.00  -0.00  -0.00
  33   6     0.01  -0.01   0.01     0.01  -0.00   0.00    -0.00   0.00  -0.00
  34   6    -0.03   0.16  -0.01    -0.01   0.06  -0.01     0.00  -0.01   0.00
  35   6     0.03   0.03   0.02     0.01   0.01   0.01    -0.00  -0.00  -0.00
  36   6    -0.12   0.05  -0.08    -0.04   0.02  -0.03     0.00  -0.00   0.00
  37   6    -0.02   0.12  -0.01    -0.01   0.06  -0.01     0.00  -0.01   0.00
  38   1     0.00   0.00  -0.00     0.00   0.00  -0.00     0.00  -0.00  -0.00
  39   1    -0.02  -0.00   0.01     0.11   0.01  -0.03     0.49   0.02  -0.15
  40   1     0.01   0.00  -0.00    -0.03  -0.00   0.01    -0.06  -0.00   0.02
  41   1     0.00   0.00  -0.00    -0.01  -0.03   0.01    -0.08  -0.18   0.09
  42   1     0.01  -0.01   0.00    -0.05   0.07  -0.02    -0.17   0.23  -0.05
  43   1    -0.01  -0.00   0.00     0.05   0.00  -0.01     0.10   0.01  -0.02
  44   1    -0.31  -0.00   0.06     0.62   0.00  -0.12    -0.12  -0.00   0.02
  45   1    -0.03  -0.00   0.01    -0.11  -0.00   0.02     0.01   0.00  -0.00
  46   1     0.04  -0.07  -0.08    -0.10   0.17   0.18     0.02  -0.04  -0.04
  47   1     0.08   0.08   0.06    -0.28  -0.30  -0.23     0.04   0.05   0.04
  48   1    -0.07  -0.00   0.01     0.25   0.00  -0.05    -0.03  -0.00   0.00
  49   1    -0.00   0.00  -0.00     0.00  -0.02   0.03     0.03  -0.23   0.38
  50   1     0.00  -0.00  -0.00    -0.02   0.01   0.03    -0.14   0.08   0.23
  51   1    -0.00   0.00  -0.00     0.02  -0.03   0.00     0.17  -0.24   0.01
  52   1    -0.00   0.00  -0.00     0.00  -0.02   0.03     0.02  -0.15   0.24
  53   1     0.00  -0.00  -0.00     0.01  -0.01  -0.02     0.10  -0.06  -0.17
  54   1    -0.06   0.03  -0.04    -0.03   0.01  -0.02     0.00  -0.00   0.00
  55   1     0.09  -0.57   0.05     0.03  -0.21   0.02    -0.00   0.03  -0.00
  56   1    -0.09  -0.09  -0.06    -0.05  -0.05  -0.03     0.01   0.01   0.01
  57   1     0.40  -0.17   0.27     0.13  -0.06   0.09    -0.01   0.01  -0.01
  58   1     0.06  -0.40   0.04     0.03  -0.22   0.02    -0.00   0.03  -0.00
                    157                    158                    159
                        a                      a                      a 
 Frequencies --  3080.6173              3080.7555              3081.9637
 Red. masses --     1.8128                 1.8071                 1.8142
 Frc consts  --     0.0000                 0.0000                 0.0000
 IR Inten    --    52.9957                19.0595                24.4219
 Raman Activ --     0.0000                 0.0000                 0.0000
 Depolar     --     0.0000                 0.0000                 0.0000
 Atom AN      X      Y      Z        X      Y      Z        X      Y      Z
   1   8    -0.00  -0.00  -0.00     0.00   0.00  -0.00     0.00   0.00   0.00
   2  15    -0.00   0.00   0.00     0.00  -0.00   0.00    -0.00  -0.00  -0.00
   3   8     0.00   0.00  -0.00    -0.00  -0.00  -0.00    -0.00  -0.00   0.00
   4   8     0.00  -0.00   0.00    -0.00  -0.00   0.00     0.00   0.00  -0.00
   5   6     0.00   0.00  -0.00     0.00   0.00  -0.00    -0.00   0.00   0.00
   6   6    -0.00   0.00  -0.00    -0.00   0.00  -0.00     0.01  -0.01   0.00
   7   6    -0.06  -0.00   0.02    -0.05  -0.00   0.02     0.19   0.01  -0.06
   8   6     0.00  -0.00   0.00    -0.00  -0.00   0.00     0.01   0.00  -0.00
   9   6     0.07   0.00  -0.02     0.04   0.00  -0.01     0.09   0.00  -0.02
  10   6     0.02   0.05  -0.02     0.02   0.03  -0.02     0.00   0.01  -0.00
  11   6     0.08  -0.10   0.02     0.05  -0.06   0.01     0.07  -0.10   0.02
  12   6    -0.04  -0.00   0.01    -0.02  -0.00   0.01    -0.04  -0.00   0.01
  13   6    -0.00   0.00   0.00    -0.00   0.00  -0.00    -0.00  -0.00   0.00
  14   6     0.00  -0.00   0.00     0.00  -0.00  -0.00     0.00  -0.00   0.00
  15   6     0.00   0.00   0.00    -0.00  -0.00  -0.00    -0.00  -0.00   0.00
  16   6    -0.00  -0.00   0.00     0.00   0.00  -0.00     0.00   0.00   0.00
  17   8     0.00  -0.00  -0.00    -0.00   0.00   0.00     0.00  -0.00   0.00
  18   6     0.00   0.00   0.00    -0.00  -0.00  -0.00    -0.00  -0.00  -0.00
  19   6     0.10   0.00  -0.02    -0.12  -0.00   0.02    -0.01  -0.00   0.00
  20   6     0.00  -0.00  -0.00    -0.01   0.00   0.00    -0.00   0.00   0.00
  21   6     0.06   0.00  -0.01    -0.10  -0.00   0.02    -0.00  -0.00   0.00
  22   6    -0.00   0.00   0.00    -0.01   0.01   0.01     0.00  -0.00  -0.00
  23   6     0.04   0.05   0.04    -0.08  -0.09  -0.07    -0.00  -0.00  -0.00
  24   6    -0.05  -0.00   0.01     0.07   0.00  -0.01     0.00   0.00  -0.00
  25   6    -0.00   0.00   0.00     0.00  -0.00  -0.00     0.00  -0.00   0.00
  26   6     0.00  -0.00  -0.00     0.00  -0.00  -0.00    -0.00   0.00  -0.00
  27   6     0.01  -0.05   0.08     0.00  -0.03   0.06    -0.00   0.03  -0.05
  28   6    -0.02   0.01   0.03    -0.01   0.01   0.02     0.00  -0.00  -0.00
  29   6     0.04  -0.06   0.00     0.02  -0.04   0.00    -0.03   0.04  -0.00
  30   6     0.00  -0.03   0.04     0.00  -0.02   0.03    -0.00   0.01  -0.02
  31   6     0.02  -0.01  -0.04     0.01  -0.01  -0.02    -0.02   0.01   0.03
  32   6    -0.00  -0.00  -0.00     0.00   0.00   0.00     0.00   0.00  -0.00
  33   6    -0.00   0.00  -0.00     0.00  -0.00   0.00     0.00  -0.00   0.00
  34   6     0.00  -0.01   0.00    -0.00   0.01  -0.00    -0.00   0.00  -0.00
  35   6    -0.01  -0.01  -0.00     0.01   0.01   0.00     0.00   0.00   0.00
  36   6     0.00  -0.00   0.00    -0.01   0.00  -0.00     0.00  -0.00   0.00
  37   6     0.00  -0.02   0.00    -0.00   0.02  -0.00    -0.00   0.00  -0.00
  38   1    -0.00  -0.00   0.00     0.00   0.00   0.00     0.00   0.00   0.00
  39   1     0.20   0.01  -0.06     0.18   0.01  -0.06    -0.68  -0.03   0.21
  40   1    -0.22  -0.01   0.06    -0.13  -0.00   0.04    -0.32  -0.01   0.09
  41   1    -0.08  -0.18   0.09    -0.05  -0.13   0.06    -0.01  -0.03   0.01
  42   1    -0.28   0.37  -0.08    -0.17   0.23  -0.05    -0.26   0.35  -0.08
  43   1     0.17   0.01  -0.04     0.09   0.00  -0.02     0.16   0.01  -0.04
  44   1    -0.35  -0.00   0.07     0.43   0.00  -0.09     0.03   0.00  -0.01
  45   1    -0.21  -0.01   0.04     0.34   0.01  -0.07     0.02   0.00  -0.00
  46   1     0.00  -0.01  -0.01     0.02  -0.03  -0.04    -0.00   0.00   0.00
  47   1    -0.16  -0.18  -0.14     0.29   0.32   0.24     0.02   0.02   0.01
  48   1     0.18   0.00  -0.03    -0.27  -0.00   0.05    -0.01  -0.00   0.00
  49   1    -0.02   0.18  -0.29    -0.02   0.12  -0.20     0.01  -0.11   0.18
  50   1     0.07  -0.04  -0.11     0.04  -0.03  -0.07    -0.01   0.00   0.01
  51   1    -0.13   0.19  -0.01    -0.09   0.13  -0.01     0.10  -0.14   0.01
  52   1    -0.01   0.09  -0.14    -0.01   0.06  -0.09     0.00  -0.04   0.06
  53   1    -0.08   0.05   0.13    -0.05   0.03   0.09     0.06  -0.04  -0.10
  54   1     0.01  -0.00   0.00    -0.01   0.00  -0.00    -0.00   0.00  -0.00
  55   1    -0.01   0.04  -0.00     0.01  -0.05   0.00     0.00  -0.01   0.00
  56   1     0.02   0.02   0.01    -0.02  -0.02  -0.01    -0.01  -0.01  -0.00
  57   1    -0.01   0.01  -0.01     0.02  -0.01   0.01    -0.00   0.00  -0.00
  58   1    -0.01   0.05  -0.01     0.01  -0.06   0.01     0.00  -0.00   0.00
                    160                    161                    162
                        a                      a                      a 
 Frequencies --  3086.4606              3087.3704              3088.5950
 Red. masses --     1.8734                 1.9122                 1.8607
 Frc consts  --     0.0000                 0.0000                 0.0000
 IR Inten    --   115.5374               114.8452               123.1310
 Raman Activ --     0.0000                 0.0000                 0.0000
 Depolar     --     0.0000                 0.0000                 0.0000
 Atom AN      X      Y      Z        X      Y      Z        X      Y      Z
   1   8     0.00   0.00   0.00    -0.00   0.00  -0.00    -0.00  -0.00   0.00
   2  15    -0.00  -0.00  -0.00     0.00  -0.00  -0.00    -0.00   0.00   0.00
   3   8    -0.00   0.00   0.00    -0.00   0.00   0.00     0.00  -0.00  -0.00
   4   8     0.00  -0.00   0.00    -0.00  -0.00  -0.00     0.00  -0.00   0.00
   5   6    -0.00   0.00  -0.00     0.00   0.00  -0.00    -0.00   0.00   0.00
   6   6     0.00  -0.00  -0.00     0.00  -0.00   0.00    -0.00  -0.00  -0.00
   7   6     0.02   0.00  -0.01     0.00   0.00  -0.00     0.00   0.00  -0.00
   8   6     0.00   0.00  -0.00     0.00   0.00  -0.00     0.00  -0.00   0.00
   9   6     0.00   0.00  -0.00    -0.00   0.00   0.00     0.03   0.00  -0.01
  10   6    -0.00  -0.01   0.00    -0.00  -0.01   0.00     0.02   0.05  -0.03
  11   6     0.00  -0.01   0.00     0.00  -0.00   0.00    -0.01   0.01  -0.00
  12   6    -0.00   0.00   0.00    -0.00  -0.00   0.00     0.05   0.00  -0.01
  13   6    -0.00  -0.00   0.00    -0.00   0.00   0.00     0.00   0.00  -0.00
  14   6    -0.00   0.00  -0.00     0.00  -0.00  -0.00    -0.00  -0.00  -0.00
  15   6     0.00  -0.00  -0.00    -0.00   0.00   0.00     0.00   0.00  -0.00
  16   6    -0.00  -0.00  -0.00     0.00  -0.00  -0.00    -0.00   0.00   0.00
  17   8     0.00  -0.00   0.00    -0.00   0.00   0.00     0.00  -0.00  -0.00
  18   6    -0.00  -0.00  -0.00     0.00   0.00   0.00     0.00   0.00   0.00
  19   6    -0.00   0.00   0.00    -0.01  -0.00   0.00     0.02  -0.00  -0.00
  20   6    -0.00   0.00   0.00    -0.00   0.00   0.00     0.00   0.00   0.00
  21   6     0.00   0.00  -0.00     0.00   0.00  -0.00     0.11   0.01  -0.02
  22   6     0.00  -0.00  -0.00     0.00  -0.01  -0.01     0.06  -0.11  -0.12
  23   6    -0.00  -0.00  -0.00    -0.00  -0.00  -0.00    -0.01  -0.01  -0.00
  24   6     0.00   0.00  -0.00     0.00   0.00  -0.00     0.16   0.00  -0.03
  25   6     0.00   0.00   0.00     0.00  -0.00  -0.00     0.00  -0.00  -0.00
  26   6     0.00  -0.00   0.00     0.00  -0.00   0.00    -0.00   0.00  -0.00
  27   6    -0.01   0.05  -0.08    -0.00   0.00  -0.00     0.00  -0.00   0.00
  28   6     0.07  -0.04  -0.12     0.00  -0.00  -0.00    -0.00   0.00   0.00
  29   6     0.07  -0.11   0.01     0.00  -0.00   0.00     0.00  -0.00  -0.00
  30   6    -0.00   0.01  -0.02    -0.00   0.00  -0.00     0.00  -0.00   0.00
  31   6     0.09  -0.05  -0.14     0.00  -0.00  -0.01    -0.00   0.00   0.00
  32   6    -0.00  -0.00  -0.00     0.00   0.00   0.00    -0.00  -0.00  -0.00
  33   6     0.00  -0.00   0.00    -0.01   0.01  -0.01     0.00  -0.00   0.00
  34   6    -0.00   0.00  -0.00     0.02  -0.13   0.01    -0.00   0.00  -0.00
  35   6     0.00   0.00   0.00    -0.12  -0.12  -0.08     0.00   0.00   0.00
  36   6     0.00  -0.00   0.00    -0.12   0.05  -0.08     0.00  -0.00   0.00
  37   6     0.00  -0.00   0.00    -0.01   0.07  -0.01     0.00  -0.00   0.00
  38   1     0.00  -0.00  -0.00     0.00   0.00   0.00     0.00   0.00   0.00
  39   1    -0.09  -0.00   0.03    -0.01  -0.00   0.00    -0.00   0.00   0.00
  40   1    -0.01  -0.00   0.00     0.01   0.00  -0.00    -0.11  -0.00   0.03
  41   1     0.01   0.02  -0.01     0.01   0.02  -0.01    -0.08  -0.18   0.09
  42   1    -0.01   0.02  -0.00    -0.01   0.01  -0.00     0.04  -0.05   0.01
  43   1     0.01   0.00  -0.00     0.01   0.00  -0.00    -0.16  -0.01   0.04
  44   1     0.00   0.00  -0.00     0.02   0.00  -0.00    -0.06  -0.00   0.01
  45   1    -0.00  -0.00   0.00    -0.01  -0.00   0.00    -0.36  -0.01   0.07
  46   1    -0.01   0.01   0.01    -0.02   0.03   0.03    -0.23   0.39   0.41
  47   1     0.00   0.00   0.00     0.02   0.02   0.01     0.02   0.02   0.02
  48   1    -0.01  -0.00   0.00    -0.01  -0.00   0.00    -0.56  -0.01   0.10
  49   1     0.02  -0.17   0.28     0.00  -0.00   0.01    -0.00   0.00  -0.00
  50   1    -0.24   0.14   0.38    -0.01   0.00   0.01     0.00  -0.00  -0.00
  51   1    -0.25   0.37  -0.02    -0.00   0.01  -0.00    -0.00   0.00  -0.00
  52   1     0.00  -0.03   0.06     0.00  -0.00   0.00    -0.00   0.00  -0.01
  53   1    -0.31   0.18   0.50    -0.01   0.01   0.02     0.01  -0.00  -0.01
  54   1    -0.00   0.00  -0.00     0.06  -0.03   0.04    -0.00   0.00  -0.00
  55   1     0.00  -0.01   0.00    -0.07   0.43  -0.04     0.00  -0.01   0.00
  56   1    -0.01  -0.01  -0.01     0.40   0.41   0.28    -0.01  -0.01  -0.01
  57   1    -0.01   0.01  -0.01     0.39  -0.17   0.26    -0.01   0.01  -0.01
  58   1    -0.00   0.01  -0.00     0.04  -0.23   0.02    -0.00   0.01  -0.00
                    163                    164                    165
                        a                      a                      a 
 Frequencies --  3090.5106              3092.3329              3095.9415
 Red. masses --     1.8730                 1.9129                 1.9071
 Frc consts  --     0.0000                 0.0000                 0.0000
 IR Inten    --    71.3716                44.2165                49.9026
 Raman Activ --     0.0000                 0.0000                 0.0000
 Depolar     --     0.0000                 0.0000                 0.0000
 Atom AN      X      Y      Z        X      Y      Z        X      Y      Z
   1   8     0.00   0.00  -0.00     0.00   0.00  -0.00    -0.00   0.00  -0.00
   2  15    -0.00  -0.00  -0.00    -0.00  -0.00   0.00     0.00  -0.00   0.00
   3   8    -0.00   0.00   0.00     0.00  -0.00  -0.00    -0.00  -0.00   0.00
   4   8     0.00   0.00  -0.00    -0.00   0.00  -0.00    -0.00  -0.00  -0.00
   5   6    -0.00  -0.00   0.00     0.00  -0.00   0.00     0.00   0.00   0.00
   6   6     0.00  -0.00  -0.00    -0.00   0.00  -0.00    -0.00  -0.00   0.00
   7   6     0.02   0.00  -0.01     0.00  -0.00  -0.00    -0.00  -0.00   0.00
   8   6     0.00  -0.00   0.00     0.00  -0.00   0.00    -0.00   0.00   0.00
   9   6     0.11   0.00  -0.03     0.01   0.00  -0.00    -0.01   0.00   0.00
  10   6     0.07   0.17  -0.08     0.01   0.01  -0.01    -0.01  -0.02   0.01
  11   6    -0.05   0.07  -0.02    -0.00   0.00  -0.00     0.02  -0.02   0.01
  12   6     0.10   0.00  -0.02     0.02   0.00  -0.00     0.04   0.00  -0.01
  13   6     0.00   0.00  -0.00     0.00   0.00  -0.00     0.00   0.00  -0.00
  14   6     0.00  -0.00  -0.00     0.00   0.00   0.00    -0.00  -0.00  -0.00
  15   6    -0.00   0.00  -0.00    -0.00   0.00   0.00     0.00   0.00  -0.00
  16   6     0.00  -0.00  -0.00    -0.00  -0.00   0.00     0.00  -0.00  -0.00
  17   8    -0.00   0.00   0.00     0.00   0.00  -0.00    -0.00   0.00   0.00
  18   6    -0.00  -0.00  -0.00    -0.00  -0.00  -0.00    -0.00  -0.00   0.00
  19   6    -0.01   0.00   0.00    -0.00   0.00   0.00    -0.01  -0.00   0.00
  20   6    -0.00  -0.00  -0.00    -0.00  -0.00  -0.00    -0.00  -0.00  -0.00
  21   6    -0.04  -0.00   0.01    -0.01  -0.00   0.00    -0.05  -0.00   0.01
  22   6    -0.02   0.04   0.04    -0.00   0.01   0.01    -0.05   0.08   0.08
  23   6     0.01   0.01   0.01     0.00   0.00   0.00     0.10   0.11   0.08
  24   6    -0.05  -0.00   0.01    -0.01  -0.00   0.00     0.17  -0.00  -0.03
  25   6    -0.00   0.00   0.00    -0.00   0.00   0.00     0.00  -0.00  -0.00
  26   6     0.00  -0.00   0.00    -0.00   0.01  -0.00     0.00  -0.00   0.00
  27   6    -0.00  -0.00   0.00    -0.00   0.03  -0.04     0.00  -0.00   0.00
  28   6    -0.00   0.00   0.00     0.04  -0.02  -0.07     0.00  -0.00  -0.00
  29   6    -0.01   0.01  -0.00     0.08  -0.12   0.00    -0.00   0.00   0.00
  30   6    -0.00   0.01  -0.01     0.01  -0.08   0.13    -0.00   0.00  -0.00
  31   6     0.01  -0.01  -0.02    -0.09   0.05   0.14     0.00  -0.00  -0.00
  32   6     0.00   0.00  -0.00     0.00  -0.00  -0.00    -0.00  -0.00  -0.00
  33   6    -0.00   0.00  -0.00    -0.00   0.00  -0.00    -0.00   0.00  -0.00
  34   6     0.00  -0.01   0.00     0.00  -0.00   0.00     0.00  -0.00   0.00
  35   6    -0.00  -0.00  -0.00    -0.00  -0.00  -0.00    -0.00  -0.00  -0.00
  36   6    -0.00   0.00  -0.00    -0.00   0.00  -0.00    -0.00   0.00  -0.00
  37   6    -0.00   0.00  -0.00    -0.00   0.00  -0.00    -0.00   0.00  -0.00
  38   1     0.00   0.00  -0.00    -0.00   0.00   0.00     0.00   0.00   0.00
  39   1    -0.08  -0.00   0.02    -0.01  -0.00   0.00     0.01   0.00  -0.00
  40   1    -0.35  -0.01   0.10    -0.04  -0.00   0.01     0.03   0.00  -0.01
  41   1    -0.24  -0.56   0.27    -0.02  -0.05   0.02     0.02   0.06  -0.03
  42   1     0.19  -0.25   0.06     0.01  -0.01   0.00    -0.06   0.08  -0.02
  43   1    -0.36  -0.02   0.09    -0.05  -0.00   0.01    -0.13  -0.01   0.03
  44   1     0.03   0.00  -0.01     0.01   0.00  -0.00     0.04   0.00  -0.01
  45   1     0.12   0.00  -0.02     0.02   0.00  -0.00     0.18   0.01  -0.04
  46   1     0.08  -0.13  -0.14     0.01  -0.02  -0.02     0.16  -0.26  -0.28
  47   1    -0.03  -0.03  -0.03    -0.00  -0.00  -0.00    -0.33  -0.36  -0.27
  48   1     0.17   0.00  -0.03     0.03   0.00  -0.00    -0.60  -0.01   0.11
  49   1    -0.00   0.00  -0.00     0.01  -0.09   0.15    -0.00   0.00  -0.00
  50   1     0.01  -0.00  -0.01    -0.14   0.08   0.23    -0.00   0.00   0.00
  51   1     0.02  -0.04   0.00    -0.26   0.39  -0.02     0.00  -0.00  -0.00
  52   1     0.00  -0.03   0.04    -0.03   0.25  -0.41     0.00  -0.00   0.00
  53   1    -0.04   0.02   0.06     0.30  -0.18  -0.48    -0.00   0.00   0.00
  54   1     0.00  -0.00   0.00     0.00  -0.00   0.00     0.00  -0.00   0.00
  55   1    -0.00   0.02  -0.00    -0.00   0.01  -0.00    -0.00   0.01  -0.00
  56   1     0.01   0.02   0.01     0.01   0.01   0.00     0.01   0.01   0.01
  57   1     0.02  -0.01   0.01     0.01  -0.00   0.00     0.01  -0.00   0.01
  58   1     0.00  -0.01   0.00     0.00  -0.00   0.00     0.00  -0.01   0.00
                    166                    167                    168
                        a                      a                      a 
 Frequencies --  3099.7514              3118.3796              3608.7657
 Red. masses --     1.8809                 1.8456                 1.8901
 Frc consts  --     0.0000                 0.0000                 0.0000
 IR Inten    --    41.7388                 6.0101               149.4092
 Raman Activ --     0.0000                 0.0000                 0.0000
 Depolar     --     0.0000                 0.0000                 0.0000
 Atom AN      X      Y      Z        X      Y      Z        X      Y      Z
   1   8     0.00   0.00  -0.00    -0.00   0.00  -0.00     0.00   0.00  -0.00
   2  15    -0.00  -0.00  -0.00     0.00  -0.00   0.00    -0.00   0.00   0.00
   3   8    -0.00  -0.00   0.00     0.00   0.00  -0.00     0.02   0.23   0.08
   4   8     0.00   0.00  -0.00    -0.00   0.00  -0.00    -0.00  -0.00  -0.00
   5   6    -0.00   0.00   0.00    -0.00  -0.00   0.00     0.00   0.00  -0.00
   6   6     0.00  -0.00  -0.00     0.00   0.00  -0.00    -0.00   0.00  -0.00
   7   6     0.01  -0.00  -0.00    -0.00  -0.00   0.00     0.00   0.00  -0.00
   8   6     0.00   0.00  -0.00    -0.00  -0.00   0.00     0.00  -0.00   0.00
   9   6     0.03  -0.00  -0.01    -0.00  -0.00   0.00     0.00   0.00  -0.00
  10   6     0.03   0.06  -0.03    -0.00  -0.00   0.00     0.00   0.00  -0.00
  11   6    -0.08   0.10  -0.02     0.00  -0.00   0.00    -0.00   0.00  -0.00
  12   6    -0.23  -0.01   0.06     0.00  -0.00  -0.00    -0.00   0.00   0.00
  13   6    -0.00  -0.00   0.00    -0.00   0.00  -0.00    -0.00   0.00   0.00
  14   6    -0.00  -0.00   0.00    -0.00  -0.00  -0.00     0.00  -0.00   0.00
  15   6     0.00  -0.00   0.00    -0.00   0.00  -0.00     0.00  -0.00  -0.00
  16   6     0.00   0.00  -0.00     0.00   0.00   0.00    -0.00   0.00   0.00
  17   8     0.00   0.00   0.00    -0.00  -0.00  -0.00     0.00  -0.00  -0.00
  18   6    -0.00  -0.00  -0.00     0.00   0.00   0.00     0.00  -0.00  -0.00
  19   6    -0.00  -0.00   0.00    -0.00   0.00   0.00    -0.00   0.00   0.00
  20   6    -0.00  -0.00   0.00    -0.00  -0.00  -0.00    -0.00  -0.00  -0.00
  21   6    -0.01  -0.00   0.00     0.00   0.00  -0.00    -0.00   0.00   0.00
  22   6    -0.01   0.01   0.01     0.00  -0.00  -0.00    -0.00   0.00   0.00
  23   6     0.02   0.02   0.01    -0.00  -0.00  -0.00     0.00   0.00   0.00
  24   6     0.05   0.00  -0.01    -0.00   0.00   0.00     0.00   0.00  -0.00
  25   6     0.00  -0.00  -0.00     0.00  -0.00  -0.00     0.00   0.00   0.00
  26   6    -0.00   0.00  -0.00    -0.00  -0.00   0.00    -0.00   0.00   0.00
  27   6    -0.00   0.00  -0.00     0.00  -0.00   0.00    -0.00  -0.00  -0.00
  28   6     0.00  -0.00  -0.00    -0.00   0.00   0.00     0.00  -0.00  -0.00
  29   6     0.00  -0.00   0.00     0.00  -0.00  -0.00     0.00  -0.00   0.00
  30   6     0.00  -0.00   0.00     0.00  -0.00   0.00     0.00  -0.00   0.00
  31   6    -0.00   0.00   0.00    -0.00   0.00   0.00    -0.00   0.00   0.00
  32   6    -0.00  -0.00  -0.00    -0.01  -0.01  -0.00    -0.00  -0.00  -0.00
  33   6    -0.00   0.00  -0.00    -0.21   0.09  -0.14     0.00  -0.00   0.00
  34   6     0.00  -0.00   0.00    -0.01   0.04  -0.00    -0.00  -0.00   0.00
  35   6    -0.00  -0.00  -0.00     0.01   0.00   0.00    -0.00  -0.00  -0.00
  36   6    -0.00   0.00  -0.00     0.00  -0.00   0.00    -0.00   0.00  -0.00
  37   6    -0.00   0.00  -0.00     0.00  -0.00   0.00    -0.00   0.00  -0.00
  38   1     0.00   0.00   0.00     0.00  -0.00   0.00    -0.09  -0.92  -0.31
  39   1    -0.02  -0.00   0.01     0.00   0.00  -0.00    -0.00   0.00   0.00
  40   1    -0.08  -0.00   0.02     0.00  -0.00  -0.00    -0.00   0.00   0.00
  41   1    -0.08  -0.18   0.09     0.00   0.00  -0.00    -0.00  -0.00   0.00
  42   1     0.25  -0.33   0.07    -0.00   0.00  -0.00     0.00  -0.00   0.00
  43   1     0.78   0.03  -0.19    -0.00   0.00   0.00     0.00  -0.00  -0.00
  44   1     0.00   0.00  -0.00     0.01  -0.00  -0.00     0.00  -0.00  -0.00
  45   1     0.02   0.00  -0.00    -0.00  -0.00   0.00     0.00  -0.00  -0.00
  46   1     0.02  -0.03  -0.03    -0.00   0.00   0.00     0.00  -0.00  -0.00
  47   1    -0.05  -0.06  -0.04     0.00   0.00   0.00    -0.00  -0.00  -0.00
  48   1    -0.16  -0.00   0.03     0.00  -0.00  -0.00    -0.00  -0.00   0.00
  49   1     0.00  -0.00   0.01    -0.00   0.00  -0.00     0.00   0.00  -0.00
  50   1    -0.01   0.00   0.01     0.00  -0.00  -0.00    -0.00  -0.00   0.00
  51   1    -0.01   0.01  -0.00    -0.00   0.00  -0.00    -0.00   0.00  -0.00
  52   1    -0.00   0.01  -0.01    -0.00   0.00  -0.00    -0.00   0.00  -0.00
  53   1     0.00  -0.00  -0.01     0.00  -0.00  -0.00     0.00  -0.00  -0.00
  54   1     0.00  -0.00   0.00     0.74  -0.33   0.50    -0.00   0.00  -0.00
  55   1    -0.00   0.00  -0.00     0.02  -0.12   0.01     0.00   0.00  -0.00
  56   1     0.00   0.00   0.00    -0.02  -0.02  -0.01     0.00   0.00   0.00
  57   1     0.00  -0.00   0.00    -0.00   0.00  -0.00     0.00  -0.00   0.00
  58   1     0.00  -0.00   0.00    -0.00   0.01  -0.00     0.00  -0.00   0.00
