      -----------------------------------------------------------      
     |                   =====================                   |     
     |                           x T B                           |     
     |                   =====================                   |     
     |                         S. Grimme                         |     
     |          Mulliken Center for Theoretical Chemistry        |     
     |                    University of Bonn                     |     
      -----------------------------------------------------------      

   * xtb version 6.7.1 (edcfbbe) compiled by 'VssAdministrator@runnervm171ch' on 2026-06-10

   xtb is free software: you can redistribute it and/or modify it under
   the terms of the GNU Lesser General Public License as published by
   the Free Software Foundation, either version 3 of the License, or
   (at your option) any later version.
   
   xtb is distributed in the hope that it will be useful,
   but WITHOUT ANY WARRANTY; without even the implied warranty of
   MERCHANTABILITY or FITNESS FOR A PARTICULAR PURPOSE.  See the
   GNU Lesser General Public License for more details.
   
   Cite this work as:
   * C. Bannwarth, E. Caldeweyher, S. Ehlert, A. Hansen, P. Pracht,
     J. Seibert, S. Spicher, S. Grimme, WIREs Comput. Mol. Sci., 2020, 11,
     e01493. DOI: 10.1002/wcms.1493
   
   for GFN2-xTB:
   * C. Bannwarth, S. Ehlert and S. Grimme., J. Chem. Theory Comput., 2019,
     15, 1652-1671. DOI: 10.1021/acs.jctc.8b01176
   for GFN1-xTB:
   * S. Grimme, C. Bannwarth, P. Shushkov, J. Chem. Theory Comput., 2017,
     13, 1989-2009. DOI: 10.1021/acs.jctc.7b00118
   for GFN0-xTB:
   * P. Pracht, E. Caldeweyher, S. Ehlert, S. Grimme, ChemRxiv, 2019, preprint.
     DOI: 10.26434/chemrxiv.8326202.v1
   for GFN-FF:
   * S. Spicher and S. Grimme, Angew. Chem. Int. Ed., 2020, 59, 15665-15673.
     DOI: 10.1002/anie.202004239
   
   for ALPB and GBSA implicit solvation:
   * S. Ehlert, M. Stahn, S. Spicher, S. Grimme, J. Chem. Theory Comput.,
     2021, 17, 4250-4261. DOI: 10.1021/acs.jctc.1c00471
   
   for ddCOSMO and CPCM-X implicit solvation:
   * M. Stahn, S. Ehlert, S. Grimme, J. Phys. Chem. A,
     2023, XX, XXXX-XXXX. DOI: 10.1021/acs.jpca.3c04382
   
   for DFT-D4:
   * E. Caldeweyher, C. Bannwarth and S. Grimme, J. Chem. Phys., 2017,
     147, 034112. DOI: 10.1063/1.4993215
   * E. Caldeweyher, S. Ehlert, A. Hansen, H. Neugebauer, S. Spicher,
     C. Bannwarth and S. Grimme, J. Chem. Phys., 2019, 150, 154122.
     DOI: 10.1063/1.5090222
   * E. Caldeweyher, J.-M. Mewes, S. Ehlert and S. Grimme, Phys. Chem. Chem. Phys.
     2020, 22, 8499-8512. DOI: 10.1039/D0CP00502A
   
   for sTDA-xTB:
   * S. Grimme and C. Bannwarth, J. Chem. Phys., 2016, 145, 054103.
     DOI: 10.1063/1.4959605
   
   in the mass-spec context:
   * V. Asgeirsson, C. Bauer and S. Grimme, Chem. Sci., 2017, 8, 4879.
     DOI: 10.1039/c7sc00601b
   * J. Koopman and S. Grimme, ACS Omega 2019, 4, 12, 15120-15133.
     DOI: 10.1021/acsomega.9b02011
   
   for metadynamics refer to:
   * S. Grimme, J. Chem. Theory Comput., 2019, 155, 2847-2862
     DOI: 10.1021/acs.jctc.9b00143
   
   for SPH calculations refer to:
   * S. Spicher and S. Grimme, J. Chem. Theory Comput., 2021, 17, 1701-1714
     DOI: 10.1021/acs.jctc.0c01306
   
   for ONIOM refer to:
   * C. Plett, A. Katbashev, S. Ehlert, S. Grimme, M. Bursch,
     Phys. Chem. Chem. Phys., 2023, 25, 17860-17868. DOI: 10.1039/D3CP02178E
   
   for DIPRO refer to:
   * J. Kohn, N. Gildemeister, S. Grimme, D. Fazzi, A. Hansen,
     J. Chem. Phys., 2023, just accepted.
   
   for PTB refer to:
   * S. Grimme, M. Mueller, A. Hansen, J. Chem. Phys., 2023, 158, 124111.
     DOI: 10.1063/5.0137838
   
   with help from (in alphabetical order)
   P. Atkinson, C. Bannwarth, F. Bohle, G. Brandenburg, E. Caldeweyher
   M. Checinski, S. Dohm, S. Ehlert, S. Ehrlich, I. Gerasimov, C. Hölzer
   A. Katbashev, J. Kohn, J. Koopman, C. Lavigne, S. Lehtola, F. März, M. Müller,
   F. Musil, H. Neugebauer, J. Pisarek, C. Plett, P. Pracht, F. Pultar,
   J. Seibert, P. Shushkov, S. Spicher, M. Stahn, M. Steiner, T. Strunk,
   J. Stückrath, T. Rose, and J. Unsleber
   
 * started run on 2026/09/10 at 23:05:05.462     
   ID    Z sym.   atoms
    1    8 O      1, 3, 4, 17
    2   15 P      2
    3    6 C      5-16, 18-37
    4    1 H      38-58

           -------------------------------------------------
          |                Calculation Setup                |
           -------------------------------------------------

          program call               : C:\Users\HUIWEI\miniconda3\envs\phase2ff\Library\bin\xtb.exe xtbopt.xyz --gfn 2 --chrg 0 --uhf 0 --alpb toluene --acc 0.2 --hess --strict
          coordinate file            : xtbopt.xyz
          omp threads                :                     1


           -------------------------------------------------
          |                 G F N 2 - x T B                 |
           -------------------------------------------------

        Reference                      10.1021/acs.jctc.8b01176
      * Hamiltonian:
        H0-scaling (s, p, d)           1.850000    2.230000    2.230000
        zeta-weighting                 0.500000
      * Dispersion:
        s8                             2.700000
        a1                             0.520000
        a2                             5.000000
        s9                             5.000000
      * Repulsion:
        kExp                           1.500000    1.000000
        rExp                           1.000000
      * Coulomb:
        alpha                          2.000000
        third order                    shell-resolved
        anisotropic                    true
        a3                             3.000000
        a5                             4.000000
        cn-shift                       1.200000
        cn-exp                         4.000000
        max-rad                        5.000000

      * Solvation model:               ALPB
        Solvent                        toluene
        Parameter file                 internal GFN2-xTB/ALPB
        Dielectric constant                7.0000E+00
        Reference state                gsolv [1 M gas/solution]
        Free energy shift                  2.2081E-03 Eh       1.3856E+00 kcal/mol
        Temperature                        2.9815E+02 K
        Density                            8.6700E-01 kg/L
        Solvent mass                       7.8110E+01 g/mol
        Interaction kernel             P16
        Born radius scaling (c1)           1.7172E+00
        Born radii integrator          GBOBC
        Born offset                        0.0000E+00 a0       0.0000E+00 AA
        H-bond correction              false
        Ion screening                  false
        Surface tension                    1.0000E-05 Eh       1.5569E+01 dyn/cm
        Grid points                               230 per atom
q/qsh data taken from xtbrestart
CAMM data taken from xtbrestart

          ...................................................
          :                      SETUP                      :
          :.................................................:
          :  # basis functions                 175          :
          :  # atomic orbitals                 174          :
          :  # shells                           96          :
          :  # electrons                       178          :
          :  max. iterations                   250          :
          :  Hamiltonian                  GFN2-xTB          :
          :  restarted?                       true          :
          :  GBSA solvation                   true          :
          :  PC potential                    false          :
          :  electronic temp.          300.0000000     K    :
          :  accuracy                    0.2000000          :
          :  -> integral cutoff          0.3198970E+02      :
          :  -> integral neglect         0.2000000E-08      :
          :  -> SCF convergence          0.2000000E-06 Eh   :
          :  -> wf. convergence          0.2000000E-04 e    :
          :  Broyden damping             0.4000000          :
          :  net charge                          0          :
          :  unpaired electrons                  0          :
          ...................................................

 iter      E             dE          RMSdq      gap      omega  full diag
   1    -99.8677864 -0.998678E+02  0.166E-06    2.71       0.0  T
   2    -99.8677864 -0.426326E-13  0.125E-06    2.71   10490.9  T
   3    -99.8677864  0.298428E-12  0.466E-07    2.71   28151.0  T

   *** convergence criteria satisfied after 3 iterations ***

         #    Occupation            Energy/Eh            Energy/eV
      -------------------------------------------------------------
         1        2.0000           -0.7527726             -20.4840
       ...           ...                  ...                  ...
        83        2.0000           -0.4106577             -11.1746
        84        2.0000           -0.4079849             -11.1018
        85        2.0000           -0.4041800             -10.9983
        86        2.0000           -0.3984402             -10.8421
        87        2.0000           -0.3961624             -10.7801
        88        2.0000           -0.3894372             -10.5971
        89        2.0000           -0.3806476             -10.3579 (HOMO)
        90                         -0.2810183              -7.6469 (LUMO)
        91                         -0.2671516              -7.2696
        92                         -0.2488709              -6.7721
        93                         -0.2458612              -6.6902
        94                         -0.2261917              -6.1550
       ...                                ...                  ...
       174                          1.2400480              33.7434
      -------------------------------------------------------------
                  HL-Gap            0.0996293 Eh            2.7111 eV
             Fermi-level           -0.3308329 Eh           -9.0024 eV

 SCC (total)                   0 d,  0 h,  0 min,  0.098 sec
 SCC setup                      ...        0 min,  0.002 sec (  2.151%)
 Dispersion                     ...        0 min,  0.001 sec (  1.061%)
 classical contributions        ...        0 min,  0.000 sec (  0.251%)
 integral evaluation            ...        0 min,  0.017 sec ( 17.716%)
 iterations                     ...        0 min,  0.016 sec ( 15.875%)
 molecular gradient             ...        0 min,  0.061 sec ( 62.285%)
 printout                       ...        0 min,  0.001 sec (  0.641%)

         :::::::::::::::::::::::::::::::::::::::::::::::::::::
         ::                     SUMMARY                     ::
         :::::::::::::::::::::::::::::::::::::::::::::::::::::
         :: total energy             -98.233593259162 Eh    ::
         :: total w/o Gsasa/hb       -98.194986253481 Eh    ::
         :: gradient norm              0.000023123541 Eh/a0 ::
         :: HOMO-LUMO gap              2.711051027054 eV    ::
         ::.................................................::
         :: SCC energy               -99.866874061475 Eh    ::
         :: -> isotropic ES            0.111076344624 Eh    ::
         :: -> anisotropic ES         -0.008691563455 Eh    ::
         :: -> anisotropic XC          0.045851037273 Eh    ::
         :: -> dispersion             -0.087066858231 Eh    ::
         :: -> Gsolv                  -0.043327143080 Eh    ::
         ::    -> Gelec               -0.004720137399 Eh    ::
         ::    -> Gsasa               -0.040815148820 Eh    ::
         ::    -> Ghb                  0.000000000000 Eh    ::
         ::    -> Gshift               0.002208143139 Eh    ::
         :: repulsion energy           1.633280802313 Eh    ::
         :: add. restraining           0.000000000000 Eh    ::
         :: total charge               0.000000000000 e     ::
         :::::::::::::::::::::::::::::::::::::::::::::::::::::

           ------------------------------------------------- 
          |                Numerical Hessian                |
           ------------------------------------------------- 
step length          :   0.00500
SCC accuracy         :   0.30000
Hessian scale factor :   1.00000
frozen atoms in %    :   0.00000    0
RMS gradient         :   0.00002
estimated CPU  time      0.10 min
estimated wall time      0.67 min

writing file <hessian>.

 projected vibrational frequencies (cm⁻¹)
eigval :       -0.00    -0.00     0.00     0.00     0.00     0.00
eigval :       20.97    22.03    33.68    40.33    48.83    53.37
eigval :       63.75    70.58    76.50    81.30    98.41   133.88
eigval :      136.54   150.75   158.89   182.71   189.93   207.58
eigval :      221.68   237.84   246.31   269.02   286.25   297.59
eigval :      304.66   321.58   327.97   340.27   357.42   371.99
eigval :      372.33   387.13   398.64   418.29   433.58   440.73
eigval :      459.13   469.65   487.05   496.75   510.59   521.36
eigval :      526.45   539.91   546.37   572.46   585.55   586.71
eigval :      590.14   618.82   631.15   632.90   647.45   661.53
eigval :      665.23   674.41   680.22   693.67   721.21   729.85
eigval :      749.72   759.99   762.47   770.37   773.10   786.17
eigval :      804.58   831.81   849.87   852.26   861.30   867.44
eigval :      868.25   877.04   878.82   880.01   881.40   890.07
eigval :      905.49   906.52   914.67   916.59   919.11   927.53
eigval :      928.06   928.68   929.81   932.57   935.86   960.19
eigval :      967.93  1000.26  1021.39  1081.20  1083.30  1083.66
eigval :     1084.38  1090.67  1121.20  1121.66  1150.12  1167.59
eigval :     1174.23  1178.55  1180.24  1180.28  1183.33  1196.82
eigval :     1199.74  1202.14  1203.89  1206.13  1247.07  1248.33
eigval :     1260.03  1265.20  1281.25  1281.81  1287.93  1310.28
eigval :     1314.84  1318.30  1333.03  1367.04  1381.12  1383.67
eigval :     1393.30  1412.58  1413.61  1427.51  1428.13  1435.17
eigval :     1445.27  1479.99  1481.43  1488.17  1492.02  1549.37
eigval :     1556.15  1575.57  1578.70  1582.96  1585.31  1597.30
eigval :     1597.72  1605.61  1606.18  3067.18  3070.23  3072.03
eigval :     3073.52  3074.33  3074.46  3078.32  3079.24  3079.85
eigval :     3080.62  3080.76  3081.96  3086.46  3087.37  3088.59
eigval :     3090.51  3092.33  3095.94  3099.75  3118.38  3608.77
           -------------------------------------------------
          |                Property Printout                |
           -------------------------------------------------

    * Orbital Energies and Occupations

         #    Occupation            Energy/Eh            Energy/eV
      -------------------------------------------------------------
         1        2.0000           -0.7527726             -20.4840
       ...           ...                  ...                  ...
        77        2.0000           -0.4276316             -11.6364
        78        2.0000           -0.4267976             -11.6138
        79        2.0000           -0.4224255             -11.4948
        80        2.0000           -0.4197398             -11.4217
        81        2.0000           -0.4162486             -11.3267
        82        2.0000           -0.4136934             -11.2572
        83        2.0000           -0.4106577             -11.1746
        84        2.0000           -0.4079849             -11.1018
        85        2.0000           -0.4041800             -10.9983
        86        2.0000           -0.3984402             -10.8421
        87        2.0000           -0.3961624             -10.7801
        88        2.0000           -0.3894372             -10.5971
        89        2.0000           -0.3806475             -10.3579 (HOMO)
        90                         -0.2810182              -7.6469 (LUMO)
        91                         -0.2671516              -7.2696
        92                         -0.2488709              -6.7721
        93                         -0.2458611              -6.6902
        94                         -0.2261917              -6.1550
        95                         -0.2225920              -6.0570
        96                         -0.2198444              -5.9823
        97                         -0.2180131              -5.9324
        98                         -0.2093804              -5.6975
        99                         -0.1921676              -5.2291
       100                         -0.1591150              -4.3297
       ...                                ...                  ...
       174                          1.2400480              33.7434
      -------------------------------------------------------------
                  HL-Gap            0.0996293 Eh            2.7111 eV
             Fermi-level           -0.3308329 Eh           -9.0024 eV

     #   Z          covCN         q      C6AA      α(0)
     1   8 O        0.808    -0.513    24.108     6.582
     2  15 P        3.997     0.704   132.566    20.683
     3   8 O        1.613    -0.415    21.166     6.209
     4   8 O        1.660    -0.284    18.733     5.843
     5   6 C        3.230     0.134    24.337     8.011
     6   6 C        2.969    -0.005    28.141     8.701
     7   6 C        2.927    -0.045    29.125     8.850
     8   6 C        2.984     0.009    27.816     8.651
     9   6 C        2.920    -0.033    28.821     8.804
    10   6 C        2.915    -0.027    28.687     8.783
    11   6 C        2.916    -0.028    28.689     8.783
    12   6 C        2.916    -0.032    28.790     8.799
    13   6 C        2.987     0.009    27.805     8.650
    14   6 C        2.971    -0.011    28.278     8.723
    15   6 C        2.972    -0.014    28.352     8.734
    16   6 C        3.143     0.136    24.812     8.150
    17   8 O        1.660    -0.298    18.976     5.881
    18   6 C        2.969    -0.006    28.161     8.705
    19   6 C        2.927    -0.046    29.141     8.853
    20   6 C        2.983     0.008    27.837     8.655
    21   6 C        2.919    -0.033    28.822     8.804
    22   6 C        2.915    -0.028    28.696     8.784
    23   6 C        2.916    -0.028    28.698     8.785
    24   6 C        2.917    -0.032    28.794     8.799
    25   6 C        2.987     0.009    27.817     8.652
    26   6 C        2.978     0.016    27.645     8.625
    27   6 C        2.925    -0.034    28.841     8.807
    28   6 C        2.918    -0.030    28.756     8.794
    29   6 C        2.919    -0.031    28.762     8.795
    30   6 C        2.919    -0.029    28.726     8.789
    31   6 C        2.923    -0.029    28.724     8.789
    32   6 C        2.978     0.017    27.630     8.622
    33   6 C        2.922    -0.033    28.834     8.806
    34   6 C        2.919    -0.028    28.709     8.787
    35   6 C        2.919    -0.031    28.763     8.795
    36   6 C        2.918    -0.030    28.748     8.792
    37   6 C        2.925    -0.035    28.862     8.810
    38   1 H        0.901     0.359     0.558     1.169
    39   1 H        0.926     0.052     2.299     2.371
    40   1 H        0.926     0.042     2.419     2.432
    41   1 H        0.926     0.042     2.425     2.435
    42   1 H        0.926     0.040     2.443     2.444
    43   1 H        0.926     0.037     2.485     2.465
    44   1 H        0.926     0.051     2.305     2.374
    45   1 H        0.926     0.042     2.425     2.435
    46   1 H        0.926     0.041     2.429     2.437
    47   1 H        0.926     0.040     2.446     2.446
    48   1 H        0.926     0.036     2.501     2.473
    49   1 H        0.926     0.036     2.504     2.475
    50   1 H        0.926     0.036     2.497     2.471
    51   1 H        0.926     0.036     2.505     2.475
    52   1 H        0.926     0.035     2.518     2.481
    53   1 H        0.926     0.036     2.505     2.475
    54   1 H        0.926     0.046     2.367     2.406
    55   1 H        0.926     0.033     2.543     2.494
    56   1 H        0.926     0.034     2.525     2.485
    57   1 H        0.926     0.035     2.510     2.477
    58   1 H        0.926     0.034     2.536     2.490

 Mol. C6AA /au·bohr⁶  :      53608.348823
 Mol. C8AA /au·bohr⁸  :    1420588.954649
 Mol. α(0) /au        :        374.293012


Wiberg/Mayer (AO) data.
largest (>0.10) Wiberg bond orders for each atom

 ---------------------------------------------------------------------------
     #   Z sym  total        # sym  WBO       # sym  WBO       # sym  WBO
 ---------------------------------------------------------------------------
     1   8 O    2.060 --     2 P    1.836
     2  15 P    5.485 --     1 O    1.836     3 O    1.213     4 O    1.185
                            17 O    1.138
     3   8 O    2.217 --     2 P    1.213    38 H    0.843
     4   8 O    2.351 --     2 P    1.185     5 C    0.934
     5   6 C    3.898 --    14 C    1.470     6 C    1.252     4 O    0.934
     6   6 C    3.985 --     7 C    1.497     5 C    1.252    26 C    1.038
     7   6 C    3.983 --     6 C    1.497     8 C    1.283    39 H    0.965
                            14 C    0.103
     8   6 C    3.988 --     7 C    1.283     9 C    1.277    13 C    1.252
     9   6 C    3.984 --    10 C    1.556     8 C    1.277    40 H    0.967
                            12 C    0.117
    10   6 C    3.988 --     9 C    1.556    11 C    1.323    41 H    0.970
    11   6 C    3.984 --    12 C    1.550    10 C    1.323    42 H    0.970
    12   6 C    3.990 --    11 C    1.550    13 C    1.288    43 H    0.965
                             9 C    0.117
    13   6 C    3.984 --    12 C    1.288     8 C    1.252    14 C    1.229
    14   6 C    3.984 --     5 C    1.470    13 C    1.229    15 C    1.032
                             7 C    0.103
    15   6 C    3.984 --    16 C    1.462    25 C    1.230    14 C    1.032
                            19 C    0.103
    16   6 C    3.900 --    15 C    1.462    18 C    1.251    17 O    0.946
    17   8 O    2.332 --     2 P    1.138    16 C    0.946
    18   6 C    3.985 --    19 C    1.503    16 C    1.251    32 C    1.028
    19   6 C    3.983 --    18 C    1.503    20 C    1.281    44 H    0.965
                            15 C    0.103
    20   6 C    3.988 --    19 C    1.281    21 C    1.277    25 C    1.253
    21   6 C    3.984 --    22 C    1.556    20 C    1.277    45 H    0.968
                            24 C    0.117
    22   6 C    3.988 --    21 C    1.556    23 C    1.323    46 H    0.970
    23   6 C    3.985 --    24 C    1.551    22 C    1.323    47 H    0.970
    24   6 C    3.990 --    23 C    1.551    25 C    1.287    48 H    0.966
                            21 C    0.117
    25   6 C    3.985 --    24 C    1.287    20 C    1.253    15 C    1.230
    26   6 C    3.988 --    31 C    1.393    27 C    1.390     6 C    1.038
                            29 C    0.106
    27   6 C    3.987 --    28 C    1.451    26 C    1.390    49 H    0.969
                            30 C    0.109
    28   6 C    3.992 --    27 C    1.451    29 C    1.434    50 H    0.970
                            31 C    0.109
    29   6 C    3.988 --    30 C    1.437    28 C    1.434    51 H    0.971
                            26 C    0.106
    30   6 C    3.992 --    31 C    1.448    29 C    1.437    52 H    0.971
                            27 C    0.109
    31   6 C    3.988 --    30 C    1.448    26 C    1.393    53 H    0.970
                            28 C    0.109
    32   6 C    3.987 --    33 C    1.400    37 C    1.392    18 C    1.028
                            35 C    0.107
    33   6 C    3.987 --    34 C    1.444    32 C    1.400    54 H    0.963
                            36 C    0.110
    34   6 C    3.992 --    33 C    1.444    35 C    1.440    55 H    0.971
                            37 C    0.110
    35   6 C    3.988 --    34 C    1.440    36 C    1.434    56 H    0.971
                            32 C    0.107
    36   6 C    3.991 --    37 C    1.450    35 C    1.434    57 H    0.970
                            33 C    0.110
    37   6 C    3.987 --    36 C    1.450    32 C    1.392    58 H    0.970
                            34 C    0.110
    38   1 H    0.871 --     3 O    0.843
    39   1 H    0.996 --     7 C    0.965
    40   1 H    0.998 --     9 C    0.967
    41   1 H    0.997 --    10 C    0.970
    42   1 H    0.998 --    11 C    0.970
    43   1 H    0.998 --    12 C    0.965
    44   1 H    0.996 --    19 C    0.965
    45   1 H    0.998 --    21 C    0.968
    46   1 H    0.997 --    22 C    0.970
    47   1 H    0.998 --    23 C    0.970
    48   1 H    0.998 --    24 C    0.966
    49   1 H    0.999 --    27 C    0.969
    50   1 H    0.998 --    28 C    0.970
    51   1 H    0.998 --    29 C    0.971
    52   1 H    0.998 --    30 C    0.971
    53   1 H    0.999 --    31 C    0.970
    54   1 H    0.998 --    33 C    0.963
    55   1 H    0.998 --    34 C    0.971
    56   1 H    0.998 --    35 C    0.971
    57   1 H    0.998 --    36 C    0.970
    58   1 H    0.999 --    37 C    0.970
 ---------------------------------------------------------------------------

Topologies differ in total number of bonds
Writing topology from bond orders to xtbtopo.mol

molecular dipole:
                 x           y           z       tot (Debye)
 q only:       -0.431      -1.746       0.481
   full:       -0.495      -1.493       0.617       4.293
molecular quadrupole (traceless):
                xx          xy          yy          xz          yz          zz
 q only:        9.432      -5.573      -4.475      -5.442      10.350      -4.957
  q+dip:       10.859      -8.649      -2.608      -5.743      11.227      -8.251
   full:        8.328      -7.418      -4.415      -4.747      11.749      -3.912

           -------------------------------------------------
          |               Frequency Printout                |
           -------------------------------------------------
 projected vibrational frequencies (cm⁻¹)
eigval :       -0.00    -0.00     0.00     0.00     0.00     0.00
eigval :       20.97    22.03    33.68    40.33    48.83    53.37
eigval :       63.75    70.58    76.50    81.30    98.41   133.88
eigval :      136.54   150.75   158.89   182.71   189.93   207.58
eigval :      221.68   237.84   246.31   269.02   286.25   297.59
eigval :      304.66   321.58   327.97   340.27   357.42   371.99
eigval :      372.33   387.13   398.64   418.29   433.58   440.73
eigval :      459.13   469.65   487.05   496.75   510.59   521.36
eigval :      526.45   539.91   546.37   572.46   585.55   586.71
eigval :      590.14   618.82   631.15   632.90   647.45   661.53
eigval :      665.23   674.41   680.22   693.67   721.21   729.85
eigval :      749.72   759.99   762.47   770.37   773.10   786.17
eigval :      804.58   831.81   849.87   852.26   861.30   867.44
eigval :      868.25   877.04   878.82   880.01   881.40   890.07
eigval :      905.49   906.52   914.67   916.59   919.11   927.53
eigval :      928.06   928.68   929.81   932.57   935.86   960.19
eigval :      967.93  1000.26  1021.39  1081.20  1083.30  1083.66
eigval :     1084.38  1090.67  1121.20  1121.66  1150.12  1167.59
eigval :     1174.23  1178.55  1180.24  1180.28  1183.33  1196.82
eigval :     1199.74  1202.14  1203.89  1206.13  1247.07  1248.33
eigval :     1260.03  1265.20  1281.25  1281.81  1287.93  1310.28
eigval :     1314.84  1318.30  1333.03  1367.04  1381.12  1383.67
eigval :     1393.30  1412.58  1413.61  1427.51  1428.13  1435.17
eigval :     1445.27  1479.99  1481.43  1488.17  1492.02  1549.37
eigval :     1556.15  1575.57  1578.70  1582.96  1585.31  1597.30
eigval :     1597.72  1605.61  1606.18  3067.18  3070.23  3072.03
eigval :     3073.52  3074.33  3074.46  3078.32  3079.24  3079.85
eigval :     3080.62  3080.76  3081.96  3086.46  3087.37  3088.59
eigval :     3090.51  3092.33  3095.94  3099.75  3118.38  3608.77
 reduced masses (amu)
   1: 11.75   2: 12.47   3: 12.75   4: 13.50   5: 12.48   6: 11.73   7: 14.87   8: 11.08
   9: 11.86  10: 11.14  11: 11.03  12: 11.48  13: 11.72  14: 10.79  15: 11.02  16: 10.92
  17: 13.90  18: 13.02  19: 11.19  20: 10.29  21:  5.67  22: 12.04  23: 12.83  24: 10.68
  25: 11.18  26: 12.61  27: 12.69  28: 12.12  29: 12.32  30: 10.93  31: 11.51  32: 12.47
  33: 13.31  34: 11.62  35: 12.40  36:  8.98  37:  9.05  38: 14.51  39: 12.06  40: 14.79
  41: 12.43  42: 12.35  43: 11.43  44: 13.36  45: 10.32  46: 10.75  47: 12.42  48: 12.05
  49: 11.26  50: 11.10  51: 11.44  52: 12.13  53: 11.34  54: 11.33  55: 11.45  56: 11.41
  57: 11.26  58: 11.31  59: 12.37  60: 12.30  61: 10.91  62:  9.56  63: 10.46  64: 11.63
  65: 11.72  66: 11.40  67: 12.63  68:  5.84  69:  5.19  70:  4.41  71:  4.13  72: 12.90
  73: 19.09  74: 16.21  75: 14.84  76: 11.36  77: 11.17  78:  4.31  79:  4.23  80:  3.50
  81:  3.67  82:  3.66  83:  3.61  84:  5.18  85:  3.61  86:  3.90  87:  9.15  88:  5.03
  89:  5.12  90:  3.28  91:  4.10  92:  3.39  93:  3.23  94:  3.03  95:  3.60  96: 11.68
  97: 11.54  98: 11.02  99: 11.07 100:  7.97 101:  6.94 102:  6.78 103:  6.66 104:  9.11
 105:  4.19 106:  4.20 107:  5.46 108:  4.77 109:  6.64 110:  3.65 111:  1.30 112:  1.45
 113:  4.02 114:  4.83 115:  1.95 116:  5.24 117:  4.97 118:  4.98 119:  5.59 120:  6.34
 121: 20.78 122: 10.15 123:  3.56 124:  3.61 125:  8.81 126:  9.53 127: 11.69 128: 10.41
 129:  9.68 130: 10.22 131:  9.18 132: 10.15 133: 10.60 134: 10.80 135: 10.79 136:  9.01
 137:  9.29 138:  9.67 139: 10.58 140:  9.67 141:  9.68 142: 10.68 143: 10.77 144: 11.76
 145: 11.73 146: 11.58 147: 11.53 148: 11.56 149: 11.68 150: 11.47 151: 11.48 152: 11.41
 153: 11.41 154:  1.76 155:  1.75 156:  1.79 157:  1.78 158:  1.77 159:  1.78 160:  1.85
 161:  1.81 162:  1.83 163:  1.81 164:  1.81 165:  1.81 166:  1.87 167:  1.91 168:  1.86
 169:  1.87 170:  1.91 171:  1.91 172:  1.88 173:  1.85 174:  1.89
 IR intensities (km·mol⁻¹)
   1:  0.11   2:  0.01   3:  0.11   4:  0.03   5:  0.06   6:  0.03   7:  0.89   8:  0.08
   9:  0.10  10:  0.08  11:  0.20  12:  0.78  13:  0.03  14:  0.34  15:  0.43  16:  0.11
  17:  0.75  18:  6.98  19:  1.20  20:  2.07  21: 80.59  22:  3.13  23:  2.67  24:  2.39
  25:  9.66  26:  3.66  27:  1.13  28:  1.99  29:  4.06  30:  0.54  31:  5.70  32: 14.44
  33:  1.68  34: 12.61  35:  3.86  36:  0.28  37:  0.65  38: 23.05  39:  8.55  40: 64.24
  41:  5.40  42: 27.82  43: 13.32  44: 27.34  45: 11.30  46: 11.92  47: 15.83  48: 22.49
  49:  6.77  50:  0.41  51:  8.60  52: 23.02  53:  7.41  54:  5.22  55:  6.06  56:  3.69
  57:  0.25  58:  4.83  59: 21.72  60: 13.45  61:  7.94  62: 10.37  63:  3.47  64: 20.24
  65:  4.05  66:  3.42  67: 60.87  68: 24.17  69: 13.47  70: 23.25  71: 23.34  72: 13.55
  73:375.23  74: 97.63  75:175.01  76: 20.61  77: 50.11  78: 32.67  79: 40.98  80:  2.43
  81:  2.80  82:  8.02  83: 12.20  84:127.16  85:  0.04  86:  1.40  87:  4.35  88:  1.94
  89:  3.08  90:  0.31  91:  2.67  92:  0.60  93:  0.31  94:  0.06  95:  3.12  96: 51.36
  97: 27.89  98: 35.51  99: 33.02 100:  5.45 101:  0.92 102:  0.29 103:  0.09 104: 48.84
 105:  0.67 106:  1.60 107:  6.49 108:  6.08 109: 45.67 110: 47.38 111:  0.12 112:  2.07
 113: 12.27 114: 90.31 115:  1.94 116:139.23 117:  7.65 118:  1.79 119:  6.79 120: 29.82
 121:403.09 122:  3.65 123:  0.16 124:  0.15 125:  1.73 126:  1.03 127:  0.33 128:  0.42
 129:  8.25 130: 10.53 131: 15.12 132:  5.61 133: 10.87 134: 37.93 135: 30.90 136:  0.18
 137:  0.91 138:  1.26 139: 25.36 140:  7.79 141:  3.21 142:  1.84 143:  0.84 144:  2.08
 145:  0.29 146:  3.47 147:  1.85 148:  1.53 149:  4.17 150:  1.16 151:  1.32 152:  0.55
 153:  0.42 154:  8.57 155:  7.38 156: 10.19 157:  3.67 158:  3.98 159:  2.01 160: 77.31
 161: 22.47 162: 34.67 163: 53.00 164: 19.06 165: 24.42 166:115.54 167:114.85 168:123.13
 169: 71.37 170: 44.22 171: 49.90 172: 41.74 173:  6.01 174:149.41
 Raman intensities (Ä⁴*amu⁻¹)
   1:  0.00   2:  0.00   3:  0.00   4:  0.00   5:  0.00   6:  0.00   7:  0.00   8:  0.00
   9:  0.00  10:  0.00  11:  0.00  12:  0.00  13:  0.00  14:  0.00  15:  0.00  16:  0.00
  17:  0.00  18:  0.00  19:  0.00  20:  0.00  21:  0.00  22:  0.00  23:  0.00  24:  0.00
  25:  0.00  26:  0.00  27:  0.00  28:  0.00  29:  0.00  30:  0.00  31:  0.00  32:  0.00
  33:  0.00  34:  0.00  35:  0.00  36:  0.00  37:  0.00  38:  0.00  39:  0.00  40:  0.00
Molecule has no symmetry elements
It seems to be the C1 point group
  41:  0.00  42:  0.00  43:  0.00  44:  0.00  45:  0.00  46:  0.00  47:  0.00  48:  0.00
  49:  0.00  50:  0.00  51:  0.00  52:  0.00  53:  0.00  54:  0.00  55:  0.00  56:  0.00
  57:  0.00  58:  0.00  59:  0.00  60:  0.00  61:  0.00  62:  0.00  63:  0.00  64:  0.00
  65:  0.00  66:  0.00  67:  0.00  68:  0.00  69:  0.00  70:  0.00  71:  0.00  72:  0.00
  73:  0.00  74:  0.00  75:  0.00  76:  0.00  77:  0.00  78:  0.00  79:  0.00  80:  0.00
  81:  0.00  82:  0.00  83:  0.00  84:  0.00  85:  0.00  86:  0.00  87:  0.00  88:  0.00
  89:  0.00  90:  0.00  91:  0.00  92:  0.00  93:  0.00  94:  0.00  95:  0.00  96:  0.00
  97:  0.00  98:  0.00  99:  0.00 100:  0.00 101:  0.00 102:  0.00 103:  0.00 104:  0.00
 105:  0.00 106:  0.00 107:  0.00 108:  0.00 109:  0.00 110:  0.00 111:  0.00 112:  0.00
 113:  0.00 114:  0.00 115:  0.00 116:  0.00 117:  0.00 118:  0.00 119:  0.00 120:  0.00
 121:  0.00 122:  0.00 123:  0.00 124:  0.00 125:  0.00 126:  0.00 127:  0.00 128:  0.00
 129:  0.00 130:  0.00 131:  0.00 132:  0.00 133:  0.00 134:  0.00 135:  0.00 136:  0.00
 137:  0.00 138:  0.00 139:  0.00 140:  0.00 141:  0.00 142:  0.00 143:  0.00 144:  0.00
 145:  0.00 146:  0.00 147:  0.00 148:  0.00 149:  0.00 150:  0.00 151:  0.00 152:  0.00
 153:  0.00 154:  0.00 155:  0.00 156:  0.00 157:  0.00 158:  0.00 159:  0.00 160:  0.00
 161:  0.00 162:  0.00 163:  0.00 164:  0.00 165:  0.00 166:  0.00 167:  0.00 168:  0.00
 169:  0.00 170:  0.00 171:  0.00 172:  0.00 173:  0.00 174:  0.00
 output can be read by thermo (or use thermo option).
 writing <g98.out> molden fake output.
 recommended (thermochemical) frequency scaling factor: 1.0
           -------------------------------------------------
          |             Thermodynamic Functions             |
           -------------------------------------------------

c1  symmetry found (for desy threshold:  0.10E+00) used in thermo

          ...................................................
          :                      SETUP                      :
          :.................................................:
          :  # frequencies                         168      :
          :  # imaginary freq.                       0      :
          :  linear?                             false      :
          :  only rotor calc.                    false      :
          :  symmetry                               c1      :
          :  rotational number                       1      :
          :  scaling factor                  1.0000000      :
          :  rotor cutoff                   50.0000000 cm⁻¹ :
          :  imag. cutoff                  -20.0000000 cm⁻¹ :
          :.................................................:

    mode    ω/cm⁻¹     T·S(HO)/kcal·mol⁻¹    T·S(FR)/kcal·mol⁻¹   T·S(vib)
   ------------------------------------------------------------------------
       1     20.97    -1.94989 (  3.00%)    -1.31389 ( 97.00%)    -1.33299
       2     22.03    -1.92071 (  3.63%)    -1.29930 ( 96.37%)    -1.32187
       3     33.68    -1.66970 ( 17.07%)    -1.17362 ( 82.93%)    -1.25827
       4     40.33    -1.56310 ( 29.75%)    -1.12018 ( 70.25%)    -1.25193
       5     48.83    -1.45026 ( 47.64%)    -1.06354 ( 52.36%)    -1.24776
       6     53.37    -1.39790 ( 56.48%)    -1.03723 ( 43.52%)    -1.24093
       7     63.75    -1.29326 ( 72.55%)    -0.98457 ( 27.45%)    -1.20852
       8     70.58    -1.23351 ( 79.88%)    -0.95443 ( 20.12%)    -1.17735
       9     76.50    -1.18623 ( 84.57%)    -0.93054 ( 15.43%)    -1.14678
      10     81.30    -1.15066 ( 87.48%)    -0.91254 ( 12.52%)    -1.12085
      11     98.41    -1.03924 ( 93.75%)    -0.85596 (  6.25%)    -1.02779
      12    133.88    -0.86153 ( 98.09%)    -0.76478 (  1.91%)    -0.85968
      13    136.54    -0.85025 ( 98.23%)    -0.75893 (  1.77%)    -0.84864
      14    150.75    -0.79388 ( 98.80%)    -0.72960 (  1.20%)    -0.79311
      15    158.89    -0.76415 ( 99.03%)    -0.71403 (  0.97%)    -0.76366
      16    182.71    -0.68591 ( 99.44%)    -0.67265 (  0.56%)    -0.68584
Note: The following floating-point exceptions are signalling: IEEE_DIVIDE_BY_ZERO IEEE_UNDERFLOW_FLAG IEEE_DENORMAL
normal termination of xtb
      17    189.93    -0.66444 ( 99.52%)    -0.66118 (  0.48%)    -0.66442
      18    207.58    -0.61563 ( 99.66%)    -0.63484 (  0.34%)    -0.61569
      19    221.68    -0.58001 ( 99.74%)    -0.61538 (  0.26%)    -0.58010
      20    237.84    -0.54232 ( 99.81%)    -0.59453 (  0.19%)    -0.54242
      21    246.31    -0.52380 ( 99.83%)    -0.58417 (  0.17%)    -0.52390
      22    269.02    -0.47778 ( 99.88%)    -0.55804 (  0.12%)    -0.47788
      23    286.25    -0.44603 ( 99.91%)    -0.53965 (  0.09%)    -0.44612
      24    297.59    -0.42648 ( 99.92%)    -0.52814 (  0.08%)    -0.42656
   ------------------------------------------------------------------------

   temp. (K)  partition function   enthalpy   heat capacity  entropy
                                   cal/mol     cal/K/mol   cal/K/mol   J/K/mol
 298.15  VIB  0.122E+13            16939.438    109.447    103.666
         ROT  0.308E+08              888.752      2.981     37.245
         INT  0.377E+20            17828.191    112.428    140.911
         TR   0.108E+29             1481.254      4.968     44.498
         TOT                       19309.4446   117.3962   185.4087   775.7501

       T/K    H(0)-H(T)+PV         H(T)/Eh          T*S/Eh         G(T)/Eh
   ------------------------------------------------------------------------
    298.15    0.307716E-01    0.459689E+00    0.880937E-01    0.371595E+00
   ------------------------------------------------------------------------

         :::::::::::::::::::::::::::::::::::::::::::::::::::::
         ::                  THERMODYNAMIC                  ::
         :::::::::::::::::::::::::::::::::::::::::::::::::::::
         :: total free energy         -97.861998300091 Eh   ::
         ::.................................................::
         :: total energy              -98.233593257917 Eh   ::
         :: zero point energy           0.428917070186 Eh   ::
         :: G(RRHO) w/o ZPVE           -0.057322112361 Eh   ::
         :: G(RRHO) contrib.            0.371594957826 Eh   ::
         :::::::::::::::::::::::::::::::::::::::::::::::::::::

           -------------------------------------------------
          | TOTAL ENERGY              -98.233593257917 Eh   |
          | TOTAL ENTHALPY            -97.773904628996 Eh   |
          | TOTAL FREE ENERGY         -97.861998300091 Eh   |
          | GRADIENT NORM               0.000023123599 Eh/α |
          | HOMO-LUMO GAP               2.711051056027 eV   |
           -------------------------------------------------

------------------------------------------------------------------------
 * finished run on 2026/09/10 at 23:05:44.896     
------------------------------------------------------------------------
 total:
 * wall-time:     0 d,  0 h,  0 min, 39.433 sec
 *  cpu-time:     0 d,  0 h,  0 min,  4.656 sec
 * ratio c/w:     0.118 speedup
 SCF:
 * wall-time:     0 d,  0 h,  0 min,  0.099 sec
 *  cpu-time:     0 d,  0 h,  0 min,  0.000 sec
 * ratio c/w:     0.000 speedup
 analytical hessian:
 * wall-time:     0 d,  0 h,  0 min, 39.248 sec
 *  cpu-time:     0 d,  0 h,  0 min,  4.641 sec
 * ratio c/w:     0.118 speedup

