      -----------------------------------------------------------      
     |                   =====================                   |     
     |                           x T B                           |     
     |                   =====================                   |     
     |                         S. Grimme                         |     
     |          Mulliken Center for Theoretical Chemistry        |     
     |                    University of Bonn                     |     
      -----------------------------------------------------------      

   * xtb version 6.7.1 (edcfbbe) compiled by 'VssAdministrator@runnervm171ch' on 2026-06-10

   xtb is free software: you can redistribute it and/or modify it under
   the terms of the GNU Lesser General Public License as published by
   the Free Software Foundation, either version 3 of the License, or
   (at your option) any later version.
   
   xtb is distributed in the hope that it will be useful,
   but WITHOUT ANY WARRANTY; without even the implied warranty of
   MERCHANTABILITY or FITNESS FOR A PARTICULAR PURPOSE.  See the
   GNU Lesser General Public License for more details.
   
   Cite this work as:
   * C. Bannwarth, E. Caldeweyher, S. Ehlert, A. Hansen, P. Pracht,
     J. Seibert, S. Spicher, S. Grimme, WIREs Comput. Mol. Sci., 2020, 11,
     e01493. DOI: 10.1002/wcms.1493
   
   for GFN2-xTB:
   * C. Bannwarth, S. Ehlert and S. Grimme., J. Chem. Theory Comput., 2019,
     15, 1652-1671. DOI: 10.1021/acs.jctc.8b01176
   for GFN1-xTB:
   * S. Grimme, C. Bannwarth, P. Shushkov, J. Chem. Theory Comput., 2017,
     13, 1989-2009. DOI: 10.1021/acs.jctc.7b00118
   for GFN0-xTB:
   * P. Pracht, E. Caldeweyher, S. Ehlert, S. Grimme, ChemRxiv, 2019, preprint.
     DOI: 10.26434/chemrxiv.8326202.v1
   for GFN-FF:
   * S. Spicher and S. Grimme, Angew. Chem. Int. Ed., 2020, 59, 15665-15673.
     DOI: 10.1002/anie.202004239
   
   for ALPB and GBSA implicit solvation:
   * S. Ehlert, M. Stahn, S. Spicher, S. Grimme, J. Chem. Theory Comput.,
     2021, 17, 4250-4261. DOI: 10.1021/acs.jctc.1c00471
   
   for ddCOSMO and CPCM-X implicit solvation:
   * M. Stahn, S. Ehlert, S. Grimme, J. Phys. Chem. A,
     2023, XX, XXXX-XXXX. DOI: 10.1021/acs.jpca.3c04382
   
   for DFT-D4:
   * E. Caldeweyher, C. Bannwarth and S. Grimme, J. Chem. Phys., 2017,
     147, 034112. DOI: 10.1063/1.4993215
   * E. Caldeweyher, S. Ehlert, A. Hansen, H. Neugebauer, S. Spicher,
     C. Bannwarth and S. Grimme, J. Chem. Phys., 2019, 150, 154122.
     DOI: 10.1063/1.5090222
   * E. Caldeweyher, J.-M. Mewes, S. Ehlert and S. Grimme, Phys. Chem. Chem. Phys.
     2020, 22, 8499-8512. DOI: 10.1039/D0CP00502A
   
   for sTDA-xTB:
   * S. Grimme and C. Bannwarth, J. Chem. Phys., 2016, 145, 054103.
     DOI: 10.1063/1.4959605
   
   in the mass-spec context:
   * V. Asgeirsson, C. Bauer and S. Grimme, Chem. Sci., 2017, 8, 4879.
     DOI: 10.1039/c7sc00601b
   * J. Koopman and S. Grimme, ACS Omega 2019, 4, 12, 15120-15133.
     DOI: 10.1021/acsomega.9b02011
   
   for metadynamics refer to:
   * S. Grimme, J. Chem. Theory Comput., 2019, 155, 2847-2862
     DOI: 10.1021/acs.jctc.9b00143
   
   for SPH calculations refer to:
   * S. Spicher and S. Grimme, J. Chem. Theory Comput., 2021, 17, 1701-1714
     DOI: 10.1021/acs.jctc.0c01306
   
   for ONIOM refer to:
   * C. Plett, A. Katbashev, S. Ehlert, S. Grimme, M. Bursch,
     Phys. Chem. Chem. Phys., 2023, 25, 17860-17868. DOI: 10.1039/D3CP02178E
   
   for DIPRO refer to:
   * J. Kohn, N. Gildemeister, S. Grimme, D. Fazzi, A. Hansen,
     J. Chem. Phys., 2023, just accepted.
   
   for PTB refer to:
   * S. Grimme, M. Mueller, A. Hansen, J. Chem. Phys., 2023, 158, 124111.
     DOI: 10.1063/5.0137838
   
   with help from (in alphabetical order)
   P. Atkinson, C. Bannwarth, F. Bohle, G. Brandenburg, E. Caldeweyher
   M. Checinski, S. Dohm, S. Ehlert, S. Ehrlich, I. Gerasimov, C. Hölzer
   A. Katbashev, J. Kohn, J. Koopman, C. Lavigne, S. Lehtola, F. März, M. Müller,
   F. Musil, H. Neugebauer, J. Pisarek, C. Plett, P. Pracht, F. Pultar,
   J. Seibert, P. Shushkov, S. Spicher, M. Stahn, M. Steiner, T. Strunk,
   J. Stückrath, T. Rose, and J. Unsleber
   
 * started run on 2026/09/10 at 23:05:47.953     
   ID    Z sym.   atoms
    1    6 C      1, 3, 5-7, 9-12, 15, 16
    2    8 O      2, 4, 13, 14
    3    7 N      8
    4    1 H      17-31

           -------------------------------------------------
          |                Calculation Setup                |
           -------------------------------------------------

          program call               : C:\Users\HUIWEI\miniconda3\envs\phase2ff\Library\bin\xtb.exe xtbopt.xyz --gfn 2 --chrg 0 --uhf 0 --alpb toluene --acc 0.2 --hess --strict
          coordinate file            : xtbopt.xyz
          omp threads                :                     1


           -------------------------------------------------
          |                 G F N 2 - x T B                 |
           -------------------------------------------------

        Reference                      10.1021/acs.jctc.8b01176
      * Hamiltonian:
        H0-scaling (s, p, d)           1.850000    2.230000    2.230000
        zeta-weighting                 0.500000
      * Dispersion:
        s8                             2.700000
        a1                             0.520000
        a2                             5.000000
        s9                             5.000000
      * Repulsion:
        kExp                           1.500000    1.000000
        rExp                           1.000000
      * Coulomb:
        alpha                          2.000000
        third order                    shell-resolved
        anisotropic                    true
        a3                             3.000000
        a5                             4.000000
        cn-shift                       1.200000
        cn-exp                         4.000000
        max-rad                        5.000000

      * Solvation model:               ALPB
        Solvent                        toluene
        Parameter file                 internal GFN2-xTB/ALPB
        Dielectric constant                7.0000E+00
        Reference state                gsolv [1 M gas/solution]
        Free energy shift                  2.2081E-03 Eh       1.3856E+00 kcal/mol
        Temperature                        2.9815E+02 K
        Density                            8.6700E-01 kg/L
        Solvent mass                       7.8110E+01 g/mol
        Interaction kernel             P16
        Born radius scaling (c1)           1.7172E+00
        Born radii integrator          GBOBC
        Born offset                        0.0000E+00 a0       0.0000E+00 AA
        H-bond correction              false
        Ion screening                  false
        Surface tension                    1.0000E-05 Eh       1.5569E+01 dyn/cm
        Grid points                               230 per atom
q/qsh data taken from xtbrestart
CAMM data taken from xtbrestart

          ...................................................
          :                      SETUP                      :
          :.................................................:
          :  # basis functions                  79          :
          :  # atomic orbitals                  79          :
          :  # shells                           47          :
          :  # electrons                        88          :
          :  max. iterations                   250          :
          :  Hamiltonian                  GFN2-xTB          :
          :  restarted?                       true          :
          :  GBSA solvation                   true          :
          :  PC potential                    false          :
          :  electronic temp.          300.0000000     K    :
          :  accuracy                    0.2000000          :
          :  -> integral cutoff          0.3198970E+02      :
          :  -> integral neglect         0.2000000E-08      :
          :  -> SCF convergence          0.2000000E-06 Eh   :
          :  -> wf. convergence          0.2000000E-04 e    :
          :  Broyden damping             0.4000000          :
          :  net charge                          0          :
          :  unpaired electrons                  0          :
          ...................................................

 iter      E             dE          RMSdq      gap      omega  full diag
   1    -51.0330891 -0.510331E+02  0.194E-06    2.28       0.0  T
   2    -51.0330891  0.781597E-13  0.140E-06    2.28   12830.7  T
   3    -51.0330891 -0.127898E-12  0.819E-07    2.28   21936.0  T

   *** convergence criteria satisfied after 3 iterations ***

         #    Occupation            Energy/Eh            Energy/eV
      -------------------------------------------------------------
         1        2.0000           -0.7310066             -19.8917
       ...           ...                  ...                  ...
        38        2.0000           -0.4440914             -12.0843
        39        2.0000           -0.4379762             -11.9179
        40        2.0000           -0.4373617             -11.9012
        41        2.0000           -0.4166497             -11.3376
        42        2.0000           -0.4081735             -11.1070
        43        2.0000           -0.4003265             -10.8934
        44        2.0000           -0.3576440              -9.7320 (HOMO)
        45                         -0.2737319              -7.4486 (LUMO)
        46                         -0.2330819              -6.3425
        47                         -0.1563373              -4.2542
        48                         -0.1369400              -3.7263
        49                         -0.0006999              -0.0190
       ...                                ...                  ...
        79                          0.6951710              18.9166
      -------------------------------------------------------------
                  HL-Gap            0.0839121 Eh            2.2834 eV
             Fermi-level           -0.3156879 Eh           -8.5903 eV

 SCC (total)                   0 d,  0 h,  0 min,  0.039 sec
 SCC setup                      ...        0 min,  0.001 sec (  2.734%)
 Dispersion                     ...        0 min,  0.000 sec (  0.934%)
 classical contributions        ...        0 min,  0.000 sec (  0.229%)
 integral evaluation            ...        0 min,  0.005 sec ( 14.179%)
 iterations                     ...        0 min,  0.008 sec ( 21.809%)
 molecular gradient             ...        0 min,  0.023 sec ( 58.833%)
 printout                       ...        0 min,  0.000 sec (  1.219%)

         :::::::::::::::::::::::::::::::::::::::::::::::::::::
         ::                     SUMMARY                     ::
         :::::::::::::::::::::::::::::::::::::::::::::::::::::
         :: total energy             -50.441508164935 Eh    ::
         :: total w/o Gsasa/hb       -50.423216340498 Eh    ::
         :: gradient norm              0.000117499199 Eh/a0 ::
         :: HOMO-LUMO gap              2.283365316672 eV    ::
         ::.................................................::
         :: SCC energy               -51.033081963510 Eh    ::
         :: -> isotropic ES            0.112880363328 Eh    ::
         :: -> anisotropic ES         -0.000376411443 Eh    ::
         :: -> anisotropic XC          0.008606589249 Eh    ::
         :: -> dispersion             -0.027271808882 Eh    ::
         :: -> Gsolv                  -0.026518926028 Eh    ::
         ::    -> Gelec               -0.008227101590 Eh    ::
         ::    -> Gsasa               -0.020499967576 Eh    ::
         ::    -> Ghb                  0.000000000000 Eh    ::
         ::    -> Gshift               0.002208143139 Eh    ::
         :: repulsion energy           0.591573798575 Eh    ::
         :: add. restraining           0.000000000000 Eh    ::
         :: total charge               0.000000000000 e     ::
         :::::::::::::::::::::::::::::::::::::::::::::::::::::

           ------------------------------------------------- 
          |                Numerical Hessian                |
           ------------------------------------------------- 
step length          :   0.00500
SCC accuracy         :   0.30000
Hessian scale factor :   1.00000
frozen atoms in %    :   0.00000    0
RMS gradient         :   0.00012
estimated CPU  time      0.03 min
estimated wall time      0.10 min

writing file <hessian>.

 projected vibrational frequencies (cm⁻¹)
eigval :       -0.00    -0.00    -0.00     0.00     0.00     0.00
eigval :       17.00    44.12    51.94    68.30    91.77    94.49
eigval :       99.57   103.39   135.56   148.51   166.16   173.28
eigval :      201.77   264.00   292.54   298.13   305.81   308.33
eigval :      322.76   330.94   376.31   435.15   488.28   508.21
eigval :      552.83   559.87   584.96   643.33   689.94   701.79
eigval :      709.37   784.09   822.44   960.35   970.47   973.73
eigval :      984.49  1016.84  1022.04  1030.67  1073.20  1100.25
eigval :     1122.60  1125.40  1126.17  1142.36  1151.15  1160.60
eigval :     1190.58  1196.03  1249.74  1258.33  1286.06  1352.01
eigval :     1387.10  1388.18  1390.95  1401.32  1415.95  1440.80
eigval :     1442.66  1449.40  1454.18  1464.32  1468.29  1469.03
eigval :     1472.68  1490.43  1624.05  1656.65  1679.06  1691.01
eigval :     2886.17  2945.25  2961.55  2964.03  2975.74  2978.43
eigval :     3002.12  3011.54  3027.65  3030.18  3036.98  3038.65
eigval :     3046.15  3096.20  3422.79
           -------------------------------------------------
          |                Property Printout                |
           -------------------------------------------------

    * Orbital Energies and Occupations

         #    Occupation            Energy/Eh            Energy/eV
      -------------------------------------------------------------
         1        2.0000           -0.7310066             -19.8917
       ...           ...                  ...                  ...
        32        2.0000           -0.4817896             -13.1102
        33        2.0000           -0.4738600             -12.8944
        34        2.0000           -0.4694814             -12.7752
        35        2.0000           -0.4691658             -12.7667
        36        2.0000           -0.4628963             -12.5960
        37        2.0000           -0.4564632             -12.4210
        38        2.0000           -0.4440914             -12.0843
        39        2.0000           -0.4379762             -11.9179
        40        2.0000           -0.4373617             -11.9012
        41        2.0000           -0.4166497             -11.3376
        42        2.0000           -0.4081735             -11.1070
        43        2.0000           -0.4003265             -10.8934
        44        2.0000           -0.3576440              -9.7320 (HOMO)
        45                         -0.2737319              -7.4486 (LUMO)
        46                         -0.2330819              -6.3425
        47                         -0.1563373              -4.2542
        48                         -0.1369400              -3.7263
        49                         -0.0006999              -0.0190
        50                          0.0160257               0.4361
        51                          0.0431083               1.1730
        52                          0.0630028               1.7144
        53                          0.0666258               1.8130
        54                          0.1041454               2.8339
        55                          0.1339804               3.6458
       ...                                ...                  ...
        79                          0.6951710              18.9166
      -------------------------------------------------------------
                  HL-Gap            0.0839121 Eh            2.2834 eV
             Fermi-level           -0.3156879 Eh           -8.5903 eV

     #   Z          covCN         q      C6AA      α(0)
     1   6 C        3.653     0.038    20.241     6.461
     2   8 O        1.705    -0.273    18.521     5.811
     3   6 C        2.726     0.344    21.164     7.531
     4   8 O        0.856    -0.469    23.100     6.444
     5   6 C        2.953    -0.064    29.584     8.921
     6   6 C        2.888     0.085    26.102     8.376
     7   6 C        3.760    -0.135    23.153     6.860
     8   7 N        2.714    -0.120    23.601     7.215
     9   6 C        2.885     0.082    26.169     8.387
    10   6 C        3.759    -0.127    22.993     6.836
    11   6 C        2.954    -0.065    29.620     8.927
    12   6 C        2.727     0.341    21.204     7.539
    13   8 O        0.857    -0.465    23.026     6.434
    14   8 O        1.704    -0.278    18.610     5.824
    15   6 C        3.653     0.037    20.256     6.463
    16   6 C        3.816    -0.051    21.476     6.596
    17   1 H        0.925     0.069     2.102     2.267
    18   1 H        0.924     0.057     2.232     2.337
    19   1 H        0.924     0.057     2.233     2.337
    20   1 H        0.925     0.091     1.866     2.136
    21   1 H        0.925     0.067     2.116     2.275
    22   1 H        0.925     0.067     2.118     2.276
    23   1 H        0.860     0.200     1.108     1.649
    24   1 H        0.925     0.079     1.985     2.203
    25   1 H        0.925     0.062     2.175     2.306
    26   1 H        0.925     0.080     1.983     2.202
    27   1 H        0.924     0.057     2.236     2.339
    28   1 H        0.925     0.070     2.090     2.261
    29   1 H        0.924     0.057     2.238     2.339
    30   1 H        0.924     0.059     2.216     2.328
    31   1 H        0.924     0.049     2.332     2.388

 Mol. C6AA /au·bohr⁶  :       9580.268916
 Mol. C8AA /au·bohr⁸  :     217412.233931
 Mol. α(0) /au        :        148.267165


Wiberg/Mayer (AO) data.
largest (>0.10) Wiberg bond orders for each atom

 ---------------------------------------------------------------------------
     #   Z sym  total        # sym  WBO       # sym  WBO       # sym  WBO
 ---------------------------------------------------------------------------
     1   6 C    3.931 --    17 H    0.981    18 H    0.977    19 H    0.977
                             2 O    0.965
     2   8 O    2.286 --     3 C    1.097     1 C    0.965     4 O    0.152
     3   6 C    3.920 --     4 O    1.649     2 O    1.097     5 C    1.074
     4   8 O    1.982 --     3 C    1.649     2 O    0.152
     5   6 C    3.973 --     6 C    1.626     3 C    1.074    16 C    1.001
     6   6 C    3.968 --     5 C    1.626     8 N    1.151     7 C    1.029
     7   6 C    3.986 --     6 C    1.029    20 H    0.968    22 H    0.964
                            21 H    0.963
     8   7 N    3.523 --     9 C    1.157     6 C    1.151    23 H    0.925
     9   6 C    3.968 --    11 C    1.621     8 N    1.157    10 C    1.030
    10   6 C    3.989 --     9 C    1.030    25 H    0.978    24 H    0.962
                            26 H    0.960
    11   6 C    3.972 --     9 C    1.621    12 C    1.078    16 C    0.998
    12   6 C    3.922 --    13 O    1.664    14 O    1.085    11 C    1.078
    13   8 O    1.982 --    12 C    1.664    14 O    0.151
    14   8 O    2.273 --    12 C    1.085    15 C    0.964    13 O    0.151
    15   6 C    3.930 --    28 H    0.981    29 H    0.977    27 H    0.977
                            14 O    0.964
    16   6 C    3.994 --     5 C    1.001    11 C    0.998    30 H    0.959
                            31 H    0.956
    17   1 H    0.995 --     1 C    0.981
    18   1 H    0.996 --     1 C    0.977
    19   1 H    0.996 --     1 C    0.977
    20   1 H    0.991 --     7 C    0.968
    21   1 H    0.995 --     7 C    0.963
    22   1 H    0.995 --     7 C    0.964
    23   1 H    0.959 --     8 N    0.925
    24   1 H    0.993 --    10 C    0.962
    25   1 H    0.996 --    10 C    0.978
    26   1 H    0.993 --    10 C    0.960
    27   1 H    0.996 --    15 C    0.977
    28   1 H    0.995 --    15 C    0.981
    29   1 H    0.996 --    15 C    0.977
    30   1 H    0.996 --    16 C    0.959
    31   1 H    0.998 --    16 C    0.956
 ---------------------------------------------------------------------------

Topologies differ in total number of bonds
Writing topology from bond orders to xtbtopo.mol

molecular dipole:
                 x           y           z       tot (Debye)
 q only:        1.454      -1.970       0.002
   full:        1.549      -1.981      -0.012       6.391
molecular quadrupole (traceless):
                xx          xy          yy          xz          yz          zz
 q only:        1.197     -11.289       3.439      -2.011       0.522      -4.637
  q+dip:       -2.076     -13.041       4.105      -1.862       0.566      -2.028
   full:       -1.769     -12.674       2.504      -1.849       0.539      -0.735

           -------------------------------------------------
          |               Frequency Printout                |
           -------------------------------------------------
 projected vibrational frequencies (cm⁻¹)
eigval :       -0.00    -0.00    -0.00     0.00     0.00     0.00
eigval :       17.00    44.12    51.94    68.30    91.77    94.49
eigval :       99.57   103.39   135.56   148.51   166.16   173.28
eigval :      201.77   264.00   292.54   298.13   305.81   308.33
eigval :      322.76   330.94   376.31   435.15   488.28   508.21
eigval :      552.83   559.87   584.96   643.33   689.94   701.79
eigval :      709.37   784.09   822.44   960.35   970.47   973.73
eigval :      984.49  1016.84  1022.04  1030.67  1073.20  1100.25
eigval :     1122.60  1125.40  1126.17  1142.36  1151.15  1160.60
eigval :     1190.58  1196.03  1249.74  1258.33  1286.06  1352.01
eigval :     1387.10  1388.18  1390.95  1401.32  1415.95  1440.80
eigval :     1442.66  1449.40  1454.18  1464.32  1468.29  1469.03
eigval :     1472.68  1490.43  1624.05  1656.65  1679.06  1691.01
eigval :     2886.17  2945.25  2961.55  2964.03  2975.74  2978.43
eigval :     3002.12  3011.54  3027.65  3030.18  3036.98  3038.65
eigval :     3046.15  3096.20  3422.79
 reduced masses (amu)
   1: 11.91   2: 12.12   3: 12.13   4: 12.21   5: 12.51   6: 12.38   7: 11.38   8: 13.29
   9:  9.67  10: 10.57  11:  3.08  12:  1.70  13:  8.49  14:  4.05  15:  9.92  16: 10.05
  17:  5.36  18:  9.32  19:  9.73  20: 12.30  21: 10.38  22: 10.58  23: 11.06  24: 11.07
  25: 12.22  26: 10.89  27: 12.17  28: 12.72  29:  4.93  30: 10.40  31:  8.73  32: 10.15
  33: 12.14  34: 11.94  35: 11.29  36: 11.19  37: 12.26  38: 12.91  39: 11.62  40:  6.91
  41:  5.72  42: 10.99  43: 10.40  44:  4.77  45:  5.07  46:  4.60  47: 12.82  48: 13.81
  49:  3.86  50: 10.52  51:  4.26  52:  7.10  53:  6.58  54:  9.70  55:  6.65  56:  3.65
  57: 11.19  58:  5.68  59: 10.93  60:  7.34  61:  2.65  62:  2.61  63:  3.47  64:  4.34
  65:  8.70  66:  1.52  67:  1.52  68:  1.55  69:  1.93  70:  1.56  71:  1.67  72:  1.61
  73:  1.80  74:  2.00  75: 11.57  76: 11.91  77: 13.20  78: 12.95  79:  1.89  80:  1.55
  81:  1.95  82:  1.95  83:  1.41  84:  1.41  85:  1.95  86:  1.47  87:  1.93  88:  1.74
  89:  1.76  90:  1.76  91:  1.48  92:  1.73  93:  1.84
 IR intensities (km·mol⁻¹)
   1:  1.68   2:  0.44   3:  0.50   4:  0.15   5:  0.01   6:  0.48   7:  0.07   8: 10.26
   9:  0.72  10:  1.33  11:  0.19  12:  0.04  13:  1.17  14:  0.76  15:  2.84  16:  0.31
  17:  1.06  18:  2.69  19:  7.82  20:  9.96  21:  5.71  22:  0.94  23:  4.14  24:  2.38
  25:  7.88  26: 16.56  27:  2.15  28:  6.25  29: 78.59  30:  0.01  31:  6.54  32:  1.95
  33:  2.59  34: 11.09  35: 52.71  36: 43.98  37:  1.19  38:  4.06  39: 12.28  40: 14.02
  41: 11.21  42:137.38  43: 18.89  44: 53.38  45:104.13  46: 11.92  47:267.43  48:260.92
  49:  3.51  50:445.22  51: 31.77  52: 75.58  53: 23.99  54: 59.64  55:503.06  56:182.96
  57:161.30  58: 65.48  59: 90.87  60:  5.49  61: 51.83  62: 17.25  63: 35.92  64:165.24
  65:571.48  66:  6.67  67:  6.67  68:  6.86  69: 13.19  70: 11.87  71:  0.92  72:  4.34
  73:  1.63  74:  3.76  75:506.76  76:560.78  77:466.12  78:361.98  79: 33.34  80: 21.77
Molecule has no symmetry elements
It seems to be the C1 point group
  81: 21.52  82: 21.36  83: 31.21  84: 29.52  85: 15.20  86: 19.62  87:  4.80  88: 19.89
  89: 12.73  90:  9.55  91:  3.06  92:  2.93  93: 65.38
 Raman intensities (Ä⁴*amu⁻¹)
   1:  0.00   2:  0.00   3:  0.00   4:  0.00   5:  0.00   6:  0.00   7:  0.00   8:  0.00
   9:  0.00  10:  0.00  11:  0.00  12:  0.00  13:  0.00  14:  0.00  15:  0.00  16:  0.00
  17:  0.00  18:  0.00  19:  0.00  20:  0.00  21:  0.00  22:  0.00  23:  0.00  24:  0.00
  25:  0.00  26:  0.00  27:  0.00  28:  0.00  29:  0.00  30:  0.00  31:  0.00  32:  0.00
  33:  0.00  34:  0.00  35:  0.00  36:  0.00  37:  0.00  38:  0.00  39:  0.00  40:  0.00
  41:  0.00  42:  0.00  43:  0.00  44:  0.00  45:  0.00  46:  0.00  47:  0.00  48:  0.00
  49:  0.00  50:  0.00  51:  0.00  52:  0.00  53:  0.00  54:  0.00  55:  0.00  56:  0.00
  57:  0.00  58:  0.00  59:  0.00  60:  0.00  61:  0.00  62:  0.00  63:  0.00  64:  0.00
  65:  0.00  66:  0.00  67:  0.00  68:  0.00  69:  0.00  70:  0.00  71:  0.00  72:  0.00
  73:  0.00  74:  0.00  75:  0.00  76:  0.00  77:  0.00  78:  0.00  79:  0.00  80:  0.00
  81:  0.00  82:  0.00  83:  0.00  84:  0.00  85:  0.00  86:  0.00  87:  0.00  88:  0.00
  89:  0.00  90:  0.00  91:  0.00  92:  0.00  93:  0.00
 output can be read by thermo (or use thermo option).
 writing <g98.out> molden fake output.
 recommended (thermochemical) frequency scaling factor: 1.0
           -------------------------------------------------
          |             Thermodynamic Functions             |
           -------------------------------------------------

c1  symmetry found (for desy threshold:  0.10E+00) used in thermo

          ...................................................
          :                      SETUP                      :
          :.................................................:
          :  # frequencies                          87      :
          :  # imaginary freq.                       0      :
          :  linear?                             false      :
          :  only rotor calc.                    false      :
          :  symmetry                               c1      :
          :  rotational number                       1      :
          :  scaling factor                  1.0000000      :
          :  rotor cutoff                   50.0000000 cm⁻¹ :
          :  imag. cutoff                  -20.0000000 cm⁻¹ :
          :.................................................:

    mode    ω/cm⁻¹     T·S(HO)/kcal·mol⁻¹    T·S(FR)/kcal·mol⁻¹   T·S(vib)
   ------------------------------------------------------------------------
       1     17.00    -2.07410 (  1.32%)    -1.37588 ( 98.68%)    -1.38509
       2     44.12    -1.51016 ( 37.74%)    -1.09356 ( 62.26%)    -1.25077
       3     51.94    -1.41380 ( 53.81%)    -1.04518 ( 46.19%)    -1.24353
       4     68.30    -1.25273 ( 77.69%)    -0.96409 ( 22.31%)    -1.18834
       5     91.77    -1.07991 ( 91.90%)    -0.87663 (  8.10%)    -1.06345
       6     94.49    -1.06289 ( 92.73%)    -0.86797 (  7.27%)    -1.04872
       7     99.57    -1.03243 ( 94.02%)    -0.85246 (  5.98%)    -1.02167
       8    103.39    -1.01052 ( 94.81%)    -0.84129 (  5.19%)    -1.00174
       9    135.56    -0.85437 ( 98.18%)    -0.76105 (  1.82%)    -0.85267
      10    148.51    -0.80239 ( 98.73%)    -0.73403 (  1.27%)    -0.80152
      11    166.16    -0.73895 ( 99.19%)    -0.70076 (  0.81%)    -0.73863
      12    173.28    -0.71543 ( 99.31%)    -0.68833 (  0.69%)    -0.71524
      13    201.77    -0.63115 ( 99.62%)    -0.64324 (  0.38%)    -0.63120
      14    264.00    -0.48753 ( 99.87%)    -0.56361 (  0.13%)    -0.48763
      15    292.54    -0.43507 ( 99.91%)    -0.53321 (  0.09%)    -0.43516
      16    298.13    -0.42558 ( 99.92%)    -0.52760 (  0.08%)    -0.42566
   ------------------------------------------------------------------------

   temp. (K)  partition function   enthalpy   heat capacity  entropy
                                   cal/mol     cal/K/mol   cal/K/mol   J/K/mol
 298.15  VIB  0.200E+08             9544.599     54.985     61.281
Note: The following floating-point exceptions are signalling: IEEE_DIVIDE_BY_ZERO IEEE_UNDERFLOW_FLAG IEEE_DENORMAL
normal termination of xtb
         ROT  0.337E+07              888.752      2.981     32.850
         INT  0.675E+14            10433.351     57.966     94.131
         TR   0.327E+28             1481.254      4.968     42.119
         TOT                       11914.6051    62.9345   136.2506   570.0725

       T/K    H(0)-H(T)+PV         H(T)/Eh          T*S/Eh         G(T)/Eh
   ------------------------------------------------------------------------
    298.15    0.189871E-01    0.262928E+00    0.647371E-01    0.198191E+00
   ------------------------------------------------------------------------

         :::::::::::::::::::::::::::::::::::::::::::::::::::::
         ::                  THERMODYNAMIC                  ::
         :::::::::::::::::::::::::::::::::::::::::::::::::::::
         :: total free energy         -50.243317467645 Eh   ::
         ::.................................................::
         :: total energy              -50.441508165013 Eh   ::
         :: zero point energy           0.243940615876 Eh   ::
         :: G(RRHO) w/o ZPVE           -0.045749918508 Eh   ::
         :: G(RRHO) contrib.            0.198190697368 Eh   ::
         :::::::::::::::::::::::::::::::::::::::::::::::::::::

           -------------------------------------------------
          | TOTAL ENERGY              -50.441508165013 Eh   |
          | TOTAL ENTHALPY            -50.178580417394 Eh   |
          | TOTAL FREE ENERGY         -50.243317467645 Eh   |
          | GRADIENT NORM               0.000117494565 Eh/α |
          | HOMO-LUMO GAP               2.283365410496 eV   |
           -------------------------------------------------

------------------------------------------------------------------------
 * finished run on 2026/09/10 at 23:05:53.614     
------------------------------------------------------------------------
 total:
 * wall-time:     0 d,  0 h,  0 min,  5.661 sec
 *  cpu-time:     0 d,  0 h,  0 min,  1.375 sec
 * ratio c/w:     0.243 speedup
 SCF:
 * wall-time:     0 d,  0 h,  0 min,  0.039 sec
 *  cpu-time:     0 d,  0 h,  0 min,  0.000 sec
 * ratio c/w:     0.000 speedup
 analytical hessian:
 * wall-time:     0 d,  0 h,  0 min,  5.573 sec
 *  cpu-time:     0 d,  0 h,  0 min,  1.359 sec
 * ratio c/w:     0.244 speedup

