      -----------------------------------------------------------      
     |                   =====================                   |     
     |                           x T B                           |     
     |                   =====================                   |     
     |                         S. Grimme                         |     
     |          Mulliken Center for Theoretical Chemistry        |     
     |                    University of Bonn                     |     
      -----------------------------------------------------------      

   * xtb version 6.7.1 (edcfbbe) compiled by 'VssAdministrator@runnervm171ch' on 2026-06-10

   xtb is free software: you can redistribute it and/or modify it under
   the terms of the GNU Lesser General Public License as published by
   the Free Software Foundation, either version 3 of the License, or
   (at your option) any later version.
   
   xtb is distributed in the hope that it will be useful,
   but WITHOUT ANY WARRANTY; without even the implied warranty of
   MERCHANTABILITY or FITNESS FOR A PARTICULAR PURPOSE.  See the
   GNU Lesser General Public License for more details.
   
   Cite this work as:
   * C. Bannwarth, E. Caldeweyher, S. Ehlert, A. Hansen, P. Pracht,
     J. Seibert, S. Spicher, S. Grimme, WIREs Comput. Mol. Sci., 2020, 11,
     e01493. DOI: 10.1002/wcms.1493
   
   for GFN2-xTB:
   * C. Bannwarth, S. Ehlert and S. Grimme., J. Chem. Theory Comput., 2019,
     15, 1652-1671. DOI: 10.1021/acs.jctc.8b01176
   for GFN1-xTB:
   * S. Grimme, C. Bannwarth, P. Shushkov, J. Chem. Theory Comput., 2017,
     13, 1989-2009. DOI: 10.1021/acs.jctc.7b00118
   for GFN0-xTB:
   * P. Pracht, E. Caldeweyher, S. Ehlert, S. Grimme, ChemRxiv, 2019, preprint.
     DOI: 10.26434/chemrxiv.8326202.v1
   for GFN-FF:
   * S. Spicher and S. Grimme, Angew. Chem. Int. Ed., 2020, 59, 15665-15673.
     DOI: 10.1002/anie.202004239
   
   for ALPB and GBSA implicit solvation:
   * S. Ehlert, M. Stahn, S. Spicher, S. Grimme, J. Chem. Theory Comput.,
     2021, 17, 4250-4261. DOI: 10.1021/acs.jctc.1c00471
   
   for ddCOSMO and CPCM-X implicit solvation:
   * M. Stahn, S. Ehlert, S. Grimme, J. Phys. Chem. A,
     2023, XX, XXXX-XXXX. DOI: 10.1021/acs.jpca.3c04382
   
   for DFT-D4:
   * E. Caldeweyher, C. Bannwarth and S. Grimme, J. Chem. Phys., 2017,
     147, 034112. DOI: 10.1063/1.4993215
   * E. Caldeweyher, S. Ehlert, A. Hansen, H. Neugebauer, S. Spicher,
     C. Bannwarth and S. Grimme, J. Chem. Phys., 2019, 150, 154122.
     DOI: 10.1063/1.5090222
   * E. Caldeweyher, J.-M. Mewes, S. Ehlert and S. Grimme, Phys. Chem. Chem. Phys.
     2020, 22, 8499-8512. DOI: 10.1039/D0CP00502A
   
   for sTDA-xTB:
   * S. Grimme and C. Bannwarth, J. Chem. Phys., 2016, 145, 054103.
     DOI: 10.1063/1.4959605
   
   in the mass-spec context:
   * V. Asgeirsson, C. Bauer and S. Grimme, Chem. Sci., 2017, 8, 4879.
     DOI: 10.1039/c7sc00601b
   * J. Koopman and S. Grimme, ACS Omega 2019, 4, 12, 15120-15133.
     DOI: 10.1021/acsomega.9b02011
   
   for metadynamics refer to:
   * S. Grimme, J. Chem. Theory Comput., 2019, 155, 2847-2862
     DOI: 10.1021/acs.jctc.9b00143
   
   for SPH calculations refer to:
   * S. Spicher and S. Grimme, J. Chem. Theory Comput., 2021, 17, 1701-1714
     DOI: 10.1021/acs.jctc.0c01306
   
   for ONIOM refer to:
   * C. Plett, A. Katbashev, S. Ehlert, S. Grimme, M. Bursch,
     Phys. Chem. Chem. Phys., 2023, 25, 17860-17868. DOI: 10.1039/D3CP02178E
   
   for DIPRO refer to:
   * J. Kohn, N. Gildemeister, S. Grimme, D. Fazzi, A. Hansen,
     J. Chem. Phys., 2023, just accepted.
   
   for PTB refer to:
   * S. Grimme, M. Mueller, A. Hansen, J. Chem. Phys., 2023, 158, 124111.
     DOI: 10.1063/5.0137838
   
   with help from (in alphabetical order)
   P. Atkinson, C. Bannwarth, F. Bohle, G. Brandenburg, E. Caldeweyher
   M. Checinski, S. Dohm, S. Ehlert, S. Ehrlich, I. Gerasimov, C. Hölzer
   A. Katbashev, J. Kohn, J. Koopman, C. Lavigne, S. Lehtola, F. März, M. Müller,
   F. Musil, H. Neugebauer, J. Pisarek, C. Plett, P. Pracht, F. Pultar,
   J. Seibert, P. Shushkov, S. Spicher, M. Stahn, M. Steiner, T. Strunk,
   J. Stückrath, T. Rose, and J. Unsleber
   
 * started run on 2026/09/10 at 23:05:44.983     
   ID    Z sym.   atoms
    1    6 C      1, 3, 5-7, 9-12, 15, 16
    2    8 O      2, 4, 13, 14
    3    7 N      8
    4    1 H      17-31

           -------------------------------------------------
          |                Calculation Setup                |
           -------------------------------------------------

          program call               : C:\Users\HUIWEI\miniconda3\envs\phase2ff\Library\bin\xtb.exe input.xyz --gfn 2 --chrg 0 --uhf 0 --alpb toluene --acc 0.2 --opt vtight
          coordinate file            : input.xyz
          omp threads                :                     1


           -------------------------------------------------
          |                 G F N 2 - x T B                 |
           -------------------------------------------------

        Reference                      10.1021/acs.jctc.8b01176
      * Hamiltonian:
        H0-scaling (s, p, d)           1.850000    2.230000    2.230000
        zeta-weighting                 0.500000
      * Dispersion:
        s8                             2.700000
        a1                             0.520000
        a2                             5.000000
        s9                             5.000000
      * Repulsion:
        kExp                           1.500000    1.000000
        rExp                           1.000000
      * Coulomb:
        alpha                          2.000000
        third order                    shell-resolved
        anisotropic                    true
        a3                             3.000000
        a5                             4.000000
        cn-shift                       1.200000
        cn-exp                         4.000000
        max-rad                        5.000000

      * Solvation model:               ALPB
        Solvent                        toluene
        Parameter file                 internal GFN2-xTB/ALPB
        Dielectric constant                7.0000E+00
        Reference state                gsolv [1 M gas/solution]
        Free energy shift                  2.2081E-03 Eh       1.3856E+00 kcal/mol
        Temperature                        2.9815E+02 K
        Density                            8.6700E-01 kg/L
        Solvent mass                       7.8110E+01 g/mol
        Interaction kernel             P16
        Born radius scaling (c1)           1.7172E+00
        Born radii integrator          GBOBC
        Born offset                        0.0000E+00 a0       0.0000E+00 AA
        H-bond correction              false
        Ion screening                  false
        Surface tension                    1.0000E-05 Eh       1.5569E+01 dyn/cm
        Grid points                               230 per atom

          ...................................................
          :                      SETUP                      :
          :.................................................:
          :  # basis functions                  79          :
          :  # atomic orbitals                  79          :
          :  # shells                           47          :
          :  # electrons                        88          :
          :  max. iterations                   250          :
          :  Hamiltonian                  GFN2-xTB          :
          :  restarted?                      false          :
          :  GBSA solvation                   true          :
          :  PC potential                    false          :
          :  electronic temp.          300.0000000     K    :
          :  accuracy                    0.2000000          :
          :  -> integral cutoff          0.3198970E+02      :
          :  -> integral neglect         0.2000000E-08      :
          :  -> SCF convergence          0.2000000E-06 Eh   :
          :  -> wf. convergence          0.2000000E-04 e    :
          :  Broyden damping             0.4000000          :
          :  net charge                          0          :
          :  unpaired electrons                  0          :
          ...................................................

 iter      E             dE          RMSdq      gap      omega  full diag
   1    -50.8380788 -0.508381E+02  0.460E+00    2.35       0.0  T
   2    -50.9543299 -0.116251E+00  0.271E+00    2.25       1.0  T
   3    -50.9699754 -0.156455E-01  0.169E+00    2.51       1.0  T
   4    -50.9894327 -0.194573E-01  0.635E-01    2.28       1.0  T
   5    -50.9965160 -0.708323E-02  0.113E-01    2.29       1.0  T
   6    -50.9967249 -0.208939E-03  0.588E-02    2.30       1.0  T
   7    -50.9967307 -0.583984E-05  0.223E-02    2.30       1.0  T
   8    -50.9967311 -0.400273E-06  0.111E-02    2.30       1.6  T
   9    -50.9967339 -0.271851E-05  0.364E-03    2.30       4.9  T
  10    -50.9967339 -0.518029E-07  0.144E-03    2.30      12.5  T
  11    -50.9967339 -0.118335E-07  0.425E-04    2.30      42.3  T
  12    -50.9967339 -0.829765E-09  0.139E-04    2.30     128.9  T
  13    -50.9967339 -0.628120E-10  0.497E-05    2.30     361.6  T

   *** convergence criteria satisfied after 13 iterations ***

         #    Occupation            Energy/Eh            Energy/eV
      -------------------------------------------------------------
         1        2.0000           -0.7362750             -20.0351
       ...           ...                  ...                  ...
        38        2.0000           -0.4459993             -12.1363
        39        2.0000           -0.4448023             -12.1037
        40        2.0000           -0.4419397             -12.0258
        41        2.0000           -0.4163458             -11.3293
        42        2.0000           -0.4119304             -11.2092
        43        2.0000           -0.4040973             -10.9960
        44        2.0000           -0.3512316              -9.5575 (HOMO)
        45                         -0.2666625              -7.2563 (LUMO)
        46                         -0.2372033              -6.4546
        47                         -0.1790163              -4.8713
        48                         -0.1543434              -4.1999
        49                         -0.0133169              -0.3624
       ...                                ...                  ...
        79                          0.6670082              18.1502
      -------------------------------------------------------------
                  HL-Gap            0.0845691 Eh            2.3012 eV
             Fermi-level           -0.3089470 Eh           -8.4069 eV

 SCC (total)                   0 d,  0 h,  0 min,  0.035 sec
 SCC setup                      ...        0 min,  0.001 sec (  2.897%)
 Dispersion                     ...        0 min,  0.000 sec (  1.015%)
 classical contributions        ...        0 min,  0.000 sec (  0.241%)
 integral evaluation            ...        0 min,  0.005 sec ( 15.260%)
 iterations                     ...        0 min,  0.015 sec ( 44.104%)
 molecular gradient             ...        0 min,  0.012 sec ( 35.716%)
 printout                       ...        0 min,  0.000 sec (  0.711%)

         :::::::::::::::::::::::::::::::::::::::::::::::::::::
         ::                     SUMMARY                     ::
         :::::::::::::::::::::::::::::::::::::::::::::::::::::
         :: total energy             -50.430038826063 Eh    ::
         :: total w/o Gsasa/hb       -50.411143476318 Eh    ::
         :: gradient norm              0.051238273833 Eh/a0 ::
         :: HOMO-LUMO gap              2.301241468796 eV    ::
         ::.................................................::
         :: SCC energy               -50.996687114276 Eh    ::
         :: -> isotropic ES            0.106285843642 Eh    ::
         :: -> anisotropic ES          0.004296479650 Eh    ::
         :: -> anisotropic XC          0.010361491251 Eh    ::
         :: -> dispersion             -0.027152775395 Eh    ::
         :: -> Gsolv                  -0.026547007005 Eh    ::
         ::    -> Gelec               -0.007651657260 Eh    ::
         ::    -> Gsasa               -0.021103492884 Eh    ::
         ::    -> Ghb                  0.000000000000 Eh    ::
         ::    -> Gshift               0.002208143139 Eh    ::
         :: repulsion energy           0.566648288213 Eh    ::
         :: add. restraining           0.000000000000 Eh    ::
         :: total charge               0.000000000000 e     ::
         :::::::::::::::::::::::::::::::::::::::::::::::::::::

      ----------------------------------------------------------- 
     |                   =====================                   |
     |                        A N C O P T                        |
     |                   =====================                   |
     |               Approximate Normal Coordinate               |
     |                Rational Function Optimizer                |
      ----------------------------------------------------------- 
      ----------------------------------------------------------- 
     |                   =====================                   |
     |                        A N C O P T                        |
     |                   =====================                   |
     |               Approximate Normal Coordinate               |
     |                Rational Function Optimizer                |
      ----------------------------------------------------------- 

          ...................................................
          :                      SETUP                      :
          :.................................................:
          :   optimization level         verytight          :
          :   max. optcycles                   620          :
          :   ANC micro-cycles                  20          :
          :   degrees of freedom                87          :
          :.................................................:
          :   RF solver                   davidson          :
          :   write xtbopt.log                true          :
          :   linear?                        false          :
          :   energy convergence         0.1000000E-06 Eh   :
          :   grad. convergence          0.2000000E-03 Eh/α :
          :   maxmium RF displ.          1.0000000          :
          :   Hlow (freq-cutoff)         0.1000000E-01      :
          :   Hmax (freq-cutoff)         5.0000000          :
          :   S6 in model hess.         20.0000000          :
          ...................................................

generating ANC from exact Hessian ...
Using Lindh-Hessian (1995)
 Shifting diagonal of input Hessian by    9.2925179478617788E-003
 Lowest  eigenvalues of input Hessian
    0.000000    0.000000    0.000000    0.000000    0.000000    0.000000
    0.010000    0.010055    0.010941    0.011513    0.013188    0.013372
    0.014808    0.015608    0.018393    0.018928    0.019203    0.020556
 Highest eigenvalues
    1.741574    1.823093    2.011395    2.027165    2.300320    2.303433


........................................................................
.............................. CYCLE    1 ..............................
........................................................................

 iter      E             dE          RMSdq      gap      omega  full diag
   1    -50.9967339 -0.509967E+02  0.242E-05    2.30       0.0  T
   2    -50.9967339 -0.178346E-11  0.152E-05    2.30    1183.4  T
   3    -50.9967339 -0.177636E-12  0.825E-06    2.30    2177.6  T
     SCC iter.                  ...        0 min,  0.005 sec
     gradient                   ...        0 min,  0.014 sec
 * total energy  :   -50.4300388 Eh     change       -0.1963940E-10 Eh
   gradient norm :     0.0512379 Eh/α   predicted     0.0000000E+00 (-100.00%)
   displ. norm   :     0.2601554 α      lambda       -0.7187319E-02
   maximum displ.:     0.0696235 α      in ANC's #23, #18, #13, ...

........................................................................
.............................. CYCLE    2 ..............................
........................................................................

 iter      E             dE          RMSdq      gap      omega  full diag
   1    -51.0211970 -0.510212E+02  0.195E-01    2.37       0.0  T
   2    -51.0212342 -0.372176E-04  0.119E-01    2.36       1.0  T
   3    -51.0211618  0.723936E-04  0.711E-02    2.38       1.0  T
   4    -51.0212637 -0.101941E-03  0.119E-02    2.37       1.5  T
   5    -51.0212663 -0.257131E-05  0.434E-03    2.37       4.1  T
   6    -51.0212664 -0.418290E-07  0.223E-03    2.37       8.1  T
   7    -51.0212664 -0.171846E-07  0.731E-04    2.37      24.6  T
   8    -51.0212664 -0.823735E-08  0.346E-04    2.37      51.9  T
   9    -51.0212664 -0.124479E-08  0.122E-04    2.37     147.5  T
  10    -51.0212664 -0.613909E-10  0.366E-05    2.37     491.1  T
     SCC iter.                  ...        0 min,  0.011 sec
     gradient                   ...        0 min,  0.012 sec
 * total energy  :   -50.4348760 Eh     change       -0.4837128E-02 Eh
   gradient norm :     0.0211739 Eh/α   predicted    -0.3837142E-02 ( -20.67%)
   displ. norm   :     0.2708525 α      lambda       -0.2252036E-02
   maximum displ.:     0.1117294 α      in ANC's #15, #4, #6, ...

........................................................................
.............................. CYCLE    3 ..............................
........................................................................

 iter      E             dE          RMSdq      gap      omega  full diag
   1    -51.0312113 -0.510312E+02  0.152E-01    2.37       0.0  T
   2    -51.0312678 -0.564964E-04  0.940E-02    2.38       1.0  T
   3    -51.0312390  0.287929E-04  0.586E-02    2.39       1.0  T
   4    -51.0312964 -0.573788E-04  0.120E-02    2.38       1.5  T
   5    -51.0312989 -0.257031E-05  0.356E-03    2.39       5.0  T
   6    -51.0312990 -0.278046E-07  0.189E-03    2.39       9.5  T
   7    -51.0312990 -0.720231E-08  0.863E-04    2.39      20.8  T
   8    -51.0312990 -0.128181E-07  0.324E-04    2.39      55.4  T
   9    -51.0312990 -0.703622E-09  0.861E-05    2.39     208.6  T
  10    -51.0312990 -0.708980E-10  0.369E-05    2.39     486.9  T
     SCC iter.                  ...        0 min,  0.014 sec
     gradient                   ...        0 min,  0.015 sec
 * total energy  :   -50.4363669 Eh     change       -0.1490930E-02 Eh
   gradient norm :     0.0093974 Eh/α   predicted    -0.1209365E-02 ( -18.89%)
   displ. norm   :     0.3178385 α      lambda       -0.1087757E-02
   maximum displ.:     0.1607660 α      in ANC's #4, #15, #6, ...

........................................................................
.............................. CYCLE    4 ..............................
........................................................................

 iter      E             dE          RMSdq      gap      omega  full diag
   1    -51.0317704 -0.510318E+02  0.143E-01    2.35       0.0  T
   2    -51.0318311 -0.607012E-04  0.884E-02    2.37       1.0  T
   3    -51.0318068  0.242157E-04  0.552E-02    2.37       1.0  T
   4    -51.0318593 -0.524641E-04  0.117E-02    2.37       1.5  T
   5    -51.0318619 -0.255986E-05  0.368E-03    2.37       4.9  T
   6    -51.0318619 -0.706551E-07  0.210E-03    2.37       8.6  T
   7    -51.0318619 -0.591049E-08  0.865E-04    2.37      20.8  T
   8    -51.0318620 -0.103395E-07  0.375E-04    2.37      47.9  T
   9    -51.0318620 -0.137475E-08  0.112E-04    2.37     160.1  T
  10    -51.0318620 -0.148226E-09  0.325E-05    2.37     552.2  T
     SCC iter.                  ...        0 min,  0.011 sec
     gradient                   ...        0 min,  0.013 sec
 * total energy  :   -50.4371993 Eh     change       -0.8324623E-03 Eh
   gradient norm :     0.0145600 Eh/α   predicted    -0.5988295E-03 ( -28.07%)
   displ. norm   :     0.4487923 α      lambda       -0.1192086E-02
   maximum displ.:     0.2402510 α      in ANC's #4, #15, #6, ...

........................................................................
.............................. CYCLE    5 ..............................
........................................................................

 iter      E             dE          RMSdq      gap      omega  full diag
   1    -51.0277532 -0.510278E+02  0.191E-01    2.30       0.0  T
   2    -51.0278472 -0.940359E-04  0.118E-01    2.32       1.0  T
   3    -51.0277904  0.567598E-04  0.728E-02    2.33       1.0  T
   4    -51.0278918 -0.101348E-03  0.151E-02    2.32       1.2  T
   5    -51.0278962 -0.445597E-05  0.494E-03    2.33       3.6  T
   6    -51.0278963 -0.109887E-06  0.281E-03    2.32       6.4  T
   7    -51.0278964 -0.112762E-07  0.104E-03    2.32      17.3  T
   8    -51.0278964 -0.131955E-07  0.484E-04    2.32      37.1  T
   9    -51.0278964 -0.279606E-08  0.163E-04    2.32     110.5  T
  10    -51.0278964 -0.262517E-09  0.507E-05    2.32     353.9  T
     SCC iter.                  ...        0 min,  0.014 sec
     gradient                   ...        0 min,  0.018 sec
 * total energy  :   -50.4379928 Eh     change       -0.7935001E-03 Eh
   gradient norm :     0.0276370 Eh/α   predicted    -0.7161142E-03 (  -9.75%)
   displ. norm   :     0.2994273 α      lambda       -0.9144092E-03
   maximum displ.:     0.1828737 α      in ANC's #4, #6, #15, ...

........................................................................
.............................. CYCLE    6 ..............................
........................................................................

 iter      E             dE          RMSdq      gap      omega  full diag
   1    -51.0280770 -0.510281E+02  0.106E-01    2.30       0.0  T
   2    -51.0280990 -0.219990E-04  0.623E-02    2.30       1.0  T
   3    -51.0280806  0.183496E-04  0.364E-02    2.31       1.0  T
   4    -51.0281060 -0.253317E-04  0.791E-03    2.30       2.3  T
   5    -51.0281070 -0.107978E-05  0.252E-03    2.30       7.1  T
   6    -51.0281071 -0.504815E-07  0.143E-03    2.30      12.6  T
   7    -51.0281071 -0.300250E-08  0.449E-04    2.30      40.0  T
   8    -51.0281071 -0.182821E-08  0.233E-04    2.30      76.9  T
   9    -51.0281071 -0.890836E-09  0.780E-05    2.30     230.3  T
  10    -51.0281071 -0.642117E-10  0.330E-05    2.30     543.7  T
     SCC iter.                  ...        0 min,  0.017 sec
     gradient                   ...        0 min,  0.014 sec
 * total energy  :   -50.4386240 Eh     change       -0.6311724E-03 Eh
   gradient norm :     0.0218516 Eh/α   predicted    -0.4982836E-03 ( -21.05%)
   displ. norm   :     0.3387172 α      lambda       -0.9762975E-03
   maximum displ.:     0.1868930 α      in ANC's #4, #15, #1, ...

........................................................................
.............................. CYCLE    7 ..............................
........................................................................

 iter      E             dE          RMSdq      gap      omega  full diag
   1    -51.0273184 -0.510273E+02  0.128E-01    2.29       0.0  T
   2    -51.0273286 -0.101818E-04  0.739E-02    2.29       1.0  T
   3    -51.0273204  0.821464E-05  0.227E-02    2.29       1.0  T
   4    -51.0273302 -0.984423E-05  0.685E-03    2.29       2.6  T
   5    -51.0273312 -0.100977E-05  0.254E-03    2.29       7.1  T
   6    -51.0273313 -0.247201E-07  0.126E-03    2.29      14.3  T
   7    -51.0273313 -0.645592E-08  0.209E-04    2.29      86.0  T
   8    -51.0273313 -0.312994E-09  0.947E-05    2.29     189.7  T
   9    -51.0273313 -0.374314E-10  0.317E-05    2.29     566.9  T
     SCC iter.                  ...        0 min,  0.016 sec
     gradient                   ...        0 min,  0.012 sec
 * total energy  :   -50.4392504 Eh     change       -0.6263644E-03 Eh
   gradient norm :     0.0168904 Eh/α   predicted    -0.5441981E-03 ( -13.12%)
   displ. norm   :     0.2811134 α      lambda       -0.6786165E-03
   maximum displ.:     0.1387030 α      in ANC's #4, #1, #15, ...

........................................................................
.............................. CYCLE    8 ..............................
........................................................................

 iter      E             dE          RMSdq      gap      omega  full diag
   1    -51.0296541 -0.510297E+02  0.100E-01    2.31       0.0  T
   2    -51.0296874 -0.332187E-04  0.589E-02    2.30       1.0  T
   3    -51.0296784  0.893871E-05  0.355E-02    2.30       1.0  T
   4    -51.0296947 -0.162859E-04  0.101E-02    2.30       1.8  T
   5    -51.0296967 -0.201212E-05  0.251E-03    2.30       7.1  T
   6    -51.0296968 -0.833754E-07  0.119E-03    2.30      15.1  T
   7    -51.0296968 -0.260614E-08  0.453E-04    2.30      39.6  T
   8    -51.0296968 -0.204814E-09  0.265E-04    2.30      67.8  T
   9    -51.0296968 -0.129057E-08  0.730E-05    2.30     245.9  T
  10    -51.0296968 -0.731291E-10  0.264E-05    2.30     680.5  T
     SCC iter.                  ...        0 min,  0.011 sec
     gradient                   ...        0 min,  0.014 sec
 * total energy  :   -50.4396534 Eh     change       -0.4030246E-03 Eh
   gradient norm :     0.0116368 Eh/α   predicted    -0.3661260E-03 (  -9.16%)
   displ. norm   :     0.4078626 α      lambda       -0.5244530E-03
   maximum displ.:     0.1985577 α      in ANC's #4, #15, #1, ...

........................................................................
.............................. CYCLE    9 ..............................
........................................................................

 iter      E             dE          RMSdq      gap      omega  full diag
   1    -51.0257767 -0.510258E+02  0.142E-01    2.28       0.0  T
   2    -51.0257974 -0.206985E-04  0.867E-02    2.29       1.0  T
   3    -51.0257557  0.417586E-04  0.445E-02    2.29       1.0  T
   4    -51.0258085 -0.528607E-04  0.897E-03    2.29       2.0  T
   5    -51.0258100 -0.149389E-05  0.345E-03    2.29       5.2  T
   6    -51.0258101 -0.229554E-07  0.143E-03    2.29      12.5  T
   7    -51.0258101 -0.552554E-08  0.365E-04    2.29      49.2  T
   8    -51.0258101 -0.447614E-09  0.197E-04    2.29      91.1  T
   9    -51.0258101 -0.473996E-09  0.808E-05    2.29     222.4  T
     SCC iter.                  ...        0 min,  0.013 sec
     gradient                   ...        0 min,  0.012 sec
 * total energy  :   -50.4398882 Eh     change       -0.2347858E-03 Eh
   gradient norm :     0.0148996 Eh/α   predicted    -0.3058528E-03 (  30.27%)
   displ. norm   :     0.1872546 α      lambda       -0.6239305E-03
   maximum displ.:     0.1257130 α      in ANC's #1, #11, #6, ...

........................................................................
.............................. CYCLE   10 ..............................
........................................................................

 iter      E             dE          RMSdq      gap      omega  full diag
   1    -51.0342415 -0.510342E+02  0.772E-02    2.35       0.0  T
   2    -51.0343097 -0.682108E-04  0.493E-02    2.33       1.0  T
   3    -51.0343210 -0.112482E-04  0.288E-02    2.33       1.0  T
   4    -51.0343236 -0.266955E-05  0.147E-02    2.33       1.2  T
   5    -51.0343270 -0.334459E-05  0.275E-03    2.33       6.5  T
   6    -51.0343271 -0.106122E-06  0.132E-03    2.33      13.6  T
   7    -51.0343271 -0.309961E-08  0.555E-04    2.33      32.4  T
   8    -51.0343271 -0.249011E-08  0.305E-04    2.33      58.9  T
   9    -51.0343271 -0.898368E-09  0.131E-04    2.33     137.1  T
  10    -51.0343271 -0.137021E-09  0.363E-05    2.33     495.3  T
     SCC iter.                  ...        0 min,  0.011 sec
     gradient                   ...        0 min,  0.017 sec
 * total energy  :   -50.4400044 Eh     change       -0.1162156E-03 Eh
   gradient norm :     0.0206891 Eh/α   predicted    -0.3229042E-03 ( 177.85%)
   displ. norm   :     0.1487083 α      lambda       -0.5259321E-03
   maximum displ.:     0.0708397 α      in ANC's #6, #1, #11, ...

........................................................................
.............................. CYCLE   11 ..............................
........................................................................

 iter      E             dE          RMSdq      gap      omega  full diag
   1    -51.0327337 -0.510327E+02  0.724E-02    2.31       0.0  T
   2    -51.0327801 -0.464627E-04  0.466E-02    2.32       1.0  T
   3    -51.0327857 -0.553535E-05  0.275E-02    2.32       1.0  T
   4    -51.0327886 -0.291328E-05  0.128E-02    2.32       1.4  T
   5    -51.0327914 -0.277949E-05  0.240E-03    2.32       7.5  T
   6    -51.0327914 -0.622728E-07  0.119E-03    2.32      15.1  T
   7    -51.0327914 -0.407217E-08  0.528E-04    2.32      34.0  T
   8    -51.0327914 -0.950280E-09  0.306E-04    2.32      58.6  T
   9    -51.0327914 -0.120767E-08  0.987E-05    2.32     182.0  T
  10    -51.0327914 -0.121069E-09  0.331E-05    2.32     542.9  T
     SCC iter.                  ...        0 min,  0.011 sec
     gradient                   ...        0 min,  0.013 sec
 * total energy  :   -50.4402486 Eh     change       -0.2441998E-03 Eh
   gradient norm :     0.0091313 Eh/α   predicted    -0.2687856E-03 (  10.07%)
   displ. norm   :     0.1822091 α      lambda       -0.2321328E-03
   maximum displ.:     0.1114510 α      in ANC's #1, #6, #4, ...

........................................................................
.............................. CYCLE   12 ..............................
........................................................................

 iter      E             dE          RMSdq      gap      omega  full diag
   1    -51.0303091 -0.510303E+02  0.584E-02    2.30       0.0  T
   2    -51.0303235 -0.144857E-04  0.353E-02    2.31       1.0  T
   3    -51.0303225  0.103210E-05  0.179E-02    2.31       1.0  T
   4    -51.0303251 -0.259433E-05  0.748E-03    2.31       2.4  T
   5    -51.0303264 -0.126404E-05  0.187E-03    2.31       9.6  T
   6    -51.0303264 -0.364991E-07  0.103E-03    2.31      17.5  T
   7    -51.0303264 -0.188835E-08  0.286E-04    2.31      62.8  T
   8    -51.0303264 -0.848978E-09  0.160E-04    2.31     112.0  T
   9    -51.0303264 -0.301370E-09  0.608E-05    2.31     295.4  T
     SCC iter.                  ...        0 min,  0.013 sec
     gradient                   ...        0 min,  0.014 sec
 * total energy  :   -50.4403553 Eh     change       -0.1066609E-03 Eh
   gradient norm :     0.0074993 Eh/α   predicted    -0.1199207E-03 (  12.43%)
   displ. norm   :     0.1200306 α      lambda       -0.1096339E-03
   maximum displ.:     0.0811870 α      in ANC's #1, #6, #11, ...

........................................................................
.............................. CYCLE   13 ..............................
........................................................................

 iter      E             dE          RMSdq      gap      omega  full diag
   1    -51.0309134 -0.510309E+02  0.314E-02    2.31       0.0  T
   2    -51.0309158 -0.247998E-05  0.185E-02    2.31       1.0  T
   3    -51.0309151  0.783106E-06  0.843E-03    2.31       2.1  T
   4    -51.0309160 -0.940821E-06  0.344E-03    2.31       5.2  T
   5    -51.0309163 -0.272342E-06  0.738E-04    2.31      24.4  T
   6    -51.0309163 -0.488990E-08  0.404E-04    2.31      44.4  T
   7    -51.0309163 -0.203201E-09  0.108E-04    2.31     165.7  T
   8    -51.0309163 -0.162842E-09  0.540E-05    2.31     332.8  T
     SCC iter.                  ...        0 min,  0.008 sec
     gradient                   ...        0 min,  0.016 sec
 * total energy  :   -50.4404432 Eh     change       -0.8793964E-04 Eh
   gradient norm :     0.0036487 Eh/α   predicted    -0.5560742E-04 ( -36.77%)
   displ. norm   :     0.2586603 α      lambda       -0.1512284E-03
   maximum displ.:     0.1767869 α      in ANC's #1, #6, #11, ...

........................................................................
.............................. CYCLE   14 ..............................
........................................................................

 iter      E             dE          RMSdq      gap      omega  full diag
   1    -51.0316383 -0.510316E+02  0.639E-02    2.31       0.0  T
   2    -51.0316416 -0.338475E-05  0.378E-02    2.31       1.0  T
   3    -51.0316370  0.461766E-05  0.155E-02    2.31       1.2  T
   4    -51.0316426 -0.557283E-05  0.392E-03    2.31       4.6  T
   5    -51.0316429 -0.292350E-06  0.137E-03    2.31      13.1  T
   6    -51.0316429 -0.728756E-08  0.693E-04    2.31      25.9  T
   7    -51.0316429 -0.998440E-09  0.181E-04    2.31      99.2  T
   8    -51.0316429 -0.296488E-09  0.105E-04    2.31     171.6  T
     SCC iter.                  ...        0 min,  0.009 sec
     gradient                   ...        0 min,  0.014 sec
 * total energy  :   -50.4405492 Eh     change       -0.1060136E-03 Eh
   gradient norm :     0.0030620 Eh/α   predicted    -0.8067403E-04 ( -23.90%)
   displ. norm   :     0.2738224 α      lambda       -0.9080247E-04
   maximum displ.:     0.1795083 α      in ANC's #1, #6, #11, ...

........................................................................
.............................. CYCLE   15 ..............................
........................................................................

 iter      E             dE          RMSdq      gap      omega  full diag
   1    -51.0304939 -0.510305E+02  0.667E-02    2.31       0.0  T
   2    -51.0304957 -0.180758E-05  0.396E-02    2.31       1.0  T
   3    -51.0304891  0.666436E-05  0.173E-02    2.31       1.0  T
   4    -51.0304970 -0.795726E-05  0.267E-03    2.31       6.7  T
   5    -51.0304971 -0.628104E-07  0.136E-03    2.31      13.2  T
   6    -51.0304971 -0.509483E-08  0.515E-04    2.31      34.9  T
   7    -51.0304971 -0.470671E-09  0.195E-04    2.31      92.3  T
   8    -51.0304971 -0.449894E-09  0.945E-05    2.31     190.2  T
     SCC iter.                  ...        0 min,  0.014 sec
     gradient                   ...        0 min,  0.019 sec
 * total energy  :   -50.4406121 Eh     change       -0.6292090E-04 Eh
   gradient norm :     0.0039636 Eh/α   predicted    -0.4880776E-04 ( -22.43%)
   displ. norm   :     0.2362869 α      lambda       -0.1015036E-03
   maximum displ.:     0.1623867 α      in ANC's #1, #11, #6, ...

........................................................................
.............................. CYCLE   16 ..............................
........................................................................

 iter      E             dE          RMSdq      gap      omega  full diag
   1    -51.0324193 -0.510324E+02  0.508E-02    2.32       0.0  T
   2    -51.0324215 -0.211698E-05  0.303E-02    2.32       1.0  T
   3    -51.0324196  0.183899E-05  0.106E-02    2.32       1.7  T
   4    -51.0324219 -0.225377E-05  0.274E-03    2.32       6.6  T
   5    -51.0324220 -0.167709E-06  0.975E-04    2.32      18.4  T
   6    -51.0324221 -0.581581E-08  0.462E-04    2.32      38.9  T
   7    -51.0324221 -0.465249E-09  0.135E-04    2.32     132.7  T
   8    -51.0324221 -0.599627E-10  0.808E-05    2.32     222.2  T
     SCC iter.                  ...        0 min,  0.010 sec
     gradient                   ...        0 min,  0.013 sec
 * total energy  :   -50.4406718 Eh     change       -0.5964904E-04 Eh
   gradient norm :     0.0055676 Eh/α   predicted    -0.5358946E-04 ( -10.16%)
   displ. norm   :     0.2494888 α      lambda       -0.8763043E-04
   maximum displ.:     0.1522479 α      in ANC's #1, #6, #11, ...

........................................................................
.............................. CYCLE   17 ..............................
........................................................................

 iter      E             dE          RMSdq      gap      omega  full diag
   1    -51.0312067 -0.510312E+02  0.567E-02    2.31       0.0  T
   2    -51.0312087 -0.205784E-05  0.339E-02    2.32       1.0  T
   3    -51.0312032  0.548674E-05  0.162E-02    2.32       1.1  T
   4    -51.0312098 -0.656077E-05  0.256E-03    2.32       7.0  T
   5    -51.0312099 -0.948721E-07  0.108E-03    2.32      16.6  T
   6    -51.0312099 -0.389648E-08  0.548E-04    2.32      32.8  T
   7    -51.0312099 -0.755023E-09  0.181E-04    2.32      99.4  T
   8    -51.0312099 -0.358128E-09  0.905E-05    2.32     198.5  T
     SCC iter.                  ...        0 min,  0.015 sec
     gradient                   ...        0 min,  0.012 sec
 * total energy  :   -50.4407344 Eh     change       -0.6262234E-04 Eh
   gradient norm :     0.0034874 Eh/α   predicted    -0.4654637E-04 ( -25.67%)
   displ. norm   :     0.2267439 α      lambda       -0.1124021E-03
   maximum displ.:     0.1097661 α      in ANC's #1, #8, #6, ...

........................................................................
.............................. CYCLE   18 ..............................
........................................................................

 iter      E             dE          RMSdq      gap      omega  full diag
   1    -51.0319094 -0.510319E+02  0.489E-02    2.32       0.0  T
   2    -51.0319104 -0.919711E-06  0.293E-02    2.32       1.0  T
   3    -51.0319054  0.494710E-05  0.154E-02    2.32       1.2  T
   4    -51.0319113 -0.586894E-05  0.154E-03    2.32      11.7  T
   5    -51.0319113 -0.161552E-07  0.693E-04    2.32      25.9  T
   6    -51.0319113 -0.766939E-09  0.314E-04    2.32      57.1  T
   7    -51.0319113 -0.538300E-09  0.134E-04    2.32     134.2  T
   8    -51.0319113 -0.214101E-09  0.624E-05    2.32     287.9  T
     SCC iter.                  ...        0 min,  0.009 sec
     gradient                   ...        0 min,  0.012 sec
 * total energy  :   -50.4408183 Eh     change       -0.8385843E-04 Eh
   gradient norm :     0.0037049 Eh/α   predicted    -0.5909154E-04 ( -29.53%)
   displ. norm   :     0.2917181 α      lambda       -0.1284311E-03
   maximum displ.:     0.1391335 α      in ANC's #8, #9, #1, ...

........................................................................
.............................. CYCLE   19 ..............................
........................................................................

 iter      E             dE          RMSdq      gap      omega  full diag
   1    -51.0310195 -0.510310E+02  0.596E-02    2.31       0.0  T
   2    -51.0310215 -0.200791E-05  0.354E-02    2.31       1.0  T
   3    -51.0310205  0.108247E-05  0.858E-03    2.32       2.1  T
   4    -51.0310217 -0.123394E-05  0.282E-03    2.31       6.4  T
   5    -51.0310219 -0.183622E-06  0.923E-04    2.31      19.4  T
   6    -51.0310219 -0.474375E-08  0.403E-04    2.31      44.5  T
   7    -51.0310219 -0.947580E-09  0.860E-05    2.31     208.7  T
   8    -51.0310219 -0.233129E-10  0.558E-05    2.31     322.0  T
     SCC iter.                  ...        0 min,  0.014 sec
     gradient                   ...        0 min,  0.015 sec
 * total energy  :   -50.4408990 Eh     change       -0.8069940E-04 Eh
   gradient norm :     0.0052364 Eh/α   predicted    -0.6968395E-04 ( -13.65%)
   displ. norm   :     0.2031363 α      lambda       -0.1487120E-03
   maximum displ.:     0.0904522 α      in ANC's #8, #1, #15, ...

........................................................................
.............................. CYCLE   20 ..............................
........................................................................

 iter      E             dE          RMSdq      gap      omega  full diag
   1    -51.0343797 -0.510344E+02  0.594E-02    2.31       0.0  T
   2    -51.0343819 -0.221006E-05  0.349E-02    2.31       1.0  T
   3    -51.0343807  0.111690E-05  0.879E-03    2.31       2.0  T
   4    -51.0343822 -0.150551E-05  0.315E-03    2.31       5.7  T
   5    -51.0343824 -0.182897E-06  0.128E-03    2.31      14.1  T
   6    -51.0343824 -0.465713E-08  0.499E-04    2.31      36.0  T
   7    -51.0343824 -0.120211E-08  0.158E-04    2.31     113.5  T
   8    -51.0343824 -0.936069E-10  0.819E-05    2.31     219.2  T
     SCC iter.                  ...        0 min,  0.013 sec
     gradient                   ...        0 min,  0.012 sec
 * total energy  :   -50.4409428 Eh     change       -0.4385187E-04 Eh
   gradient norm :     0.0056427 Eh/α   predicted    -0.7743061E-04 (  76.57%)
   displ. norm   :     0.3070985 α      lambda       -0.1639831E-03
   maximum displ.:     0.1275671 α      in ANC's #8, #11, #6, ...
 * RMSD in coord.:     0.7268694 α      energy gain  -0.1090400E-01 Eh

generating ANC from exact Hessian ...
Using Lindh-Hessian (1995)
 Shifting diagonal of input Hessian by    9.2902431282552416E-003
 Lowest  eigenvalues of input Hessian
    0.000000    0.000000    0.000000    0.000000    0.000000    0.000000
    0.010000    0.010207    0.011274    0.012720    0.012994    0.013472
    0.014176    0.014853    0.018245    0.019055    0.019629    0.020559
 Highest eigenvalues
    1.837405    1.889445    2.069255    2.093866    2.337112    2.344033


........................................................................
.............................. CYCLE   21 ..............................
........................................................................

 iter      E             dE          RMSdq      gap      omega  full diag
   1    -51.0296639 -0.510297E+02  0.654E-02    2.31       0.0  T
   2    -51.0296692 -0.531732E-05  0.390E-02    2.31       1.0  T
   3    -51.0296646  0.464047E-05  0.163E-02    2.31       1.1  T
   4    -51.0296700 -0.545149E-05  0.445E-03    2.31       4.0  T
   5    -51.0296704 -0.402213E-06  0.124E-03    2.31      14.5  T
   6    -51.0296705 -0.861420E-08  0.643E-04    2.31      27.9  T
   7    -51.0296705 -0.111462E-08  0.186E-04    2.31      96.5  T
   8    -51.0296705 -0.140112E-09  0.999E-05    2.31     179.8  T
     SCC iter.                  ...        0 min,  0.009 sec
     gradient                   ...        0 min,  0.020 sec
 * total energy  :   -50.4410103 Eh     change       -0.6752446E-04 Eh
   gradient norm :     0.0066679 Eh/α   predicted     0.0000000E+00 (-100.00%)
   displ. norm   :     0.0482445 α      lambda       -0.1265325E-03
   maximum displ.:     0.0263803 α      in ANC's #2, #10, #3, ...

........................................................................
.............................. CYCLE   22 ..............................
........................................................................

 iter      E             dE          RMSdq      gap      omega  full diag
   1    -51.0321080 -0.510321E+02  0.214E-02    2.31       0.0  T
   2    -51.0321086 -0.673742E-06  0.128E-02    2.31       1.4  T
   3    -51.0321079  0.712890E-06  0.636E-03    2.31       2.8  T
   4    -51.0321088 -0.899997E-06  0.174E-03    2.31      10.3  T
   5    -51.0321089 -0.507644E-07  0.516E-04    2.31      34.8  T
   6    -51.0321089 -0.667399E-09  0.235E-04    2.31      76.5  T
   7    -51.0321089 -0.313612E-09  0.719E-05    2.31     249.6  T
   8    -51.0321089 -0.377582E-10  0.407E-05    2.31     441.3  T
     SCC iter.                  ...        0 min,  0.009 sec
     gradient                   ...        0 min,  0.017 sec
 * total energy  :   -50.4411004 Eh     change       -0.9002726E-04 Eh
   gradient norm :     0.0026032 Eh/α   predicted    -0.6373829E-04 ( -29.20%)
   displ. norm   :     0.0783609 α      lambda       -0.8907958E-04
   maximum displ.:     0.0470757 α      in ANC's #10, #2, #1, ...

........................................................................
.............................. CYCLE   23 ..............................
........................................................................

 iter      E             dE          RMSdq      gap      omega  full diag
   1    -51.0337889 -0.510338E+02  0.266E-02    2.31       0.0  T
   2    -51.0337893 -0.378655E-06  0.159E-02    2.31       1.1  T
   3    -51.0337884  0.841227E-06  0.586E-03    2.31       3.1  T
   4    -51.0337894 -0.988574E-06  0.137E-03    2.31      13.1  T
   5    -51.0337894 -0.257322E-07  0.522E-04    2.31      34.4  T
   6    -51.0337894 -0.669843E-09  0.176E-04    2.31     102.1  T
   7    -51.0337894 -0.228475E-09  0.557E-05    2.31     322.5  T
     SCC iter.                  ...        0 min,  0.008 sec
     gradient                   ...        0 min,  0.020 sec
 * total energy  :   -50.4411606 Eh     change       -0.6025095E-04 Eh
   gradient norm :     0.0023116 Eh/α   predicted    -0.4482706E-04 ( -25.60%)
   displ. norm   :     0.0916652 α      lambda       -0.5585965E-04
   maximum displ.:     0.0586442 α      in ANC's #10, #2, #15, ...

........................................................................
.............................. CYCLE   24 ..............................
........................................................................

 iter      E             dE          RMSdq      gap      omega  full diag
   1    -51.0337563 -0.510338E+02  0.270E-02    2.31       0.0  T
   2    -51.0337565 -0.143797E-06  0.160E-02    2.31       1.1  T
   3    -51.0337564  0.153466E-07  0.185E-03    2.31       9.7  T
   4    -51.0337565 -0.562759E-07  0.792E-04    2.31      22.7  T
   5    -51.0337565 -0.745351E-08  0.373E-04    2.31      48.2  T
   6    -51.0337565 -0.111806E-08  0.707E-05    2.31     254.1  T
   7    -51.0337565 -0.639346E-10  0.292E-05    2.31     614.2  T
     SCC iter.                  ...        0 min,  0.009 sec
     gradient                   ...        0 min,  0.012 sec
 * total energy  :   -50.4412020 Eh     change       -0.4140147E-04 Eh
   gradient norm :     0.0027061 Eh/α   predicted    -0.2816573E-04 ( -31.97%)
   displ. norm   :     0.1199735 α      lambda       -0.5272901E-04
   maximum displ.:     0.0804087 α      in ANC's #10, #2, #4, ...

........................................................................
.............................. CYCLE   25 ..............................
........................................................................

 iter      E             dE          RMSdq      gap      omega  full diag
   1    -51.0327910 -0.510328E+02  0.308E-02    2.32       0.0  T
   2    -51.0327913 -0.390638E-06  0.184E-02    2.32       1.0  T
   3    -51.0327899  0.146498E-05  0.803E-03    2.31       2.2  T
   4    -51.0327916 -0.169221E-05  0.104E-03    2.32      17.3  T
   5    -51.0327916 -0.137506E-07  0.442E-04    2.32      40.7  T
   6    -51.0327916 -0.558060E-10  0.154E-04    2.32     116.5  T
   7    -51.0327916 -0.318330E-09  0.694E-05    2.32     258.6  T
     SCC iter.                  ...        0 min,  0.007 sec
     gradient                   ...        0 min,  0.012 sec
 * total energy  :   -50.4412380 Eh     change       -0.3592263E-04 Eh
   gradient norm :     0.0019276 Eh/α   predicted    -0.2674438E-04 ( -25.55%)
   displ. norm   :     0.1499003 α      lambda       -0.3118417E-04
   maximum displ.:     0.0982919 α      in ANC's #10, #2, #7, ...

........................................................................
.............................. CYCLE   26 ..............................
........................................................................

 iter      E             dE          RMSdq      gap      omega  full diag
   1    -51.0314406 -0.510314E+02  0.340E-02    2.32       0.0  T
   2    -51.0314413 -0.717119E-06  0.205E-02    2.32       1.0  T
   3    -51.0314387  0.264988E-05  0.114E-02    2.32       1.6  T
   4    -51.0314419 -0.320962E-05  0.133E-03    2.32      13.5  T
   5    -51.0314419 -0.226455E-07  0.522E-04    2.32      34.4  T
   6    -51.0314419 -0.225597E-09  0.268E-04    2.32      66.9  T
   7    -51.0314419 -0.630905E-09  0.118E-04    2.32     152.3  T
   8    -51.0314419 -0.169898E-09  0.542E-05    2.32     331.5  T
     SCC iter.                  ...        0 min,  0.012 sec
     gradient                   ...        0 min,  0.013 sec
 * total energy  :   -50.4412664 Eh     change       -0.2845178E-04 Eh
   gradient norm :     0.0024035 Eh/α   predicted    -0.1575206E-04 ( -44.64%)
   displ. norm   :     0.0708679 α      lambda       -0.2901521E-04
   maximum displ.:     0.0381939 α      in ANC's #10, #7, #2, ...

........................................................................
.............................. CYCLE   27 ..............................
........................................................................

 iter      E             dE          RMSdq      gap      omega  full diag
   1    -51.0314648 -0.510315E+02  0.176E-02    2.32       0.0  T
   2    -51.0314649 -0.105016E-06  0.105E-02    2.32       1.7  T
   3    -51.0314643  0.532631E-06  0.486E-03    2.32       3.7  T
   4    -51.0314650 -0.626865E-06  0.603E-04    2.32      29.8  T
   5    -51.0314650 -0.196015E-08  0.305E-04    2.32      58.8  T
   6    -51.0314650 -0.236042E-09  0.136E-04    2.32     132.5  T
   7    -51.0314650 -0.773781E-10  0.569E-05    2.32     315.8  T
     SCC iter.                  ...        0 min,  0.012 sec
     gradient                   ...        0 min,  0.013 sec
 * total energy  :   -50.4412913 Eh     change       -0.2494384E-04 Eh
   gradient norm :     0.0026364 Eh/α   predicted    -0.1458332E-04 ( -41.54%)
   displ. norm   :     0.2135563 α      lambda       -0.7656016E-04
   maximum displ.:     0.1170720 α      in ANC's #10, #7, #2, ...

........................................................................
.............................. CYCLE   28 ..............................
........................................................................

 iter      E             dE          RMSdq      gap      omega  full diag
   1    -51.0312250 -0.510312E+02  0.517E-02    2.32       0.0  T
   2    -51.0312257 -0.660063E-06  0.308E-02    2.32       1.0  T
   3    -51.0312227  0.295279E-05  0.115E-02    2.32       1.6  T
   4    -51.0312262 -0.351092E-05  0.166E-03    2.32      10.8  T
   5    -51.0312262 -0.842793E-08  0.775E-04    2.32      23.2  T
   6    -51.0312262 -0.778449E-09  0.245E-04    2.32      73.3  T
   7    -51.0312262 -0.416136E-09  0.106E-04    2.32     169.0  T
   8    -51.0312262 -0.846327E-10  0.593E-05    2.32     302.8  T
     SCC iter.                  ...        0 min,  0.009 sec
     gradient                   ...        0 min,  0.015 sec
 * total energy  :   -50.4413389 Eh     change       -0.4758784E-04 Eh
   gradient norm :     0.0036801 Eh/α   predicted    -0.4002790E-04 ( -15.89%)
   displ. norm   :     0.0901023 α      lambda       -0.2771701E-04
   maximum displ.:     0.0499823 α      in ANC's #10, #7, #6, ...

........................................................................
.............................. CYCLE   29 ..............................
........................................................................

 iter      E             dE          RMSdq      gap      omega  full diag
   1    -51.0317502 -0.510318E+02  0.228E-02    2.32       0.0  T
   2    -51.0317504 -0.166808E-06  0.136E-02    2.32       1.3  T
   3    -51.0317496  0.744682E-06  0.568E-03    2.32       3.2  T
   4    -51.0317505 -0.878947E-06  0.820E-04    2.32      21.9  T
   5    -51.0317505 -0.412741E-08  0.425E-04    2.32      42.3  T
   6    -51.0317505 -0.317755E-10  0.130E-04    2.32     138.2  T
   7    -51.0317505 -0.205461E-09  0.584E-05    2.32     307.5  T
     SCC iter.                  ...        0 min,  0.008 sec
     gradient                   ...        0 min,  0.022 sec
 * total energy  :   -50.4413605 Eh     change       -0.2152717E-04 Eh
   gradient norm :     0.0027511 Eh/α   predicted    -0.1397180E-04 ( -35.10%)
   displ. norm   :     0.1434090 α      lambda       -0.3687964E-04
   maximum displ.:     0.0870632 α      in ANC's #10, #6, #7, ...

........................................................................
.............................. CYCLE   30 ..............................
........................................................................

 iter      E             dE          RMSdq      gap      omega  full diag
   1    -51.0323571 -0.510324E+02  0.330E-02    2.32       0.0  T
   2    -51.0323575 -0.363794E-06  0.198E-02    2.32       1.0  T
   3    -51.0323556  0.184973E-05  0.882E-03    2.32       2.0  T
   4    -51.0323578 -0.216708E-05  0.119E-03    2.32      15.1  T
   5    -51.0323578 -0.934831E-08  0.627E-04    2.32      28.6  T
   6    -51.0323578 -0.345395E-09  0.163E-04    2.32     110.0  T
   7    -51.0323578 -0.262609E-09  0.622E-05    2.32     289.0  T
     SCC iter.                  ...        0 min,  0.009 sec
     gradient                   ...        0 min,  0.019 sec
 * total energy  :   -50.4413862 Eh     change       -0.2569047E-04 Eh
   gradient norm :     0.0011618 Eh/α   predicted    -0.1882230E-04 ( -26.73%)
   displ. norm   :     0.1988270 α      lambda       -0.2003723E-04
   maximum displ.:     0.1226696 α      in ANC's #10, #6, #2, ...

........................................................................
.............................. CYCLE   31 ..............................
........................................................................

 iter      E             dE          RMSdq      gap      omega  full diag
   1    -51.0319722 -0.510320E+02  0.447E-02    2.32       0.0  T
   2    -51.0319727 -0.522583E-06  0.268E-02    2.32       1.0  T
   3    -51.0319708  0.196846E-05  0.887E-03    2.32       2.0  T
   4    -51.0319731 -0.231564E-05  0.150E-03    2.32      11.9  T
   5    -51.0319731 -0.144390E-07  0.791E-04    2.32      22.7  T
   6    -51.0319731 -0.685574E-09  0.235E-04    2.32      76.3  T
   7    -51.0319731 -0.479041E-09  0.766E-05    2.32     234.6  T
   8    -51.0319731 -0.452189E-10  0.421E-05    2.32     426.3  T
     SCC iter.                  ...        0 min,  0.010 sec
     gradient                   ...        0 min,  0.013 sec
 * total energy  :   -50.4414009 Eh     change       -0.1479182E-04 Eh
   gradient norm :     0.0019509 Eh/α   predicted    -0.1019690E-04 ( -31.06%)
   displ. norm   :     0.0638080 α      lambda       -0.1713946E-04
   maximum displ.:     0.0299987 α      in ANC's #6, #2, #3, ...

........................................................................
.............................. CYCLE   32 ..............................
........................................................................

 iter      E             dE          RMSdq      gap      omega  full diag
   1    -51.0348756 -0.510349E+02  0.214E-02    2.32       0.0  T
   2    -51.0348763 -0.671011E-06  0.125E-02    2.32       1.4  T
   3    -51.0348758  0.410452E-06  0.525E-03    2.32       3.4  T
   4    -51.0348763 -0.482464E-06  0.157E-03    2.32      11.4  T
   5    -51.0348764 -0.515754E-07  0.442E-04    2.32      40.6  T
   6    -51.0348764 -0.467800E-09  0.219E-04    2.32      81.9  T
   7    -51.0348764 -0.219238E-09  0.586E-05    2.32     306.7  T
   8    -51.0348764 -0.161222E-10  0.388E-05    2.32     463.4  T
     SCC iter.                  ...        0 min,  0.009 sec
     gradient                   ...        0 min,  0.013 sec
 * total energy  :   -50.4413973 Eh     change        0.3639638E-05 Eh
   gradient norm :     0.0037476 Eh/α   predicted    -0.8602643E-05 (-336.36%)
   displ. norm   :     0.0515980 α      lambda       -0.2223788E-04
   maximum displ.:     0.0308325 α      in ANC's #10, #7, #6, ...

........................................................................
.............................. CYCLE   33 ..............................
........................................................................

 iter      E             dE          RMSdq      gap      omega  full diag
   1    -51.0336558 -0.510337E+02  0.124E-02    2.32       0.0  T
   2    -51.0336559 -0.151513E-06  0.737E-03    2.32       2.4  T
   3    -51.0336557  0.277766E-06  0.393E-03    2.32       4.6  T
   4    -51.0336560 -0.342610E-06  0.705E-04    2.32      25.5  T
   5    -51.0336560 -0.758786E-08  0.244E-04    2.32      73.5  T
   6    -51.0336560  0.180052E-10  0.113E-04    2.32     158.7  T
   7    -51.0336560 -0.138613E-09  0.464E-05    2.32     387.0  T
     SCC iter.                  ...        0 min,  0.014 sec
     gradient                   ...        0 min,  0.015 sec
 * total energy  :   -50.4414137 Eh     change       -0.1637104E-04 Eh
   gradient norm :     0.0018245 Eh/α   predicted    -0.1114937E-04 ( -31.90%)
   displ. norm   :     0.1140487 α      lambda       -0.1726230E-04
   maximum displ.:     0.0631876 α      in ANC's #10, #6, #7, ...

........................................................................
.............................. CYCLE   34 ..............................
........................................................................

 iter      E             dE          RMSdq      gap      omega  full diag
   1    -51.0315465 -0.510315E+02  0.268E-02    2.32       0.0  T
   2    -51.0315472 -0.642210E-06  0.160E-02    2.32       1.1  T
   3    -51.0315459  0.132069E-05  0.843E-03    2.32       2.1  T
   4    -51.0315475 -0.160687E-05  0.142E-03    2.32      12.7  T
   5    -51.0315475 -0.326244E-07  0.490E-04    2.32      36.6  T
   6    -51.0315475  0.546834E-10  0.238E-04    2.32      75.6  T
   7    -51.0315475 -0.498751E-09  0.993E-05    2.32     180.9  T
   8    -51.0315475 -0.162629E-09  0.369E-05    2.32     487.3  T
     SCC iter.                  ...        0 min,  0.010 sec
     gradient                   ...        0 min,  0.017 sec
 * total energy  :   -50.4414212 Eh     change       -0.7490603E-05 Eh
   gradient norm :     0.0022622 Eh/α   predicted    -0.8685275E-05 (  15.95%)
   displ. norm   :     0.0324640 α      lambda       -0.8303011E-05
   maximum displ.:     0.0189103 α      in ANC's #10, #2, #1, ...

........................................................................
.............................. CYCLE   35 ..............................
........................................................................

 iter      E             dE          RMSdq      gap      omega  full diag
   1    -51.0321887 -0.510322E+02  0.797E-03    2.32       0.0  T
   2    -51.0321887 -0.488903E-07  0.471E-03    2.32       3.8  T
   3    -51.0321886  0.572874E-07  0.167E-03    2.32      10.7  T
   4    -51.0321887 -0.682004E-07  0.427E-04    2.32      42.1  T
   5    -51.0321887 -0.313361E-08  0.163E-04    2.32     110.2  T
   6    -51.0321887 -0.531273E-10  0.807E-05    2.32     222.5  T
     SCC iter.                  ...        0 min,  0.007 sec
     gradient                   ...        0 min,  0.014 sec
 * total energy  :   -50.4414277 Eh     change       -0.6564149E-05 Eh
   gradient norm :     0.0012661 Eh/α   predicted    -0.4157182E-05 ( -36.67%)
   displ. norm   :     0.0851019 α      lambda       -0.1217267E-04
   maximum displ.:     0.0486285 α      in ANC's #1, #2, #3, ...

........................................................................
.............................. CYCLE   36 ..............................
........................................................................

 iter      E             dE          RMSdq      gap      omega  full diag
   1    -51.0333135 -0.510333E+02  0.191E-02    2.32       0.0  T
   2    -51.0333137 -0.203345E-06  0.113E-02    2.32       1.6  T
   3    -51.0333136  0.155099E-06  0.283E-03    2.32       6.3  T
   4    -51.0333137 -0.185274E-06  0.920E-04    2.32      19.5  T
   5    -51.0333138 -0.165014E-07  0.342E-04    2.32      52.5  T
   6    -51.0333138 -0.229569E-09  0.159E-04    2.32     113.3  T
   7    -51.0333138 -0.133504E-09  0.425E-05    2.32     422.3  T
     SCC iter.                  ...        0 min,  0.008 sec
     gradient                   ...        0 min,  0.012 sec
 * total energy  :   -50.4414380 Eh     change       -0.1026570E-04 Eh
   gradient norm :     0.0013541 Eh/α   predicted    -0.6107067E-05 ( -40.51%)
   displ. norm   :     0.0752773 α      lambda       -0.7163952E-05
   maximum displ.:     0.0413558 α      in ANC's #1, #4, #3, ...

........................................................................
.............................. CYCLE   37 ..............................
........................................................................

 iter      E             dE          RMSdq      gap      omega  full diag
   1    -51.0333966 -0.510334E+02  0.170E-02    2.32       0.0  T
   2    -51.0333967 -0.715336E-07  0.101E-02    2.32       1.8  T
   3    -51.0333967  0.347491E-08  0.111E-03    2.32      16.2  T
   4    -51.0333967 -0.193645E-07  0.609E-04    2.32      29.5  T
   5    -51.0333967 -0.619205E-08  0.282E-04    2.32      63.6  T
   6    -51.0333967 -0.249777E-09  0.943E-05    2.32     190.5  T
   7    -51.0333967 -0.795737E-10  0.251E-05    2.32     714.8  T
     SCC iter.                  ...        0 min,  0.009 sec
     gradient                   ...        0 min,  0.013 sec
 * total energy  :   -50.4414460 Eh     change       -0.8052168E-05 Eh
   gradient norm :     0.0010060 Eh/α   predicted    -0.3591412E-05 ( -55.40%)
   displ. norm   :     0.2619565 α      lambda       -0.1616166E-04
   maximum displ.:     0.1178464 α      in ANC's #4, #1, #6, ...

........................................................................
.............................. CYCLE   38 ..............................
........................................................................

 iter      E             dE          RMSdq      gap      omega  full diag
   1    -51.0315045 -0.510315E+02  0.537E-02    2.32       0.0  T
   2    -51.0315051 -0.607008E-06  0.319E-02    2.32       1.0  T
   3    -51.0315052 -0.143790E-06  0.222E-03    2.32       8.1  T
   4    -51.0315052 -0.340738E-07  0.128E-03    2.32      14.0  T
   5    -51.0315052 -0.460613E-08  0.815E-04    2.32      22.0  T
   6    -51.0315052 -0.620579E-08  0.245E-04    2.32      73.3  T
   7    -51.0315052 -0.967660E-09  0.659E-05    2.32     272.7  T
   8    -51.0315052 -0.839862E-11  0.261E-05    2.32     687.7  T
     SCC iter.                  ...        0 min,  0.010 sec
     gradient                   ...        0 min,  0.013 sec
 * total energy  :   -50.4414479 Eh     change       -0.1831436E-05 Eh
   gradient norm :     0.0027156 Eh/α   predicted    -0.8328201E-05 ( 354.74%)
   displ. norm   :     0.0703655 α      lambda       -0.1752527E-04
   maximum displ.:     0.0354852 α      in ANC's #6, #4, #10, ...

........................................................................
.............................. CYCLE   39 ..............................
........................................................................

 iter      E             dE          RMSdq      gap      omega  full diag
   1    -51.0324337 -0.510324E+02  0.165E-02    2.32       0.0  T
   2    -51.0324338 -0.119209E-06  0.979E-03    2.32       1.8  T
   3    -51.0324338  0.180793E-07  0.152E-03    2.32      11.8  T
   4    -51.0324338 -0.331539E-07  0.743E-04    2.32      24.2  T
   5    -51.0324339 -0.104626E-07  0.302E-04    2.32      59.4  T
   6    -51.0324339 -0.119002E-09  0.872E-05    2.32     205.9  T
   7    -51.0324339 -0.106347E-09  0.281E-05    2.32     639.5  T
     SCC iter.                  ...        0 min,  0.008 sec
     gradient                   ...        0 min,  0.012 sec
 * total energy  :   -50.4414581 Eh     change       -0.1017696E-04 Eh
   gradient norm :     0.0008367 Eh/α   predicted    -0.8807175E-05 ( -13.46%)
   displ. norm   :     0.0270450 α      lambda       -0.3638650E-05
   maximum displ.:     0.0202341 α      in ANC's #1, #14, #3, ...

........................................................................
.............................. CYCLE   40 ..............................
........................................................................

 iter      E             dE          RMSdq      gap      omega  full diag
   1    -51.0328823 -0.510329E+02  0.939E-03    2.32       0.0  T
   2    -51.0328824 -0.329847E-07  0.557E-03    2.32       3.2  T
   3    -51.0328823  0.836920E-07  0.194E-03    2.32       9.2  T
   4    -51.0328824 -0.101402E-06  0.370E-04    2.32      48.6  T
   5    -51.0328824 -0.120652E-08  0.187E-04    2.32      96.3  T
   6    -51.0328824 -0.225882E-10  0.541E-05    2.32     332.2  T
     SCC iter.                  ...        0 min,  0.008 sec
     gradient                   ...        0 min,  0.013 sec
 * total energy  :   -50.4414620 Eh     change       -0.3948036E-05 Eh
   gradient norm :     0.0003884 Eh/α   predicted    -0.1822431E-05 ( -53.84%)
   displ. norm   :     0.0574371 α      lambda       -0.3947462E-05
   maximum displ.:     0.0366101 α      in ANC's #1, #4, #6, ...

........................................................................
.............................. CYCLE   41 ..............................
........................................................................

 iter      E             dE          RMSdq      gap      omega  full diag
   1    -51.0330286 -0.510330E+02  0.138E-02    2.32       0.0  T
   2    -51.0330287 -0.317316E-07  0.821E-03    2.32       2.2  T
   3    -51.0330286  0.798447E-07  0.190E-03    2.32       9.4  T
   4    -51.0330287 -0.100257E-06  0.393E-04    2.32      45.7  T
   5    -51.0330287 -0.757893E-09  0.191E-04    2.32      94.0  T
   6    -51.0330287 -0.390159E-10  0.538E-05    2.32     333.8  T
     SCC iter.                  ...        0 min,  0.008 sec
     gradient                   ...        0 min,  0.012 sec
 * total energy  :   -50.4414666 Eh     change       -0.4640911E-05 Eh
   gradient norm :     0.0004789 Eh/α   predicted    -0.1978407E-05 ( -57.37%)
   displ. norm   :     0.0904442 α      lambda       -0.3870918E-05
   maximum displ.:     0.0533512 α      in ANC's #1, #6, #4, ...

........................................................................
.............................. CYCLE   42 ..............................
........................................................................

 iter      E             dE          RMSdq      gap      omega  full diag
   1    -51.0327864 -0.510328E+02  0.190E-02    2.32       0.0  T
   2    -51.0327865 -0.536924E-07  0.113E-02    2.32       1.6  T
   3    -51.0327864  0.292941E-07  0.142E-03    2.32      12.6  T
   4    -51.0327865 -0.519976E-07  0.535E-04    2.32      33.6  T
   5    -51.0327865 -0.270281E-08  0.286E-04    2.32      62.8  T
   6    -51.0327865 -0.321741E-09  0.749E-05    2.32     239.7  T
   7    -51.0327865 -0.494893E-10  0.242E-05    2.32     742.4  T
     SCC iter.                  ...        0 min,  0.008 sec
     gradient                   ...        0 min,  0.013 sec
 * total energy  :   -50.4414703 Eh     change       -0.3626181E-05 Eh
   gradient norm :     0.0003871 Eh/α   predicted    -0.1944069E-05 ( -46.39%)
   displ. norm   :     0.0916078 α      lambda        0.1673267E-05
   maximum displ.:     0.0540783 α      in ANC's #1, #6, #4, ...
 * RMSD in coord.:     0.2781878 α      energy gain  -0.5274472E-03 Eh

generating ANC from exact Hessian ...
Using Lindh-Hessian (1995)
 Shifting diagonal of input Hessian by    9.2690389853313428E-003
 Lowest  eigenvalues of input Hessian
    0.000000    0.000000    0.000000    0.000000    0.000000    0.000000
    0.010000    0.010221    0.011250    0.012741    0.013134    0.013660
    0.014135    0.014859    0.018239    0.019395    0.019905    0.020822
 Highest eigenvalues
    1.838626    1.887386    2.066810    2.091933    2.334357    2.338664


........................................................................
.............................. CYCLE   43 ..............................
........................................................................

 iter      E             dE          RMSdq      gap      omega  full diag
   1    -51.0323394 -0.510323E+02  0.192E-02    2.32       0.0  T
   2    -51.0323395 -0.674573E-07  0.115E-02    2.32       1.6  T
   3    -51.0323395  0.390229E-07  0.156E-03    2.32      11.5  T
   4    -51.0323395 -0.626340E-07  0.584E-04    2.32      30.8  T
   5    -51.0323395 -0.409241E-08  0.303E-04    2.32      59.3  T
   6    -51.0323395 -0.301178E-09  0.941E-05    2.32     190.8  T
   7    -51.0323395 -0.738893E-10  0.257E-05    2.32     700.0  T
     SCC iter.                  ...        0 min,  0.009 sec
     gradient                   ...        0 min,  0.014 sec
 * total energy  :   -50.4414685 Eh     change        0.1739831E-05 Eh
   gradient norm :     0.0012821 Eh/α   predicted     0.0000000E+00 (-100.00%)
   displ. norm   :     0.0110795 α      lambda       -0.4102472E-05
   maximum displ.:     0.0048010 α      in ANC's #8, #3, #4, ...

........................................................................
.............................. CYCLE   44 ..............................
........................................................................

 iter      E             dE          RMSdq      gap      omega  full diag
   1    -51.0329889 -0.510330E+02  0.527E-03    2.32       0.0  T
   2    -51.0329890 -0.647140E-07  0.307E-03    2.32       5.9  T
   3    -51.0329889  0.249987E-07  0.139E-03    2.32      12.9  T
   4    -51.0329890 -0.328299E-07  0.507E-04    2.32      35.4  T
   5    -51.0329890 -0.532540E-08  0.148E-04    2.32     121.6  T
   6    -51.0329890 -0.870912E-10  0.772E-05    2.32     232.6  T
     SCC iter.                  ...        0 min,  0.007 sec
     gradient                   ...        0 min,  0.018 sec
 * total energy  :   -50.4414716 Eh     change       -0.3030029E-05 Eh
   gradient norm :     0.0003563 Eh/α   predicted    -0.2075218E-05 ( -31.51%)
   displ. norm   :     0.0097388 α      lambda       -0.7609093E-06
   maximum displ.:     0.0050797 α      in ANC's #8, #15, #3, ...

........................................................................
.............................. CYCLE   45 ..............................
........................................................................

 iter      E             dE          RMSdq      gap      omega  full diag
   1    -51.0329653 -0.510330E+02  0.273E-03    2.32       0.0  T
   2    -51.0329653 -0.301605E-08  0.161E-03    2.32      11.1  T
   3    -51.0329653  0.320023E-08  0.395E-04    2.32      45.5  T
   4    -51.0329653 -0.387974E-08  0.117E-04    2.32     153.9  T
   5    -51.0329653 -0.248249E-09  0.439E-05    2.32     408.9  T
     SCC iter.                  ...        0 min,  0.006 sec
     gradient                   ...        0 min,  0.013 sec
 * total energy  :   -50.4414725 Eh     change       -0.9523884E-06 Eh
   gradient norm :     0.0002482 Eh/α   predicted    -0.3812183E-06 ( -59.97%)
   displ. norm   :     0.0432690 α      lambda       -0.2343127E-05
   maximum displ.:     0.0204724 α      in ANC's #8, #3, #15, ...

........................................................................
.............................. CYCLE   46 ..............................
........................................................................

 iter      E             dE          RMSdq      gap      omega  full diag
   1    -51.0328090 -0.510328E+02  0.997E-03    2.32       0.0  T
   2    -51.0328091 -0.353168E-07  0.589E-03    2.32       3.1  T
   3    -51.0328090  0.315165E-07  0.130E-03    2.32      13.8  T
   4    -51.0328091 -0.424197E-07  0.410E-04    2.32      43.8  T
   5    -51.0328091 -0.234146E-08  0.178E-04    2.32     101.0  T
   6    -51.0328091 -0.464269E-10  0.480E-05    2.32     373.8  T
     SCC iter.                  ...        0 min,  0.010 sec
     gradient                   ...        0 min,  0.015 sec
 * total energy  :   -50.4414743 Eh     change       -0.1757276E-05 Eh
   gradient norm :     0.0003661 Eh/α   predicted    -0.1226718E-05 ( -30.19%)
   displ. norm   :     0.0123351 α      lambda       -0.5376319E-06
   maximum displ.:     0.0079240 α      in ANC's #2, #3, #8, ...

........................................................................
.............................. CYCLE   47 ..............................
........................................................................

 iter      E             dE          RMSdq      gap      omega  full diag
   1    -51.0328687 -0.510329E+02  0.295E-03    2.32       0.0  T
   2    -51.0328687 -0.305879E-08  0.176E-03    2.32      10.2  T
   3    -51.0328687  0.459121E-08  0.469E-04    2.32      38.3  T
   4    -51.0328687 -0.538258E-08  0.114E-04    2.32     157.7  T
   5    -51.0328687 -0.214882E-09  0.452E-05    2.32     397.1  T
     SCC iter.                  ...        0 min,  0.010 sec
     gradient                   ...        0 min,  0.018 sec
 * total energy  :   -50.4414749 Eh     change       -0.6303224E-06 Eh
   gradient norm :     0.0002200 Eh/α   predicted    -0.2851178E-06 ( -54.77%)
   displ. norm   :     0.0192944 α      lambda       -0.7254714E-06
   maximum displ.:     0.0145592 α      in ANC's #2, #9, #3, ...

........................................................................
.............................. CYCLE   48 ..............................
........................................................................

 iter      E             dE          RMSdq      gap      omega  full diag
   1    -51.0329359 -0.510329E+02  0.412E-03    2.32       0.0  T
   2    -51.0329359 -0.877861E-08  0.243E-03    2.32       7.4  T
   3    -51.0329359  0.274617E-07  0.111E-03    2.32      16.1  T
   4    -51.0329359 -0.323187E-07  0.161E-04    2.32     111.4  T
   5    -51.0329359 -0.308944E-09  0.695E-05    2.32     258.4  T
     SCC iter.                  ...        0 min,  0.006 sec
     gradient                   ...        0 min,  0.020 sec
 * total energy  :   -50.4414758 Eh     change       -0.9095238E-06 Eh
   gradient norm :     0.0002162 Eh/α   predicted    -0.3636701E-06 ( -60.02%)
   displ. norm   :     0.0257933 α      lambda       -0.8367893E-06
   maximum displ.:     0.0196326 α      in ANC's #2, #9, #10, ...

........................................................................
.............................. CYCLE   49 ..............................
........................................................................

 iter      E             dE          RMSdq      gap      omega  full diag
   1    -51.0329551 -0.510330E+02  0.534E-03    2.32       0.0  T
   2    -51.0329551 -0.121954E-07  0.316E-03    2.32       5.7  T
   3    -51.0329550  0.527116E-07  0.151E-03    2.32      11.9  T
   4    -51.0329551 -0.619292E-07  0.188E-04    2.32      95.3  T
   5    -51.0329551 -0.292403E-09  0.914E-05    2.32     196.5  T
     SCC iter.                  ...        0 min,  0.006 sec
     gradient                   ...        0 min,  0.013 sec
 * total energy  :   -50.4414769 Eh     change       -0.1069048E-05 Eh
   gradient norm :     0.0002459 Eh/α   predicted    -0.4205099E-06 ( -60.67%)
   displ. norm   :     0.0280918 α      lambda       -0.7911693E-06
   maximum displ.:     0.0211246 α      in ANC's #2, #9, #10, ...

........................................................................
.............................. CYCLE   50 ..............................
........................................................................

 iter      E             dE          RMSdq      gap      omega  full diag
   1    -51.0329505 -0.510330E+02  0.564E-03    2.32       0.0  T
   2    -51.0329506 -0.929954E-08  0.334E-03    2.32       5.4  T
   3    -51.0329505  0.458704E-07  0.138E-03    2.32      13.1  T
   4    -51.0329506 -0.530889E-07  0.175E-04    2.32     102.6  T
   5    -51.0329506 -0.200394E-09  0.896E-05    2.32     200.5  T
     SCC iter.                  ...        0 min,  0.011 sec
     gradient                   ...        0 min,  0.019 sec
 * total energy  :   -50.4414779 Eh     change       -0.1017334E-05 Eh
   gradient norm :     0.0002528 Eh/α   predicted    -0.3990594E-06 ( -60.77%)
   displ. norm   :     0.0312567 α      lambda       -0.8436908E-06
   maximum displ.:     0.0229118 α      in ANC's #2, #8, #9, ...

........................................................................
.............................. CYCLE   51 ..............................
........................................................................

 iter      E             dE          RMSdq      gap      omega  full diag
   1    -51.0329306 -0.510329E+02  0.623E-03    2.31       0.0  T
   2    -51.0329307 -0.940737E-08  0.369E-03    2.31       4.9  T
   3    -51.0329306  0.310175E-07  0.114E-03    2.32      15.8  T
   4    -51.0329307 -0.363505E-07  0.189E-04    2.31      94.8  T
   5    -51.0329307 -0.238018E-09  0.935E-05    2.32     192.2  T
     SCC iter.                  ...        0 min,  0.006 sec
     gradient                   ...        0 min,  0.016 sec
 * total energy  :   -50.4414790 Eh     change       -0.1086148E-05 Eh
   gradient norm :     0.0002099 Eh/α   predicted    -0.4228185E-06 ( -61.07%)
   displ. norm   :     0.0372229 α      lambda       -0.9447049E-06
   maximum displ.:     0.0270157 α      in ANC's #2, #8, #10, ...

........................................................................
.............................. CYCLE   52 ..............................
........................................................................

 iter      E             dE          RMSdq      gap      omega  full diag
   1    -51.0329111 -0.510329E+02  0.741E-03    2.31       0.0  T
   2    -51.0329111 -0.118861E-07  0.439E-03    2.31       4.1  T
   3    -51.0329111  0.170391E-07  0.910E-04    2.31      19.7  T
   4    -51.0329111 -0.215961E-07  0.234E-04    2.31      76.7  T
   5    -51.0329111 -0.567852E-09  0.109E-04    2.31     164.6  T
   6    -51.0329111 -0.487717E-10  0.297E-05    2.31     604.9  T
     SCC iter.                  ...        0 min,  0.008 sec
     gradient                   ...        0 min,  0.017 sec
 * total energy  :   -50.4414803 Eh     change       -0.1298205E-05 Eh
   gradient norm :     0.0001828 Eh/α   predicted    -0.4772367E-06 ( -63.24%)
   displ. norm   :     0.0476052 α      lambda       -0.1178740E-05
   maximum displ.:     0.0341316 α      in ANC's #2, #8, #9, ...

........................................................................
.............................. CYCLE   53 ..............................
........................................................................

 iter      E             dE          RMSdq      gap      omega  full diag
   1    -51.0329002 -0.510329E+02  0.968E-03    2.31       0.0  T
   2    -51.0329002 -0.181273E-07  0.573E-03    2.31       3.1  T
   3    -51.0329002  0.101123E-07  0.861E-04    2.31      20.9  T
   4    -51.0329002 -0.167676E-07  0.311E-04    2.31      57.8  T
   5    -51.0329002 -0.978758E-09  0.144E-04    2.31     124.6  T
   6    -51.0329002 -0.120053E-09  0.368E-05    2.31     487.5  T
     SCC iter.                  ...        0 min,  0.008 sec
     gradient                   ...        0 min,  0.014 sec
 * total energy  :   -50.4414819 Eh     change       -0.1606788E-05 Eh
   gradient norm :     0.0002003 Eh/α   predicted    -0.5919530E-06 ( -63.16%)
   displ. norm   :     0.0642209 α      lambda       -0.1446666E-05
   maximum displ.:     0.0458708 α      in ANC's #2, #8, #9, ...

........................................................................
.............................. CYCLE   54 ..............................
........................................................................

 iter      E             dE          RMSdq      gap      omega  full diag
   1    -51.0328786 -0.510329E+02  0.133E-02    2.31       0.0  T
   2    -51.0328787 -0.339854E-07  0.789E-03    2.31       2.3  T
   3    -51.0328786  0.270493E-07  0.131E-03    2.31      13.7  T
   4    -51.0328787 -0.419166E-07  0.427E-04    2.31      42.1  T
   5    -51.0328787 -0.135543E-08  0.201E-04    2.31      89.4  T
   6    -51.0328787 -0.230806E-09  0.535E-05    2.31     335.6  T
   7    -51.0328787 -0.939337E-11  0.275E-05    2.31     653.7  T
     SCC iter.                  ...        0 min,  0.009 sec
     gradient                   ...        0 min,  0.019 sec
 * total energy  :   -50.4414838 Eh     change       -0.1905165E-05 Eh
   gradient norm :     0.0002472 Eh/α   predicted    -0.7291627E-06 ( -61.73%)
   displ. norm   :     0.0690748 α      lambda       -0.1297449E-05
   maximum displ.:     0.0493821 α      in ANC's #2, #8, #9, ...

........................................................................
.............................. CYCLE   55 ..............................
........................................................................

 iter      E             dE          RMSdq      gap      omega  full diag
   1    -51.0328709 -0.510329E+02  0.144E-02    2.31       0.0  T
   2    -51.0328709 -0.413448E-07  0.854E-03    2.31       2.1  T
   3    -51.0328708  0.526853E-07  0.167E-03    2.31      10.7  T
   4    -51.0328709 -0.733294E-07  0.466E-04    2.31      38.5  T
   5    -51.0328709 -0.124498E-08  0.223E-04    2.31      80.6  T
   6    -51.0328709 -0.281496E-09  0.616E-05    2.31     291.7  T
   7    -51.0328709 -0.128395E-10  0.315E-05    2.31     570.2  T
     SCC iter.                  ...        0 min,  0.009 sec
     gradient                   ...        0 min,  0.015 sec
 * total energy  :   -50.4414855 Eh     change       -0.1673793E-05 Eh
   gradient norm :     0.0002453 Eh/α   predicted    -0.6520112E-06 ( -61.05%)
   displ. norm   :     0.0627146 α      lambda       -0.1003895E-05
   maximum displ.:     0.0450038 α      in ANC's #2, #8, #9, ...

........................................................................
.............................. CYCLE   56 ..............................
........................................................................

 iter      E             dE          RMSdq      gap      omega  full diag
   1    -51.0328953 -0.510329E+02  0.131E-02    2.31       0.0  T
   2    -51.0328954 -0.358213E-07  0.777E-03    2.31       2.3  T
   3    -51.0328953  0.605474E-07  0.172E-03    2.31      10.5  T
   4    -51.0328954 -0.800012E-07  0.429E-04    2.31      41.9  T
   5    -51.0328954 -0.905054E-09  0.208E-04    2.31      86.4  T
   6    -51.0328954 -0.237385E-09  0.589E-05    2.31     305.2  T
   7    -51.0328954 -0.121432E-10  0.288E-05    2.31     623.8  T
     SCC iter.                  ...        0 min,  0.010 sec
     gradient                   ...        0 min,  0.014 sec
 * total energy  :   -50.4414868 Eh     change       -0.1321150E-05 Eh
   gradient norm :     0.0001944 Eh/α   predicted    -0.5041215E-06 ( -61.84%)
   displ. norm   :     0.0554996 α      lambda       -0.8376041E-06
   maximum displ.:     0.0398389 α      in ANC's #2, #8, #1, ...

........................................................................
.............................. CYCLE   57 ..............................
........................................................................

 iter      E             dE          RMSdq      gap      omega  full diag
   1    -51.0329305 -0.510329E+02  0.115E-02    2.31       0.0  T
   2    -51.0329306 -0.293972E-07  0.681E-03    2.31       2.6  T
   3    -51.0329305  0.578505E-07  0.165E-03    2.31      10.9  T
   4    -51.0329306 -0.745473E-07  0.384E-04    2.31      46.8  T
   5    -51.0329306 -0.687507E-09  0.187E-04    2.31      96.2  T
   6    -51.0329306 -0.176918E-09  0.540E-05    2.31     332.9  T
     SCC iter.                  ...        0 min,  0.010 sec
     gradient                   ...        0 min,  0.017 sec
 * total energy  :   -50.4414879 Eh     change       -0.1117537E-05 Eh
   gradient norm :     0.0001295 Eh/α   predicted    -0.4243444E-06 ( -62.03%)
   displ. norm   :     0.0572853 α      lambda       -0.8515614E-06
   maximum displ.:     0.0409543 α      in ANC's #2, #8, #1, ...

........................................................................
.............................. CYCLE   58 ..............................
........................................................................

 iter      E             dE          RMSdq      gap      omega  full diag
   1    -51.0329717 -0.510330E+02  0.118E-02    2.30       0.0  T
   2    -51.0329717 -0.315327E-07  0.698E-03    2.30       2.6  T
   3    -51.0329717  0.601902E-07  0.169E-03    2.30      10.6  T
   4    -51.0329718 -0.783958E-07  0.399E-04    2.30      45.0  T
   5    -51.0329718 -0.667058E-09  0.193E-04    2.30      93.2  T
   6    -51.0329718 -0.194525E-09  0.554E-05    2.30     324.0  T
     SCC iter.                  ...        0 min,  0.012 sec
     gradient                   ...        0 min,  0.017 sec
 * total energy  :   -50.4414891 Eh     change       -0.1160710E-05 Eh
   gradient norm :     0.0001087 Eh/α   predicted    -0.4281292E-06 ( -63.11%)
   displ. norm   :     0.0628521 α      lambda       -0.9180387E-06
   maximum displ.:     0.0446598 α      in ANC's #2, #1, #8, ...

........................................................................
.............................. CYCLE   59 ..............................
........................................................................

 iter      E             dE          RMSdq      gap      omega  full diag
   1    -51.0329929 -0.510330E+02  0.129E-02    2.30       0.0  T
   2    -51.0329929 -0.384709E-07  0.763E-03    2.30       2.4  T
   3    -51.0329928  0.667478E-07  0.181E-03    2.30       9.9  T
   4    -51.0329929 -0.887106E-07  0.444E-04    2.30      40.5  T
   5    -51.0329929 -0.828244E-09  0.212E-04    2.30      84.6  T
   6    -51.0329929 -0.230273E-09  0.599E-05    2.30     300.1  T
   7    -51.0329929 -0.138840E-10  0.278E-05    2.30     645.3  T
     SCC iter.                  ...        0 min,  0.010 sec
     gradient                   ...        0 min,  0.018 sec
 * total energy  :   -50.4414903 Eh     change       -0.1253731E-05 Eh
   gradient norm :     0.0001422 Eh/α   predicted    -0.4626440E-06 ( -63.10%)
   displ. norm   :     0.0669098 α      lambda       -0.9357419E-06
   maximum displ.:     0.0474381 α      in ANC's #2, #1, #9, ...

........................................................................
.............................. CYCLE   60 ..............................
........................................................................

 iter      E             dE          RMSdq      gap      omega  full diag
   1    -51.0330204 -0.510330E+02  0.137E-02    2.30       0.0  T
   2    -51.0330205 -0.411890E-07  0.810E-03    2.30       2.2  T
   3    -51.0330204  0.539022E-07  0.171E-03    2.30      10.5  T
   4    -51.0330205 -0.768683E-07  0.469E-04    2.30      38.3  T
   5    -51.0330205 -0.868262E-09  0.215E-04    2.30      83.7  T
   6    -51.0330205 -0.259476E-09  0.608E-05    2.30     295.6  T
   7    -51.0330205 -0.132303E-10  0.284E-05    2.30     632.3  T
     SCC iter.                  ...        0 min,  0.009 sec
     gradient                   ...        0 min,  0.019 sec
 * total energy  :   -50.4414917 Eh     change       -0.1330178E-05 Eh
   gradient norm :     0.0001618 Eh/α   predicted    -0.4695478E-06 ( -64.70%)
   displ. norm   :     0.0952181 α      lambda       -0.1313295E-05
   maximum displ.:     0.0669828 α      in ANC's #2, #1, #9, ...

........................................................................
.............................. CYCLE   61 ..............................
........................................................................

 iter      E             dE          RMSdq      gap      omega  full diag
   1    -51.0329851 -0.510330E+02  0.194E-02    2.30       0.0  T
   2    -51.0329852 -0.835672E-07  0.115E-02    2.30       1.6  T
   3    -51.0329851  0.832023E-07  0.222E-03    2.30       8.1  T
   4    -51.0329852 -0.126117E-06  0.670E-04    2.30      26.8  T
   5    -51.0329852 -0.227173E-08  0.311E-04    2.30      57.7  T
   6    -51.0329852 -0.540780E-09  0.855E-05    2.30     210.0  T
   7    -51.0329852 -0.267590E-10  0.406E-05    2.30     442.4  T
     SCC iter.                  ...        0 min,  0.013 sec
     gradient                   ...        0 min,  0.021 sec
 * total energy  :   -50.4414934 Eh     change       -0.1742821E-05 Eh
   gradient norm :     0.0001846 Eh/α   predicted    -0.6636400E-06 ( -61.92%)
   displ. norm   :     0.1204415 α      lambda       -0.1497503E-05
   maximum displ.:     0.0845502 α      in ANC's #2, #1, #9, ...

........................................................................
.............................. CYCLE   62 ..............................
........................................................................

 iter      E             dE          RMSdq      gap      omega  full diag
   1    -51.0329562 -0.510330E+02  0.244E-02    2.30       0.0  T
   2    -51.0329563 -0.125218E-06  0.144E-02    2.30       1.2  T
   3    -51.0329562  0.754426E-07  0.238E-03    2.30       7.5  T
   4    -51.0329564 -0.136254E-06  0.833E-04    2.30      21.6  T
   5    -51.0329564 -0.384206E-08  0.370E-04    2.30      48.6  T
   6    -51.0329564 -0.888953E-09  0.104E-04    2.30     172.8  T
   7    -51.0329564 -0.344755E-10  0.486E-05    2.30     369.5  T
     SCC iter.                  ...        0 min,  0.015 sec
     gradient                   ...        0 min,  0.016 sec
 * total energy  :   -50.4414953 Eh     change       -0.1866475E-05 Eh
   gradient norm :     0.0002401 Eh/α   predicted    -0.7549503E-06 ( -59.55%)
   displ. norm   :     0.1440597 α      lambda       -0.1478952E-05
   maximum displ.:     0.1008307 α      in ANC's #2, #1, #9, ...

........................................................................
.............................. CYCLE   63 ..............................
........................................................................

 iter      E             dE          RMSdq      gap      omega  full diag
   1    -51.0328838 -0.510329E+02  0.288E-02    2.29       0.0  T
   2    -51.0328840 -0.170124E-06  0.170E-02    2.29       1.1  T
   3    -51.0328839  0.700857E-07  0.256E-03    2.29       7.0  T
   4    -51.0328840 -0.147534E-06  0.975E-04    2.29      18.4  T
   5    -51.0328840 -0.615726E-08  0.426E-04    2.29      42.2  T
   6    -51.0328841 -0.125169E-08  0.119E-04    2.29     151.4  T
   7    -51.0328841 -0.377440E-10  0.549E-05    2.29     327.4  T
     SCC iter.                  ...        0 min,  0.010 sec
     gradient                   ...        0 min,  0.017 sec
 * total energy  :   -50.4414969 Eh     change       -0.1600915E-05 Eh
   gradient norm :     0.0003289 Eh/α   predicted    -0.7474122E-06 ( -53.31%)
   displ. norm   :     0.0925968 α      lambda       -0.1017501E-05
   maximum displ.:     0.0638438 α      in ANC's #2, #1, #9, ...

........................................................................
.............................. CYCLE   64 ..............................
........................................................................

 iter      E             dE          RMSdq      gap      omega  full diag
   1    -51.0330785 -0.510331E+02  0.184E-02    2.29       0.0  T
   2    -51.0330786 -0.593970E-07  0.108E-02    2.29       1.7  T
   3    -51.0330786 -0.465861E-08  0.118E-03    2.29      15.3  T
   4    -51.0330786 -0.205961E-07  0.584E-04    2.29      30.7  T
   5    -51.0330786 -0.275661E-08  0.198E-04    2.29      90.6  T
   6    -51.0330786 -0.376964E-09  0.682E-05    2.29     263.4  T
     SCC iter.                  ...        0 min,  0.010 sec
     gradient                   ...        0 min,  0.022 sec
 * total energy  :   -50.4414980 Eh     change       -0.1123064E-05 Eh
   gradient norm :     0.0001904 Eh/α   predicted    -0.5135998E-06 ( -54.27%)
   displ. norm   :     0.0977856 α      lambda       -0.9446235E-06
   maximum displ.:     0.0658799 α      in ANC's #2, #1, #9, ...

........................................................................
.............................. CYCLE   65 ..............................
........................................................................

 iter      E             dE          RMSdq      gap      omega  full diag
   1    -51.0330525 -0.510331E+02  0.192E-02    2.29       0.0  T
   2    -51.0330526 -0.683358E-07  0.113E-02    2.29       1.6  T
   3    -51.0330526  0.153174E-07  0.145E-03    2.29      12.4  T
   4    -51.0330526 -0.419157E-07  0.617E-04    2.29      29.1  T
   5    -51.0330526 -0.325105E-08  0.257E-04    2.29      69.9  T
   6    -51.0330526 -0.491234E-09  0.696E-05    2.29     258.2  T
   7    -51.0330526 -0.411404E-11  0.301E-05    2.29     596.6  T
     SCC iter.                  ...        0 min,  0.015 sec
     gradient                   ...        0 min,  0.024 sec
 * total energy  :   -50.4414991 Eh     change       -0.1156395E-05 Eh
   gradient norm :     0.0001955 Eh/α   predicted    -0.4764387E-06 ( -58.80%)
   displ. norm   :     0.1261442 α      lambda       -0.1529356E-05
   maximum displ.:     0.0800496 α      in ANC's #2, #1, #9, ...

........................................................................
.............................. CYCLE   66 ..............................
........................................................................

 iter      E             dE          RMSdq      gap      omega  full diag
   1    -51.0331670 -0.510332E+02  0.252E-02    2.29       0.0  T
   2    -51.0331671 -0.103158E-06  0.149E-02    2.29       1.2  T
   3    -51.0331671  0.173582E-07  0.175E-03    2.29      10.3  T
   4    -51.0331672 -0.588474E-07  0.764E-04    2.29      23.5  T
   5    -51.0331672 -0.475481E-08  0.262E-04    2.29      68.6  T
   6    -51.0331672 -0.482324E-09  0.866E-05    2.29     207.3  T
   7    -51.0331672 -0.853362E-11  0.369E-05    2.29     487.0  T
     SCC iter.                  ...        0 min,  0.010 sec
     gradient                   ...        0 min,  0.022 sec
 * total energy  :   -50.4415007 Eh     change       -0.1599973E-05 Eh
   gradient norm :     0.0003317 Eh/α   predicted    -0.7719915E-06 ( -51.75%)
   displ. norm   :     0.1300983 α      lambda       -0.1077998E-05
   maximum displ.:     0.0810067 α      in ANC's #2, #1, #9, ...
 * RMSD in coord.:     0.2524662 α      energy gain  -0.3046914E-04 Eh

generating ANC from exact Hessian ...
Using Lindh-Hessian (1995)
 Shifting diagonal of input Hessian by    9.2713061588168329E-003
 Lowest  eigenvalues of input Hessian
    0.000000    0.000000    0.000000    0.000000    0.000000    0.000000
    0.010000    0.010292    0.011185    0.012743    0.013165    0.013745
    0.014109    0.014949    0.018322    0.019435    0.019941    0.020667
 Highest eigenvalues
    1.840180    1.889710    2.074637    2.100150    2.335527    2.339400


........................................................................
.............................. CYCLE   67 ..............................
........................................................................

 iter      E             dE          RMSdq      gap      omega  full diag
   1    -51.0328826 -0.510329E+02  0.253E-02    2.29       0.0  T
   2    -51.0328827 -0.131302E-06  0.150E-02    2.29       1.2  T
   3    -51.0328827  0.271945E-07  0.187E-03    2.29       9.6  T
   4    -51.0328828 -0.699599E-07  0.822E-04    2.29      21.8  T
   5    -51.0328828 -0.670664E-08  0.394E-04    2.29      45.6  T
   6    -51.0328828 -0.144138E-08  0.100E-04    2.29     179.6  T
   7    -51.0328828 -0.378719E-10  0.505E-05    2.29     356.0  T
     SCC iter.                  ...        0 min,  0.012 sec
     gradient                   ...        0 min,  0.016 sec
 * total energy  :   -50.4415017 Eh     change       -0.9575182E-06 Eh
   gradient norm :     0.0004236 Eh/α   predicted     0.0000000E+00 (-100.00%)
   displ. norm   :     0.0061507 α      lambda       -0.1921198E-06
   maximum displ.:     0.0028979 α      in ANC's #2, #12, #4, ...

........................................................................
.............................. CYCLE   68 ..............................
........................................................................

 iter      E             dE          RMSdq      gap      omega  full diag
   1    -51.0331291 -0.510331E+02  0.237E-03    2.29       0.0  T
   2    -51.0331291 -0.892794E-08  0.137E-03    2.29      13.1  T
   3    -51.0331291  0.765752E-08  0.721E-04    2.29      24.9  T
   4    -51.0331291 -0.999972E-08  0.176E-04    2.29     101.8  T
   5    -51.0331291 -0.557193E-09  0.587E-05    2.29     306.2  T
     SCC iter.                  ...        0 min,  0.009 sec
     gradient                   ...        0 min,  0.016 sec
 * total energy  :   -50.4415024 Eh     change       -0.6566553E-06 Eh
   gradient norm :     0.0001573 Eh/α   predicted    -0.3115108E-06 ( -52.56%)
   displ. norm   :     0.0143766 α      lambda       -0.6973584E-06
   maximum displ.:     0.0068191 α      in ANC's #2, #4, #12, ...

........................................................................
.............................. CYCLE   69 ..............................
........................................................................

 iter      E             dE          RMSdq      gap      omega  full diag
   1    -51.0332626 -0.510333E+02  0.457E-03    2.29       0.0  T
   2    -51.0332626 -0.127672E-07  0.269E-03    2.29       6.7  T
   3    -51.0332626  0.345654E-07  0.127E-03    2.29      14.1  T
   4    -51.0332626 -0.414624E-07  0.199E-04    2.29      90.1  T
   5    -51.0332626 -0.552362E-09  0.897E-05    2.29     200.3  T
     SCC iter.                  ...        0 min,  0.008 sec
     gradient                   ...        0 min,  0.020 sec
 * total energy  :   -50.4415032 Eh     change       -0.8044392E-06 Eh
   gradient norm :     0.0003255 Eh/α   predicted    -0.3489399E-06 ( -56.62%)
   displ. norm   :     0.0323314 α      lambda       -0.1203576E-05
   maximum displ.:     0.0153177 α      in ANC's #12, #2, #4, ...

........................................................................
.............................. CYCLE   70 ..............................
........................................................................

 iter      E             dE          RMSdq      gap      omega  full diag
   1    -51.0332744 -0.510333E+02  0.100E-02    2.28       0.0  T
   2    -51.0332744 -0.301848E-07  0.592E-03    2.28       3.0  T
   3    -51.0332743  0.901439E-07  0.197E-03    2.28       9.1  T
   4    -51.0332744 -0.108541E-06  0.346E-04    2.28      51.9  T
   5    -51.0332744 -0.100808E-08  0.187E-04    2.28      96.1  T
   6    -51.0332744 -0.110361E-09  0.709E-05    2.28     253.3  T
     SCC iter.                  ...        0 min,  0.009 sec
     gradient                   ...        0 min,  0.015 sec
 * total energy  :   -50.4415043 Eh     change       -0.1130196E-05 Eh
   gradient norm :     0.0005137 Eh/α   predicted    -0.6128107E-06 ( -45.78%)
   displ. norm   :     0.0255210 α      lambda       -0.7089195E-06
   maximum displ.:     0.0132049 α      in ANC's #12, #4, #2, ...

........................................................................
.............................. CYCLE   71 ..............................
........................................................................

 iter      E             dE          RMSdq      gap      omega  full diag
   1    -51.0331967 -0.510332E+02  0.766E-03    2.28       0.0  T
   2    -51.0331968 -0.931697E-08  0.451E-03    2.28       4.0  T
   3    -51.0331968 -0.433766E-08  0.348E-04    2.28      51.7  T
   4    -51.0331968 -0.733174E-09  0.227E-04    2.28      79.0  T
   5    -51.0331968 -0.368274E-09  0.911E-05    2.28     197.2  T
   6    -51.0331968 -0.934790E-10  0.220E-05    2.28     816.8  T
     SCC iter.                  ...        0 min,  0.009 sec
     gradient                   ...        0 min,  0.017 sec
 * total energy  :   -50.4415050 Eh     change       -0.7084084E-06 Eh
   gradient norm :     0.0003942 Eh/α   predicted    -0.3723127E-06 ( -47.44%)
   displ. norm   :     0.0203907 α      lambda       -0.5510519E-06
   maximum displ.:     0.0115236 α      in ANC's #12, #4, #5, ...

........................................................................
.............................. CYCLE   72 ..............................
........................................................................

 iter      E             dE          RMSdq      gap      omega  full diag
   1    -51.0330883 -0.510331E+02  0.598E-03    2.28       0.0  T
   2    -51.0330883 -0.129878E-07  0.354E-03    2.28       5.1  T
   3    -51.0330883  0.204404E-07  0.987E-04    2.28      18.2  T
   4    -51.0330884 -0.264129E-07  0.249E-04    2.28      72.1  T
   5    -51.0330884 -0.628482E-09  0.129E-04    2.28     139.4  T
   6    -51.0330884 -0.438689E-10  0.481E-05    2.28     373.2  T
     SCC iter.                  ...        0 min,  0.011 sec
     gradient                   ...        0 min,  0.016 sec
 * total energy  :   -50.4415056 Eh     change       -0.6078720E-06 Eh
   gradient norm :     0.0001914 Eh/α   predicted    -0.2759744E-06 ( -54.60%)
   displ. norm   :     0.0246605 α      lambda       -0.5870738E-06
   maximum displ.:     0.0143690 α      in ANC's #12, #5, #4, ...

........................................................................
.............................. CYCLE   73 ..............................
........................................................................

 iter      E             dE          RMSdq      gap      omega  full diag
   1    -51.0329863 -0.510330E+02  0.736E-03    2.28       0.0  T
   2    -51.0329864 -0.251880E-07  0.438E-03    2.28       4.1  T
   3    -51.0329863  0.581477E-07  0.163E-03    2.28      11.0  T
   4    -51.0329864 -0.706293E-07  0.326E-04    2.28      55.0  T
   5    -51.0329864 -0.115578E-08  0.160E-04    2.28     112.0  T
   6    -51.0329864 -0.625775E-10  0.696E-05    2.28     258.0  T
     SCC iter.                  ...        0 min,  0.008 sec
     gradient                   ...        0 min,  0.022 sec
 * total energy  :   -50.4415061 Eh     change       -0.5192633E-06 Eh
   gradient norm :     0.0002846 Eh/α   predicted    -0.2956013E-06 ( -43.07%)
   displ. norm   :     0.0159883 α      lambda       -0.3657860E-06
   maximum displ.:     0.0091686 α      in ANC's #12, #5, #8, ...

........................................................................
.............................. CYCLE   74 ..............................
........................................................................

 iter      E             dE          RMSdq      gap      omega  full diag
   1    -51.0330074 -0.510330E+02  0.443E-03    2.28       0.0  T
   2    -51.0330074 -0.593153E-08  0.264E-03    2.28       6.8  T
   3    -51.0330074  0.211755E-07  0.964E-04    2.28      18.6  T
   4    -51.0330074 -0.254334E-07  0.163E-04    2.28     109.9  T
   5    -51.0330074 -0.138527E-09  0.865E-05    2.28     207.7  T
     SCC iter.                  ...        0 min,  0.010 sec
     gradient                   ...        0 min,  0.025 sec
 * total energy  :   -50.4415064 Eh     change       -0.2768633E-06 Eh
   gradient norm :     0.0003246 Eh/α   predicted    -0.1846591E-06 ( -33.30%)
   displ. norm   :     0.0090799 α      lambda       -0.2069467E-06
   maximum displ.:     0.0048811 α      in ANC's #12, #5, #8, ...

........................................................................
.............................. CYCLE   75 ..............................
........................................................................

 iter      E             dE          RMSdq      gap      omega  full diag
   1    -51.0330725 -0.510331E+02  0.242E-03    2.28       0.0  T
   2    -51.0330725 -0.185837E-08  0.144E-03    2.28      12.4  T
   3    -51.0330725  0.306107E-08  0.369E-04    2.28      48.7  T
   4    -51.0330725 -0.370436E-08  0.938E-05    2.28     191.6  T
   5    -51.0330725 -0.126420E-09  0.433E-05    2.28     414.9  T
     SCC iter.                  ...        0 min,  0.009 sec
     gradient                   ...        0 min,  0.023 sec
 * total energy  :   -50.4415067 Eh     change       -0.2513556E-06 Eh
   gradient norm :     0.0001986 Eh/α   predicted    -0.1041154E-06 ( -58.58%)
   displ. norm   :     0.0163287 α      lambda       -0.3195785E-06
   maximum displ.:     0.0079531 α      in ANC's #12, #5, #8, ...

........................................................................
.............................. CYCLE   76 ..............................
........................................................................

 iter      E             dE          RMSdq      gap      omega  full diag
   1    -51.0331656 -0.510332E+02  0.378E-03    2.28       0.0  T
   2    -51.0331656 -0.107118E-07  0.227E-03    2.28       7.9  T
   3    -51.0331656  0.220322E-07  0.103E-03    2.28      17.4  T
   4    -51.0331656 -0.258224E-07  0.199E-04    2.28      90.2  T
   5    -51.0331656 -0.727461E-09  0.657E-05    2.28     273.4  T
     SCC iter.                  ...        0 min,  0.008 sec
     gradient                   ...        0 min,  0.019 sec
 * total energy  :   -50.4415070 Eh     change       -0.3331173E-06 Eh
   gradient norm :     0.0001455 Eh/α   predicted    -0.1613431E-06 ( -51.57%)
   displ. norm   :     0.0178942 α      lambda       -0.2208102E-06
   maximum displ.:     0.0086410 α      in ANC's #5, #12, #8, ...

........................................................................
.............................. CYCLE   77 ..............................
........................................................................

 iter      E             dE          RMSdq      gap      omega  full diag
   1    -51.0331912 -0.510332E+02  0.379E-03    2.28       0.0  T
   2    -51.0331912 -0.520669E-08  0.228E-03    2.28       7.9  T
   3    -51.0331912  0.174299E-07  0.858E-04    2.28      20.9  T
   4    -51.0331912 -0.198826E-07  0.135E-04    2.28     132.6  T
   5    -51.0331912 -0.282029E-09  0.532E-05    2.28     337.8  T
     SCC iter.                  ...        0 min,  0.009 sec
     gradient                   ...        0 min,  0.020 sec
 * total energy  :   -50.4415072 Eh     change       -0.2625561E-06 Eh
   gradient norm :     0.0002449 Eh/α   predicted    -0.1116966E-06 ( -57.46%)
   displ. norm   :     0.0294870 α      lambda       -0.3266465E-06
   maximum displ.:     0.0140316 α      in ANC's #5, #12, #8, ...

........................................................................
.............................. CYCLE   78 ..............................
........................................................................

 iter      E             dE          RMSdq      gap      omega  full diag
   1    -51.0331569 -0.510332E+02  0.580E-03    2.28       0.0  T
   2    -51.0331569 -0.522880E-08  0.349E-03    2.28       5.2  T
   3    -51.0331569  0.155143E-07  0.807E-04    2.28      22.3  T
   4    -51.0331569 -0.181525E-07  0.145E-04    2.28     123.8  T
   5    -51.0331569 -0.182816E-09  0.649E-05    2.28     276.6  T
     SCC iter.                  ...        0 min,  0.008 sec
     gradient                   ...        0 min,  0.018 sec
 * total energy  :   -50.4415076 Eh     change       -0.3513695E-06 Eh
   gradient norm :     0.0002812 Eh/α   predicted    -0.1643541E-06 ( -53.22%)
   displ. norm   :     0.0226119 α      lambda       -0.2154679E-06
   maximum displ.:     0.0105853 α      in ANC's #5, #2, #12, ...

........................................................................
.............................. CYCLE   79 ..............................
........................................................................

 iter      E             dE          RMSdq      gap      omega  full diag
   1    -51.0331028 -0.510331E+02  0.422E-03    2.28       0.0  T
   2    -51.0331028 -0.288340E-08  0.254E-03    2.28       7.1  T
   3    -51.0331028  0.168662E-09  0.208E-04    2.28      86.4  T
   4    -51.0331028 -0.707843E-09  0.108E-04    2.28     166.0  T
   5    -51.0331028 -0.195165E-09  0.479E-05    2.28     375.0  T
     SCC iter.                  ...        0 min,  0.007 sec
     gradient                   ...        0 min,  0.014 sec
 * total energy  :   -50.4415078 Eh     change       -0.2110056E-06 Eh
   gradient norm :     0.0001840 Eh/α   predicted    -0.1106453E-06 ( -47.56%)
   displ. norm   :     0.0071043 α      lambda       -0.1370872E-06
   maximum displ.:     0.0032004 α      in ANC's #3, #10, #9, ...

........................................................................
.............................. CYCLE   80 ..............................
........................................................................

 iter      E             dE          RMSdq      gap      omega  full diag
   1    -51.0330787 -0.510331E+02  0.174E-03    2.28       0.0  T
   2    -51.0330787 -0.489695E-08  0.104E-03    2.28      17.2  T
   3    -51.0330787  0.468314E-08  0.568E-04    2.28      31.6  T
   4    -51.0330787 -0.606825E-08  0.141E-04    2.28     127.8  T
   5    -51.0330787 -0.367542E-09  0.383E-05    2.28     468.6  T
     SCC iter.                  ...        0 min,  0.007 sec
     gradient                   ...        0 min,  0.017 sec
 * total energy  :   -50.4415080 Eh     change       -0.1598001E-06 Eh
   gradient norm :     0.0000913 Eh/α   predicted    -0.7203654E-07 ( -54.92%)
   displ. norm   :     0.0085159 α      lambda       -0.1099179E-06
   maximum displ.:     0.0041298 α      in ANC's #3, #10, #9, ...

........................................................................
.............................. CYCLE   81 ..............................
........................................................................

 iter      E             dE          RMSdq      gap      omega  full diag
   1    -51.0330638 -0.510331E+02  0.205E-03    2.28       0.0  T
   2    -51.0330638 -0.298169E-08  0.123E-03    2.28      14.7  T
   3    -51.0330638  0.516086E-08  0.505E-04    2.28      35.6  T
   4    -51.0330638 -0.606742E-08  0.116E-04    2.28     155.1  T
   5    -51.0330638 -0.236639E-09  0.401E-05    2.28     447.4  T
     SCC iter.                  ...        0 min,  0.007 sec
     gradient                   ...        0 min,  0.012 sec
 * total energy  :   -50.4415081 Eh     change       -0.1187650E-06 Eh
   gradient norm :     0.0001287 Eh/α   predicted    -0.5584225E-07 ( -52.98%)
   displ. norm   :     0.0071774 α      lambda       -0.6543799E-07
   maximum displ.:     0.0033562 α      in ANC's #3, #10, #9, ...

........................................................................
.............................. CYCLE   82 ..............................
........................................................................

 iter      E             dE          RMSdq      gap      omega  full diag
   1    -51.0330891 -0.510331E+02  0.162E-03    2.28       0.0  T
   2    -51.0330891 -0.448082E-09  0.968E-04    2.28      18.5  T
   3    -51.0330891  0.139927E-09  0.127E-04    2.28     141.6  T
   4    -51.0330891 -0.334886E-09  0.533E-05    2.28     336.9  T
     SCC iter.                  ...        0 min,  0.006 sec
     gradient                   ...        0 min,  0.013 sec
 * total energy  :   -50.4415082 Eh     change       -0.7491030E-07 Eh
   gradient norm :     0.0001179 Eh/α   predicted    -0.3361229E-07 ( -55.13%)
   displ. norm   :     0.0075671 α      lambda       -0.5680406E-07
   maximum displ.:     0.0035158 α      in ANC's #10, #2, #9, ...

   *** GEOMETRY OPTIMIZATION CONVERGED AFTER 82 ITERATIONS ***

------------------------------------------------------------------------
 total energy gain   :        -0.0114693 Eh       -7.1971 kcal/mol
 total RMSD          :         0.9521507 a0        0.5039 Å
 total power (kW/mol):        -0.3672286 (step)  -10.7803 (real)
------------------------------------------------------------------------

 ANCopt (total)                0 d,  0 h,  0 min,  2.793 sec
 optimizer setup                ...        0 min,  0.001 sec (  0.053%)
 model hessian                  ...        0 min,  0.026 sec (  0.948%)
 ANC generation                 ...        0 min,  0.005 sec (  0.175%)
 coordinate transformation      ...        0 min,  0.001 sec (  0.045%)
 single point calculation       ...        0 min,  2.721 sec ( 97.395%)
 optimization log               ...        0 min,  0.020 sec (  0.727%)
 hessian update                 ...        0 min,  0.002 sec (  0.079%)
 rational function              ...        0 min,  0.011 sec (  0.401%)

================
 final structure:
================
31
 xtb: 6.7.1 (edcfbbe)
C           -4.23987798907126        1.95965217718893       -0.00173560787438
O           -2.92352380543449        1.43367930890434        0.00689265912973
C           -2.81562814593493        0.08806397643849       -0.04579340513638
O           -3.80246580377850       -0.62547957138019       -0.09484272849394
C           -1.41654906237807       -0.33104186558649       -0.03183803193119
C           -1.02697679407804       -1.62653955568202       -0.03797925017945
C           -1.91302079370281       -2.82849785155700       -0.05313680409927
N            0.31274844417085       -1.93975719863355       -0.03395449557350
C            1.33146884673901       -1.02412486657037       -0.13791794888622
C            2.69645813837802       -1.62201984794697       -0.25037741614255
C            1.03549555062407        0.29607338154458       -0.13852364730790
C            1.99462766492446        1.38684876778049       -0.27317526381919
O            1.67730281450709        2.56217808506659       -0.26649921641838
O            3.28492477065991        1.00256261807950       -0.41222190214815
C            4.23442621846350        2.04949892056309       -0.54536982108393
C           -0.39181154238449        0.78054252320703        0.01784708446619
H           -4.13203825701934        3.04099703087581        0.03014294863522
H           -4.76906979198730        1.65189855448551       -0.90704423404009
H           -4.79943359398571        1.60323401751413        0.86675599958546
H           -2.95599322998401       -2.53462981576448       -0.03329134979930
H           -1.72730560456700       -3.41415979685282       -0.95341591580261
H           -1.70050992776048       -3.45428828184962        0.81349587128735
H            0.55467069324919       -2.92041120183995       -0.04230959752057
H            3.34202044663492       -1.24615989453855        0.53989611578400
H            2.65059633391342       -2.70705861692942       -0.18481149425688
H            3.15409344323483       -1.34387851113584       -1.19745258676166
H            4.21372144745840        2.69885322825555        0.33307725729396
H            5.20332285387538        1.56566525979838       -0.64189955829596
H            4.01613922305097        2.65408380705181       -1.42888745244781
H           -0.60250169446720        1.51627826975127       -0.76542458162250
H           -0.48531085335015        1.32793694966290        0.96472694766020

 Bond Distances (Angstroems)
 ---------------------------
C1-O2=1.4176         C1-H17=1.0872        C1-H18=1.0929        C1-H19=1.0929        O2-C1=1.4176         O2-C3=1.3510         
C3-O2=1.3510         C3-O4=1.2188         C3-C5=1.4606         O4-C3=1.2188         C5-C3=1.4606         C5-C6=1.3528         
C5-C16=1.5127        C6-C5=1.3528         C6-C7=1.4933         C6-N8=1.3759         C7-C6=1.4933         C7-H20=1.0838        
C7-H21=1.0900        C7-H22=1.0899        N8-C6=1.3759         N8-C9=1.3737         N8-H23=1.0101        C9-N8=1.3737         
C9-C10=1.4944        C9-C11=1.3530        C10-C9=1.4944        C10-H24=1.0875       C10-H25=1.0880       C10-H26=1.0880       
C11-C9=1.3530        C11-C12=1.4587       C11-C16=1.5154       C12-C11=1.4587       C12-O13=1.2174       C12-O14=1.3535       
O13-C12=1.2174       O14-C12=1.3535       O14-C15=1.4196       C15-O14=1.4196       C15-H27=1.0926       C15-H28=1.0873       
C15-H29=1.0926       C16-C5=1.5127        C16-C11=1.5154       C16-H30=1.0951       C16-H31=1.0977       H17-C1=1.0872        
H18-C1=1.0929        H19-C1=1.0929        H20-C7=1.0838        H21-C7=1.0900        H22-C7=1.0899        H23-N8=1.0101        
H24-C10=1.0875       H25-C10=1.0880       H26-C10=1.0880       H27-C15=1.0926       H28-C15=1.0873       H29-C15=1.0926       
H30-C16=1.0951       H31-C16=1.0977       
 C  H  Rav=1.0904 sigma=0.0036  Rmin=1.0838  Rmax=1.0977    14
 C  C  Rav=1.4551 sigma=0.0621  Rmin=1.3528  Rmax=1.5154     8
 N  H  Rav=1.0101 sigma=0.0000  Rmin=1.0101  Rmax=1.0101     1
 N  C  Rav=1.3748 sigma=0.0011  Rmin=1.3737  Rmax=1.3759     2
 O  C  Rav=1.3296 sigma=0.0834  Rmin=1.2174  Rmax=1.4196     6

 selected bond angles (degree)
 --------------------
H17-C1-O2=106.07               H18-C1-O2=110.50               H18-C1-H17=110.64              H19-C1-O2=110.46               
H19-C1-H17=110.60              H19-C1-H18=108.57              C3-O2-C1=116.33                O4-C3-O2=121.34                
C5-C3-O2=111.22                C5-C3-O4=127.44                C6-C5-C3=123.41                C16-C5-C3=116.00               
C16-C5-C6=120.58               C7-C6-C5=126.87                N8-C6-C5=119.89                N8-C6-C7=113.24                
H20-C7-C6=110.64               H21-C7-C6=109.86               H21-C7-H20=108.95              H22-C7-C6=109.78               
H22-C7-H20=109.19              H22-C7-H21=108.36              C9-N8-C6=124.76                H23-N8-C6=117.01               
H23-N8-C9=117.96               C10-C9-N8=114.61               C11-C9-N8=119.22               C11-C9-C10=126.17              
H24-C10-C9=110.44              H25-C10-C9=110.85              H25-C10-H24=109.02             H26-C10-C9=110.33              
H26-C10-H24=107.13             H26-C10-H25=108.97             

 selected dihedral angles (degree)
 ---------------------------------
C3-O2-C1-H17=180.82           C3-O2-C1-H18=300.77           C3-O2-C1-H19= 60.93           O4-C3-O2-C1=359.84            
C5-C3-O2-C1=179.96            C6-C5-C3-O2=178.06            C6-C5-C3-O4=358.19            C16-C5-C3-O2=359.22           
C16-C5-C3-O4=179.34           C7-C6-C5-C3=359.70            C7-C6-C5-C16=178.50           N8-C6-C5-C3=179.52            
N8-C6-C5-C16=358.31           H20-C7-C6-C5=358.55           H20-C7-C6-N8=178.73           H21-C7-C6-C5=118.89           
H21-C7-C6-N8=299.07           H22-C7-C6-C5=237.96           H22-C7-C6-N8= 58.14           C9-N8-C6-C5=354.20            
C9-N8-C6-C7=174.04            H23-N8-C6-C5=180.22           H23-N8-C6-C7=  0.06           C10-C9-N8-C6=185.99           
C10-C9-N8-H23=359.92          C11-C9-N8-C6=  5.63           C11-C9-N8-H23=179.56          H24-C10-C9-N8=236.50          
H24-C10-C9-C11= 56.89         H25-C10-C9-N8=357.44          H25-C10-C9-C11=177.83         H26-C10-C9-N8=118.25          
H26-C10-C9-C11=298.64         
           -------------------------------------------------
          |                Final Singlepoint                |
           -------------------------------------------------

          ...................................................
          :                      SETUP                      :
          :.................................................:
          :  # basis functions                  79          :
          :  # atomic orbitals                  79          :
          :  # shells                           47          :
          :  # electrons                        88          :
          :  max. iterations                   250          :
          :  Hamiltonian                  GFN2-xTB          :
          :  restarted?                      false          :
          :  GBSA solvation                   true          :
          :  PC potential                    false          :
          :  electronic temp.          300.0000000     K    :
          :  accuracy                    0.2000000          :
          :  -> integral cutoff          0.3198970E+02      :
          :  -> integral neglect         0.2000000E-08      :
          :  -> SCF convergence          0.2000000E-06 Eh   :
          :  -> wf. convergence          0.2000000E-04 e    :
          :  Broyden damping             0.4000000          :
          :  net charge                          0          :
          :  unpaired electrons                  0          :
          ...................................................

 iter      E             dE          RMSdq      gap      omega  full diag
   1    -51.0330891 -0.510331E+02  0.214E-05    2.28       0.0  T
   2    -51.0330891 -0.738964E-12  0.136E-05    2.28    1324.4  T
   3    -51.0330891  0.390799E-12  0.925E-06    2.28    1942.7  T

   *** convergence criteria satisfied after 3 iterations ***

         #    Occupation            Energy/Eh            Energy/eV
      -------------------------------------------------------------
         1        2.0000           -0.7310066             -19.8917
       ...           ...                  ...                  ...
        38        2.0000           -0.4440914             -12.0843
        39        2.0000           -0.4379762             -11.9179
        40        2.0000           -0.4373617             -11.9012
        41        2.0000           -0.4166497             -11.3376
        42        2.0000           -0.4081735             -11.1070
        43        2.0000           -0.4003265             -10.8934
        44        2.0000           -0.3576440              -9.7320 (HOMO)
        45                         -0.2737319              -7.4486 (LUMO)
        46                         -0.2330819              -6.3425
        47                         -0.1563373              -4.2542
        48                         -0.1369400              -3.7263
        49                         -0.0006999              -0.0190
       ...                                ...                  ...
        79                          0.6951710              18.9166
      -------------------------------------------------------------
                  HL-Gap            0.0839121 Eh            2.2834 eV
             Fermi-level           -0.3156880 Eh           -8.5903 eV

 SCC (total)                   0 d,  0 h,  0 min,  0.026 sec
 SCC setup                      ...        0 min,  0.001 sec (  3.414%)
 Dispersion                     ...        0 min,  0.000 sec (  1.181%)
 classical contributions        ...        0 min,  0.000 sec (  0.297%)
 integral evaluation            ...        0 min,  0.005 sec ( 18.777%)
 iterations                     ...        0 min,  0.005 sec ( 19.516%)
 molecular gradient             ...        0 min,  0.014 sec ( 55.735%)
 printout                       ...        0 min,  0.000 sec (  0.993%)

         :::::::::::::::::::::::::::::::::::::::::::::::::::::
         ::                     SUMMARY                     ::
         :::::::::::::::::::::::::::::::::::::::::::::::::::::
         :: total energy             -50.441508164934 Eh    ::
         :: total w/o Gsasa/hb       -50.423216340497 Eh    ::
         :: gradient norm              0.000117531101 Eh/a0 ::
         :: HOMO-LUMO gap              2.283365265046 eV    ::
         ::.................................................::
         :: SCC energy               -51.033081963509 Eh    ::
         :: -> isotropic ES            0.112880312730 Eh    ::
         :: -> anisotropic ES         -0.000376407545 Eh    ::
         :: -> anisotropic XC          0.008606588626 Eh    ::
         :: -> dispersion             -0.027271808930 Eh    ::
         :: -> Gsolv                  -0.026518924648 Eh    ::
         ::    -> Gelec               -0.008227100211 Eh    ::
         ::    -> Gsasa               -0.020499967576 Eh    ::
         ::    -> Ghb                  0.000000000000 Eh    ::
         ::    -> Gshift               0.002208143139 Eh    ::
         :: repulsion energy           0.591573798575 Eh    ::
         :: add. restraining           0.000000000000 Eh    ::
         :: total charge               0.000000000000 e     ::
         :::::::::::::::::::::::::::::::::::::::::::::::::::::

           -------------------------------------------------
          |                Property Printout                |
           -------------------------------------------------

    * Orbital Energies and Occupations

         #    Occupation            Energy/Eh            Energy/eV
      -------------------------------------------------------------
         1        2.0000           -0.7310066             -19.8917
       ...           ...                  ...                  ...
        32        2.0000           -0.4817896             -13.1102
        33        2.0000           -0.4738600             -12.8944
        34        2.0000           -0.4694814             -12.7752
        35        2.0000           -0.4691658             -12.7667
        36        2.0000           -0.4628963             -12.5960
        37        2.0000           -0.4564632             -12.4210
        38        2.0000           -0.4440914             -12.0843
        39        2.0000           -0.4379762             -11.9179
        40        2.0000           -0.4373617             -11.9012
        41        2.0000           -0.4166497             -11.3376
        42        2.0000           -0.4081735             -11.1070
        43        2.0000           -0.4003265             -10.8934
        44        2.0000           -0.3576440              -9.7320 (HOMO)
        45                         -0.2737319              -7.4486 (LUMO)
        46                         -0.2330819              -6.3425
        47                         -0.1563373              -4.2542
        48                         -0.1369400              -3.7263
        49                         -0.0006999              -0.0190
        50                          0.0160257               0.4361
        51                          0.0431083               1.1730
        52                          0.0630028               1.7144
        53                          0.0666257               1.8130
        54                          0.1041453               2.8339
        55                          0.1339804               3.6458
       ...                                ...                  ...
        79                          0.6951710              18.9166
      -------------------------------------------------------------
                  HL-Gap            0.0839121 Eh            2.2834 eV
             Fermi-level           -0.3156880 Eh           -8.5903 eV

     #   Z          covCN         q      C6AA      α(0)
     1   6 C        3.653     0.038    20.241     6.461
     2   8 O        1.705    -0.273    18.521     5.811
     3   6 C        2.726     0.344    21.164     7.531
     4   8 O        0.856    -0.469    23.100     6.444
     5   6 C        2.953    -0.064    29.584     8.921
     6   6 C        2.888     0.085    26.102     8.376
     7   6 C        3.760    -0.135    23.153     6.860
     8   7 N        2.714    -0.120    23.601     7.215
     9   6 C        2.885     0.082    26.169     8.387
    10   6 C        3.759    -0.127    22.993     6.836
    11   6 C        2.954    -0.065    29.620     8.927
    12   6 C        2.727     0.341    21.204     7.539
    13   8 O        0.857    -0.465    23.026     6.434
    14   8 O        1.704    -0.278    18.610     5.824
    15   6 C        3.653     0.037    20.256     6.463
    16   6 C        3.816    -0.051    21.476     6.596
    17   1 H        0.925     0.069     2.102     2.267
    18   1 H        0.924     0.057     2.232     2.337
    19   1 H        0.924     0.057     2.233     2.337
    20   1 H        0.925     0.091     1.866     2.136
    21   1 H        0.925     0.067     2.116     2.275
    22   1 H        0.925     0.067     2.118     2.276
    23   1 H        0.860     0.200     1.108     1.649
    24   1 H        0.925     0.079     1.985     2.203
    25   1 H        0.925     0.062     2.175     2.306
    26   1 H        0.925     0.080     1.983     2.202
    27   1 H        0.924     0.057     2.236     2.339
    28   1 H        0.925     0.070     2.090     2.261
    29   1 H        0.924     0.057     2.238     2.339
    30   1 H        0.924     0.059     2.216     2.328
    31   1 H        0.924     0.049     2.332     2.388

 Mol. C6AA /au·bohr⁶  :       9580.268987
 Mol. C8AA /au·bohr⁸  :     217412.234493
 Mol. α(0) /au        :        148.267166


Wiberg/Mayer (AO) data.
largest (>0.10) Wiberg bond orders for each atom

 ---------------------------------------------------------------------------
     #   Z sym  total        # sym  WBO       # sym  WBO       # sym  WBO
 ---------------------------------------------------------------------------
     1   6 C    3.931 --    17 H    0.981    18 H    0.977    19 H    0.977
                             2 O    0.965
     2   8 O    2.286 --     3 C    1.097     1 C    0.965     4 O    0.152
     3   6 C    3.920 --     4 O    1.649     2 O    1.097     5 C    1.074
     4   8 O    1.982 --     3 C    1.649     2 O    0.152
     5   6 C    3.973 --     6 C    1.626     3 C    1.074    16 C    1.001
     6   6 C    3.968 --     5 C    1.626     8 N    1.151     7 C    1.029
     7   6 C    3.986 --     6 C    1.029    20 H    0.968    22 H    0.964
                            21 H    0.963
     8   7 N    3.523 --     9 C    1.157     6 C    1.151    23 H    0.925
     9   6 C    3.968 --    11 C    1.621     8 N    1.157    10 C    1.030
    10   6 C    3.989 --     9 C    1.030    25 H    0.978    24 H    0.962
                            26 H    0.960
    11   6 C    3.972 --     9 C    1.621    12 C    1.078    16 C    0.998
    12   6 C    3.922 --    13 O    1.664    14 O    1.085    11 C    1.078
    13   8 O    1.982 --    12 C    1.664    14 O    0.151
    14   8 O    2.273 --    12 C    1.085    15 C    0.964    13 O    0.151
    15   6 C    3.930 --    28 H    0.981    29 H    0.977    27 H    0.977
                            14 O    0.964
    16   6 C    3.994 --     5 C    1.001    11 C    0.998    30 H    0.959
                            31 H    0.956
    17   1 H    0.995 --     1 C    0.981
    18   1 H    0.996 --     1 C    0.977
    19   1 H    0.996 --     1 C    0.977
    20   1 H    0.991 --     7 C    0.968
    21   1 H    0.995 --     7 C    0.963
    22   1 H    0.995 --     7 C    0.964
    23   1 H    0.959 --     8 N    0.925
    24   1 H    0.993 --    10 C    0.962
    25   1 H    0.996 --    10 C    0.978
    26   1 H    0.993 --    10 C    0.960
    27   1 H    0.996 --    15 C    0.977
    28   1 H    0.995 --    15 C    0.981
    29   1 H    0.996 --    15 C    0.977
    30   1 H    0.996 --    16 C    0.959
    31   1 H    0.998 --    16 C    0.956
 ---------------------------------------------------------------------------

Topologies differ in total number of bonds
Writing topology from bond orders to xtbtopo.mol

molecular dipole:
                 x           y           z       tot (Debye)
 q only:        1.454      -1.970       0.002
   full:        1.549      -1.981      -0.012       6.391
molecular quadrupole (traceless):
                xx          xy          yy          xz          yz          zz
 q only:        1.197     -11.289       3.439      -2.011       0.522      -4.637
  q+dip:       -2.076     -13.041       4.104      -1.862       0.566      -2.028
   full:       -1.769     -12.674       2.504      -1.849       0.539      -0.735

           -------------------------------------------------
          |                Geometry Summary                 |
           -------------------------------------------------

      molecular mass/u    :      225.2415290
   center of mass at/Å    :       -0.1243231       0.1365331      -0.1481126
  moments of inertia/u·Å² :        0.5825735E+03   0.1567023E+04   0.2130896E+04
rotational constants/cm⁻¹ :        0.2893649E-01   0.1075774E-01   0.7911053E-02

 * 25 selected distances

     #   Z          #   Z                                           value/Å
     1   6 C        2   8 O                                       1.4175721
     2   8 O        3   6 C                                       1.3509620
     3   6 C        4   8 O                                       1.2187695
     5   6 C        6   6 C                                       1.3528189
     6   6 C        8   7 N                                       1.3758581
     8   7 N        9   6 C                                       1.3736748
     9   6 C       11   6 C                                       1.3529687
    12   6 C       13   8 O                                       1.2174313
    12   6 C       14   8 O                                       1.3534684
    14   8 O       15   6 C                                       1.4196328 (max)
     1   6 C       17   1 H                                       1.0871764
     1   6 C       18   1 H                                       1.0928587
     1   6 C       19   1 H                                       1.0928926
     7   6 C       20   1 H                                       1.0837638
     7   6 C       21   1 H                                       1.0899508
     7   6 C       22   1 H                                       1.0898747
     8   7 N       23   1 H                                       1.0100884 (min)
    10   6 C       24   1 H                                       1.0874529
    10   6 C       25   1 H                                       1.0879851
    10   6 C       26   1 H                                       1.0880001
    15   6 C       27   1 H                                       1.0925929
    15   6 C       28   1 H                                       1.0872782
    15   6 C       29   1 H                                       1.0926004
    16   6 C       30   1 H                                       1.0950855
    16   6 C       31   1 H                                       1.0977087

 * 5 distinct bonds (by element types)

   Z      Z             #   av. dist./Å        max./Å        min./Å
   1 H    6 C          14     1.0903729     1.0977087     1.0837638
   6 C    6 C           2     1.3528938     1.3529687     1.3528189
   1 H    7 N           1     1.0100884     1.0100884     1.0100884
   6 C    7 N           2     1.3747665     1.3758581     1.3736748
   6 C    8 O           6     1.3296393     1.4196328     1.2174313


optimized geometry written to: xtbopt.xyz


           -------------------------------------------------
          | TOTAL ENERGY              -50.441508164934 Eh   |
          | GRADIENT NORM               0.000117531101 Eh/α |
          | HOMO-LUMO GAP               2.283365265046 eV   |
           -------------------------------------------------

------------------------------------------------------------------------
 * finished run on 2026/09/10 at 23:05:47.876     
------------------------------------------------------------------------
 total:
 * wall-time:     0 d,  0 h,  0 min,  2.892 sec
 *  cpu-time:     0 d,  0 h,  0 min,  0.469 sec
 * ratio c/w:     0.162 speedup
 SCF:
 * wall-time:     0 d,  0 h,  0 min,  0.036 sec
Note: The following floating-point exceptions are signalling: IEEE_DIVIDE_BY_ZERO IEEE_UNDERFLOW_FLAG IEEE_DENORMAL
normal termination of xtb
 *  cpu-time:     0 d,  0 h,  0 min,  0.000 sec
 * ratio c/w:     0.000 speedup
 ANC optimizer:
 * wall-time:     0 d,  0 h,  0 min,  2.824 sec
 *  cpu-time:     0 d,  0 h,  0 min,  0.469 sec
 * ratio c/w:     0.166 speedup

