      -----------------------------------------------------------      
     |                   =====================                   |     
     |                           x T B                           |     
     |                   =====================                   |     
     |                         S. Grimme                         |     
     |          Mulliken Center for Theoretical Chemistry        |     
     |                    University of Bonn                     |     
      -----------------------------------------------------------      

   * xtb version 6.7.1 (edcfbbe) compiled by 'VssAdministrator@runnervm171ch' on 2026-06-10

   xtb is free software: you can redistribute it and/or modify it under
   the terms of the GNU Lesser General Public License as published by
   the Free Software Foundation, either version 3 of the License, or
   (at your option) any later version.
   
   xtb is distributed in the hope that it will be useful,
   but WITHOUT ANY WARRANTY; without even the implied warranty of
   MERCHANTABILITY or FITNESS FOR A PARTICULAR PURPOSE.  See the
   GNU Lesser General Public License for more details.
   
   Cite this work as:
   * C. Bannwarth, E. Caldeweyher, S. Ehlert, A. Hansen, P. Pracht,
     J. Seibert, S. Spicher, S. Grimme, WIREs Comput. Mol. Sci., 2020, 11,
     e01493. DOI: 10.1002/wcms.1493
   
   for GFN2-xTB:
   * C. Bannwarth, S. Ehlert and S. Grimme., J. Chem. Theory Comput., 2019,
     15, 1652-1671. DOI: 10.1021/acs.jctc.8b01176
   for GFN1-xTB:
   * S. Grimme, C. Bannwarth, P. Shushkov, J. Chem. Theory Comput., 2017,
     13, 1989-2009. DOI: 10.1021/acs.jctc.7b00118
   for GFN0-xTB:
   * P. Pracht, E. Caldeweyher, S. Ehlert, S. Grimme, ChemRxiv, 2019, preprint.
     DOI: 10.26434/chemrxiv.8326202.v1
   for GFN-FF:
   * S. Spicher and S. Grimme, Angew. Chem. Int. Ed., 2020, 59, 15665-15673.
     DOI: 10.1002/anie.202004239
   
   for ALPB and GBSA implicit solvation:
   * S. Ehlert, M. Stahn, S. Spicher, S. Grimme, J. Chem. Theory Comput.,
     2021, 17, 4250-4261. DOI: 10.1021/acs.jctc.1c00471
   
   for ddCOSMO and CPCM-X implicit solvation:
   * M. Stahn, S. Ehlert, S. Grimme, J. Phys. Chem. A,
     2023, XX, XXXX-XXXX. DOI: 10.1021/acs.jpca.3c04382
   
   for DFT-D4:
   * E. Caldeweyher, C. Bannwarth and S. Grimme, J. Chem. Phys., 2017,
     147, 034112. DOI: 10.1063/1.4993215
   * E. Caldeweyher, S. Ehlert, A. Hansen, H. Neugebauer, S. Spicher,
     C. Bannwarth and S. Grimme, J. Chem. Phys., 2019, 150, 154122.
     DOI: 10.1063/1.5090222
   * E. Caldeweyher, J.-M. Mewes, S. Ehlert and S. Grimme, Phys. Chem. Chem. Phys.
     2020, 22, 8499-8512. DOI: 10.1039/D0CP00502A
   
   for sTDA-xTB:
   * S. Grimme and C. Bannwarth, J. Chem. Phys., 2016, 145, 054103.
     DOI: 10.1063/1.4959605
   
   in the mass-spec context:
   * V. Asgeirsson, C. Bauer and S. Grimme, Chem. Sci., 2017, 8, 4879.
     DOI: 10.1039/c7sc00601b
   * J. Koopman and S. Grimme, ACS Omega 2019, 4, 12, 15120-15133.
     DOI: 10.1021/acsomega.9b02011
   
   for metadynamics refer to:
   * S. Grimme, J. Chem. Theory Comput., 2019, 155, 2847-2862
     DOI: 10.1021/acs.jctc.9b00143
   
   for SPH calculations refer to:
   * S. Spicher and S. Grimme, J. Chem. Theory Comput., 2021, 17, 1701-1714
     DOI: 10.1021/acs.jctc.0c01306
   
   for ONIOM refer to:
   * C. Plett, A. Katbashev, S. Ehlert, S. Grimme, M. Bursch,
     Phys. Chem. Chem. Phys., 2023, 25, 17860-17868. DOI: 10.1039/D3CP02178E
   
   for DIPRO refer to:
   * J. Kohn, N. Gildemeister, S. Grimme, D. Fazzi, A. Hansen,
     J. Chem. Phys., 2023, just accepted.
   
   for PTB refer to:
   * S. Grimme, M. Mueller, A. Hansen, J. Chem. Phys., 2023, 158, 124111.
     DOI: 10.1063/5.0137838
   
   with help from (in alphabetical order)
   P. Atkinson, C. Bannwarth, F. Bohle, G. Brandenburg, E. Caldeweyher
   M. Checinski, S. Dohm, S. Ehlert, S. Ehrlich, I. Gerasimov, C. Hölzer
   A. Katbashev, J. Kohn, J. Koopman, C. Lavigne, S. Lehtola, F. März, M. Müller,
   F. Musil, H. Neugebauer, J. Pisarek, C. Plett, P. Pracht, F. Pultar,
   J. Seibert, P. Shushkov, S. Spicher, M. Stahn, M. Steiner, T. Strunk,
   J. Stückrath, T. Rose, and J. Unsleber
   
 * started run on 2026/09/10 at 23:09:11.523     
   ID    Z sym.   atoms
    1    8 O      1, 3, 4, 17, 88, 90, 99, 100
    2   15 P      2
    3    6 C      5-16, 18-37, 59, 60, 62-73, 87, 89, 91-93, 95-98, 101, 102
    4    1 H      38-58, 74-86, 103-117
    5    7 N      61, 94

           -------------------------------------------------
          |                Calculation Setup                |
           -------------------------------------------------

          program call               : C:\Users\HUIWEI\miniconda3\envs\phase2ff\Library\bin\xtb.exe input.xyz --gfn 2 --chrg 0 --uhf 0 --alpb toluene --acc 0.2 --opt extreme
          coordinate file            : input.xyz
          omp threads                :                     1


molecular fragmentation (1/2 indicates fragments):
111111111111111111111111111111111111121111111111111111111122222222222222
222222222222222222222222222222222222222222222
# atoms in fragment 1/2:    57    60
 fragment masses (1/2) :      499.47      421.51
CMA distance (Bohr)    :   9.951
constraining FC (au)   :  0.0500

           -------------------------------------------------
          |                 G F N 2 - x T B                 |
           -------------------------------------------------

        Reference                      10.1021/acs.jctc.8b01176
      * Hamiltonian:
        H0-scaling (s, p, d)           1.850000    2.230000    2.230000
        zeta-weighting                 0.500000
      * Dispersion:
        s8                             2.700000
        a1                             0.520000
        a2                             5.000000
        s9                             5.000000
      * Repulsion:
        kExp                           1.500000    1.000000
        rExp                           1.000000
      * Coulomb:
        alpha                          2.000000
        third order                    shell-resolved
        anisotropic                    true
        a3                             3.000000
        a5                             4.000000
        cn-shift                       1.200000
        cn-exp                         4.000000
        max-rad                        5.000000

      * Solvation model:               ALPB
        Solvent                        toluene
        Parameter file                 internal GFN2-xTB/ALPB
        Dielectric constant                7.0000E+00
        Reference state                gsolv [1 M gas/solution]
        Free energy shift                  2.2081E-03 Eh       1.3856E+00 kcal/mol
        Temperature                        2.9815E+02 K
        Density                            8.6700E-01 kg/L
        Solvent mass                       7.8110E+01 g/mol
        Interaction kernel             P16
        Born radius scaling (c1)           1.7172E+00
        Born radii integrator          GBOBC
        Born offset                        0.0000E+00 a0       0.0000E+00 AA
        H-bond correction              false
        Ion screening                  false
        Surface tension                    1.0000E-05 Eh       1.5569E+01 dyn/cm
        Grid points                               230 per atom

          ...................................................
          :                      SETUP                      :
          :.................................................:
          :  # basis functions                 327          :
          :  # atomic orbitals                 326          :
          :  # shells                          186          :
          :  # electrons                       340          :
          :  max. iterations                   250          :
          :  Hamiltonian                  GFN2-xTB          :
          :  restarted?                      false          :
          :  GBSA solvation                   true          :
          :  PC potential                    false          :
          :  electronic temp.          300.0000000     K    :
          :  accuracy                    0.2000000          :
          :  -> integral cutoff          0.3198970E+02      :
          :  -> integral neglect         0.2000000E-08      :
          :  -> SCF convergence          0.2000000E-06 Eh   :
          :  -> wf. convergence          0.2000000E-04 e    :
          :  Broyden damping             0.4000000          :
          :  net charge                          0          :
          :  unpaired electrons                  0          :
          ...................................................

 iter      E             dE          RMSdq      gap      omega  full diag
   1   -190.8715651 -0.190872E+03  0.477E+00    2.10       0.0  T
   2   -191.1662390 -0.294674E+00  0.278E+00    1.24       1.0  T
   3   -191.1258396  0.403994E-01  0.135E+00    1.17       1.0  T
   4   -191.2039862 -0.781466E-01  0.526E-01    0.93       1.0  T
   5   -191.2231673 -0.191811E-01  0.192E-01    1.01       1.0  T
   6   -191.2248150 -0.164770E-02  0.919E-02    1.06       1.0  T
   7   -191.2254662 -0.651220E-03  0.448E-02    1.04       1.0  T
   8   -191.2255345 -0.682728E-04  0.261E-02    1.04       1.0  T
   9   -191.2255633 -0.288308E-04  0.133E-02    1.05       1.0  T
  10   -191.2255696 -0.625998E-05  0.570E-03    1.05       1.6  T
  11   -191.2255720 -0.239526E-05  0.250E-03    1.05       3.7  T
  12   -191.2255721 -0.121440E-06  0.116E-03    1.05       7.9  T
  13   -191.2255722 -0.822948E-07  0.402E-04    1.05      23.0  T
  14   -191.2255722 -0.635293E-08  0.139E-04    1.05      66.4  T
  15   -191.2255722 -0.655291E-09  0.739E-05    1.05     125.1  T

   *** convergence criteria satisfied after 15 iterations ***

         #    Occupation            Energy/Eh            Energy/eV
      -------------------------------------------------------------
         1        2.0000           -0.7369343             -20.0530
       ...           ...                  ...                  ...
       164        2.0000           -0.4025561             -10.9541
       165        2.0000           -0.3981999             -10.8356
       166        2.0000           -0.3871855             -10.5359
       167        2.0000           -0.3845640             -10.4645
       168        2.0000           -0.3798881             -10.3373
       169        2.0000           -0.3678954             -10.0109
       170        2.0000           -0.3585476              -9.7566 (HOMO)
       171                         -0.3200803              -8.7098 (LUMO)
       172                         -0.2735704              -7.4442
       173                         -0.2713091              -7.3827
       174                         -0.2596640              -7.0658
       175                         -0.2447221              -6.6592
       ...                                ...                  ...
       326                          1.3135733              35.7441
      -------------------------------------------------------------
                  HL-Gap            0.0384673 Eh            1.0467 eV
             Fermi-level           -0.3393140 Eh           -9.2332 eV

 SCC (total)                   0 d,  0 h,  0 min,  0.723 sec
 SCC setup                      ...        0 min,  0.007 sec (  0.902%)
 Dispersion                     ...        0 min,  0.003 sec (  0.474%)
 classical contributions        ...        0 min,  0.001 sec (  0.142%)
 integral evaluation            ...        0 min,  0.064 sec (  8.829%)
 iterations                     ...        0 min,  0.381 sec ( 52.722%)
 molecular gradient             ...        0 min,  0.264 sec ( 36.536%)
 printout                       ...        0 min,  0.003 sec (  0.391%)

         :::::::::::::::::::::::::::::::::::::::::::::::::::::
         ::                     SUMMARY                     ::
         :::::::::::::::::::::::::::::::::::::::::::::::::::::
         :: total energy            -188.258157678542 Eh    ::
         :: total w/o Gsasa/hb      -188.182457508596 Eh    ::
         :: gradient norm              0.000065459780 Eh/a0 ::
         :: HOMO-LUMO gap              1.046748880621 eV    ::
         ::.................................................::
         :: SCC energy              -191.210836040982 Eh    ::
         :: -> isotropic ES            0.281733044781 Eh    ::
         :: -> anisotropic ES         -0.036572211120 Eh    ::
         :: -> anisotropic XC          0.083068856613 Eh    ::
         :: -> dispersion             -0.201794033843 Eh    ::
         :: -> Gsolv                  -0.090998762253 Eh    ::
         ::    -> Gelec               -0.015298592307 Eh    ::
         ::    -> Gsasa               -0.077908313085 Eh    ::
         ::    -> Ghb                  0.000000000000 Eh    ::
         ::    -> Gshift               0.002208143139 Eh    ::
         :: repulsion energy           2.952678362440 Eh    ::
         :: add. restraining           0.000000000000 Eh    ::
         :: total charge               0.000000000000 e     ::
         :::::::::::::::::::::::::::::::::::::::::::::::::::::

      ----------------------------------------------------------- 
     |                   =====================                   |
     |                        A N C O P T                        |
     |                   =====================                   |
     |               Approximate Normal Coordinate               |
     |                Rational Function Optimizer                |
      ----------------------------------------------------------- 
      ----------------------------------------------------------- 
     |                   =====================                   |
     |                        A N C O P T                        |
     |                   =====================                   |
     |               Approximate Normal Coordinate               |
     |                Rational Function Optimizer                |
      ----------------------------------------------------------- 

          ...................................................
          :                      SETUP                      :
          :.................................................:
          :   optimization level           extreme          :
          :   max. optcycles                  2340          :
          :   ANC micro-cycles                  20          :
          :   degrees of freedom               345          :
          :.................................................:
          :   RF solver                   davidson          :
          :   write xtbopt.log                true          :
          :   linear?                        false          :
          :   energy convergence         0.5000000E-07 Eh   :
          :   grad. convergence          0.5000000E-04 Eh/α :
          :   maxmium RF displ.          1.0000000          :
          :   Hlow (freq-cutoff)         0.1000000E-01      :
          :   Hmax (freq-cutoff)         5.0000000          :
          :   S6 in model hess.         20.0000000          :
          ...................................................

generating ANC from exact Hessian ...
Using Lindh-Hessian (1995)
 Shifting diagonal of input Hessian by    1.0115563775586292E-002
 Lowest  eigenvalues of input Hessian
    0.010000    0.000000    0.000000    0.000000    0.000000    0.000000
    0.000000    0.010220    0.010282    0.010373    0.010414    0.010458
    0.010623    0.010650    0.010708    0.010940    0.011011    0.011097
 Highest eigenvalues
    2.145865    2.262905    2.327484    2.337536    2.448336    3.124527


........................................................................
.............................. CYCLE    1 ..............................
........................................................................

 iter      E             dE          RMSdq      gap      omega  full diag
   1   -191.2255722 -0.191226E+03  0.338E-05    1.05       0.0  T
   2   -191.2255722 -0.205205E-10  0.232E-05    1.05     399.3  T
   3   -191.2255722 -0.162288E-10  0.153E-05    1.05     603.5  T
     SCC iter.                  ...        0 min,  0.066 sec
     gradient                   ...        0 min,  0.269 sec
 * total energy  :  -188.2581577 Eh     change       -0.1830927E-09 Eh
   gradient norm :     0.0000473 Eh/α   predicted     0.0000000E+00 (-100.00%)
   displ. norm   :     0.0000710 α      lambda        0.0000000E+00
   maximum displ.:     0.0000243 α      in ANC's #1, #41, #13, ...

   *** GEOMETRY OPTIMIZATION CONVERGED AFTER 1 ITERATIONS ***

------------------------------------------------------------------------
 total energy gain   :        -0.0000000 Eh       -0.0000 kcal/mol
 total RMSD          :         0.0000000 a0        0.0000 Å
 total power (kW/mol):        -0.0000005 (step)   -0.0000 (real)
------------------------------------------------------------------------

 ANCopt (total)                0 d,  0 h,  0 min,  0.573 sec
 optimizer setup                ...        0 min,  0.002 sec (  0.272%)
 model hessian                  ...        0 min,  0.132 sec ( 23.001%)
 ANC generation                 ...        0 min,  0.019 sec (  3.238%)
 coordinate transformation      ...        0 min,  0.000 sec (  0.018%)
 single point calculation       ...        0 min,  0.418 sec ( 73.016%)
 optimization log               ...        0 min,  0.001 sec (  0.129%)
 hessian update                 ...        0 min,  0.000 sec (  0.000%)
 rational function              ...        0 min,  0.001 sec (  0.241%)

================
 final structure:
================
117
 xtb: 6.7.1 (edcfbbe)
O           -0.86505886128500        3.16542731914500       -1.65661013904200
P           -0.00795506446700        2.78395022542800       -0.51458590707900
O            0.76496061647300        3.83625228747500        0.21919904670500
O            0.99714967222800        1.58918955662300       -1.01810392532200
C            1.66229289656200        0.91123779244400       -0.03101061150200
C            3.02522562708100        1.19674875249000        0.24645812304000
C            3.65546645347800        0.45759618440200        1.22094196251800
C            2.97833258569800       -0.50871809619100        1.98543740323300
C            3.62842916653600       -1.21535015442500        3.02011568498300
C            2.94290333771200       -2.10393461683600        3.79928756371000
C            1.57220345421800       -2.31306190431000        3.58299062258400
C            0.91815828855900       -1.65703267390400        2.57667581160000
C            1.60397057174900       -0.75624918494100        1.73325923374500
C            0.97022725895700       -0.05334712425700        0.67241814979300
C           -0.45065720925000       -0.29541576111600        0.34422249957600
C           -1.34153412481100        0.75870694430200        0.41066043513900
O           -0.87606242870800        2.01812175875700        0.68724422028200
C           -2.73901125815400        0.53773941706600        0.30317392401000
C           -3.19020176917400       -0.73103528834200        0.03751271250400
C           -2.30437268136300       -1.80338936903700       -0.18064328974400
C           -2.76791418200500       -3.08559019927000       -0.54368298120000
C           -1.89087742704300       -4.11017638619900       -0.76474147463700
C           -0.51051792138900       -3.89167295139800       -0.63916579247100
C           -0.03091293871500       -2.66361747229600       -0.27524868193300
C           -0.91078250128500       -1.58933805313600       -0.02191514371600
C            3.75791177142300        2.25994569874300       -0.45983365958800
C            4.67551118374400        3.04313767562600        0.24296203201600
C            5.39394973420700        4.03732503683500       -0.39336587882700
C            5.19474946579500        4.28781220438800       -1.74087613955800
C            4.28780233858100        3.51823438565200       -2.44860979832100
C            3.58482844560700        2.50543046207200       -1.82037251217000
C           -3.71068828998700        1.62194316951100        0.54772991402700
C           -3.67654887532700        2.81427895923600       -0.16902951054200
C           -4.61005171068600        3.80644667457400        0.08617301462200
C           -5.58195242984700        3.62454530320800        1.05675997129400
C           -5.62318857106500        2.43779990834400        1.77073544788800
C           -4.69722806205100        1.44215332858500        1.51582166675200
H            2.07731992885600        4.53082841490600        0.88948308193700
H            4.70625044543200        0.61779413649600        1.41659509775300
H            4.67952599518100       -1.02893890821300        3.18948844250400
H            3.44490841862300       -2.64066332687500        4.59105096134000
H            1.03205013302600       -2.99761123708400        4.22077745549900
H           -0.13867125833500       -1.82017632684700        2.42650738782000
H           -4.25390050260300       -0.90903035461400       -0.04166900185400
H           -3.83260773864500       -3.23719063780600       -0.65359370811000
H           -2.25174784734900       -5.08847467900100       -1.04708689410800
H            0.17534525560300       -4.70257731618800       -0.83755659155400
H            1.03389733026600       -2.50102754654000       -0.19363668165400
H            4.81825994361300        2.87162775806400        1.30107501789100
H            6.11564488158600        4.61898375825500        0.16198290290000
H            5.74581404341300        5.07376548886200       -2.23557393219200
H            4.13174101184500        3.69924553236800       -3.50218805913000
H            2.90364709088400        1.89558851623100       -2.39279468554800
H           -2.92727058272100        2.95510653791100       -0.93222856930600
H           -4.58416821279900        4.72206310956800       -0.48792199050400
H           -6.30705265468700        4.40124728600800        1.25167149505000
H           -6.38030019717100        2.28636712982100        2.52670231562200
H           -4.72606822476100        0.51929094236900        2.07798936175800
C            3.90442472934600        6.17317579736900        3.21718493337300
C            3.15365794013900        5.10226937773400        2.50357113132800
N            2.76482099494900        5.22615072438700        1.26747345509000
C            3.04692854491200        6.21317414791500        0.31268898449600
C            4.20858723680900        6.98395699380100        0.29701513640500
C            4.42266331479300        7.89094786834900       -0.72633703409700
C            3.49580795565100        8.04205301155900       -1.74331351063500
C            2.35063851973500        7.25888080347800       -1.74523091723100
C            2.13009838473900        6.34739498445300       -0.73269353513200
C            2.85564850138400        3.87501117812500        3.23525556573100
C            3.73342418760500        3.44465439386900        4.24214954307400
C            3.49530139793000        2.27136364826400        4.92883602480700
C            2.36274179683800        1.51628645587400        4.65828266963600
C            1.48266519110700        1.93573836642800        3.67589166588600
C            1.72882421909200        3.09205437688200        2.96064643660300
H            4.98171643404800        6.06306454797100        3.09193567297300
H            3.68292105861400        6.12645929395700        4.28156654468600
H            3.59867627598200        7.14799165426400        2.83757859246300
H            4.97285656853100        6.86237810590600        1.04337529684300
H            5.32686802797300        8.48094186295500       -0.72786825259300
H            3.66845706874700        8.75552954845900       -2.53501014177900
H            1.62699263558300        7.35368952706900       -2.54072807640600
H            1.25077351901800        5.72455035150300       -0.74138225791000
H            4.62615291736400        4.00859859717800        4.46487169643500
H            4.19257248295700        1.94591569600900        5.68680675516800
H            2.16726043384900        0.60948116111100        5.20977227088100
H            0.59422725942400        1.36194930367900        3.46459184503700
H            1.02509706026100        3.39573309118400        2.20669510023800
C            1.52091766269500        4.74798178866400        6.92597340556700
O            0.98332876137800        5.18134390741000        5.68633512519900
C           -0.04931119070700        4.44894434226000        5.19690390260700
O           -0.46777579211200        3.47815479651000        5.80081263346700
C           -0.52466061074000        4.98810577701100        3.93030037471000
C           -1.47027351360700        4.38822766086800        3.16355094545100
C           -2.20848430061000        3.13604421056400        3.49565986838900
N           -1.81887012535000        4.93092926629000        1.95598471988200
C           -1.18392393951300        5.99769242641600        1.36613582080400
C           -1.62215641214400        6.23070678975700       -0.04034750624000
C           -0.25585078714500        6.68830503939700        2.06789805045800
C            0.52032539877100        7.83564266875600        1.60520956262400
O            1.57435318130800        8.17399061322900        2.11746440067100
O           -0.02437000155100        8.54239168133500        0.59592169589100
C            0.67895796012800        9.71188512879500        0.19863359848800
C            0.10279010150100        6.28766151917400        3.48555174059100
H            2.30179560641100        5.46048097282800        7.18021764124000
H            1.93108023823700        3.73975823560500        6.83113234663900
H            0.74594682456000        4.73922844951500        7.69573695794500
H           -1.94138908938000        2.78189054926800        4.48448409570800
H           -1.96583457197200        2.37268614331400        2.75814209815500
H           -3.28210829006300        3.31701126135600        3.44772133404800
H           -2.41962544753200        4.37249087830600        1.36070976973800
H           -1.09224953900200        7.05686561481400       -0.49574537803000
H           -2.69048074178500        6.44304138231000       -0.05947658257100
H           -1.44309855489600        5.32409893948400       -0.62111727558600
H            0.74254550292000       10.41447144421600        1.03262183031800
H            0.10647432275800       10.14108463203300       -0.61961489703100
H            1.68990405382400        9.45863769217500       -0.12775325989600
H            1.19123746873800        6.21877859688500        3.56888390561400
H           -0.19572213567300        7.09079240975400        4.17301045365100

 Bond Distances (Angstroems)
 ---------------------------
O1-P2=1.4780         P2-O1=1.4780         P2-O3=1.4977         P2-O4=1.6405         P2-O17=1.6687        O3-P2=1.4977         
O4-P2=1.6405         O4-C5=1.3698         C5-O4=1.3698         C5-C6=1.4199         C5-C14=1.3799        C6-C5=1.4199         
C6-C7=1.3759         C6-C26=1.4718        C7-C6=1.3759         C7-C8=1.4060         C7-H39=1.0808        C8-C7=1.4060         
C8-C9=1.4116         C8-C13=1.4191        C9-C8=1.4116         C9-C10=1.3662        C9-H40=1.0809        C10-C9=1.3662        
C10-C11=1.4033       C10-H41=1.0803       C11-C10=1.4033       C11-C12=1.3678       C11-H42=1.0803       C12-C11=1.3678       
C12-C13=1.4118       C12-H43=1.0798       C13-C8=1.4191        C13-C12=1.4118       C13-C14=1.4216       C14-C5=1.3799        
C14-C13=1.4216       C14-C15=1.4782       C15-C14=1.4782       C15-C16=1.3818       C15-C25=1.4213       C16-C15=1.3818       
C16-O17=1.3709       C16-C18=1.4189       O17-P2=1.6687        O17-C16=1.3709       C18-C16=1.4189       C18-C19=1.3726       
C18-C32=1.4763       C19-C18=1.3726       C19-C20=1.4079       C19-H44=1.0814       C20-C19=1.4079       C20-C21=1.4109       
C20-C25=1.4188       C21-C20=1.4109       C21-C22=1.3667       C21-H45=1.0810       C22-C21=1.3667       C22-C23=1.4032       
C22-H46=1.0803       C23-C22=1.4032       C23-C24=1.3677       C23-H47=1.0804       C24-C23=1.3677       C24-C25=1.4115       
C24-H48=1.0802       C25-C15=1.4213       C25-C20=1.4188       C25-C24=1.4115       C26-C6=1.4718        C26-C27=1.3962       
C26-C31=1.3933       C27-C26=1.3962       C27-C28=1.3818       C27-H49=1.0814       C28-C27=1.3818       C28-C29=1.3850       
C28-H50=1.0805       C29-C28=1.3850       C29-C30=1.3841       C29-H51=1.0799       C30-C29=1.3841       C30-C31=1.3837       
C30-H52=1.0803       C31-C26=1.3933       C31-C30=1.3837       C31-H53=1.0787       C32-C18=1.4763       C32-C33=1.3916       
C32-C37=1.3938       C33-C32=1.3916       C33-C34=1.3860       C33-H54=1.0788       C34-C33=1.3860       C34-C35=1.3855       
C34-H55=1.0810       C35-C34=1.3855       C35-C36=1.3856       C35-H56=1.0803       C36-C35=1.3856       C36-C37=1.3834       
C36-H57=1.0806       C37-C32=1.3938       C37-C36=1.3834       C37-H58=1.0810       H38-N61=1.0483       H39-C7=1.0808        
H40-C9=1.0809        H41-C10=1.0803       H42-C11=1.0803       H43-C12=1.0798       H44-C19=1.0814       H45-C21=1.0810       
H46-C22=1.0803       H47-C23=1.0804       H48-C24=1.0802       H49-C27=1.0814       H50-C28=1.0805       H51-C29=1.0799       
H52-C30=1.0803       H53-C31=1.0787       H54-C33=1.0788       H55-C34=1.0810       H56-C35=1.0803       H57-C36=1.0806       
H58-C37=1.0810       C59-C60=1.4899       C59-H74=1.0901       C59-H75=1.0882       C59-H76=1.0899       C60-C59=1.4899       
C60-N61=1.3017       C60-C68=1.4596       N61-H38=1.0483       N61-C60=1.3017       N61-C62=1.4019       C62-N61=1.4019       
C62-C63=1.3942       C62-C67=1.3969       C63-C62=1.3942       C63-C64=1.3841       C63-H77=1.0751       C64-C63=1.3841       
C64-C65=1.3842       C64-H78=1.0797       C65-C64=1.3842       C65-C66=1.3874       C65-H79=1.0796       C66-C65=1.3874       
C66-C67=1.3801       C66-H80=1.0796       C67-C62=1.3969       C67-C66=1.3801       C67-H81=1.0776       C68-C60=1.4596       
C68-C69=1.4034       C68-C73=1.3993       C69-C68=1.4034       C69-C70=1.3802       C69-H82=1.0792       C70-C69=1.3802       
C70-C71=1.3878       C70-H83=1.0801       C71-C70=1.3878       C71-C72=1.3840       C71-H84=1.0792       C72-C71=1.3840       
C72-C73=1.3818       C72-H85=1.0785       C73-C68=1.3993       C73-C72=1.3818       C73-H86=1.0751       H74-C59=1.0901       
H75-C59=1.0882       H76-C59=1.0899       H77-C63=1.0751       H78-C64=1.0797       H79-C65=1.0796       H80-C66=1.0796       
H81-C67=1.0776       H82-C69=1.0792       H83-C70=1.0801       H84-C71=1.0792       H85-C72=1.0785       H86-C73=1.0751       
C87-O88=1.4190       C87-H103=1.0872      C87-H104=1.0926      C87-H105=1.0923      O88-C87=1.4190       O88-C89=1.3573       
C89-O88=1.3573       C89-O90=1.2175       C89-C91=1.4563       O90-C89=1.2175       C91-C89=1.4563       C91-C92=1.3572       
C91-C102=1.5101      C92-C91=1.3572       C92-C93=1.4910       C92-N94=1.3690       C93-C92=1.4910       C93-H106=1.0838      
C93-H107=1.0888      C93-H108=1.0898      N94-C92=1.3690       N94-C95=1.3744       N94-H109=1.0135      C95-N94=1.3744       
C95-C96=1.4915       C95-C97=1.3530       C96-C95=1.4915       C96-H110=1.0820      C96-H111=1.0894      C96-H112=1.0915      
C97-C95=1.3530       C97-C98=1.4604       C97-C102=1.5162      C98-C97=1.4604       C98-O99=1.2198       C98-O100=1.3472      
O99-C98=1.2198       O100-C98=1.3472      O100-C101=1.4213     C101-O100=1.4213     C101-H113=1.0923     C101-H114=1.0870     
C101-H115=1.0921     C102-C91=1.5101      C102-C97=1.5162      C102-H116=1.0938     C102-H117=1.0985     H103-C87=1.0872      
H104-C87=1.0926      H105-C87=1.0923      H106-C93=1.0838      H107-C93=1.0888      H108-C93=1.0898      H109-N94=1.0135      
H110-C96=1.0820      H111-C96=1.0894      H112-C96=1.0915      H113-C101=1.0923     H114-C101=1.0870     H115-C101=1.0921     
H116-C102=1.0938     H117-C102=1.0985     
 C  H  Rav=1.0834 sigma=0.0055  Rmin=1.0751  Rmax=1.0985    47
 C  C  Rav=1.4083 sigma=0.0394  Rmin=1.3530  Rmax=1.5162    59
 N  H  Rav=1.0309 sigma=0.0174  Rmin=1.0135  Rmax=1.0483     2
 N  C  Rav=1.3618 sigma=0.0369  Rmin=1.3017  Rmax=1.4019     4
 O  C  Rav=1.3403 sigma=0.0746  Rmin=1.2175  Rmax=1.4213     8
 P  O  Rav=1.5712 sigma=0.0843  Rmin=1.4780  Rmax=1.6687     4

 selected bond angles (degree)
 --------------------
O3-P2-O1=119.77                O4-P2-O1=107.83                O4-P2-O3=110.24                O17-P2-O1=111.92               
O17-P2-O3=103.77               O17-P2-O4=101.86               C5-O4-P2=115.90                C6-C5-O4=120.49                
C14-C5-O4=118.02               C14-C5-C6=121.49               C7-C6-C5=118.04                C26-C6-C5=121.96               
C26-C6-C7=120.00               C8-C7-C6=122.26                H39-C7-C6=119.60               H39-C7-C8=118.14               
C9-C8-C7=121.39                C13-C8-C7=119.32               C13-C8-C9=119.27               C10-C9-C8=120.83               
H40-C9-C8=118.45               H40-C9-C10=120.71              C11-C10-C9=119.94              H41-C10-C9=120.53              
H41-C10-C11=119.53             

 selected dihedral angles (degree)
 ---------------------------------
C5-O4-P2-O1=193.58            C5-O4-P2-O3= 61.17            C5-O4-P2-O17=311.50           C6-C5-O4-P2=258.08            
C14-C5-O4-P2= 78.39           C7-C6-C5-O4=181.93            C7-C6-C5-C14=  1.62           C26-C6-C5-O4=  2.82           
C26-C6-C5-C14=182.51          C8-C7-C6-C5=356.63            C8-C7-C6-C26=175.76           H39-C7-C6-C5=176.79           
H39-C7-C6-C26=355.92          C9-C8-C7-C6=182.80            C9-C8-C7-H39=  2.65           C13-C8-C7-C6=  1.27           
C13-C8-C7-H39=181.11          C10-C9-C8-C7=176.74           C10-C9-C8-C13=358.27          H40-C9-C8-C7=357.42           
H40-C9-C8-C13=178.96          C11-C10-C9-C8=359.39          C11-C10-C9-H40=178.68         H41-C10-C9-C8=180.12          
H41-C10-C9-H40=359.42         

 CMA Distance (Angstroems)
 ---------------------------
R(CMA):  5.2659
           -------------------------------------------------
          |                Final Singlepoint                |
           -------------------------------------------------

          ...................................................
          :                      SETUP                      :
          :.................................................:
          :  # basis functions                 327          :
          :  # atomic orbitals                 326          :
          :  # shells                          186          :
          :  # electrons                       340          :
          :  max. iterations                   250          :
          :  Hamiltonian                  GFN2-xTB          :
          :  restarted?                      false          :
          :  GBSA solvation                   true          :
          :  PC potential                    false          :
          :  electronic temp.          300.0000000     K    :
          :  accuracy                    0.2000000          :
          :  -> integral cutoff          0.3198970E+02      :
          :  -> integral neglect         0.2000000E-08      :
          :  -> SCF convergence          0.2000000E-06 Eh   :
          :  -> wf. convergence          0.2000000E-04 e    :
          :  Broyden damping             0.4000000          :
          :  net charge                          0          :
          :  unpaired electrons                  0          :
          ...................................................

 iter      E             dE          RMSdq      gap      omega  full diag
   1   -191.2255722 -0.191226E+03  0.467E-06    1.05       0.0  T
   2   -191.2255722 -0.142109E-12  0.354E-06    1.05    2611.7  T
   3   -191.2255722 -0.682121E-12  0.193E-06    1.05    4794.5  T

   *** convergence criteria satisfied after 3 iterations ***

         #    Occupation            Energy/Eh            Energy/eV
      -------------------------------------------------------------
         1        2.0000           -0.7369338             -20.0530
       ...           ...                  ...                  ...
       164        2.0000           -0.4025558             -10.9541
       165        2.0000           -0.3981996             -10.8356
       166        2.0000           -0.3871852             -10.5358
       167        2.0000           -0.3845636             -10.4645
       168        2.0000           -0.3798879             -10.3373
       169        2.0000           -0.3678952             -10.0109
       170        2.0000           -0.3585473              -9.7566 (HOMO)
       171                         -0.3200801              -8.7098 (LUMO)
       172                         -0.2735700              -7.4442
       173                         -0.2713089              -7.3827
       174                         -0.2596637              -7.0658
       175                         -0.2447220              -6.6592
       ...                                ...                  ...
       326                          1.3135728              35.7441
      -------------------------------------------------------------
                  HL-Gap            0.0384673 Eh            1.0467 eV
             Fermi-level           -0.3393137 Eh           -9.2332 eV

 SCC (total)                   0 d,  0 h,  0 min,  0.410 sec
 SCC setup                      ...        0 min,  0.006 sec (  1.503%)
 Dispersion                     ...        0 min,  0.003 sec (  0.758%)
 classical contributions        ...        0 min,  0.001 sec (  0.239%)
 integral evaluation            ...        0 min,  0.063 sec ( 15.308%)
 iterations                     ...        0 min,  0.077 sec ( 18.904%)
 molecular gradient             ...        0 min,  0.256 sec ( 62.565%)
 printout                       ...        0 min,  0.003 sec (  0.715%)

         :::::::::::::::::::::::::::::::::::::::::::::::::::::
         ::                     SUMMARY                     ::
         :::::::::::::::::::::::::::::::::::::::::::::::::::::
         :: total energy            -188.258157678733 Eh    ::
         :: total w/o Gsasa/hb      -188.182457508787 Eh    ::
         :: gradient norm              0.000065352767 Eh/a0 ::
         :: HOMO-LUMO gap              1.046747274958 eV    ::
         ::.................................................::
         :: SCC energy              -191.210836041174 Eh    ::
         :: -> isotropic ES            0.281732229769 Eh    ::
         :: -> anisotropic ES         -0.036571652194 Eh    ::
         :: -> anisotropic XC          0.083068983029 Eh    ::
         :: -> dispersion             -0.201794017440 Eh    ::
         :: -> Gsolv                  -0.090998324812 Eh    ::
         ::    -> Gelec               -0.015298154866 Eh    ::
         ::    -> Gsasa               -0.077908313085 Eh    ::
         ::    -> Ghb                  0.000000000000 Eh    ::
         ::    -> Gshift               0.002208143139 Eh    ::
         :: repulsion energy           2.952678362440 Eh    ::
         :: add. restraining           0.000000000000 Eh    ::
         :: total charge               0.000000000000 e     ::
         :::::::::::::::::::::::::::::::::::::::::::::::::::::

           -------------------------------------------------
          |                Property Printout                |
           -------------------------------------------------

    * Orbital Energies and Occupations

         #    Occupation            Energy/Eh            Energy/eV
      -------------------------------------------------------------
         1        2.0000           -0.7369338             -20.0530
       ...           ...                  ...                  ...
       158        2.0000           -0.4101279             -11.1601
       159        2.0000           -0.4086418             -11.1197
       160        2.0000           -0.4076245             -11.0920
       161        2.0000           -0.4074122             -11.0862
       162        2.0000           -0.4059135             -11.0455
       163        2.0000           -0.4027668             -10.9598
       164        2.0000           -0.4025558             -10.9541
       165        2.0000           -0.3981996             -10.8356
       166        2.0000           -0.3871852             -10.5358
       167        2.0000           -0.3845636             -10.4645
       168        2.0000           -0.3798879             -10.3373
       169        2.0000           -0.3678952             -10.0109
       170        2.0000           -0.3585473              -9.7566 (HOMO)
       171                         -0.3200801              -8.7098 (LUMO)
       172                         -0.2735700              -7.4442
       173                         -0.2713089              -7.3827
       174                         -0.2596637              -7.0658
       175                         -0.2447220              -6.6592
       176                         -0.2437588              -6.6330
       177                         -0.2431367              -6.6161
       178                         -0.2420102              -6.5854
       179                         -0.2369854              -6.4487
       180                         -0.2343477              -6.3769
       181                         -0.2273581              -6.1867
       ...                                ...                  ...
       326                          1.3135728              35.7441
      -------------------------------------------------------------
                  HL-Gap            0.0384673 Eh            1.0467 eV
             Fermi-level           -0.3393137 Eh           -9.2332 eV

     #   Z          covCN         q      C6AA      α(0)
     1   8 O        0.808    -0.565    25.298     6.742
     2  15 P        3.827     0.632   135.101    20.879
     3   8 O        0.809    -0.592    25.941     6.827
     4   8 O        1.662    -0.316    19.285     5.928
     5   6 C        3.177     0.151    24.360     8.059
     6   6 C        2.967    -0.013    28.343     8.733
     7   6 C        2.927    -0.054    29.349     8.884
     8   6 C        2.984     0.002    27.966     8.675
     9   6 C        2.920    -0.037    28.912     8.818
    10   6 C        2.915    -0.032    28.791     8.799
    11   6 C        2.916    -0.031    28.772     8.796
    12   6 C        2.917    -0.035    28.863     8.810
    13   6 C        2.986     0.008    27.828     8.653
    14   6 C        2.973    -0.012    28.306     8.727
    15   6 C        2.973    -0.012    28.318     8.729
    16   6 C        3.119     0.149    24.606     8.124
    17   8 O        1.661    -0.338    19.690     5.990
    18   6 C        2.970    -0.011    28.296     8.725
    19   6 C        2.926    -0.050    29.249     8.869
    20   6 C        2.984     0.006    27.892     8.663
    21   6 C        2.919    -0.036    28.888     8.814
    22   6 C        2.915    -0.032    28.793     8.799
    23   6 C        2.916    -0.031    28.780     8.797
    24   6 C        2.917    -0.034    28.853     8.808
    25   6 C        2.987     0.010    27.790     8.647
    26   6 C        2.975     0.019    27.570     8.613
    27   6 C        2.926    -0.044    29.096     8.846
    28   6 C        2.918    -0.037    28.913     8.818
    29   6 C        2.919    -0.034    28.844     8.807
    30   6 C        2.919    -0.030    28.747     8.792
    31   6 C        2.923    -0.026    28.652     8.778
    32   6 C        2.977     0.019    27.575     8.614
    33   6 C        2.922    -0.041    29.018     8.834
    34   6 C        2.919    -0.036    28.885     8.813
    35   6 C        2.918    -0.035    28.860     8.809
    36   6 C        2.918    -0.032    28.798     8.800
    37   6 C        2.925    -0.037    28.926     8.820
    38   1 H        0.858     0.272     0.803     1.404
    39   1 H        0.926     0.041     2.441     2.443
    40   1 H        0.926     0.035     2.510     2.477
    41   1 H        0.926     0.036     2.497     2.471
    42   1 H        0.926     0.034     2.524     2.484
    43   1 H        0.926     0.031     2.578     2.511
    44   1 H        0.925     0.039     2.456     2.451
    45   1 H        0.926     0.034     2.532     2.489
    46   1 H        0.926     0.033     2.538     2.491
    47   1 H        0.926     0.032     2.559     2.502
    48   1 H        0.926     0.029     2.602     2.522
    49   1 H        0.925     0.024     2.671     2.556
    50   1 H        0.926     0.033     2.549     2.497
    51   1 H        0.926     0.035     2.521     2.483
    52   1 H        0.926     0.033     2.548     2.496
    53   1 H        0.926     0.040     2.444     2.445
    54   1 H        0.926     0.059     2.209     2.324
    55   1 H        0.926     0.029     2.598     2.521
    56   1 H        0.926     0.032     2.551     2.498
    57   1 H        0.926     0.033     2.541     2.493
    58   1 H        0.926     0.031     2.566     2.505
    59   6 C        3.757    -0.133    23.115     6.855
    60   6 C        2.884     0.116    25.446     8.270
    61   7 N        2.697    -0.059    22.377     7.026
    62   6 C        2.907     0.070    26.439     8.431
    63   6 C        2.919    -0.037    28.908     8.817
    64   6 C        2.920    -0.026    28.659     8.779
    65   6 C        2.918    -0.026    28.654     8.778
    66   6 C        2.919    -0.022    28.565     8.764
    67   6 C        2.927    -0.041    29.031     8.836
    68   6 C        2.975    -0.000    28.033     8.685
    69   6 C        2.924    -0.029    28.725     8.789
    70   6 C        2.917    -0.026    28.662     8.779
    71   6 C        2.919    -0.013    28.345     8.731
    72   6 C        2.918    -0.014    28.363     8.733
    73   6 C        2.922    -0.032    28.795     8.800
    74   1 H        0.925     0.095     1.832     2.117
    75   1 H        0.925     0.089     1.887     2.148
    76   1 H        0.925     0.109     1.708     2.044
    77   1 H        0.926     0.061     2.191     2.315
    78   1 H        0.926     0.057     2.238     2.339
    79   1 H        0.926     0.054     2.271     2.357
    80   1 H        0.926     0.051     2.311     2.377
    81   1 H        0.926     0.075     2.032     2.229
    82   1 H        0.926     0.058     2.217     2.329
    83   1 H        0.926     0.055     2.260     2.351
    84   1 H        0.926     0.051     2.307     2.375
    85   1 H        0.926     0.044     2.390     2.418
    86   1 H        0.926     0.083     1.950     2.184
    87   6 C        3.652     0.036    20.270     6.466
    88   8 O        1.705    -0.285    18.729     5.843
    89   6 C        2.725     0.341    21.204     7.538
    90   8 O        0.856    -0.466    23.045     6.436
    91   6 C        2.954    -0.069    29.708     8.940
    92   6 C        2.889     0.091    25.976     8.356
    93   6 C        3.760    -0.135    23.144     6.858
    94   7 N        2.716    -0.102    23.245     7.161
    95   6 C        2.886     0.091    25.978     8.356
    96   6 C        3.761    -0.135    23.148     6.859
    97   6 C        2.953    -0.068    29.704     8.939
    98   6 C        2.728     0.343    21.174     7.533
    99   8 O        0.857    -0.471    23.147     6.450
   100   8 O        1.704    -0.277    18.601     5.823
   101   6 C        3.653     0.034    20.301     6.470
   102   6 C        3.818    -0.054    21.522     6.602
   103   1 H        0.925     0.070     2.090     2.261
   104   1 H        0.924     0.055     2.260     2.351
   105   1 H        0.924     0.060     2.196     2.318
   106   1 H        0.925     0.092     1.860     2.132
   107   1 H        0.925     0.070     2.091     2.261
   108   1 H        0.925     0.064     2.157     2.297
   109   1 H        0.860     0.193     1.141     1.673
   110   1 H        0.925     0.079     1.987     2.205
   111   1 H        0.925     0.067     2.115     2.274
   112   1 H        0.924     0.082     1.962     2.190
   113   1 H        0.924     0.064     2.158     2.297
   114   1 H        0.925     0.072     2.061     2.245
   115   1 H        0.924     0.059     2.216     2.328
   116   1 H        0.924     0.062     2.176     2.307
   117   1 H        0.923     0.048     2.342     2.393

 Mol. C6AA /au·bohr⁶  :     183413.697694
 Mol. C8AA /au·bohr⁸  :    4619429.801912
 Mol. α(0) /au        :        681.520683


Wiberg/Mayer (AO) data.
largest (>0.10) Wiberg bond orders for each atom

 ---------------------------------------------------------------------------
     #   Z sym  total        # sym  WBO       # sym  WBO       # sym  WBO
 ---------------------------------------------------------------------------
     1   8 O    2.003 --     2 P    1.763
     2  15 P    5.548 --     1 O    1.763     3 O    1.627     4 O    1.047
                            17 O    1.007
     3   8 O    1.986 --     2 P    1.627
     4   8 O    2.303 --     2 P    1.047     5 C    1.002
     5   6 C    3.924 --    14 C    1.451     6 C    1.237     4 O    1.002
     6   6 C    3.986 --     7 C    1.493     5 C    1.237    26 C    1.052
     7   6 C    3.984 --     6 C    1.493     8 C    1.286    39 H    0.964
     8   6 C    3.988 --     7 C    1.286     9 C    1.276    13 C    1.248
     9   6 C    3.985 --    10 C    1.556     8 C    1.276    40 H    0.968
                            12 C    0.116
    10   6 C    3.987 --     9 C    1.556    11 C    1.321    41 H    0.971
    11   6 C    3.985 --    12 C    1.551    10 C    1.321    42 H    0.971
    12   6 C    3.990 --    11 C    1.551    13 C    1.286    43 H    0.966
                             9 C    0.116
    13   6 C    3.985 --    12 C    1.286     8 C    1.248    14 C    1.237
    14   6 C    3.984 --     5 C    1.451    13 C    1.237    15 C    1.034
    15   6 C    3.984 --    16 C    1.448    25 C    1.237    14 C    1.034
                            19 C    0.101
    16   6 C    3.927 --    15 C    1.448    18 C    1.239    17 O    1.006
    17   8 O    2.274 --     2 P    1.007    16 C    1.006
    18   6 C    3.986 --    19 C    1.509    16 C    1.239    32 C    1.030
    19   6 C    3.984 --    18 C    1.509    20 C    1.278    44 H    0.966
                            15 C    0.101
    20   6 C    3.987 --    21 C    1.279    19 C    1.278    25 C    1.251
    21   6 C    3.985 --    22 C    1.554    20 C    1.279    45 H    0.968
                            24 C    0.117
    22   6 C    3.987 --    21 C    1.554    23 C    1.323    46 H    0.971
    23   6 C    3.985 --    24 C    1.551    22 C    1.323    47 H    0.971
    24   6 C    3.990 --    23 C    1.551    25 C    1.286    48 H    0.967
                            21 C    0.117
    25   6 C    3.986 --    24 C    1.286    20 C    1.251    15 C    1.237
    26   6 C    3.988 --    31 C    1.390    27 C    1.380     6 C    1.052
                            29 C    0.105
    27   6 C    3.989 --    28 C    1.456    26 C    1.380    49 H    0.967
                            30 C    0.108
    28   6 C    3.991 --    27 C    1.456    29 C    1.429    50 H    0.970
                            31 C    0.108
    29   6 C    3.986 --    30 C    1.439    28 C    1.429    51 H    0.971
                            26 C    0.105
    30   6 C    3.991 --    31 C    1.447    29 C    1.439    52 H    0.971
                            27 C    0.108
    31   6 C    3.986 --    30 C    1.447    26 C    1.390    53 H    0.968
                            28 C    0.108
    32   6 C    3.988 --    33 C    1.395    37 C    1.392    18 C    1.030
                            35 C    0.107
    33   6 C    3.985 --    34 C    1.440    32 C    1.395    54 H    0.958
                            36 C    0.109
    34   6 C    3.992 --    33 C    1.440    35 C    1.437    55 H    0.970
                            37 C    0.109
    35   6 C    3.988 --    34 C    1.437    36 C    1.434    56 H    0.971
                            32 C    0.107
    36   6 C    3.991 --    37 C    1.449    35 C    1.434    57 H    0.970
                            33 C    0.109
    37   6 C    3.987 --    36 C    1.449    32 C    1.392    58 H    0.970
                            34 C    0.109
    38   1 H    0.926 --    61 N    0.799
    39   1 H    0.997 --     7 C    0.964
    40   1 H    0.998 --     9 C    0.968
    41   1 H    0.998 --    10 C    0.971
    42   1 H    0.998 --    11 C    0.971
    43   1 H    0.999 --    12 C    0.966
    44   1 H    0.997 --    19 C    0.966
    45   1 H    0.998 --    21 C    0.968
    46   1 H    0.998 --    22 C    0.971
    47   1 H    0.998 --    23 C    0.971
    48   1 H    0.999 --    24 C    0.967
    49   1 H    0.999 --    27 C    0.967
    50   1 H    0.998 --    28 C    0.970
    51   1 H    0.998 --    29 C    0.971
    52   1 H    0.998 --    30 C    0.971
    53   1 H    0.998 --    31 C    0.968
    54   1 H    0.996 --    33 C    0.958
    55   1 H    0.998 --    34 C    0.970
    56   1 H    0.998 --    35 C    0.971
    57   1 H    0.998 --    36 C    0.970
    58   1 H    0.999 --    37 C    0.970
    59   6 C    3.978 --    60 C    1.046    75 H    0.966    76 H    0.952
                            74 H    0.937
    60   6 C    3.937 --    61 N    1.544    68 C    1.103    59 C    1.046
    61   7 N    3.660 --    60 C    1.544    62 C    1.061    38 H    0.799
    62   6 C    3.953 --    63 C    1.368    67 C    1.355    61 N    1.061
    63   6 C    3.976 --    64 C    1.447    62 C    1.368    77 H    0.962
                            66 C    0.103
    64   6 C    3.990 --    63 C    1.447    65 C    1.436    78 H    0.969
                            67 C    0.106
    65   6 C    3.976 --    64 C    1.436    66 C    1.420    79 H    0.969
    66   6 C    3.990 --    67 C    1.464    65 C    1.420    80 H    0.969
                            63 C    0.103
    67   6 C    3.977 --    66 C    1.464    62 C    1.355    81 H    0.954
                            64 C    0.106
    68   6 C    3.983 --    73 C    1.355    69 C    1.345    60 C    1.103
    69   6 C    3.976 --    70 C    1.472    68 C    1.345    82 H    0.966
                            72 C    0.105
    70   6 C    3.989 --    69 C    1.472    71 C    1.415    83 H    0.968
    71   6 C    3.976 --    72 C    1.434    70 C    1.415    84 H    0.969
    72   6 C    3.991 --    73 C    1.452    71 C    1.434    85 H    0.968
                            69 C    0.105
    73   6 C    3.974 --    72 C    1.452    68 C    1.355    86 H    0.945
    74   1 H    0.987 --    59 C    0.937
    75   1 H    0.991 --    59 C    0.966
    76   1 H    0.987 --    59 C    0.952
    77   1 H    0.996 --    63 C    0.962
    78   1 H    0.996 --    64 C    0.969
    79   1 H    0.997 --    65 C    0.969
    80   1 H    0.997 --    66 C    0.969
    81   1 H    0.994 --    67 C    0.954
    82   1 H    0.997 --    69 C    0.966
    83   1 H    0.996 --    70 C    0.968
    84   1 H    0.997 --    71 C    0.969
    85   1 H    0.997 --    72 C    0.968
    86   1 H    0.993 --    73 C    0.945
    87   6 C    3.929 --   103 H    0.981   105 H    0.977   104 H    0.976
                            88 O    0.963
    88   8 O    2.266 --    89 C    1.082    87 C    0.963    90 O    0.148
    89   6 C    3.923 --    90 O    1.651    91 C    1.086    88 O    1.082
    90   8 O    1.985 --    89 C    1.651    88 O    0.148
    91   6 C    3.967 --    92 C    1.593    89 C    1.086   102 C    1.003
    92   6 C    3.965 --    91 C    1.593    94 N    1.175    93 C    1.032
    93   6 C    3.985 --    92 C    1.032   106 H    0.968   108 H    0.963
                           107 H    0.955
    94   7 N    3.539 --    92 C    1.175    95 C    1.156   109 H    0.916
    95   6 C    3.964 --    97 C    1.619    94 N    1.156    96 C    1.032
    96   6 C    3.986 --    95 C    1.032   110 H    0.972   111 H    0.961
                           112 H    0.953
    97   6 C    3.966 --    95 C    1.619    98 C    1.074   102 C    0.995
    98   6 C    3.921 --    99 O    1.649   100 O    1.099    97 C    1.074
    99   8 O    1.968 --    98 C    1.649   100 O    0.149
   100   8 O    2.284 --    98 C    1.099   101 C    0.957    99 O    0.149
   101   6 C    3.924 --   114 H    0.981   113 H    0.976   115 H    0.974
                           100 O    0.957
   102   6 C    3.994 --    91 C    1.003    97 C    0.995   117 H    0.956
                           116 H    0.946
   103   1 H    0.995 --    87 C    0.981
   104   1 H    0.996 --    87 C    0.976
   105   1 H    0.996 --    87 C    0.977
   106   1 H    0.991 --    93 C    0.968
   107   1 H    0.995 --    93 C    0.955
   108   1 H    0.996 --    93 C    0.963
   109   1 H    0.962 --    94 N    0.916
   110   1 H    0.993 --    96 C    0.972
   111   1 H    0.995 --    96 C    0.961
   112   1 H    0.993 --    96 C    0.953
   113   1 H    0.995 --   101 C    0.976
   114   1 H    0.994 --   101 C    0.981
   115   1 H    0.996 --   101 C    0.974
   116   1 H    0.996 --   102 C    0.946
   117   1 H    0.997 --   102 C    0.956
 ---------------------------------------------------------------------------

Topologies differ in total number of bonds
Writing topology from bond orders to xtbtopo.mol

molecular dipole:
                 x           y           z       tot (Debye)
 q only:        3.135       2.119       2.185
   full:        2.787       1.663       1.821       9.458
molecular quadrupole (traceless):
                xx          xy          yy          xz          yz          zz
 q only:        9.538      48.731      29.670      24.503       7.576     -39.209
  q+dip:       18.736      47.601      22.158      25.623       0.344     -40.894
   full:       15.015      41.717      22.715      21.028       5.704     -37.731

           -------------------------------------------------
          |                Geometry Summary                 |
           -------------------------------------------------

      molecular mass/u    :      920.9834508
   center of mass at/Å    :        0.6649184       2.9775696       1.2739927
  moments of inertia/u·Å² :        0.1004940E+05   0.1458975E+05   0.1625699E+05
rotational constants/cm⁻¹ :        0.1677477E-02   0.1155443E-02   0.1036947E-02

 * 113 selected distances

     #   Z          #   Z                                           value/Å
     1   8 O        2  15 P                                       1.4779619
     2  15 P        3   8 O                                       1.4977246
     2  15 P        4   8 O                                       1.6404937
     4   8 O        5   6 C                                       1.3698130
     5   6 C        6   6 C                                       1.4198913
     6   6 C        7   6 C                                       1.3759248
     7   6 C        8   6 C                                       1.4059613
     8   6 C        9   6 C                                       1.4115644
     9   6 C       10   6 C                                       1.3662493
    10   6 C       11   6 C                                       1.4033307
    11   6 C       12   6 C                                       1.3677790
     8   6 C       13   6 C                                       1.4190619
    12   6 C       13   6 C                                       1.4117724
     5   6 C       14   6 C                                       1.3799244
    13   6 C       14   6 C                                       1.4216491
    15   6 C       16   6 C                                       1.3817564
     2  15 P       17   8 O                                       1.6686821 (max)
    16   6 C       17   8 O                                       1.3708714
    16   6 C       18   6 C                                       1.4189160
    18   6 C       19   6 C                                       1.3725663
    19   6 C       20   6 C                                       1.4079165
    20   6 C       21   6 C                                       1.4109245
    21   6 C       22   6 C                                       1.3666885
    22   6 C       23   6 C                                       1.4031770
    23   6 C       24   6 C                                       1.3676905
    15   6 C       25   6 C                                       1.4212696
    20   6 C       25   6 C                                       1.4188399
    24   6 C       25   6 C                                       1.4115328
    26   6 C       27   6 C                                       1.3961735
    27   6 C       28   6 C                                       1.3818379
    28   6 C       29   6 C                                       1.3849942
    29   6 C       30   6 C                                       1.3840847
    26   6 C       31   6 C                                       1.3933007
    30   6 C       31   6 C                                       1.3837003
    32   6 C       33   6 C                                       1.3916086
    33   6 C       34   6 C                                       1.3859845
    34   6 C       35   6 C                                       1.3855391
    35   6 C       36   6 C                                       1.3855780
    32   6 C       37   6 C                                       1.3938390
    36   6 C       37   6 C                                       1.3833641
     7   6 C       39   1 H                                       1.0807825
     9   6 C       40   1 H                                       1.0808520
    10   6 C       41   1 H                                       1.0802668
    11   6 C       42   1 H                                       1.0803452
    12   6 C       43   1 H                                       1.0798404
    19   6 C       44   1 H                                       1.0813913
    21   6 C       45   1 H                                       1.0810345
    22   6 C       46   1 H                                       1.0802843
    23   6 C       47   1 H                                       1.0804320
    24   6 C       48   1 H                                       1.0802394
    27   6 C       49   1 H                                       1.0813862
    28   6 C       50   1 H                                       1.0805477
    29   6 C       51   1 H                                       1.0798708
    30   6 C       52   1 H                                       1.0803460
    31   6 C       53   1 H                                       1.0786949
    33   6 C       54   1 H                                       1.0787601
    34   6 C       55   1 H                                       1.0810221
    35   6 C       56   1 H                                       1.0802903
    36   6 C       57   1 H                                       1.0805721
    37   6 C       58   1 H                                       1.0809900
    38   1 H       61   7 N                                       1.0483357
    60   6 C       61   7 N                                       1.3017214
    61   7 N       62   6 C                                       1.4019321
    62   6 C       63   6 C                                       1.3942034
    63   6 C       64   6 C                                       1.3840921
    64   6 C       65   6 C                                       1.3842453
    65   6 C       66   6 C                                       1.3873629
    62   6 C       67   6 C                                       1.3969315
    66   6 C       67   6 C                                       1.3801002
    68   6 C       69   6 C                                       1.4034005
    69   6 C       70   6 C                                       1.3801639
    70   6 C       71   6 C                                       1.3878157
    71   6 C       72   6 C                                       1.3840402
    68   6 C       73   6 C                                       1.3993444
    72   6 C       73   6 C                                       1.3817515
    59   6 C       74   1 H                                       1.0901236
    59   6 C       75   1 H                                       1.0881887
    59   6 C       76   1 H                                       1.0898850
    63   6 C       77   1 H                                       1.0751478
    64   6 C       78   1 H                                       1.0796674
    65   6 C       79   1 H                                       1.0796482
    66   6 C       80   1 H                                       1.0795684
    67   6 C       81   1 H                                       1.0776007
    69   6 C       82   1 H                                       1.0791677
    70   6 C       83   1 H                                       1.0801033
    71   6 C       84   1 H                                       1.0791894
    72   6 C       85   1 H                                       1.0785192
    73   6 C       86   1 H                                       1.0751258
    87   6 C       88   8 O                                       1.4189813
    88   8 O       89   6 C                                       1.3573127
    89   6 C       90   8 O                                       1.2174773
    91   6 C       92   6 C                                       1.3571818
    92   6 C       94   7 N                                       1.3690366
    94   7 N       95   6 C                                       1.3744317
    95   6 C       97   6 C                                       1.3530470
    98   6 C       99   8 O                                       1.2197783
    98   6 C      100   8 O                                       1.3471635
   100   8 O      101   6 C                                       1.4213456
    87   6 C      103   1 H                                       1.0872285
    87   6 C      104   1 H                                       1.0925855
    87   6 C      105   1 H                                       1.0923335
    93   6 C      106   1 H                                       1.0837612
    93   6 C      107   1 H                                       1.0888191
    93   6 C      108   1 H                                       1.0898238
    94   7 N      109   1 H                                       1.0134658 (min)
    96   6 C      110   1 H                                       1.0820014
    96   6 C      111   1 H                                       1.0893893
    96   6 C      112   1 H                                       1.0914638
   101   6 C      113   1 H                                       1.0923404
   101   6 C      114   1 H                                       1.0869593
   101   6 C      115   1 H                                       1.0920965
   102   6 C      116   1 H                                       1.0938039
   102   6 C      117   1 H                                       1.0985119

 * 6 distinct bonds (by element types)

   Z      Z             #   av. dist./Å        max./Å        min./Å
   1 H    6 C          47     1.0834256     1.0985119     1.0751258
Note: The following floating-point exceptions are signalling: IEEE_DIVIDE_BY_ZERO IEEE_UNDERFLOW_FLAG IEEE_DENORMAL
normal termination of xtb
   6 C    6 C          48     1.3914182     1.4216491     1.3530470
   1 H    7 N           2     1.0309007     1.0483357     1.0134658
   6 C    7 N           4     1.3617804     1.4019321     1.3017214
   6 C    8 O           8     1.3403429     1.4213456     1.2174773
   8 O   15 P           4     1.5712156     1.6686821     1.4779619


optimized geometry written to: xtbopt.xyz


           -------------------------------------------------
          | TOTAL ENERGY             -188.258157678733 Eh   |
          | GRADIENT NORM               0.000065352767 Eh/α |
          | HOMO-LUMO GAP               1.046747274958 eV   |
           -------------------------------------------------

------------------------------------------------------------------------
 * finished run on 2026/09/10 at 23:09:13.350     
------------------------------------------------------------------------
 total:
 * wall-time:     0 d,  0 h,  0 min,  1.827 sec
 *  cpu-time:     0 d,  0 h,  0 min,  0.297 sec
 * ratio c/w:     0.162 speedup
 SCF:
 * wall-time:     0 d,  0 h,  0 min,  0.725 sec
 *  cpu-time:     0 d,  0 h,  0 min,  0.109 sec
 * ratio c/w:     0.151 speedup
 ANC optimizer:
 * wall-time:     0 d,  0 h,  0 min,  0.990 sec
 *  cpu-time:     0 d,  0 h,  0 min,  0.156 sec
 * ratio c/w:     0.158 speedup

