31
Both signs of the DCM imaginary-mode displacement
C -0.558903787785 -1.364772246942 -1.633690195023
C -0.200721424008 -0.373613817967 -0.558225784061
N -1.053691211317 0.184446254587 0.197020662555
C -2.408044152637 -0.040487013795 0.250065216316
C -2.928826976127 -1.201629384177 0.829217689494
C -4.292716781023 -1.349497468005 0.989766603194
C -5.162063955755 -0.355065828592 0.572153579721
C -4.652725600322 0.800282621552 -0.000154225904
C -3.290863663375 0.965584902628 -0.153070391254
C 1.210102022914 -0.002367429971 -0.384498015882
C 2.237453258774 -0.617648473860 -1.097291272693
C 3.554518145821 -0.238454150114 -0.906091738378
C 3.890685148678 0.761299857454 -0.004264711922
C 5.308501366792 1.194524334619 0.207248193364
C 2.863444714582 1.375369355841 0.711807030949
C 1.550941204474 1.002024198808 0.527859872451
H -0.162209995513 -1.047318632856 -2.590072275370
H -1.638434322894 -1.468318705334 -1.702950812959
H -0.133468008162 -2.345746783784 -1.389373346336
H -2.248643147052 -1.974954420352 1.156912787349
H -4.680269548540 -2.253550243451 1.438107193444
H -6.228520214721 -0.477957466472 0.694424789741
H -5.324894223839 1.582328422140 -0.326830229721
H -2.890765903365 1.865725560025 -0.598304843629
H 2.026177758548 -1.417436557643 -1.787502866351
H 4.335923908463 -0.739760555179 -1.456240145713
H 5.407859452717 2.276519584895 0.102814282094
H 5.976042161547 0.696409784026 -0.515398041975
H 5.633387714722 0.914838363138 1.223984702234
H 3.099740938392 2.177041585127 1.401475822281
H 0.754687700613 1.494859255389 1.067658356364
