31
Both signs of the DCM imaginary-mode displacement
C -0.552523707014 -1.381885434179 -1.618783754167
C -0.199518278650 -0.377724953877 -0.553796491992
N -1.055493667191 0.187799047962 0.192492377957
C -2.409206480636 -0.039350935305 0.246776617073
C -2.929122893768 -1.201683357021 0.824348225988
C -4.292798608868 -1.350106117617 0.986374381316
C -5.162827612082 -0.355174923462 0.571479521884
C -4.654443050814 0.801267750229 0.000485656039
C -3.292837134885 0.967252574380 -0.153487518603
C 1.210048448005 -0.001415176955 -0.380237921430
C 2.243564965900 -0.636482983219 -1.070089232537
C 3.556145209387 -0.248389670886 -0.883341382616
C 3.885415153504 0.783470677912 -0.010401303514
C 5.315833620164 1.171085216336 0.204714788972
C 2.856209319816 1.411966318148 0.683334026596
C 1.543714728653 1.027450138842 0.504055657486
H -0.155984412526 -1.057610668150 -2.585704824093
H -1.636517155840 -1.471142254671 -1.702076836677
H -0.134846859224 -2.350644685623 -1.379080834314
H -2.248570508256 -1.975063588117 1.155000850946
H -4.680076696715 -2.254003841109 1.436787245051
H -6.228688201580 -0.478152553112 0.694550260391
H -5.325568603095 1.582720081290 -0.325982739238
H -2.891562494389 1.866455563572 -0.598067294839
H 2.029135125785 -1.428689053598 -1.773345557513
H 4.338869609807 -0.746120801688 -1.443139664935
H 5.385294576340 2.257630374337 0.401918983372
H 5.925418913167 0.927731681010 -0.669166827946
H 5.721165317692 0.645437904042 1.079397780687
H 3.094512166592 2.194067498495 1.386995523300
H 0.751556630320 1.506631270302 1.055367775373
