      -----------------------------------------------------------      
     |                   =====================                   |     
     |                           x T B                           |     
     |                   =====================                   |     
     |                         S. Grimme                         |     
     |          Mulliken Center for Theoretical Chemistry        |     
     |                    University of Bonn                     |     
      -----------------------------------------------------------      

   * xtb version 6.7.1 (edcfbbe) compiled by 'VssAdministrator@runnervm171ch' on 2026-06-10

   xtb is free software: you can redistribute it and/or modify it under
   the terms of the GNU Lesser General Public License as published by
   the Free Software Foundation, either version 3 of the License, or
   (at your option) any later version.
   
   xtb is distributed in the hope that it will be useful,
   but WITHOUT ANY WARRANTY; without even the implied warranty of
   MERCHANTABILITY or FITNESS FOR A PARTICULAR PURPOSE.  See the
   GNU Lesser General Public License for more details.
   
   Cite this work as:
   * C. Bannwarth, E. Caldeweyher, S. Ehlert, A. Hansen, P. Pracht,
     J. Seibert, S. Spicher, S. Grimme, WIREs Comput. Mol. Sci., 2020, 11,
     e01493. DOI: 10.1002/wcms.1493
   
   for GFN2-xTB:
   * C. Bannwarth, S. Ehlert and S. Grimme., J. Chem. Theory Comput., 2019,
     15, 1652-1671. DOI: 10.1021/acs.jctc.8b01176
   for GFN1-xTB:
   * S. Grimme, C. Bannwarth, P. Shushkov, J. Chem. Theory Comput., 2017,
     13, 1989-2009. DOI: 10.1021/acs.jctc.7b00118
   for GFN0-xTB:
   * P. Pracht, E. Caldeweyher, S. Ehlert, S. Grimme, ChemRxiv, 2019, preprint.
     DOI: 10.26434/chemrxiv.8326202.v1
   for GFN-FF:
   * S. Spicher and S. Grimme, Angew. Chem. Int. Ed., 2020, 59, 15665-15673.
     DOI: 10.1002/anie.202004239
   
   for ALPB and GBSA implicit solvation:
   * S. Ehlert, M. Stahn, S. Spicher, S. Grimme, J. Chem. Theory Comput.,
     2021, 17, 4250-4261. DOI: 10.1021/acs.jctc.1c00471
   
   for ddCOSMO and CPCM-X implicit solvation:
   * M. Stahn, S. Ehlert, S. Grimme, J. Phys. Chem. A,
     2023, XX, XXXX-XXXX. DOI: 10.1021/acs.jpca.3c04382
   
   for DFT-D4:
   * E. Caldeweyher, C. Bannwarth and S. Grimme, J. Chem. Phys., 2017,
     147, 034112. DOI: 10.1063/1.4993215
   * E. Caldeweyher, S. Ehlert, A. Hansen, H. Neugebauer, S. Spicher,
     C. Bannwarth and S. Grimme, J. Chem. Phys., 2019, 150, 154122.
     DOI: 10.1063/1.5090222
   * E. Caldeweyher, J.-M. Mewes, S. Ehlert and S. Grimme, Phys. Chem. Chem. Phys.
     2020, 22, 8499-8512. DOI: 10.1039/D0CP00502A
   
   for sTDA-xTB:
   * S. Grimme and C. Bannwarth, J. Chem. Phys., 2016, 145, 054103.
     DOI: 10.1063/1.4959605
   
   in the mass-spec context:
   * V. Asgeirsson, C. Bauer and S. Grimme, Chem. Sci., 2017, 8, 4879.
     DOI: 10.1039/c7sc00601b
   * J. Koopman and S. Grimme, ACS Omega 2019, 4, 12, 15120-15133.
     DOI: 10.1021/acsomega.9b02011
   
   for metadynamics refer to:
   * S. Grimme, J. Chem. Theory Comput., 2019, 155, 2847-2862
     DOI: 10.1021/acs.jctc.9b00143
   
   for SPH calculations refer to:
   * S. Spicher and S. Grimme, J. Chem. Theory Comput., 2021, 17, 1701-1714
     DOI: 10.1021/acs.jctc.0c01306
   
   for ONIOM refer to:
   * C. Plett, A. Katbashev, S. Ehlert, S. Grimme, M. Bursch,
     Phys. Chem. Chem. Phys., 2023, 25, 17860-17868. DOI: 10.1039/D3CP02178E
   
   for DIPRO refer to:
   * J. Kohn, N. Gildemeister, S. Grimme, D. Fazzi, A. Hansen,
     J. Chem. Phys., 2023, just accepted.
   
   for PTB refer to:
   * S. Grimme, M. Mueller, A. Hansen, J. Chem. Phys., 2023, 158, 124111.
     DOI: 10.1063/5.0137838
   
   with help from (in alphabetical order)
   P. Atkinson, C. Bannwarth, F. Bohle, G. Brandenburg, E. Caldeweyher
   M. Checinski, S. Dohm, S. Ehlert, S. Ehrlich, I. Gerasimov, C. Hölzer
   A. Katbashev, J. Kohn, J. Koopman, C. Lavigne, S. Lehtola, F. März, M. Müller,
   F. Musil, H. Neugebauer, J. Pisarek, C. Plett, P. Pracht, F. Pultar,
   J. Seibert, P. Shushkov, S. Spicher, M. Stahn, M. Steiner, T. Strunk,
   J. Stückrath, T. Rose, and J. Unsleber
   
 * started run on 2026/09/10 at 23:50:04.388     
   ID    Z sym.   atoms
    1    8 O      1, 3, 4, 17, 88, 90, 99, 100
    2   15 P      2
    3    6 C      5-16, 18-37, 59, 60, 62-73, 87, 89, 91-93, 95-98, 101, 102
    4    1 H      38-58, 74-86, 103-117
    5    7 N      61, 94

           -------------------------------------------------
          |                Calculation Setup                |
           -------------------------------------------------

          program call               : C:\Users\HUIWEI\miniconda3\envs\phase2ff\Library\bin\xtb.exe xtbopt.xyz --gfn 2 --chrg 0 --uhf 0 --alpb toluene --acc 0.2 --hess --strict
          coordinate file            : xtbopt.xyz
          omp threads                :                     1


molecular fragmentation (1/2 indicates fragments):
111111111111111111111111111111111111121111111111111111111122222222222222
222222222222222222222222222222222222222222222
# atoms in fragment 1/2:    57    60
 fragment masses (1/2) :      499.47      421.51
CMA distance (Bohr)    :  13.216
constraining FC (au)   :  0.0500

           -------------------------------------------------
          |                 G F N 2 - x T B                 |
           -------------------------------------------------

        Reference                      10.1021/acs.jctc.8b01176
      * Hamiltonian:
        H0-scaling (s, p, d)           1.850000    2.230000    2.230000
        zeta-weighting                 0.500000
      * Dispersion:
        s8                             2.700000
        a1                             0.520000
        a2                             5.000000
        s9                             5.000000
      * Repulsion:
        kExp                           1.500000    1.000000
        rExp                           1.000000
      * Coulomb:
        alpha                          2.000000
        third order                    shell-resolved
        anisotropic                    true
        a3                             3.000000
        a5                             4.000000
        cn-shift                       1.200000
        cn-exp                         4.000000
        max-rad                        5.000000

      * Solvation model:               ALPB
        Solvent                        toluene
        Parameter file                 internal GFN2-xTB/ALPB
        Dielectric constant                7.0000E+00
        Reference state                gsolv [1 M gas/solution]
        Free energy shift                  2.2081E-03 Eh       1.3856E+00 kcal/mol
        Temperature                        2.9815E+02 K
        Density                            8.6700E-01 kg/L
        Solvent mass                       7.8110E+01 g/mol
        Interaction kernel             P16
        Born radius scaling (c1)           1.7172E+00
        Born radii integrator          GBOBC
        Born offset                        0.0000E+00 a0       0.0000E+00 AA
        H-bond correction              false
        Ion screening                  false
        Surface tension                    1.0000E-05 Eh       1.5569E+01 dyn/cm
        Grid points                               230 per atom
q/qsh data taken from xtbrestart
CAMM data taken from xtbrestart

          ...................................................
          :                      SETUP                      :
          :.................................................:
          :  # basis functions                 327          :
          :  # atomic orbitals                 326          :
          :  # shells                          186          :
          :  # electrons                       340          :
          :  max. iterations                   250          :
          :  Hamiltonian                  GFN2-xTB          :
          :  restarted?                       true          :
          :  GBSA solvation                   true          :
          :  PC potential                    false          :
          :  electronic temp.          300.0000000     K    :
          :  accuracy                    0.2000000          :
          :  -> integral cutoff          0.3198970E+02      :
          :  -> integral neglect         0.2000000E-08      :
          :  -> SCF convergence          0.2000000E-06 Eh   :
          :  -> wf. convergence          0.2000000E-04 e    :
          :  Broyden damping             0.4000000          :
          :  net charge                          0          :
          :  unpaired electrons                  0          :
          ...................................................

 iter      E             dE          RMSdq      gap      omega  full diag
   1   -191.2220087 -0.191222E+03  0.129E-06    1.25       0.0  T
   2   -191.2220087  0.341061E-12  0.117E-06    1.25    7883.4  T
   3   -191.2220087  0.113687E-12  0.390E-07    1.25   23688.4  T

   *** convergence criteria satisfied after 3 iterations ***

         #    Occupation            Energy/Eh            Energy/eV
      -------------------------------------------------------------
         1        2.0000           -0.7339803             -19.9726
       ...           ...                  ...                  ...
       164        2.0000           -0.4015210             -10.9259
       165        2.0000           -0.4002401             -10.8911
       166        2.0000           -0.3860210             -10.5042
       167        2.0000           -0.3836929             -10.4408
       168        2.0000           -0.3783055             -10.2942
       169        2.0000           -0.3684750             -10.0267
       170        2.0000           -0.3615527              -9.8383 (HOMO)
       171                         -0.3157749              -8.5927 (LUMO)
       172                         -0.2738182              -7.4510
       173                         -0.2689150              -7.3175
       174                         -0.2574412              -7.0053
       175                         -0.2488713              -6.7721
       ...                                ...                  ...
       326                          1.3907506              37.8443
      -------------------------------------------------------------
                  HL-Gap            0.0457777 Eh            1.2457 eV
             Fermi-level           -0.3386634 Eh           -9.2155 eV

 SCC (total)                   0 d,  0 h,  0 min,  0.383 sec
 SCC setup                      ...        0 min,  0.007 sec (  1.822%)
 Dispersion                     ...        0 min,  0.004 sec (  1.156%)
 classical contributions        ...        0 min,  0.001 sec (  0.290%)
 integral evaluation            ...        0 min,  0.060 sec ( 15.679%)
 iterations                     ...        0 min,  0.073 sec ( 19.084%)
 molecular gradient             ...        0 min,  0.234 sec ( 61.091%)
 printout                       ...        0 min,  0.003 sec (  0.869%)

         :::::::::::::::::::::::::::::::::::::::::::::::::::::
         ::                     SUMMARY                     ::
         :::::::::::::::::::::::::::::::::::::::::::::::::::::
         :: total energy            -188.258473134186 Eh    ::
         :: total w/o Gsasa/hb      -188.182435245246 Eh    ::
         :: gradient norm              0.000138157322 Eh/a0 ::
         :: HOMO-LUMO gap              1.245675661723 eV    ::
         ::.................................................::
         :: SCC energy              -191.211158383937 Eh    ::
         :: -> isotropic ES            0.275466465328 Eh    ::
         :: -> anisotropic ES         -0.037489350790 Eh    ::
         :: -> anisotropic XC          0.082971668519 Eh    ::
         :: -> dispersion             -0.190760757589 Eh    ::
         :: -> Gsolv                  -0.087909553164 Eh    ::
         ::    -> Gelec               -0.011871664224 Eh    ::
         ::    -> Gsasa               -0.078246032078 Eh    ::
         ::    -> Ghb                  0.000000000000 Eh    ::
         ::    -> Gshift               0.002208143139 Eh    ::
         :: repulsion energy           2.952685249751 Eh    ::
         :: add. restraining           0.000000000000 Eh    ::
         :: total charge               0.000000000000 e     ::
         :::::::::::::::::::::::::::::::::::::::::::::::::::::

           ------------------------------------------------- 
          |                Numerical Hessian                |
           ------------------------------------------------- 
step length          :   0.00500
SCC accuracy         :   0.30000
Hessian scale factor :   1.00000
frozen atoms in %    :   0.00000    0
RMS gradient         :   0.00014
estimated CPU  time      2.18 min
estimated wall time      7.25 min

writing file <hessian>.

 projected vibrational frequencies (cm⁻¹)
eigval :       -0.00    -0.00    -0.00     0.00     0.00     0.00
eigval :       -4.88     9.87    12.83    22.23    24.41    25.86
eigval :       27.92    34.54    36.52    40.42    46.93    49.03
eigval :       52.91    54.75    57.03    58.81    62.12    63.66
eigval :       69.22    70.41    76.24    79.82    81.14    85.49
eigval :       89.32    91.44    95.37   100.63   105.49   108.72
eigval :      109.99   117.96   125.12   138.71   142.76   149.66
eigval :      152.83   154.03   157.19   163.60   170.75   179.32
eigval :      186.77   188.94   194.87   206.67   213.67   217.72
eigval :      234.17   238.47   244.15   253.11   261.80   278.98
eigval :      285.30   289.83   296.25   297.30   297.78   307.55
eigval :      310.98   320.26   327.77   329.02   330.80   338.78
eigval :      342.19   349.74   360.21   369.12   374.38   376.44
eigval :      377.31   387.43   391.65   393.44   393.75   427.75
eigval :      437.87   445.25   447.44   448.78   467.99   479.52
eigval :      481.64   488.09   492.76   498.22   517.84   520.44
eigval :      528.10   531.89   532.22   539.82   546.15   552.46
eigval :      553.33   572.55   574.46   576.74   586.33   587.10
eigval :      587.55   588.93   590.38   623.30   626.04   630.83
eigval :      636.98   637.74   643.65   651.74   659.09   661.75
eigval :      666.58   669.23   674.77   685.32   687.90   699.51
eigval :      702.76   707.32   720.76   731.38   733.65   742.10
eigval :      755.11   760.96   763.74   764.05   767.43   770.37
eigval :      771.02   774.95   789.28   819.75   835.88   851.39
eigval :      856.44   860.43   862.24   863.44   875.88   876.61
eigval :      877.93   878.74   879.32   880.05   898.88   901.74
eigval :      912.51   913.75   915.54   916.66   917.44   926.33
eigval :      927.31   928.11   928.52   928.74   931.42   932.55
eigval :      933.87   935.29   938.37   952.59   956.37   962.66
eigval :      970.86   972.91   973.14   977.69   987.17   997.18
eigval :      998.88  1006.18  1018.71  1027.75  1028.22  1035.19
eigval :     1035.68  1040.37  1070.34  1080.17  1080.84  1081.34
eigval :     1082.57  1083.60  1084.66  1093.01  1106.51  1113.99
eigval :     1118.75  1120.70  1121.72  1123.67  1124.01  1125.03
eigval :     1130.45  1143.71  1151.31  1151.42  1162.96  1165.47
eigval :     1169.17  1176.94  1177.05  1179.08  1180.22  1180.50
eigval :     1181.30  1189.60  1191.95  1196.60  1198.22  1200.77
eigval :     1201.58  1206.08  1207.96  1221.04  1233.23  1235.41
eigval :     1246.60  1250.27  1251.00  1264.38  1271.05  1274.16
eigval :     1278.48  1281.65  1283.32  1285.07  1290.81  1296.03
eigval :     1311.93  1314.88  1316.20  1320.08  1323.43  1331.46
eigval :     1340.56  1363.59  1371.03  1382.70  1385.00  1385.45
eigval :     1387.38  1388.95  1393.43  1394.70  1399.60  1404.54
eigval :     1413.66  1414.34  1418.36  1424.33  1428.68  1429.72
eigval :     1430.16  1436.91  1441.15  1441.37  1444.74  1447.14
eigval :     1451.98  1452.93  1457.13  1459.71  1461.84  1462.99
eigval :     1465.61  1465.92  1481.87  1482.07  1483.17  1490.28
eigval :     1493.50  1546.02  1552.69  1566.19  1575.48  1575.77
eigval :     1578.05  1580.26  1582.75  1584.75  1585.02  1595.90
eigval :     1597.49  1597.73  1606.82  1607.12  1619.31  1635.33
eigval :     1668.34  1674.55  2467.65  2873.04  2964.29  2965.03
eigval :     2968.30  2978.08  2979.54  3001.61  3017.68  3024.52
eigval :     3024.63  3034.67  3038.72  3042.66  3050.01  3061.29
eigval :     3064.19  3064.77  3065.85  3067.84  3068.55  3069.10
eigval :     3070.60  3071.95  3073.00  3073.29  3077.33  3078.41
eigval :     3080.25  3082.17  3083.57  3084.68  3085.36  3085.92
eigval :     3087.75  3090.06  3091.04  3091.28  3091.53  3092.53
eigval :     3092.98  3098.34  3099.38  3103.04  3103.60  3108.62
eigval :     3118.98  3131.63  3381.43
           -------------------------------------------------
          |                Property Printout                |
           -------------------------------------------------

    * Orbital Energies and Occupations

         #    Occupation            Energy/Eh            Energy/eV
      -------------------------------------------------------------
         1        2.0000           -0.7339803             -19.9726
       ...           ...                  ...                  ...
       158        2.0000           -0.4092050             -11.1350
       159        2.0000           -0.4087274             -11.1220
       160        2.0000           -0.4073814             -11.0854
       161        2.0000           -0.4069598             -11.0739
       162        2.0000           -0.4049665             -11.0197
       163        2.0000           -0.4034817             -10.9793
       164        2.0000           -0.4015210             -10.9259
       165        2.0000           -0.4002401             -10.8911
       166        2.0000           -0.3860210             -10.5042
       167        2.0000           -0.3836929             -10.4408
       168        2.0000           -0.3783055             -10.2942
       169        2.0000           -0.3684750             -10.0267
       170        2.0000           -0.3615527              -9.8383 (HOMO)
       171                         -0.3157749              -8.5927 (LUMO)
       172                         -0.2738182              -7.4510
       173                         -0.2689150              -7.3175
       174                         -0.2574412              -7.0053
       175                         -0.2488714              -6.7721
       176                         -0.2457258              -6.6865
       177                         -0.2422906              -6.5931
       178                         -0.2383433              -6.4857
       179                         -0.2366713              -6.4402
       180                         -0.2355779              -6.4104
       181                         -0.2257749              -6.1436
       ...                                ...                  ...
       326                          1.3907506              37.8443
      -------------------------------------------------------------
                  HL-Gap            0.0457777 Eh            1.2457 eV
             Fermi-level           -0.3386634 Eh           -9.2155 eV

     #   Z          covCN         q      C6AA      α(0)
     1   8 O        0.808    -0.577    25.599     6.782
     2  15 P        3.980     0.642   134.767    20.854
     3   8 O        0.813    -0.587    25.833     6.813
     4   8 O        1.661    -0.323    19.417     5.949
     5   6 C        3.240     0.152    23.880     7.923
     6   6 C        2.969    -0.007    28.199     8.710
     7   6 C        2.925    -0.051    29.278     8.873
     8   6 C        2.984     0.006    27.881     8.661
     9   6 C        2.919    -0.036    28.897     8.815
    10   6 C        2.915    -0.032    28.789     8.798
    11   6 C        2.916    -0.031    28.780     8.797
    12   6 C        2.917    -0.035    28.861     8.810
    13   6 C        2.986     0.010    27.792     8.648
    14   6 C        2.975    -0.011    28.277     8.723
    15   6 C        2.975    -0.011    28.291     8.725
    16   6 C        3.218     0.152    24.075     7.980
    17   8 O        1.661    -0.327    19.481     5.958
    18   6 C        2.970    -0.007    28.186     8.708
    19   6 C        2.925    -0.051    29.272     8.873
    20   6 C        2.984     0.006    27.870     8.660
    21   6 C        2.920    -0.036    28.897     8.815
    22   6 C        2.915    -0.032    28.795     8.799
    23   6 C        2.916    -0.032    28.790     8.799
    24   6 C        2.917    -0.035    28.877     8.812
    25   6 C        2.985     0.010    27.794     8.648
    26   6 C        2.977     0.026    27.410     8.588
    27   6 C        2.926    -0.036    28.886     8.814
    28   6 C        2.918    -0.037    28.909     8.817
    29   6 C        2.919    -0.038    28.936     8.821
    30   6 C        2.919    -0.033    28.822     8.804
    31   6 C        2.923    -0.028    28.707     8.786
    32   6 C        2.978     0.028    27.378     8.583
    33   6 C        2.926    -0.028    28.707     8.787
    34   6 C        2.919    -0.031    28.769     8.796
    35   6 C        2.919    -0.035    28.875     8.812
    36   6 C        2.919    -0.034    28.857     8.809
    37   6 C        2.923    -0.031    28.775     8.797
    38   1 H        0.860     0.272     0.804     1.405
    39   1 H        0.925     0.041     2.439     2.442
    40   1 H        0.926     0.035     2.518     2.482
    41   1 H        0.926     0.034     2.525     2.485
    42   1 H        0.926     0.033     2.550     2.497
    43   1 H        0.926     0.031     2.574     2.509
    44   1 H        0.925     0.039     2.464     2.455
    45   1 H        0.926     0.034     2.530     2.487
    46   1 H        0.926     0.034     2.533     2.489
    47   1 H        0.926     0.032     2.555     2.499
    48   1 H        0.926     0.031     2.574     2.509
    49   1 H        0.926     0.035     2.520     2.483
    50   1 H        0.926     0.031     2.571     2.507
    51   1 H        0.926     0.032     2.559     2.501
    52   1 H        0.926     0.029     2.598     2.520
    53   1 H        0.926     0.034     2.531     2.488
    54   1 H        0.926     0.033     2.548     2.496
    55   1 H        0.926     0.033     2.541     2.493
    56   1 H        0.926     0.033     2.538     2.491
    57   1 H        0.925     0.029     2.600     2.521
    58   1 H        0.926     0.030     2.582     2.513
    59   6 C        3.763    -0.149    23.419     6.898
    60   6 C        2.887     0.124    25.282     8.243
    61   7 N        2.696    -0.074    22.690     7.075
    62   6 C        2.912     0.063    26.585     8.455
    63   6 C        2.924    -0.046    29.140     8.853
    64   6 C        2.920    -0.020    28.515     8.757
    65   6 C        2.919    -0.026    28.654     8.778
    66   6 C        2.920    -0.026    28.640     8.776
    67   6 C        2.919    -0.037    28.914     8.818
    68   6 C        2.974     0.003    27.958     8.673
    69   6 C        2.921    -0.026    28.654     8.778
    70   6 C        2.917    -0.025    28.628     8.774
    71   6 C        2.920    -0.018    28.447     8.746
    72   6 C        2.917    -0.018    28.465     8.749
    73   6 C        2.926    -0.019    28.474     8.751
    74   1 H        0.925     0.094     1.841     2.122
    75   1 H        0.924     0.131     1.526     1.932
    76   1 H        0.925     0.100     1.780     2.087
    77   1 H        0.926     0.077     2.009     2.216
    78   1 H        0.926     0.054     2.265     2.354
    79   1 H        0.926     0.054     2.272     2.357
    80   1 H        0.926     0.055     2.261     2.352
    81   1 H        0.926     0.047     2.358     2.401
    82   1 H        0.926     0.053     2.287     2.365
    83   1 H        0.926     0.056     2.249     2.345
    84   1 H        0.926     0.057     2.240     2.341
    85   1 H        0.926     0.068     2.104     2.268
    86   1 H        0.926     0.045     2.383     2.414
    87   6 C        3.653     0.037    20.259     6.463
    88   8 O        1.705    -0.274    18.552     5.815
    89   6 C        2.726     0.340    21.223     7.542
    90   8 O        0.856    -0.482    23.384     6.483
    91   6 C        2.957    -0.073    29.828     8.958
    92   6 C        2.894     0.085    26.105     8.377
    93   6 C        3.760    -0.142    23.296     6.881
    94   7 N        2.716    -0.109    23.390     7.183
    95   6 C        2.891     0.083    26.149     8.384
    96   6 C        3.760    -0.143    23.302     6.882
    97   6 C        2.956    -0.072    29.789     8.952
    98   6 C        2.725     0.341    21.202     7.538
    99   8 O        0.857    -0.467    23.059     6.438
   100   8 O        1.704    -0.282    18.687     5.836
   101   6 C        3.653     0.037    20.258     6.463
   102   6 C        3.820    -0.061    21.652     6.622
   103   1 H        0.925     0.071     2.076     2.253
   104   1 H        0.924     0.055     2.253     2.348
   105   1 H        0.924     0.061     2.185     2.312
   106   1 H        0.925     0.084     1.937     2.176
   107   1 H        0.925     0.087     1.909     2.160
   108   1 H        0.925     0.065     2.139     2.287
   109   1 H        0.860     0.199     1.110     1.650
   110   1 H        0.925     0.082     1.954     2.186
   111   1 H        0.924     0.072     2.061     2.245
   112   1 H        0.925     0.088     1.897     2.154
   113   1 H        0.924     0.063     2.169     2.303
   114   1 H        0.925     0.070     2.088     2.260
   115   1 H        0.924     0.057     2.240     2.340
   116   1 H        0.925     0.077     2.015     2.220
   117   1 H        0.923     0.041     2.441     2.443

 Mol. C6AA /au·bohr⁶  :     183350.340800
 Mol. C8AA /au·bohr⁸  :    4617406.530757
 Mol. α(0) /au        :        681.253642


Wiberg/Mayer (AO) data.
largest (>0.10) Wiberg bond orders for each atom

 ---------------------------------------------------------------------------
     #   Z sym  total        # sym  WBO       # sym  WBO       # sym  WBO
 ---------------------------------------------------------------------------
     1   8 O    1.985 --     2 P    1.731
     2  15 P    5.533 --     1 O    1.731     3 O    1.598     4 O    1.050
                            17 O    1.043
     3   8 O    1.999 --     2 P    1.598    38 H    0.120
     4   8 O    2.287 --     2 P    1.050     5 C    0.992
     5   6 C    3.923 --    14 C    1.449     6 C    1.246     4 O    0.992
     6   6 C    3.987 --     7 C    1.498     5 C    1.246    26 C    1.041
     7   6 C    3.984 --     6 C    1.498     8 C    1.285    39 H    0.965
                            14 C    0.102
     8   6 C    3.988 --     7 C    1.285     9 C    1.277    13 C    1.248
     9   6 C    3.986 --    10 C    1.557     8 C    1.277    40 H    0.968
                            12 C    0.117
    10   6 C    3.987 --     9 C    1.557    11 C    1.321    41 H    0.971
    11   6 C    3.985 --    12 C    1.553    10 C    1.321    42 H    0.971
    12   6 C    3.990 --    11 C    1.553    13 C    1.284    43 H    0.966
                             9 C    0.117
    13   6 C    3.986 --    12 C    1.284     8 C    1.248    14 C    1.243
    14   6 C    3.984 --     5 C    1.449    13 C    1.243    15 C    1.030
                             7 C    0.102
    15   6 C    3.983 --    16 C    1.448    25 C    1.242    14 C    1.030
                            19 C    0.103
    16   6 C    3.923 --    15 C    1.448    18 C    1.247    17 O    0.992
    17   8 O    2.280 --     2 P    1.043    16 C    0.992
    18   6 C    3.986 --    19 C    1.504    16 C    1.247    32 C    1.032
    19   6 C    3.984 --    18 C    1.504    20 C    1.283    44 H    0.966
                            15 C    0.103
    20   6 C    3.988 --    19 C    1.283    21 C    1.278    25 C    1.249
    21   6 C    3.985 --    22 C    1.556    20 C    1.278    45 H    0.968
                            24 C    0.117
    22   6 C    3.987 --    21 C    1.556    23 C    1.321    46 H    0.971
    23   6 C    3.986 --    24 C    1.553    22 C    1.321    47 H    0.971
    24   6 C    3.990 --    23 C    1.553    25 C    1.284    48 H    0.966
                            21 C    0.117
    25   6 C    3.986 --    24 C    1.284    20 C    1.249    15 C    1.242
    26   6 C    3.988 --    31 C    1.392    27 C    1.388     6 C    1.041
                            29 C    0.106
    27   6 C    3.989 --    28 C    1.451    26 C    1.388    49 H    0.969
                            30 C    0.109
    28   6 C    3.991 --    27 C    1.451    29 C    1.434    50 H    0.970
                            31 C    0.108
    29   6 C    3.987 --    30 C    1.435    28 C    1.434    51 H    0.970
                            26 C    0.106
    30   6 C    3.992 --    31 C    1.449    29 C    1.435    52 H    0.971
                            27 C    0.109
    31   6 C    3.988 --    30 C    1.449    26 C    1.392    53 H    0.970
                            28 C    0.108
    32   6 C    3.988 --    37 C    1.397    33 C    1.391    18 C    1.032
                            35 C    0.107
    33   6 C    3.987 --    34 C    1.450    32 C    1.391    54 H    0.970
                            36 C    0.110
    34   6 C    3.992 --    33 C    1.450    35 C    1.434    55 H    0.970
                            37 C    0.109
    35   6 C    3.988 --    36 C    1.435    34 C    1.434    56 H    0.971
                            32 C    0.107
    36   6 C    3.992 --    37 C    1.445    35 C    1.435    57 H    0.969
                            33 C    0.110
    37   6 C    3.989 --    36 C    1.445    32 C    1.397    58 H    0.970
                            34 C    0.109
    38   1 H    0.925 --    61 N    0.764     3 O    0.120
    39   1 H    0.997 --     7 C    0.965
    40   1 H    0.998 --     9 C    0.968
    41   1 H    0.998 --    10 C    0.971
    42   1 H    0.998 --    11 C    0.971
    43   1 H    0.999 --    12 C    0.966
    44   1 H    0.997 --    19 C    0.966
    45   1 H    0.998 --    21 C    0.968
    46   1 H    0.998 --    22 C    0.971
    47   1 H    0.998 --    23 C    0.971
    48   1 H    0.999 --    24 C    0.966
    49   1 H    0.999 --    27 C    0.969
    50   1 H    0.998 --    28 C    0.970
    51   1 H    0.999 --    29 C    0.970
    52   1 H    0.999 --    30 C    0.971
    53   1 H    0.999 --    31 C    0.970
    54   1 H    0.999 --    33 C    0.970
    55   1 H    0.998 --    34 C    0.970
    56   1 H    0.998 --    35 C    0.971
    57   1 H    0.998 --    36 C    0.969
    58   1 H    0.999 --    37 C    0.970
    59   6 C    3.975 --    60 C    1.066    74 H    0.968    76 H    0.935
                            75 H    0.912
    60   6 C    3.932 --    61 N    1.577    68 C    1.072    59 C    1.066
    61   7 N    3.648 --    60 C    1.577    62 C    1.046    38 H    0.764
    62   6 C    3.954 --    63 C    1.374    67 C    1.364    61 N    1.046
    63   6 C    3.975 --    64 C    1.447    62 C    1.374    77 H    0.951
                            66 C    0.105
    64   6 C    3.989 --    63 C    1.447    65 C    1.437    78 H    0.968
                            67 C    0.107
    65   6 C    3.981 --    64 C    1.437    66 C    1.425    79 H    0.969
    66   6 C    3.990 --    67 C    1.458    65 C    1.425    80 H    0.969
                            63 C    0.105
    67   6 C    3.989 --    66 C    1.458    62 C    1.364    81 H    0.965
                            64 C    0.107
    68   6 C    3.984 --    69 C    1.371    73 C    1.357    60 C    1.072
    69   6 C    3.983 --    70 C    1.456    68 C    1.371    82 H    0.965
                            72 C    0.105
    70   6 C    3.990 --    69 C    1.456    71 C    1.430    83 H    0.968
                            73 C    0.105
    71   6 C    3.985 --    70 C    1.430    72 C    1.427    84 H    0.969
    72   6 C    3.988 --    73 C    1.459    71 C    1.427    85 H    0.964
                            69 C    0.105
    73   6 C    3.989 --    72 C    1.459    68 C    1.357    86 H    0.964
                            70 C    0.105
    74   1 H    0.990 --    59 C    0.968
    75   1 H    0.979 --    59 C    0.912
    76   1 H    0.986 --    59 C    0.935
    77   1 H    0.994 --    63 C    0.951
    78   1 H    0.996 --    64 C    0.968
    79   1 H    0.997 --    65 C    0.969
    80   1 H    0.996 --    66 C    0.969
    81   1 H    0.998 --    67 C    0.965
    82   1 H    0.997 --    69 C    0.965
    83   1 H    0.996 --    70 C    0.968
    84   1 H    0.996 --    71 C    0.969
    85   1 H    0.995 --    72 C    0.964
    86   1 H    0.998 --    73 C    0.964
    87   6 C    3.928 --   103 H    0.981   105 H    0.977   104 H    0.976
                            88 O    0.962
    88   8 O    2.284 --    89 C    1.098    87 C    0.962    90 O    0.146
    89   6 C    3.922 --    90 O    1.617    88 O    1.098    91 C    1.098
    90   8 O    1.965 --    89 C    1.617    88 O    0.146
    91   6 C    3.966 --    92 C    1.584    89 C    1.098   102 C    0.996
    92   6 C    3.965 --    91 C    1.584    94 N    1.170    93 C    1.037
    93   6 C    3.984 --    92 C    1.037   106 H    0.971   108 H    0.957
                           107 H    0.941
    94   7 N    3.532 --    92 C    1.170    95 C    1.157   109 H    0.919
    95   6 C    3.964 --    97 C    1.602    94 N    1.157    96 C    1.034
    96   6 C    3.984 --    95 C    1.034   110 H    0.965   112 H    0.959
                           111 H    0.951
    97   6 C    3.967 --    95 C    1.602    98 C    1.085   102 C    0.993
    98   6 C    3.922 --    99 O    1.651   100 O    1.087    97 C    1.085
    99   8 O    1.976 --    98 C    1.651   100 O    0.147
   100   8 O    2.275 --    98 C    1.087   101 C    0.959    99 O    0.147
   101   6 C    3.927 --   114 H    0.981   115 H    0.977   113 H    0.977
                           100 O    0.959
   102   6 C    3.992 --    91 C    0.996    97 C    0.993   116 H    0.963
                           117 H    0.955
   103   1 H    0.995 --    87 C    0.981
   104   1 H    0.996 --    87 C    0.976
   105   1 H    0.996 --    87 C    0.977
   106   1 H    0.992 --    93 C    0.971
   107   1 H    0.992 --    93 C    0.941
   108   1 H    0.995 --    93 C    0.957
   109   1 H    0.959 --    94 N    0.919
   110   1 H    0.993 --    96 C    0.965
   111   1 H    0.994 --    96 C    0.951
   112   1 H    0.992 --    96 C    0.959
   113   1 H    0.996 --   101 C    0.977
   114   1 H    0.995 --   101 C    0.981
   115   1 H    0.996 --   101 C    0.977
   116   1 H    0.994 --   102 C    0.963
   117   1 H    0.998 --   102 C    0.955
 ---------------------------------------------------------------------------

Topologies differ in total number of bonds
Writing topology from bond orders to xtbtopo.mol

molecular dipole:
                 x           y           z       tot (Debye)
 q only:       -2.482       2.123       0.626
   full:       -2.207       1.611       0.428       7.031
molecular quadrupole (traceless):
                xx          xy          yy          xz          yz          zz
 q only:        1.283     -50.331      16.348     -23.814      10.504     -17.632
  q+dip:        6.978     -46.422       8.721     -29.107       6.548     -15.699
   full:        8.091     -44.249       6.611     -21.596       7.550     -14.702

           -------------------------------------------------
          |               Frequency Printout                |
           -------------------------------------------------
 projected vibrational frequencies (cm⁻¹)
eigval :       -0.00    -0.00    -0.00     0.00     0.00     0.00
eigval :       -4.88     9.87    12.83    22.23    24.41    25.86
eigval :       27.92    34.54    36.52    40.42    46.93    49.03
eigval :       52.91    54.75    57.03    58.81    62.12    63.66
eigval :       69.22    70.41    76.24    79.82    81.14    85.49
eigval :       89.32    91.44    95.37   100.63   105.49   108.72
eigval :      109.99   117.96   125.12   138.71   142.76   149.66
eigval :      152.83   154.03   157.19   163.60   170.75   179.32
eigval :      186.77   188.94   194.87   206.67   213.67   217.72
eigval :      234.17   238.47   244.15   253.11   261.80   278.98
eigval :      285.30   289.83   296.25   297.30   297.78   307.55
eigval :      310.98   320.26   327.77   329.02   330.80   338.78
eigval :      342.19   349.74   360.21   369.12   374.38   376.44
eigval :      377.31   387.43   391.65   393.44   393.75   427.75
eigval :      437.87   445.25   447.44   448.78   467.99   479.52
eigval :      481.64   488.09   492.76   498.22   517.84   520.44
eigval :      528.10   531.89   532.22   539.82   546.15   552.46
eigval :      553.33   572.55   574.46   576.74   586.33   587.10
eigval :      587.55   588.93   590.38   623.30   626.04   630.83
eigval :      636.98   637.74   643.65   651.74   659.09   661.75
eigval :      666.58   669.23   674.77   685.32   687.90   699.51
eigval :      702.76   707.32   720.76   731.38   733.65   742.10
eigval :      755.11   760.96   763.74   764.05   767.43   770.37
eigval :      771.02   774.95   789.28   819.75   835.88   851.39
eigval :      856.44   860.43   862.24   863.44   875.88   876.61
eigval :      877.93   878.74   879.32   880.05   898.88   901.74
eigval :      912.51   913.75   915.54   916.66   917.44   926.33
eigval :      927.31   928.11   928.52   928.74   931.42   932.55
eigval :      933.87   935.29   938.37   952.59   956.37   962.66
eigval :      970.86   972.91   973.14   977.69   987.17   997.18
eigval :      998.88  1006.18  1018.71  1027.75  1028.22  1035.19
eigval :     1035.68  1040.37  1070.34  1080.17  1080.84  1081.34
eigval :     1082.57  1083.60  1084.66  1093.01  1106.51  1113.99
eigval :     1118.75  1120.70  1121.72  1123.67  1124.01  1125.03
eigval :     1130.45  1143.71  1151.31  1151.42  1162.96  1165.47
eigval :     1169.17  1176.94  1177.05  1179.08  1180.22  1180.50
eigval :     1181.30  1189.60  1191.95  1196.60  1198.22  1200.77
eigval :     1201.58  1206.08  1207.96  1221.04  1233.23  1235.41
eigval :     1246.60  1250.27  1251.00  1264.38  1271.05  1274.16
eigval :     1278.48  1281.65  1283.32  1285.07  1290.81  1296.03
eigval :     1311.93  1314.88  1316.20  1320.08  1323.43  1331.46
eigval :     1340.56  1363.59  1371.03  1382.70  1385.00  1385.45
eigval :     1387.38  1388.95  1393.43  1394.70  1399.60  1404.54
eigval :     1413.66  1414.34  1418.36  1424.33  1428.68  1429.72
eigval :     1430.16  1436.91  1441.15  1441.37  1444.74  1447.14
eigval :     1451.98  1452.93  1457.13  1459.71  1461.84  1462.99
eigval :     1465.61  1465.92  1481.87  1482.07  1483.17  1490.28
eigval :     1493.50  1546.02  1552.69  1566.19  1575.48  1575.77
eigval :     1578.05  1580.26  1582.75  1584.75  1585.02  1595.90
eigval :     1597.49  1597.73  1606.82  1607.12  1619.31  1635.33
eigval :     1668.34  1674.55  2467.65  2873.04  2964.29  2965.03
eigval :     2968.30  2978.08  2979.54  3001.61  3017.68  3024.52
eigval :     3024.63  3034.67  3038.72  3042.66  3050.01  3061.29
eigval :     3064.19  3064.77  3065.85  3067.84  3068.55  3069.10
eigval :     3070.60  3071.95  3073.00  3073.29  3077.33  3078.41
eigval :     3080.25  3082.17  3083.57  3084.68  3085.36  3085.92
eigval :     3087.75  3090.06  3091.04  3091.28  3091.53  3092.53
eigval :     3092.98  3098.34  3099.38  3103.04  3103.60  3108.62
eigval :     3118.98  3131.63  3381.43
 reduced masses (amu)
   1: 12.15   2: 12.39   3: 12.45   4: 11.80   5: 12.01   6: 12.09   7: 11.84   8: 11.51
   9: 11.94  10: 12.72  11: 12.01  12: 10.99  13: 11.13  14: 11.97  15: 11.65  16: 11.99
  17: 11.16  18: 11.26  19: 11.92  20: 10.92  21: 11.56  22: 10.77  23: 11.03  24: 11.09
  25: 11.20  26: 11.24  27: 12.63  28: 11.87  29: 10.34  30: 12.02  31: 10.47  32: 11.45
  33:  7.55  34: 10.56  35:  3.77  36: 11.55  37:  9.13  38:  8.66  39: 11.38  40: 10.58
  41:  8.01  42: 10.46  43: 11.76  44:  9.51  45:  9.47  46:  9.49  47: 10.38  48:  7.30
  49: 10.30  50:  9.38  51: 11.41  52:  8.51  53: 10.65  54: 11.81  55: 13.36  56:  4.92
  57: 11.38  58: 11.95  59: 10.37  60: 12.84  61: 11.26  62:  9.37  63: 11.80  64: 11.86
  65: 11.41  66: 10.37  67:  9.40  68: 11.52  69: 11.31  70: 11.38  71: 11.65  72: 11.16
  73: 13.25  74:  9.78  75: 12.02  76: 12.59  77:  9.88  78:  9.09  79:  9.65  80:  9.32
  81: 10.64  82: 11.34  83: 11.74  84: 12.52  85: 13.05  86: 13.81  87: 13.31  88: 12.42
  89: 14.30  90: 12.46  91: 10.25  92: 10.64  93: 10.78  94: 10.67  95: 12.18  96: 10.45
  97: 10.88  98: 12.41  99: 12.48 100: 11.33 101: 11.60 102: 10.93 103: 10.61 104: 10.22
 105: 12.13 106: 11.19 107: 11.32 108: 11.30 109: 11.28 110: 11.45 111: 10.93 112: 11.25
 113: 11.26 114: 11.24 115: 10.68 116: 11.05 117:  7.90 118: 15.86 119: 13.48 120:  9.88
 121: 10.74 122: 10.08 123:  9.08 124:  9.85 125:  9.80 126: 11.28 127: 12.27 128: 14.90
 129: 11.35 130: 13.23 131: 11.13 132: 11.00 133: 13.61 134:  8.98 135:  5.61 136:  4.70
 137:  8.56 138:  4.42 139:  4.19 140:  4.89 141: 12.57 142: 11.68 143: 11.80 144: 10.65
 145: 10.81 146: 10.73 147:  4.11 148:  3.90 149:  3.41 150:  3.40 151:  3.81 152:  3.77
 153:  3.28 154:  3.31 155:  3.92 156:  3.74 157:  3.59 158:  9.18 159:  3.59 160:  3.85
 161:  6.09 162:  4.04 163:  3.17 164:  3.10 165:  3.58 166:  3.19 167:  3.85 168:  3.96
 169:  3.20 170:  6.61 171:  3.63 172:  3.86 173:  7.23 174:  8.17 175: 11.41 176: 10.04
 177: 10.12 178:  6.20 179:  9.63 180:  9.97 181: 10.36 182:  6.68 183:  5.43 184: 10.58
 185:  7.77 186:  6.13 187:  5.48 188: 14.03 189: 12.01 190:  7.70 191:  7.70 192:  6.73
 193:  6.89 194:  6.66 195:  6.97 196:  9.06 197: 13.05 198:  7.29 199:  4.18 200:  4.23
 201:  4.92 202:  5.34 203:  4.10 204:  8.65 205:  5.03 206:  6.57 207:  5.31 208:  6.55
 209:  9.17 210:  5.63 211:  4.40 212:  1.41 213:  1.46 214:  2.52 215:  1.35 216:  1.34
 217:  3.02 218:  8.46 219:  6.70 220: 11.78 221:  5.53 222:  2.59 223:  2.70 224:  4.69
 225:  5.68 226:  8.89 227:  6.33 228:  8.87 229:  5.66 230:  6.58 231:  6.88 232:  9.83
 233:  9.92 234:  6.90 235:  3.38 236:  3.59 237:  3.75 238:  4.63 239:  8.73 240: 10.65
 241:  9.84 242: 11.88 243: 11.75 244: 10.08 245: 11.78 246:  7.70 247:  9.84 248: 10.20
 249:  2.91 250:  9.24 251:  2.79 252: 10.30 253:  3.33 254:  4.74 255:  3.78 256: 10.29
 257:  4.13 258:  8.14 259: 10.98 260: 10.28 261:  6.45 262:  4.57 263:  8.94 264:  8.93
 265:  7.56 266:  9.62 267:  1.53 268:  1.60 269:  3.29 270: 10.02 271:  3.04 272:  2.20
 273:  6.76 274:  2.79 275:  5.91 276:  3.92 277:  1.67 278:  2.73 279:  9.14 280:  2.45
 281:  9.71 282: 10.72 283: 10.86 284: 11.77 285: 11.76 286: 11.43 287: 11.56 288: 11.54
 289: 11.53 290: 11.48 291: 11.58 292: 11.63 293: 11.49 294: 11.23 295: 11.46 296: 11.47
 297: 11.41 298: 11.40 299: 12.18 300: 11.70 301: 13.19 302: 13.17 303:  2.10 304:  1.75
 305:  1.95 306:  1.93 307:  1.79 308:  1.41 309:  1.43 310:  1.77 311:  1.91 312:  1.64
 313:  1.67 314:  1.48 315:  1.76 316:  1.76 317:  1.65 318:  1.77 319:  1.77 320:  1.81
 321:  1.80 322:  1.77 323:  1.78 324:  1.79 325:  1.76 326:  1.78 327:  1.79 328:  1.79
 329:  1.84 330:  1.85 331:  1.86 332:  1.86 333:  1.86 334:  1.77 335:  1.77 336:  1.86
 337:  1.91 338:  1.90 339:  1.76 340:  1.82 341:  1.89 342:  1.81 343:  1.89 344:  1.86
 345:  1.85 346:  1.91 347:  1.90 348:  1.74 349:  1.85 350:  1.85 351:  1.84
 IR intensities (km·mol⁻¹)
   1:  0.08   2:  0.01   3:  0.04   4:  0.02   5:  0.08   6:  0.05   7:  0.45   8:  0.09
   9:  0.05  10:  1.35  11:  0.26  12:  0.14  13:  0.75  14:  1.50  15:  0.24  16:  0.56
  17:  0.41  18:  2.50  19:  4.79  20:  1.70  21:  2.55  22:  0.07  23:  1.73  24:  0.55
  25:  2.12  26:  3.00  27:  4.82  28:  2.18  29:  1.11  30:  3.14  31:  9.43  32:  0.95
  33:  0.48  34:  5.90  35:  1.29  36:  0.97  37:  1.53  38:  2.87  39:  9.28  40:  0.48
  41:  7.29  42:  0.13  43:  5.11  44: 11.97  45:  7.61  46:  2.73  47:  2.98  48:  1.44
  49:  0.80  50:  3.49  51:  8.39  52:  4.18  53:  9.94  54:  8.50  55: 11.06  56:  3.96
  57:  2.14  58:  3.15  59:  0.02  60: 13.42  61:  4.61  62:  1.96  63: 11.11  64:  6.79
  65:  0.54  66:  8.66  67:  3.82  68:  0.40  69:  0.06  70: 16.17  71:  3.35  72: 10.41
  73: 14.77  74:  5.27  75: 26.74  76:  3.56  77:  2.40  78:  4.38  79:  1.74  80:  1.00
  81:  1.63  82:  2.60  83:  3.70  84: 64.30  85: 28.22  86: 31.39  87: 19.30  88:  5.38
  89: 42.97  90: 44.63  91: 17.16  92: 33.29  93: 42.59  94:  2.32  95:  7.01  96:  1.96
  97: 29.93  98: 30.34  99:  9.86 100:  1.56 101: 18.77 102:  8.56 103:  3.84 104:  0.68
 105: 17.06 106: 20.20 107:  2.18 108:  4.59 109:  5.80 110:  2.63 111:  1.35 112: 17.83
 113: 41.16 114:  1.83 115:  6.48 116: 16.19 117: 30.00 118:114.60 119: 23.45 120:  6.93
 121:  1.61 122:  0.80 123:  4.16 124: 38.96 125:107.94 126:  5.02 127: 32.50 128: 87.22
 129: 51.49 130: 47.23 131: 11.51 132:116.73 133:143.07 134: 45.23 135: 11.23 136: 25.07
 137:  4.66 138: 41.70 139: 11.46 140:  0.72 141:  1.40 142: 11.55 143: 94.50 144:  1.55
 145: 19.48 146: 17.48 147: 18.87 148: 17.48 149:  2.98 150:  3.57 151:  1.54 152:  1.71
 153:  3.06 154:  1.28 155:  0.07 156:  0.11 157:  1.31 158:  3.09 159:  2.27 160:  0.18
 161:  3.10 162:  1.01 163:  0.44 164:  0.40 165:  0.16 166:  0.61 167:  1.41 168:  1.99
 169:  0.27 170:  7.44 171:  2.51 172: 16.31 173:146.53 174: 78.29 175: 28.86 176:  3.61
 177: 81.64 178: 17.77 179: 25.39 180: 31.83 181:171.15 182: 87.01 183:101.18 184: 71.65
 185:146.39 186: 36.17 187: 49.91 188:838.98 189:205.21 190:  5.34 191:  0.92 192:  4.71
 193:  0.77 194:  0.25 195:  0.15 196:  2.71 197:254.08 198: 11.00 199:  0.23 200:  1.17
 201: 70.86 202: 89.02 203: 18.29 204:258.86 205: 16.96 206: 87.68 207:  9.77 208: 28.61
 209:256.58 210: 91.41 211:  2.16 212:  6.29 213:  2.40 214: 14.93 215:  0.18 216:  0.06
 217: 10.95 218:142.07 219: 20.84 220:171.54 221: 30.32 222: 18.07 223:  8.24 224:  2.79
 225: 14.50 226:132.19 227:271.44 228: 39.23 229:  1.61 230:  8.69 231: 31.43 232: 69.24
 233:  2.25 234:132.92 235:  2.57 236:  0.04 237:  0.01 238:  1.38 239:  3.69 240:132.21
 241:  3.24 242:  0.99 243:  0.17 244:  0.57 245:  6.56 246: 18.51 247:  7.06 248: 26.35
 249:117.41 250: 12.55 251: 44.57 252:  7.58 253: 46.14 254: 66.08 255: 34.99 256: 27.40
 257: 81.89 258:361.83 259:115.60 260: 39.34 261: 13.65 262: 29.73 263:  3.96 264:  4.20
 265: 19.36 266:  3.52 267:  7.32 268:  8.33 269: 23.42 270: 24.22 271: 18.65 272: 20.32
 273:  4.63 274:  8.22 275: 28.57 276: 21.81 277:  3.42 278: 15.51 279:  4.72 280:  4.08
 281:  6.04 282:  2.98 283:  0.12 284:  4.43 285:  0.54 286: 12.22 287: 51.39 288: 12.13
 289:  4.68 290:  8.40 291: 11.88 292: 13.67 293: 24.27 294:233.83 295:  4.78 296:  4.35
 297:  0.41 298:  1.51 299:164.94 300:631.37 301:511.19 302:323.25 303:****** 304: 68.68
 305: 18.59 306: 17.41 307: 98.67 308: 29.77 309: 29.42 310: 12.96 311: 32.47 312:  4.47
 313:  4.52 314: 13.81 315: 11.56 316: 11.24 317: 11.05 318: 26.47 319: 25.34 320:  6.21
 321:  1.37 322: 47.85 323: 12.72 324: 20.95 325:  9.31 326:  7.63 327: 40.80 328: 10.92
 329: 52.48 330: 67.20 331: 99.52 332:191.87 333: 67.47 334:  5.04 335:  8.75 336: 95.27
 337: 75.50 338: 54.33 339:  1.77 340: 32.37 341: 88.98 342: 11.29 343: 22.09 344: 39.88
 345: 45.37 346: 17.23 347: 19.37 348:  1.36 349:  8.42 350: 55.04 351:167.57
 Raman intensities (Ä⁴*amu⁻¹)
   1:  0.00   2:  0.00   3:  0.00   4:  0.00   5:  0.00   6:  0.00   7:  0.00   8:  0.00
   9:  0.00  10:  0.00  11:  0.00  12:  0.00  13:  0.00  14:  0.00  15:  0.00  16:  0.00
  17:  0.00  18:  0.00  19:  0.00  20:  0.00  21:  0.00  22:  0.00  23:  0.00  24:  0.00
  25:  0.00  26:  0.00  27:  0.00  28:  0.00  29:  0.00  30:  0.00  31:  0.00  32:  0.00
  33:  0.00  34:  0.00  35:  0.00  36:  0.00  37:  0.00  38:  0.00  39:  0.00  40:  0.00
  41:  0.00  42:  0.00  43:  0.00  44:  0.00  45:  0.00  46:  0.00  47:  0.00  48:  0.00
  49:  0.00  50:  0.00  51:  0.00  52:  0.00  53:  0.00  54:  0.00  55:  0.00  56:  0.00
  57:  0.00  58:  0.00  59:  0.00  60:  0.00  61:  0.00  62:  0.00  63:  0.00  64:  0.00
  65:  0.00  66:  0.00  67:  0.00  68:  0.00  69:  0.00  70:  0.00  71:  0.00  72:  0.00
  73:  0.00  74:  0.00  75:  0.00  76:  0.00  77:  0.00  78:  0.00  79:  0.00  80:  0.00
  81:  0.00  82:  0.00  83:  0.00  84:  0.00  85:  0.00  86:  0.00  87:  0.00  88:  0.00
  89:  0.00  90:  0.00  91:  0.00  92:  0.00  93:  0.00  94:  0.00  95:  0.00  96:  0.00
Refinement of some symmetry elements was terminated before convergence was reached.
Some symmetry elements may remain unidentified.
Molecule has no symmetry elements
It seems to be the C1 point group
  97:  0.00  98:  0.00  99:  0.00 100:  0.00 101:  0.00 102:  0.00 103:  0.00 104:  0.00
 105:  0.00 106:  0.00 107:  0.00 108:  0.00 109:  0.00 110:  0.00 111:  0.00 112:  0.00
 113:  0.00 114:  0.00 115:  0.00 116:  0.00 117:  0.00 118:  0.00 119:  0.00 120:  0.00
 121:  0.00 122:  0.00 123:  0.00 124:  0.00 125:  0.00 126:  0.00 127:  0.00 128:  0.00
 129:  0.00 130:  0.00 131:  0.00 132:  0.00 133:  0.00 134:  0.00 135:  0.00 136:  0.00
 137:  0.00 138:  0.00 139:  0.00 140:  0.00 141:  0.00 142:  0.00 143:  0.00 144:  0.00
 145:  0.00 146:  0.00 147:  0.00 148:  0.00 149:  0.00 150:  0.00 151:  0.00 152:  0.00
 153:  0.00 154:  0.00 155:  0.00 156:  0.00 157:  0.00 158:  0.00 159:  0.00 160:  0.00
 161:  0.00 162:  0.00 163:  0.00 164:  0.00 165:  0.00 166:  0.00 167:  0.00 168:  0.00
 169:  0.00 170:  0.00 171:  0.00 172:  0.00 173:  0.00 174:  0.00 175:  0.00 176:  0.00
 177:  0.00 178:  0.00 179:  0.00 180:  0.00 181:  0.00 182:  0.00 183:  0.00 184:  0.00
 185:  0.00 186:  0.00 187:  0.00 188:  0.00 189:  0.00 190:  0.00 191:  0.00 192:  0.00
 193:  0.00 194:  0.00 195:  0.00 196:  0.00 197:  0.00 198:  0.00 199:  0.00 200:  0.00
 201:  0.00 202:  0.00 203:  0.00 204:  0.00 205:  0.00 206:  0.00 207:  0.00 208:  0.00
 209:  0.00 210:  0.00 211:  0.00 212:  0.00 213:  0.00 214:  0.00 215:  0.00 216:  0.00
 217:  0.00 218:  0.00 219:  0.00 220:  0.00 221:  0.00 222:  0.00 223:  0.00 224:  0.00
 225:  0.00 226:  0.00 227:  0.00 228:  0.00 229:  0.00 230:  0.00 231:  0.00 232:  0.00
 233:  0.00 234:  0.00 235:  0.00 236:  0.00 237:  0.00 238:  0.00 239:  0.00 240:  0.00
 241:  0.00 242:  0.00 243:  0.00 244:  0.00 245:  0.00 246:  0.00 247:  0.00 248:  0.00
 249:  0.00 250:  0.00 251:  0.00 252:  0.00 253:  0.00 254:  0.00 255:  0.00 256:  0.00
 257:  0.00 258:  0.00 259:  0.00 260:  0.00 261:  0.00 262:  0.00 263:  0.00 264:  0.00
 265:  0.00 266:  0.00 267:  0.00 268:  0.00 269:  0.00 270:  0.00 271:  0.00 272:  0.00
 273:  0.00 274:  0.00 275:  0.00 276:  0.00 277:  0.00 278:  0.00 279:  0.00 280:  0.00
 281:  0.00 282:  0.00 283:  0.00 284:  0.00 285:  0.00 286:  0.00 287:  0.00 288:  0.00
 289:  0.00 290:  0.00 291:  0.00 292:  0.00 293:  0.00 294:  0.00 295:  0.00 296:  0.00
 297:  0.00 298:  0.00 299:  0.00 300:  0.00 301:  0.00 302:  0.00 303:  0.00 304:  0.00
 305:  0.00 306:  0.00 307:  0.00 308:  0.00 309:  0.00 310:  0.00 311:  0.00 312:  0.00
 313:  0.00 314:  0.00 315:  0.00 316:  0.00 317:  0.00 318:  0.00 319:  0.00 320:  0.00
 321:  0.00 322:  0.00 323:  0.00 324:  0.00 325:  0.00 326:  0.00 327:  0.00 328:  0.00
 329:  0.00 330:  0.00 331:  0.00 332:  0.00 333:  0.00 334:  0.00 335:  0.00 336:  0.00
 337:  0.00 338:  0.00 339:  0.00 340:  0.00 341:  0.00 342:  0.00 343:  0.00 344:  0.00
 345:  0.00 346:  0.00 347:  0.00 348:  0.00 349:  0.00 350:  0.00 351:  0.00
 output can be read by thermo (or use thermo option).
 writing <g98.out> molden fake output.
 recommended (thermochemical) frequency scaling factor: 1.0
           -------------------------------------------------
          |             Thermodynamic Functions             |
           -------------------------------------------------

c1  symmetry found (for desy threshold:  0.10E+00) used in thermo
 inverting freq            1   4.8838132694440022     

          ...................................................
          :                      SETUP                      :
          :.................................................:
          :  # frequencies                         345      :
          :  # imaginary freq.                       0      :
          :  linear?                             false      :
          :  only rotor calc.                    false      :
          :  symmetry                               c1      :
          :  rotational number                       1      :
          :  scaling factor                  1.0000000      :
          :  rotor cutoff                   50.0000000 cm⁻¹ :
          :  imag. cutoff                  -20.0000000 cm⁻¹ :
          :.................................................:

    mode    ω/cm⁻¹     T·S(HO)/kcal·mol⁻¹    T·S(FR)/kcal·mol⁻¹   T·S(vib)
   ------------------------------------------------------------------------
       1      4.88    -2.81306 (  0.01%)    -1.74558 ( 99.99%)    -1.74567
       2      9.87    -2.39629 (  0.15%)    -1.53720 ( 99.85%)    -1.53850
       3     12.83    -2.24081 (  0.43%)    -1.45945 ( 99.57%)    -1.46282
       4     22.23    -1.91550 (  3.76%)    -1.29671 ( 96.24%)    -1.31997
       5     24.41    -1.85997 (  5.38%)    -1.26892 ( 94.62%)    -1.30070
       6     25.86    -1.82579 (  6.68%)    -1.25181 ( 93.32%)    -1.29016
       7     27.92    -1.78047 (  8.86%)    -1.22912 ( 91.14%)    -1.27800
       8     34.54    -1.65472 ( 18.55%)    -1.16613 ( 81.45%)    -1.25675
       9     36.52    -1.62176 ( 22.16%)    -1.14961 ( 77.84%)    -1.25422
      10     40.42    -1.56180 ( 29.93%)    -1.11954 ( 70.07%)    -1.25191
      11     46.93    -1.47366 ( 43.70%)    -1.07531 ( 56.30%)    -1.24939
      12     49.03    -1.44786 ( 48.04%)    -1.06235 ( 51.96%)    -1.24755
      13     52.91    -1.40295 ( 55.63%)    -1.03978 ( 44.37%)    -1.24183
      14     54.75    -1.38279 ( 58.98%)    -1.02965 ( 41.02%)    -1.23794
      15     57.03    -1.35874 ( 62.87%)    -1.01755 ( 37.13%)    -1.23205
      16     58.81    -1.34069 ( 65.68%)    -1.00847 ( 34.32%)    -1.22668
      17     62.12    -1.30852 ( 70.43%)    -0.99226 ( 29.57%)    -1.21501
      18     63.66    -1.29404 ( 72.44%)    -0.98497 ( 27.56%)    -1.20887
      19     69.22    -1.24492 ( 78.60%)    -0.96020 ( 21.40%)    -1.18399
      20     70.41    -1.23486 ( 79.73%)    -0.95512 ( 20.27%)    -1.17816
      21     76.24    -1.18826 ( 84.39%)    -0.93158 ( 15.61%)    -1.14819
      22     79.82    -1.16141 ( 86.66%)    -0.91799 ( 13.34%)    -1.12892
      23     81.14    -1.15177 ( 87.40%)    -0.91311 ( 12.60%)    -1.12169
      24     85.49    -1.12129 ( 89.52%)    -0.89767 ( 10.48%)    -1.09786
      25     89.32    -1.09564 ( 91.06%)    -0.88465 (  8.94%)    -1.07678
      26     91.44    -1.08202 ( 91.79%)    -0.87773 (  8.21%)    -1.06525
      27     95.37    -1.05749 ( 92.97%)    -0.86526 (  7.03%)    -1.04399
      28    100.63    -1.02628 ( 94.25%)    -0.84936 (  5.75%)    -1.01611
      29    105.49    -0.99889 ( 95.20%)    -0.83538 (  4.80%)    -0.99104
      30    108.72    -0.98139 ( 95.72%)    -0.82644 (  4.28%)    -0.97476
      31    109.99    -0.97466 ( 95.91%)    -0.82299 (  4.09%)    -0.96845
      32    117.96    -0.93427 ( 96.87%)    -0.80228 (  3.13%)    -0.93014
      33    125.12    -0.90033 ( 97.51%)    -0.78482 (  2.49%)    -0.89746
      34    138.71    -0.84124 ( 98.34%)    -0.75427 (  1.66%)    -0.83980
      35    142.76    -0.82485 ( 98.52%)    -0.74575 (  1.48%)    -0.82368
      36    149.66    -0.79802 ( 98.77%)    -0.73177 (  1.23%)    -0.79720
      37    152.83    -0.78613 ( 98.87%)    -0.72556 (  1.13%)    -0.78545
      38    154.03    -0.78170 ( 98.90%)    -0.72324 (  1.10%)    -0.78106
      39    157.19    -0.77023 ( 98.99%)    -0.71723 (  1.01%)    -0.76969
      40    163.60    -0.74768 ( 99.14%)    -0.70538 (  0.86%)    -0.74732
      41    170.75    -0.72366 ( 99.27%)    -0.69271 (  0.73%)    -0.72344
      42    179.32    -0.69633 ( 99.40%)    -0.67820 (  0.60%)    -0.69622
      43    186.77    -0.67372 ( 99.49%)    -0.66615 (  0.51%)    -0.67369
      44    188.94    -0.66731 ( 99.51%)    -0.66272 (  0.49%)    -0.66729
      45    194.87    -0.65025 ( 99.57%)    -0.65356 (  0.43%)    -0.65027
      46    206.67    -0.61802 ( 99.66%)    -0.63615 (  0.34%)    -0.61808
      47    213.67    -0.59991 ( 99.70%)    -0.62629 (  0.30%)    -0.59999
      48    217.72    -0.58974 ( 99.72%)    -0.62073 (  0.28%)    -0.58983
      49    234.17    -0.55061 ( 99.79%)    -0.59915 (  0.21%)    -0.55071
      50    238.47    -0.54092 ( 99.81%)    -0.59375 (  0.19%)    -0.54102
      51    244.15    -0.52845 ( 99.82%)    -0.58678 (  0.18%)    -0.52855
Note: The following floating-point exceptions are signalling: IEEE_DIVIDE_BY_ZERO IEEE_UNDERFLOW_FLAG IEEE_DENORMAL
normal termination of xtb
      52    253.11    -0.50949 ( 99.85%)    -0.57611 (  0.15%)    -0.50959
      53    261.80    -0.49187 ( 99.87%)    -0.56610 (  0.13%)    -0.49197
      54    278.98    -0.45913 ( 99.90%)    -0.54728 (  0.10%)    -0.45922
      55    285.30    -0.44773 ( 99.91%)    -0.54064 (  0.09%)    -0.44781
      56    289.83    -0.43975 ( 99.91%)    -0.53597 (  0.09%)    -0.43984
      57    296.25    -0.42874 ( 99.92%)    -0.52948 (  0.08%)    -0.42883
      58    297.30    -0.42697 ( 99.92%)    -0.52844 (  0.08%)    -0.42706
      59    297.78    -0.42616 ( 99.92%)    -0.52796 (  0.08%)    -0.42625
   ------------------------------------------------------------------------

   temp. (K)  partition function   enthalpy   heat capacity  entropy
                                   cal/mol     cal/K/mol   cal/K/mol   J/K/mol
 298.15  VIB  0.560E+31            37763.377    223.714    242.352
         ROT  0.144E+09              888.752      2.981     40.312
         INT  0.806E+39            38652.129    226.695    282.663
         TR   0.270E+29             1481.254      4.968     46.315
         TOT                       40133.3834   231.6633   328.9786  1376.4466

       T/K    H(0)-H(T)+PV         H(T)/Eh          T*S/Eh         G(T)/Eh
   ------------------------------------------------------------------------
    298.15    0.639566E-01    0.965393E+00    0.156308E+00    0.809084E+00
   ------------------------------------------------------------------------

         :::::::::::::::::::::::::::::::::::::::::::::::::::::
         ::                  THERMODYNAMIC                  ::
         :::::::::::::::::::::::::::::::::::::::::::::::::::::
         :: total free energy        -187.449388791414 Eh   ::
         ::.................................................::
         :: total energy             -188.258473132876 Eh   ::
         :: zero point energy           0.901436088606 Eh   ::
         :: G(RRHO) w/o ZPVE           -0.092351747144 Eh   ::
         :: G(RRHO) contrib.            0.809084341462 Eh   ::
         :::::::::::::::::::::::::::::::::::::::::::::::::::::

           -------------------------------------------------
          | TOTAL ENERGY             -188.258473132876 Eh   |
          | TOTAL ENTHALPY           -187.293080426857 Eh   |
          | TOTAL FREE ENERGY        -187.449388791414 Eh   |
          | GRADIENT NORM               0.000138156753 Eh/α |
          | HOMO-LUMO GAP               1.245675599127 eV   |
           -------------------------------------------------

------------------------------------------------------------------------
 * finished run on 2026/09/10 at 23:56:57.516     
------------------------------------------------------------------------
 total:
 * wall-time:     0 d,  0 h,  6 min, 53.128 sec
 *  cpu-time:     0 d,  0 h,  2 min, 10.266 sec
 * ratio c/w:     0.315 speedup
 SCF:
 * wall-time:     0 d,  0 h,  0 min,  0.386 sec
 *  cpu-time:     0 d,  0 h,  0 min,  0.094 sec
 * ratio c/w:     0.243 speedup
 analytical hessian:
 * wall-time:     0 d,  0 h,  6 min, 52.403 sec
 *  cpu-time:     0 d,  0 h,  2 min, 10.062 sec
 * ratio c/w:     0.315 speedup

