      -----------------------------------------------------------      
     |                   =====================                   |     
     |                           x T B                           |     
     |                   =====================                   |     
     |                         S. Grimme                         |     
     |          Mulliken Center for Theoretical Chemistry        |     
     |                    University of Bonn                     |     
      -----------------------------------------------------------      

   * xtb version 6.7.1 (edcfbbe) compiled by 'VssAdministrator@runnervm171ch' on 2026-06-10

   xtb is free software: you can redistribute it and/or modify it under
   the terms of the GNU Lesser General Public License as published by
   the Free Software Foundation, either version 3 of the License, or
   (at your option) any later version.
   
   xtb is distributed in the hope that it will be useful,
   but WITHOUT ANY WARRANTY; without even the implied warranty of
   MERCHANTABILITY or FITNESS FOR A PARTICULAR PURPOSE.  See the
   GNU Lesser General Public License for more details.
   
   Cite this work as:
   * C. Bannwarth, E. Caldeweyher, S. Ehlert, A. Hansen, P. Pracht,
     J. Seibert, S. Spicher, S. Grimme, WIREs Comput. Mol. Sci., 2020, 11,
     e01493. DOI: 10.1002/wcms.1493
   
   for GFN2-xTB:
   * C. Bannwarth, S. Ehlert and S. Grimme., J. Chem. Theory Comput., 2019,
     15, 1652-1671. DOI: 10.1021/acs.jctc.8b01176
   for GFN1-xTB:
   * S. Grimme, C. Bannwarth, P. Shushkov, J. Chem. Theory Comput., 2017,
     13, 1989-2009. DOI: 10.1021/acs.jctc.7b00118
   for GFN0-xTB:
   * P. Pracht, E. Caldeweyher, S. Ehlert, S. Grimme, ChemRxiv, 2019, preprint.
     DOI: 10.26434/chemrxiv.8326202.v1
   for GFN-FF:
   * S. Spicher and S. Grimme, Angew. Chem. Int. Ed., 2020, 59, 15665-15673.
     DOI: 10.1002/anie.202004239
   
   for ALPB and GBSA implicit solvation:
   * S. Ehlert, M. Stahn, S. Spicher, S. Grimme, J. Chem. Theory Comput.,
     2021, 17, 4250-4261. DOI: 10.1021/acs.jctc.1c00471
   
   for ddCOSMO and CPCM-X implicit solvation:
   * M. Stahn, S. Ehlert, S. Grimme, J. Phys. Chem. A,
     2023, XX, XXXX-XXXX. DOI: 10.1021/acs.jpca.3c04382
   
   for DFT-D4:
   * E. Caldeweyher, C. Bannwarth and S. Grimme, J. Chem. Phys., 2017,
     147, 034112. DOI: 10.1063/1.4993215
   * E. Caldeweyher, S. Ehlert, A. Hansen, H. Neugebauer, S. Spicher,
     C. Bannwarth and S. Grimme, J. Chem. Phys., 2019, 150, 154122.
     DOI: 10.1063/1.5090222
   * E. Caldeweyher, J.-M. Mewes, S. Ehlert and S. Grimme, Phys. Chem. Chem. Phys.
     2020, 22, 8499-8512. DOI: 10.1039/D0CP00502A
   
   for sTDA-xTB:
   * S. Grimme and C. Bannwarth, J. Chem. Phys., 2016, 145, 054103.
     DOI: 10.1063/1.4959605
   
   in the mass-spec context:
   * V. Asgeirsson, C. Bauer and S. Grimme, Chem. Sci., 2017, 8, 4879.
     DOI: 10.1039/c7sc00601b
   * J. Koopman and S. Grimme, ACS Omega 2019, 4, 12, 15120-15133.
     DOI: 10.1021/acsomega.9b02011
   
   for metadynamics refer to:
   * S. Grimme, J. Chem. Theory Comput., 2019, 155, 2847-2862
     DOI: 10.1021/acs.jctc.9b00143
   
   for SPH calculations refer to:
   * S. Spicher and S. Grimme, J. Chem. Theory Comput., 2021, 17, 1701-1714
     DOI: 10.1021/acs.jctc.0c01306
   
   for ONIOM refer to:
   * C. Plett, A. Katbashev, S. Ehlert, S. Grimme, M. Bursch,
     Phys. Chem. Chem. Phys., 2023, 25, 17860-17868. DOI: 10.1039/D3CP02178E
   
   for DIPRO refer to:
   * J. Kohn, N. Gildemeister, S. Grimme, D. Fazzi, A. Hansen,
     J. Chem. Phys., 2023, just accepted.
   
   for PTB refer to:
   * S. Grimme, M. Mueller, A. Hansen, J. Chem. Phys., 2023, 158, 124111.
     DOI: 10.1063/5.0137838
   
   with help from (in alphabetical order)
   P. Atkinson, C. Bannwarth, F. Bohle, G. Brandenburg, E. Caldeweyher
   M. Checinski, S. Dohm, S. Ehlert, S. Ehrlich, I. Gerasimov, C. Hölzer
   A. Katbashev, J. Kohn, J. Koopman, C. Lavigne, S. Lehtola, F. März, M. Müller,
   F. Musil, H. Neugebauer, J. Pisarek, C. Plett, P. Pracht, F. Pultar,
   J. Seibert, P. Shushkov, S. Spicher, M. Stahn, M. Steiner, T. Strunk,
   J. Stückrath, T. Rose, and J. Unsleber
   
 * started run on 2026/09/10 at 23:47:10.035     
   ID    Z sym.   atoms
    1    8 O      1, 3, 4, 17, 88, 90, 99, 100
    2   15 P      2
    3    6 C      5-16, 18-37, 59, 60, 62-73, 87, 89, 91-93, 95-98, 101, 102
    4    1 H      38-58, 74-86, 103-117
    5    7 N      61, 94

           -------------------------------------------------
          |                Calculation Setup                |
           -------------------------------------------------

          program call               : C:\Users\HUIWEI\miniconda3\envs\phase2ff\Library\bin\xtb.exe input.xyz --gfn 2 --chrg 0 --uhf 0 --alpb toluene --acc 0.2 --opt vtight
          coordinate file            : input.xyz
          omp threads                :                     1


molecular fragmentation (1/2 indicates fragments):
111111111111111111111111111111111111111111111111111111111122222222222222
222222222222222222222222222222222222222222222
# atoms in fragment 1/2:    58    59
 fragment masses (1/2) :      500.48      420.50
CMA distance (Bohr)    :  13.472
constraining FC (au)   :  0.0500

           -------------------------------------------------
          |                 G F N 2 - x T B                 |
           -------------------------------------------------

        Reference                      10.1021/acs.jctc.8b01176
      * Hamiltonian:
        H0-scaling (s, p, d)           1.850000    2.230000    2.230000
        zeta-weighting                 0.500000
      * Dispersion:
        s8                             2.700000
        a1                             0.520000
        a2                             5.000000
        s9                             5.000000
      * Repulsion:
        kExp                           1.500000    1.000000
        rExp                           1.000000
      * Coulomb:
        alpha                          2.000000
        third order                    shell-resolved
        anisotropic                    true
        a3                             3.000000
        a5                             4.000000
        cn-shift                       1.200000
        cn-exp                         4.000000
        max-rad                        5.000000

      * Solvation model:               ALPB
        Solvent                        toluene
        Parameter file                 internal GFN2-xTB/ALPB
        Dielectric constant                7.0000E+00
        Reference state                gsolv [1 M gas/solution]
        Free energy shift                  2.2081E-03 Eh       1.3856E+00 kcal/mol
        Temperature                        2.9815E+02 K
        Density                            8.6700E-01 kg/L
        Solvent mass                       7.8110E+01 g/mol
        Interaction kernel             P16
        Born radius scaling (c1)           1.7172E+00
        Born radii integrator          GBOBC
        Born offset                        0.0000E+00 a0       0.0000E+00 AA
        H-bond correction              false
        Ion screening                  false
        Surface tension                    1.0000E-05 Eh       1.5569E+01 dyn/cm
        Grid points                               230 per atom

          ...................................................
          :                      SETUP                      :
          :.................................................:
          :  # basis functions                 327          :
          :  # atomic orbitals                 326          :
          :  # shells                          186          :
          :  # electrons                       340          :
          :  max. iterations                   250          :
          :  Hamiltonian                  GFN2-xTB          :
          :  restarted?                      false          :
          :  GBSA solvation                   true          :
          :  PC potential                    false          :
          :  electronic temp.          300.0000000     K    :
          :  accuracy                    0.2000000          :
          :  -> integral cutoff          0.3198970E+02      :
          :  -> integral neglect         0.2000000E-08      :
          :  -> SCF convergence          0.2000000E-06 Eh   :
          :  -> wf. convergence          0.2000000E-04 e    :
          :  Broyden damping             0.4000000          :
          :  net charge                          0          :
          :  unpaired electrons                  0          :
          ...................................................

 iter      E             dE          RMSdq      gap      omega  full diag
   1   -190.6232948 -0.190623E+03  0.486E+00    1.78       0.0  T
   2   -190.8578068 -0.234512E+00  0.287E+00    1.84       1.0  T
   3   -190.7862316  0.715752E-01  0.146E+00    1.97       1.0  T
   4   -190.9032003 -0.116969E+00  0.538E-01    1.66       1.0  T
   5   -190.9219935 -0.187933E-01  0.218E-01    1.72       1.0  T
   6   -190.9238080 -0.181441E-02  0.118E-01    1.77       1.0  T
   7   -190.9250815 -0.127349E-02  0.533E-02    1.75       1.0  T
   8   -190.9252587 -0.177248E-03  0.284E-02    1.75       1.0  T
   9   -190.9252868 -0.280721E-04  0.125E-02    1.75       1.0  T
  10   -190.9252918 -0.504620E-05  0.545E-03    1.75       1.7  T
  11   -190.9252930 -0.121611E-05  0.218E-03    1.75       4.2  T
  12   -190.9252931 -0.619174E-07  0.110E-03    1.75       8.4  T
  13   -190.9252932 -0.662822E-07  0.466E-04    1.75      19.8  T
  14   -190.9252932 -0.949669E-08  0.153E-04    1.75      60.3  T
  15   -190.9252932 -0.199097E-08  0.622E-05    1.75     148.6  T

   *** convergence criteria satisfied after 15 iterations ***

         #    Occupation            Energy/Eh            Energy/eV
      -------------------------------------------------------------
         1        2.0000           -0.7406125             -20.1531
       ...           ...                  ...                  ...
       164        2.0000           -0.3969317             -10.8011
       165        2.0000           -0.3878034             -10.5527
       166        2.0000           -0.3861153             -10.5067
       167        2.0000           -0.3784627             -10.2985
       168        2.0000           -0.3721898             -10.1278
       169        2.0000           -0.3627328              -9.8705
       170        2.0000           -0.3497470              -9.5171 (HOMO)
       171                         -0.2854968              -7.7688 (LUMO)
       172                         -0.2676048              -7.2819
       173                         -0.2667859              -7.2596
       174                         -0.2595348              -7.0623
       175                         -0.2457103              -6.6861
       ...                                ...                  ...
       326                          1.2120640              32.9819
      -------------------------------------------------------------
                  HL-Gap            0.0642502 Eh            1.7483 eV
             Fermi-level           -0.3176219 Eh           -8.6429 eV

 SCC (total)                   0 d,  0 h,  0 min,  1.013 sec
 SCC setup                      ...        0 min,  0.008 sec (  0.758%)
 Dispersion                     ...        0 min,  0.005 sec (  0.464%)
 classical contributions        ...        0 min,  0.001 sec (  0.121%)
 integral evaluation            ...        0 min,  0.057 sec (  5.636%)
 iterations                     ...        0 min,  0.580 sec ( 57.276%)
 molecular gradient             ...        0 min,  0.358 sec ( 35.378%)
 printout                       ...        0 min,  0.004 sec (  0.365%)

         :::::::::::::::::::::::::::::::::::::::::::::::::::::
         ::                     SUMMARY                     ::
         :::::::::::::::::::::::::::::::::::::::::::::::::::::
         :: total energy            -188.121929672957 Eh    ::
         :: total w/o Gsasa/hb      -188.045003879145 Eh    ::
         :: gradient norm              0.177031267944 Eh/a0 ::
         :: HOMO-LUMO gap              1.748337313535 eV    ::
         ::.................................................::
         :: SCC energy              -190.916557283051 Eh    ::
         :: -> isotropic ES            0.231988449364 Eh    ::
         :: -> anisotropic ES         -0.001554123488 Eh    ::
         :: -> anisotropic XC          0.091408795799 Eh    ::
         :: -> dispersion             -0.178472308829 Eh    ::
         :: -> Gsolv                  -0.088744137579 Eh    ::
         ::    -> Gelec               -0.011818343767 Eh    ::
         ::    -> Gsasa               -0.079133936951 Eh    ::
         ::    -> Ghb                  0.000000000000 Eh    ::
         ::    -> Gshift               0.002208143139 Eh    ::
         :: repulsion energy           2.794627610094 Eh    ::
         :: add. restraining           0.000000000000 Eh    ::
         :: total charge              -0.000000000000 e     ::
         :::::::::::::::::::::::::::::::::::::::::::::::::::::

      ----------------------------------------------------------- 
     |                   =====================                   |
     |                        A N C O P T                        |
     |                   =====================                   |
     |               Approximate Normal Coordinate               |
     |                Rational Function Optimizer                |
      ----------------------------------------------------------- 
      ----------------------------------------------------------- 
     |                   =====================                   |
     |                        A N C O P T                        |
     |                   =====================                   |
     |               Approximate Normal Coordinate               |
     |                Rational Function Optimizer                |
      ----------------------------------------------------------- 

          ...................................................
          :                      SETUP                      :
          :.................................................:
          :   optimization level         verytight          :
          :   max. optcycles                  2340          :
          :   ANC micro-cycles                  20          :
          :   degrees of freedom               345          :
          :.................................................:
          :   RF solver                   davidson          :
          :   write xtbopt.log                true          :
          :   linear?                        false          :
          :   energy convergence         0.1000000E-06 Eh   :
          :   grad. convergence          0.2000000E-03 Eh/α :
          :   maxmium RF displ.          1.0000000          :
          :   Hlow (freq-cutoff)         0.1000000E-01      :
          :   Hmax (freq-cutoff)         5.0000000          :
          :   S6 in model hess.         20.0000000          :
          ...................................................

generating ANC from exact Hessian ...
Using Lindh-Hessian (1995)
 Shifting diagonal of input Hessian by    1.0033840059241593E-002
 Lowest  eigenvalues of input Hessian
    0.010000    0.000000    0.000000    0.000000    0.000000    0.000000
    0.000000    0.010097    0.010149    0.010195    0.010249    0.010295
    0.010493    0.010578    0.010615    0.010728    0.010847    0.010918
 Highest eigenvalues
    2.079617    2.116842    2.198257    2.301402    2.308175    2.844191


........................................................................
.............................. CYCLE    1 ..............................
........................................................................

 iter      E             dE          RMSdq      gap      omega  full diag
   1   -190.9252932 -0.190925E+03  0.286E-05    1.75       0.0  T
   2   -190.9252932 -0.152340E-10  0.191E-05    1.75     483.1  T
   3   -190.9252932 -0.178204E-10  0.126E-05    1.75     736.6  T
     SCC iter.                  ...        0 min,  0.105 sec
     gradient                   ...        0 min,  0.329 sec
 * total energy  :  -188.1219297 Eh     change       -0.1658123E-09 Eh
   gradient norm :     0.1770314 Eh/α   predicted     0.0000000E+00 (-100.00%)
   displ. norm   :     0.5966368 α      lambda       -0.6436367E-01
   maximum displ.:     0.2092979 α      in ANC's #83, #88, #30, ...

........................................................................
.............................. CYCLE    2 ..............................
........................................................................

 iter      E             dE          RMSdq      gap      omega  full diag
   1   -191.0715295 -0.191072E+03  0.215E-01    1.87       0.0  T
   2   -191.0718861 -0.356600E-03  0.127E-01    1.86       1.0  T
   3   -191.0717232  0.162892E-03  0.644E-02    1.86       1.0  T
   4   -191.0720056 -0.282449E-03  0.162E-02    1.85       1.0  T
   5   -191.0720239 -0.182836E-04  0.749E-03    1.86       1.2  T
   6   -191.0720273 -0.335272E-05  0.323E-03    1.86       2.9  T
   7   -191.0720279 -0.600952E-06  0.162E-03    1.86       5.7  T
   8   -191.0720281 -0.222017E-06  0.683E-04    1.86      13.5  T
   9   -191.0720281 -0.116683E-07  0.363E-04    1.86      25.5  T
  10   -191.0720281 -0.699706E-08  0.132E-04    1.86      70.1  T
  11   -191.0720281 -0.543622E-09  0.653E-05    1.86     141.7  T
     SCC iter.                  ...        0 min,  0.327 sec
     gradient                   ...        0 min,  0.334 sec
 * total energy  :  -188.1681044 Eh     change       -0.4617474E-01 Eh
   gradient norm :     0.0808101 Eh/α   predicted    -0.4363780E-01 (  -5.49%)
   displ. norm   :     0.5754467 α      lambda       -0.2588417E-01
   maximum displ.:     0.2005366 α      in ANC's #30, #83, #37, ...

........................................................................
.............................. CYCLE    3 ..............................
........................................................................

 iter      E             dE          RMSdq      gap      omega  full diag
   1   -191.1471092 -0.191147E+03  0.176E-01    1.97       0.0  T
   2   -191.1472359 -0.126710E-03  0.102E-01    1.97       1.0  T
   3   -191.1470627  0.173244E-03  0.484E-02    1.98       1.0  T
   4   -191.1472813 -0.218605E-03  0.120E-02    1.96       1.0  T
   5   -191.1472917 -0.103700E-04  0.485E-03    1.97       1.9  T
   6   -191.1472927 -0.100771E-05  0.228E-03    1.97       4.1  T
   7   -191.1472930 -0.316129E-06  0.109E-03    1.97       8.5  T
   8   -191.1472931 -0.104358E-06  0.465E-04    1.97      19.9  T
   9   -191.1472931 -0.365756E-08  0.220E-04    1.97      41.9  T
  10   -191.1472931 -0.202976E-08  0.870E-05    1.97     106.2  T
  11   -191.1472931 -0.297945E-09  0.432E-05    1.97     213.9  T
     SCC iter.                  ...        0 min,  0.376 sec
     gradient                   ...        0 min,  0.300 sec
 * total energy  :  -188.1874192 Eh     change       -0.1931481E-01 Eh
   gradient norm :     0.0296669 Eh/α   predicted    -0.1722773E-01 ( -10.81%)
   displ. norm   :     0.6367164 α      lambda       -0.1405075E-01
   maximum displ.:     0.2741204 α      in ANC's #30, #37, #83, ...

........................................................................
.............................. CYCLE    4 ..............................
........................................................................

 iter      E             dE          RMSdq      gap      omega  full diag
   1   -191.1660355 -0.191166E+03  0.172E-01    2.03       0.0  T
   2   -191.1661015 -0.659555E-04  0.992E-02    2.03       1.0  T
   3   -191.1659110  0.190513E-03  0.448E-02    2.04       1.0  T
   4   -191.1661372 -0.226208E-03  0.811E-03    2.03       1.1  T
   5   -191.1661410 -0.385835E-05  0.353E-03    2.03       2.6  T
   6   -191.1661415 -0.502667E-06  0.175E-03    2.03       5.3  T
   7   -191.1661417 -0.189082E-06  0.784E-04    2.03      11.8  T
   8   -191.1661418 -0.488663E-07  0.327E-04    2.03      28.3  T
   9   -191.1661418 -0.178545E-08  0.148E-04    2.03      62.4  T
  10   -191.1661418 -0.103262E-08  0.614E-05    2.03     150.7  T
     SCC iter.                  ...        0 min,  0.251 sec
     gradient                   ...        0 min,  0.267 sec
 * total energy  :  -188.1985078 Eh     change       -0.1108858E-01 Eh
   gradient norm :     0.0237287 Eh/α   predicted    -0.9873536E-02 ( -10.96%)
   displ. norm   :     0.6716669 α      lambda       -0.9101249E-02
   maximum displ.:     0.3286627 α      in ANC's #30, #37, #21, ...

........................................................................
.............................. CYCLE    5 ..............................
........................................................................

 iter      E             dE          RMSdq      gap      omega  full diag
   1   -191.1703431 -0.191170E+03  0.167E-01    2.05       0.0  T
   2   -191.1703894 -0.463339E-04  0.967E-02    2.06       1.0  T
   3   -191.1702119  0.177466E-03  0.422E-02    2.07       1.0  T
   4   -191.1704193 -0.207315E-03  0.655E-03    2.06       1.4  T
   5   -191.1704218 -0.252655E-05  0.306E-03    2.06       3.0  T
   6   -191.1704222 -0.380293E-06  0.158E-03    2.06       5.9  T
   7   -191.1704223 -0.143575E-06  0.704E-04    2.06      13.1  T
   8   -191.1704223 -0.328108E-07  0.283E-04    2.06      32.7  T
   9   -191.1704223 -0.182399E-08  0.127E-04    2.06      72.9  T
  10   -191.1704223 -0.840146E-09  0.548E-05    2.06     168.6  T
     SCC iter.                  ...        0 min,  0.312 sec
     gradient                   ...        0 min,  0.299 sec
 * total energy  :  -188.2057948 Eh     change       -0.7286967E-02 Eh
   gradient norm :     0.0206981 Eh/α   predicted    -0.6603613E-02 (  -9.38%)
   displ. norm   :     0.6816829 α      lambda       -0.6047418E-02
   maximum displ.:     0.3580368 α      in ANC's #30, #21, #37, ...

........................................................................
.............................. CYCLE    6 ..............................
........................................................................

 iter      E             dE          RMSdq      gap      omega  full diag
   1   -191.1744341 -0.191174E+03  0.149E-01    2.06       0.0  T
   2   -191.1744642 -0.301140E-04  0.875E-02    2.06       1.0  T
   3   -191.1743289  0.135376E-03  0.364E-02    2.07       1.0  T
   4   -191.1744852 -0.156338E-03  0.540E-03    2.07       1.7  T
   5   -191.1744870 -0.178458E-05  0.269E-03    2.07       3.4  T
   6   -191.1744873 -0.351572E-06  0.139E-03    2.07       6.7  T
   7   -191.1744874 -0.840544E-07  0.653E-04    2.07      14.2  T
   8   -191.1744874 -0.281506E-07  0.236E-04    2.07      39.1  T
   9   -191.1744874 -0.169268E-08  0.113E-04    2.07      81.9  T
  10   -191.1744874 -0.670894E-09  0.508E-05    2.07     181.8  T
     SCC iter.                  ...        0 min,  0.315 sec
     gradient                   ...        0 min,  0.351 sec
 * total energy  :  -188.2106783 Eh     change       -0.4883477E-02 Eh
   gradient norm :     0.0156263 Eh/α   predicted    -0.4428818E-02 (  -9.31%)
   displ. norm   :     0.6901617 α      lambda       -0.4197959E-02
   maximum displ.:     0.3681122 α      in ANC's #30, #13, #21, ...

........................................................................
.............................. CYCLE    7 ..............................
........................................................................

 iter      E             dE          RMSdq      gap      omega  full diag
   1   -191.1787080 -0.191179E+03  0.127E-01    2.07       0.0  T
   2   -191.1787264 -0.183665E-04  0.758E-02    2.07       1.0  T
   3   -191.1786487  0.776153E-04  0.273E-02    2.08       1.0  T
   4   -191.1787373 -0.885910E-04  0.464E-03    2.07       2.0  T
   5   -191.1787388 -0.142878E-05  0.226E-03    2.07       4.1  T
   6   -191.1787390 -0.223185E-06  0.123E-03    2.07       7.5  T
   7   -191.1787390 -0.530920E-07  0.562E-04    2.07      16.5  T
   8   -191.1787391 -0.245651E-07  0.209E-04    2.07      44.3  T
   9   -191.1787391 -0.137425E-08  0.937E-05    2.07      98.6  T
  10   -191.1787391 -0.449432E-09  0.437E-05    2.07     211.7  T
     SCC iter.                  ...        0 min,  0.263 sec
     gradient                   ...        0 min,  0.257 sec
 * total energy  :  -188.2141217 Eh     change       -0.3443407E-02 Eh
   gradient norm :     0.0123748 Eh/α   predicted    -0.3098776E-02 ( -10.01%)
   displ. norm   :     0.7053766 α      lambda       -0.3153023E-02
   maximum displ.:     0.3667464 α      in ANC's #30, #13, #23, ...

........................................................................
.............................. CYCLE    8 ..............................
........................................................................

 iter      E             dE          RMSdq      gap      omega  full diag
   1   -191.1830978 -0.191183E+03  0.110E-01    2.07       0.0  T
   2   -191.1831160 -0.182332E-04  0.664E-02    2.08       1.0  T
   3   -191.1830812  0.348550E-04  0.191E-02    2.08       1.0  T
   4   -191.1831208 -0.396560E-04  0.486E-03    2.08       1.9  T
   5   -191.1831227 -0.192496E-05  0.189E-03    2.08       4.9  T
   6   -191.1831228 -0.779488E-07  0.115E-03    2.08       8.0  T
   7   -191.1831229 -0.675994E-07  0.465E-04    2.08      19.9  T
   8   -191.1831229 -0.112550E-07  0.227E-04    2.08      40.8  T
   9   -191.1831229 -0.276236E-08  0.860E-05    2.08     107.6  T
  10   -191.1831229 -0.352031E-09  0.398E-05    2.08     232.4  T
     SCC iter.                  ...        0 min,  0.254 sec
     gradient                   ...        0 min,  0.265 sec
 * total energy  :  -188.2167478 Eh     change       -0.2626130E-02 Eh
   gradient norm :     0.0128797 Eh/α   predicted    -0.2360924E-02 ( -10.10%)
   displ. norm   :     0.7241210 α      lambda       -0.2531399E-02
   maximum displ.:     0.3472677 α      in ANC's #30, #13, #23, ...

........................................................................
.............................. CYCLE    9 ..............................
........................................................................

 iter      E             dE          RMSdq      gap      omega  full diag
   1   -191.1841348 -0.191184E+03  0.103E-01    2.09       0.0  T
   2   -191.1841597 -0.249050E-04  0.619E-02    2.09       1.0  T
   3   -191.1841484  0.113548E-04  0.129E-02    2.09       1.0  T
   4   -191.1841612 -0.127914E-04  0.507E-03    2.09       1.8  T
   5   -191.1841638 -0.257096E-05  0.181E-03    2.09       5.1  T
   6   -191.1841638 -0.767832E-07  0.105E-03    2.09       8.8  T
   7   -191.1841639 -0.655937E-07  0.426E-04    2.09      21.7  T
   8   -191.1841639 -0.625261E-08  0.204E-04    2.09      45.2  T
   9   -191.1841639 -0.184485E-08  0.938E-05    2.09      98.6  T
  10   -191.1841639 -0.628432E-09  0.370E-05    2.09     250.0  T
     SCC iter.                  ...        0 min,  0.227 sec
     gradient                   ...        0 min,  0.242 sec
 * total energy  :  -188.2188377 Eh     change       -0.2089869E-02 Eh
   gradient norm :     0.0107931 Eh/α   predicted    -0.1929385E-02 (  -7.68%)
   displ. norm   :     0.7265285 α      lambda       -0.2090793E-02
   maximum displ.:     0.3229274 α      in ANC's #30, #13, #23, ...

........................................................................
.............................. CYCLE   10 ..............................
........................................................................

 iter      E             dE          RMSdq      gap      omega  full diag
   1   -191.1870816 -0.191187E+03  0.991E-02    2.09       0.0  T
   2   -191.1871034 -0.217315E-04  0.594E-02    2.10       1.0  T
   3   -191.1870911  0.122910E-04  0.127E-02    2.10       1.0  T
   4   -191.1871038 -0.127510E-04  0.536E-03    2.10       1.7  T
   5   -191.1871070 -0.314796E-05  0.198E-03    2.10       4.7  T
   6   -191.1871072 -0.204448E-06  0.107E-03    2.10       8.7  T
   7   -191.1871072 -0.595988E-07  0.446E-04    2.10      20.7  T
   8   -191.1871072 -0.922805E-08  0.207E-04    2.10      44.7  T
   9   -191.1871072 -0.155418E-08  0.882E-05    2.10     104.9  T
  10   -191.1871072 -0.524949E-09  0.347E-05    2.10     266.1  T
     SCC iter.                  ...        0 min,  0.236 sec
     gradient                   ...        0 min,  0.286 sec
 * total energy  :  -188.2204876 Eh     change       -0.1649960E-02 Eh
   gradient norm :     0.0162132 Eh/α   predicted    -0.1597204E-02 (  -3.20%)
   displ. norm   :     0.7006273 α      lambda       -0.1694473E-02
   maximum displ.:     0.2663980 α      in ANC's #30, #23, #13, ...

........................................................................
.............................. CYCLE   11 ..............................
........................................................................

 iter      E             dE          RMSdq      gap      omega  full diag
   1   -191.1858078 -0.191186E+03  0.955E-02    2.11       0.0  T
   2   -191.1858382 -0.303586E-04  0.571E-02    2.12       1.0  T
   3   -191.1858090  0.291989E-04  0.185E-02    2.12       1.0  T
   4   -191.1858399 -0.309809E-04  0.619E-03    2.12       1.5  T
   5   -191.1858441 -0.418681E-05  0.174E-03    2.12       5.3  T
   6   -191.1858443 -0.143288E-06  0.981E-04    2.12       9.4  T
   7   -191.1858443 -0.414512E-07  0.506E-04    2.12      18.3  T
   8   -191.1858443 -0.156804E-07  0.196E-04    2.12      47.1  T
   9   -191.1858443 -0.153375E-08  0.870E-05    2.12     106.3  T
     SCC iter.                  ...        0 min,  0.210 sec
     gradient                   ...        0 min,  0.296 sec
 * total energy  :  -188.2218290 Eh     change       -0.1341330E-02 Eh
   gradient norm :     0.0092713 Eh/α   predicted    -0.1263143E-02 (  -5.83%)
   displ. norm   :     0.6795126 α      lambda       -0.1329693E-02
   maximum displ.:     0.2302138 α      in ANC's #30, #13, #23, ...

........................................................................
.............................. CYCLE   12 ..............................
........................................................................

 iter      E             dE          RMSdq      gap      omega  full diag
   1   -191.1841134 -0.191184E+03  0.100E-01    2.13       0.0  T
   2   -191.1841435 -0.301087E-04  0.591E-02    2.15       1.0  T
   3   -191.1841203  0.232599E-04  0.161E-02    2.14       1.0  T
   4   -191.1841447 -0.244067E-04  0.584E-03    2.14       1.6  T
   5   -191.1841489 -0.423047E-05  0.189E-03    2.14       4.9  T
   6   -191.1841491 -0.222354E-06  0.997E-04    2.14       9.3  T
   7   -191.1841491 -0.267755E-07  0.487E-04    2.14      19.0  T
   8   -191.1841492 -0.153833E-07  0.173E-04    2.14      53.5  T
   9   -191.1841492 -0.128625E-08  0.835E-05    2.14     110.7  T
     SCC iter.                  ...        0 min,  0.267 sec
     gradient                   ...        0 min,  0.336 sec
 * total energy  :  -188.2228292 Eh     change       -0.1000227E-02 Eh
   gradient norm :     0.0159797 Eh/α   predicted    -0.9718313E-03 (  -2.84%)
   displ. norm   :     0.6775319 α      lambda       -0.1548114E-02
   maximum displ.:     0.2340174 α      in ANC's #9, #13, #23, ...

........................................................................
.............................. CYCLE   13 ..............................
........................................................................

 iter      E             dE          RMSdq      gap      omega  full diag
   1   -191.1913055 -0.191191E+03  0.105E-01    2.12       0.0  T
   2   -191.1913873 -0.817128E-04  0.634E-02    2.11       1.0  T
   3   -191.1913202  0.670692E-04  0.321E-02    2.12       1.0  T
   4   -191.1914077 -0.875107E-04  0.815E-03    2.12       1.1  T
   5   -191.1914140 -0.628154E-05  0.198E-03    2.12       4.7  T
   6   -191.1914141 -0.162857E-06  0.104E-03    2.12       8.9  T
   7   -191.1914142 -0.190233E-07  0.648E-04    2.12      14.3  T
   8   -191.1914142 -0.339852E-07  0.230E-04    2.12      40.2  T
   9   -191.1914142 -0.134818E-08  0.105E-04    2.12      87.9  T
  10   -191.1914142 -0.717705E-09  0.400E-05    2.12     231.1  T
     SCC iter.                  ...        0 min,  0.303 sec
     gradient                   ...        0 min,  0.325 sec
 * total energy  :  -188.2235827 Eh     change       -0.7535504E-03 Eh
   gradient norm :     0.0221737 Eh/α   predicted    -0.1129418E-02 (  49.88%)
   displ. norm   :     0.4782997 α      lambda       -0.1015774E-02
   maximum displ.:     0.1538665 α      in ANC's #13, #9, #22, ...

........................................................................
.............................. CYCLE   14 ..............................
........................................................................

 iter      E             dE          RMSdq      gap      omega  full diag
   1   -191.1860533 -0.191186E+03  0.755E-02    2.12       0.0  T
   2   -191.1860791 -0.257858E-04  0.451E-02    2.12       1.0  T
   3   -191.1860529  0.262271E-04  0.170E-02    2.11       1.0  T
   4   -191.1860837 -0.308597E-04  0.473E-03    2.12       2.0  T
   5   -191.1860862 -0.250967E-05  0.149E-03    2.12       6.2  T
   6   -191.1860863 -0.872110E-07  0.774E-04    2.12      11.9  T
   7   -191.1860863 -0.842306E-09  0.429E-04    2.12      21.6  T
   8   -191.1860863 -0.142745E-07  0.162E-04    2.12      57.1  T
   9   -191.1860863 -0.111555E-08  0.752E-05    2.12     122.9  T
     SCC iter.                  ...        0 min,  0.268 sec
     gradient                   ...        0 min,  0.362 sec
 * total energy  :  -188.2243486 Eh     change       -0.7658918E-03 Eh
   gradient norm :     0.0096752 Eh/α   predicted    -0.6240781E-03 ( -18.52%)
   displ. norm   :     0.5132014 α      lambda       -0.8965639E-03
   maximum displ.:     0.1663134 α      in ANC's #12, #9, #5, ...

........................................................................
.............................. CYCLE   15 ..............................
........................................................................

 iter      E             dE          RMSdq      gap      omega  full diag
   1   -191.1890884 -0.191189E+03  0.814E-02    2.12       0.0  T
   2   -191.1891119 -0.234875E-04  0.478E-02    2.12       1.0  T
   3   -191.1890866  0.252292E-04  0.169E-02    2.11       1.0  T
   4   -191.1891148 -0.281933E-04  0.473E-03    2.11       2.0  T
   5   -191.1891174 -0.259618E-05  0.136E-03    2.12       6.8  T
   6   -191.1891175 -0.743066E-07  0.722E-04    2.12      12.8  T
   7   -191.1891175 -0.502050E-08  0.323E-04    2.12      28.7  T
   8   -191.1891175 -0.683221E-08  0.122E-04    2.12      76.0  T
   9   -191.1891175 -0.513666E-09  0.635E-05    2.12     145.6  T
     SCC iter.                  ...        0 min,  0.297 sec
     gradient                   ...        0 min,  0.229 sec
 * total energy  :  -188.2250141 Eh     change       -0.6655153E-03 Eh
   gradient norm :     0.0138239 Eh/α   predicted    -0.5663533E-03 ( -14.90%)
   displ. norm   :     0.5852874 α      lambda       -0.8608122E-03
   maximum displ.:     0.2042296 α      in ANC's #12, #5, #22, ...

........................................................................
.............................. CYCLE   16 ..............................
........................................................................

 iter      E             dE          RMSdq      gap      omega  full diag
   1   -191.1861766 -0.191186E+03  0.885E-02    2.11       0.0  T
   2   -191.1861912 -0.145732E-04  0.522E-02    2.11       1.0  T
   3   -191.1861428  0.483756E-04  0.220E-02    2.12       1.0  T
   4   -191.1861984 -0.556094E-04  0.373E-03    2.11       2.5  T
   5   -191.1861995 -0.107097E-05  0.152E-03    2.11       6.1  T
   6   -191.1861995 -0.622493E-07  0.842E-04    2.11      11.0  T
   7   -191.1861996 -0.114942E-07  0.458E-04    2.11      20.2  T
   8   -191.1861996 -0.171450E-07  0.158E-04    2.11      58.4  T
   9   -191.1861996 -0.975064E-09  0.778E-05    2.11     118.8  T
     SCC iter.                  ...        0 min,  0.226 sec
     gradient                   ...        0 min,  0.310 sec
 * total energy  :  -188.2256800 Eh     change       -0.6658747E-03 Eh
   gradient norm :     0.0127627 Eh/α   predicted    -0.5778477E-03 ( -13.22%)
   displ. norm   :     0.5519964 α      lambda       -0.8749372E-03
   maximum displ.:     0.2101744 α      in ANC's #12, #5, #32, ...

........................................................................
.............................. CYCLE   17 ..............................
........................................................................

 iter      E             dE          RMSdq      gap      omega  full diag
   1   -191.1908755 -0.191191E+03  0.896E-02    2.11       0.0  T
   2   -191.1908902 -0.146613E-04  0.529E-02    2.11       1.0  T
   3   -191.1908241  0.660638E-04  0.262E-02    2.11       1.0  T
   4   -191.1909019 -0.777826E-04  0.389E-03    2.11       2.4  T
   5   -191.1909028 -0.906882E-06  0.170E-03    2.11       5.4  T
   6   -191.1909028 -0.981456E-08  0.990E-04    2.11       9.3  T
   7   -191.1909029 -0.685172E-07  0.448E-04    2.11      20.6  T
   8   -191.1909029 -0.109939E-07  0.169E-04    2.11      54.7  T
   9   -191.1909029 -0.108881E-08  0.733E-05    2.11     126.2  T
     SCC iter.                  ...        0 min,  0.246 sec
     gradient                   ...        0 min,  0.315 sec
 * total energy  :  -188.2262987 Eh     change       -0.6187107E-03 Eh
   gradient norm :     0.0116806 Eh/α   predicted    -0.5707711E-03 (  -7.75%)
   displ. norm   :     0.5441666 α      lambda       -0.6317008E-03
   maximum displ.:     0.2061931 α      in ANC's #5, #12, #13, ...

........................................................................
.............................. CYCLE   18 ..............................
........................................................................

 iter      E             dE          RMSdq      gap      omega  full diag
   1   -191.1851089 -0.191185E+03  0.796E-02    2.10       0.0  T
   2   -191.1851185 -0.951502E-05  0.467E-02    2.10       1.0  T
   3   -191.1850712  0.472363E-04  0.223E-02    2.10       1.0  T
   4   -191.1851265 -0.552398E-04  0.279E-03    2.10       3.3  T
   5   -191.1851268 -0.343370E-06  0.133E-03    2.10       7.0  T
   6   -191.1851268 -0.422581E-07  0.683E-04    2.10      13.5  T
   7   -191.1851269 -0.134525E-07  0.343E-04    2.10      26.9  T
   8   -191.1851269 -0.710537E-08  0.141E-04    2.10      65.5  T
   9   -191.1851269 -0.105015E-08  0.654E-05    2.10     141.4  T
     SCC iter.                  ...        0 min,  0.257 sec
     gradient                   ...        0 min,  0.278 sec
 * total energy  :  -188.2267729 Eh     change       -0.4741749E-03 Eh
   gradient norm :     0.0122724 Eh/α   predicted    -0.4093818E-03 ( -13.66%)
   displ. norm   :     0.4710466 α      lambda       -0.6858605E-03
   maximum displ.:     0.2049860 α      in ANC's #5, #12, #4, ...

........................................................................
.............................. CYCLE   19 ..............................
........................................................................

 iter      E             dE          RMSdq      gap      omega  full diag
   1   -191.1911508 -0.191191E+03  0.760E-02    2.10       0.0  T
   2   -191.1911629 -0.120887E-04  0.443E-02    2.10       1.0  T
   3   -191.1911352  0.277773E-04  0.179E-02    2.10       1.0  T
   4   -191.1911676 -0.324723E-04  0.322E-03    2.10       2.9  T
   5   -191.1911684 -0.790966E-06  0.134E-03    2.10       6.9  T
   6   -191.1911685 -0.497356E-07  0.774E-04    2.10      11.9  T
   7   -191.1911685 -0.200315E-07  0.278E-04    2.10      33.3  T
   8   -191.1911685 -0.506191E-08  0.126E-04    2.10      73.2  T
   9   -191.1911685 -0.352912E-09  0.696E-05    2.10     132.9  T
     SCC iter.                  ...        0 min,  0.248 sec
     gradient                   ...        0 min,  0.327 sec
 * total energy  :  -188.2272224 Eh     change       -0.4494901E-03 Eh
   gradient norm :     0.0112054 Eh/α   predicted    -0.4190217E-03 (  -6.78%)
   displ. norm   :     0.5470377 α      lambda       -0.5468735E-03
   maximum displ.:     0.2298784 α      in ANC's #5, #12, #13, ...

........................................................................
.............................. CYCLE   20 ..............................
........................................................................

 iter      E             dE          RMSdq      gap      omega  full diag
   1   -191.1871205 -0.191187E+03  0.745E-02    2.11       0.0  T
   2   -191.1871408 -0.203037E-04  0.435E-02    2.11       1.0  T
   3   -191.1871069  0.338731E-04  0.207E-02    2.11       1.0  T
   4   -191.1871475 -0.405773E-04  0.407E-03    2.11       2.3  T
   5   -191.1871489 -0.145002E-05  0.129E-03    2.11       7.1  T
   6   -191.1871490 -0.404891E-07  0.778E-04    2.11      11.9  T
   7   -191.1871490 -0.194681E-07  0.392E-04    2.11      23.6  T
   8   -191.1871490 -0.116475E-07  0.150E-04    2.11      61.7  T
   9   -191.1871490 -0.109318E-08  0.648E-05    2.11     142.7  T
     SCC iter.                  ...        0 min,  0.265 sec
     gradient                   ...        0 min,  0.331 sec
 * total energy  :  -188.2275802 Eh     change       -0.3578518E-03 Eh
   gradient norm :     0.0090656 Eh/α   predicted    -0.3552635E-03 (  -0.72%)
   displ. norm   :     0.4678992 α      lambda       -0.4481850E-03
   maximum displ.:     0.2026978 α      in ANC's #5, #12, #13, ...
 * RMSD in coord.:     0.8758768 α      energy gain  -0.1056506E+00 Eh

generating ANC from exact Hessian ...
Using Lindh-Hessian (1995)
 Shifting diagonal of input Hessian by    1.0055709869260495E-002
 Lowest  eigenvalues of input Hessian
    0.010000    0.000000    0.000000    0.000000    0.000000    0.000000
    0.000000    0.010112    0.010129    0.010214    0.010247    0.010313
    0.010340    0.010400    0.010505    0.010541    0.010775    0.010891
 Highest eigenvalues
    2.164661    2.215888    2.325836    2.331480    2.362816    3.136438


........................................................................
.............................. CYCLE   21 ..............................
........................................................................

 iter      E             dE          RMSdq      gap      omega  full diag
   1   -191.1862714 -0.191186E+03  0.600E-02    2.11       0.0  T
   2   -191.1862788 -0.733877E-05  0.351E-02    2.11       1.0  T
   3   -191.1862573  0.215041E-04  0.152E-02    2.11       1.0  T
   4   -191.1862824 -0.251233E-04  0.263E-03    2.11       3.5  T
   5   -191.1862829 -0.500353E-06  0.115E-03    2.11       8.1  T
   6   -191.1862829 -0.244417E-07  0.694E-04    2.11      13.3  T
   7   -191.1862830 -0.288442E-07  0.299E-04    2.11      30.9  T
   8   -191.1862830 -0.608964E-08  0.123E-04    2.11      75.1  T
   9   -191.1862830 -0.344897E-09  0.545E-05    2.11     169.6  T
     SCC iter.                  ...        0 min,  0.255 sec
     gradient                   ...        0 min,  0.320 sec
 * total energy  :  -188.2278847 Eh     change       -0.3044213E-03 Eh
   gradient norm :     0.0098430 Eh/α   predicted     0.0000000E+00 (-100.00%)
   displ. norm   :     0.0889706 α      lambda       -0.2258334E-03
   maximum displ.:     0.0287800 α      in ANC's #7, #3, #5, ...

........................................................................
.............................. CYCLE   22 ..............................
........................................................................

 iter      E             dE          RMSdq      gap      omega  full diag
   1   -191.1907699 -0.191191E+03  0.186E-02    2.11       0.0  T
   2   -191.1907716 -0.172086E-05  0.111E-02    2.11       1.0  T
   3   -191.1907700  0.165955E-05  0.451E-03    2.11       2.0  T
   4   -191.1907719 -0.198736E-05  0.120E-03    2.11       7.7  T
   5   -191.1907721 -0.133914E-06  0.369E-04    2.11      25.0  T
   6   -191.1907721 -0.389636E-08  0.190E-04    2.11      48.6  T
   7   -191.1907721 -0.371728E-09  0.936E-05    2.11      98.8  T
     SCC iter.                  ...        0 min,  0.184 sec
     gradient                   ...        0 min,  0.333 sec
 * total energy  :  -188.2280583 Eh     change       -0.1735995E-03 Eh
   gradient norm :     0.0044022 Eh/α   predicted    -0.1138112E-03 ( -34.44%)
   displ. norm   :     0.2145278 α      lambda       -0.2755101E-03
   maximum displ.:     0.0771536 α      in ANC's #7, #3, #6, ...

........................................................................
.............................. CYCLE   23 ..............................
........................................................................

 iter      E             dE          RMSdq      gap      omega  full diag
   1   -191.1952815 -0.191195E+03  0.343E-02    2.11       0.0  T
   2   -191.1952842 -0.274561E-05  0.201E-02    2.11       1.0  T
   3   -191.1952793  0.491892E-05  0.715E-03    2.11       1.3  T
   4   -191.1952851 -0.572849E-05  0.151E-03    2.11       6.1  T
   5   -191.1952852 -0.180813E-06  0.585E-04    2.11      15.8  T
   6   -191.1952852 -0.870685E-08  0.295E-04    2.11      31.3  T
   7   -191.1952853 -0.251288E-08  0.144E-04    2.11      64.1  T
   8   -191.1952853 -0.141873E-08  0.713E-05    2.11     129.6  T
     SCC iter.                  ...        0 min,  0.206 sec
     gradient                   ...        0 min,  0.288 sec
 * total energy  :  -188.2282484 Eh     change       -0.1901218E-03 Eh
   gradient norm :     0.0049232 Eh/α   predicted    -0.1440972E-03 ( -24.21%)
   displ. norm   :     0.2560866 α      lambda       -0.1935770E-03
   maximum displ.:     0.0968951 α      in ANC's #7, #3, #6, ...

........................................................................
.............................. CYCLE   24 ..............................
........................................................................

 iter      E             dE          RMSdq      gap      omega  full diag
   1   -191.1959045 -0.191196E+03  0.342E-02    2.11       0.0  T
   2   -191.1959055 -0.100716E-05  0.200E-02    2.11       1.0  T
   3   -191.1959027  0.286698E-05  0.523E-03    2.12       1.8  T
   4   -191.1959060 -0.332129E-05  0.963E-04    2.12       9.6  T
   5   -191.1959060 -0.506268E-07  0.480E-04    2.12      19.2  T
   6   -191.1959061 -0.101342E-07  0.222E-04    2.12      41.7  T
   7   -191.1959061 -0.198600E-08  0.112E-04    2.12      82.7  T
   8   -191.1959061 -0.703807E-09  0.572E-05    2.12     161.7  T
     SCC iter.                  ...        0 min,  0.217 sec
     gradient                   ...        0 min,  0.297 sec
 * total energy  :  -188.2284067 Eh     change       -0.1583137E-03 Eh
   gradient norm :     0.0071235 Eh/α   predicted    -0.1031367E-03 ( -34.85%)
   displ. norm   :     0.4398941 α      lambda       -0.3061136E-03
   maximum displ.:     0.1697732 α      in ANC's #7, #3, #6, ...

........................................................................
.............................. CYCLE   25 ..............................
........................................................................

 iter      E             dE          RMSdq      gap      omega  full diag
   1   -191.1939819 -0.191194E+03  0.540E-02    2.12       0.0  T
   2   -191.1939843 -0.238042E-05  0.317E-02    2.13       1.0  T
   3   -191.1939802  0.411126E-05  0.623E-03    2.13       1.5  T
   4   -191.1939850 -0.478015E-05  0.149E-03    2.13       6.2  T
   5   -191.1939852 -0.176238E-06  0.681E-04    2.13      13.6  T
   6   -191.1939852 -0.204925E-07  0.351E-04    2.13      26.4  T
   7   -191.1939852 -0.459880E-08  0.146E-04    2.13      63.2  T
   8   -191.1939852 -0.975291E-09  0.798E-05    2.13     115.9  T
     SCC iter.                  ...        0 min,  0.204 sec
     gradient                   ...        0 min,  0.291 sec
 * total energy  :  -188.2286612 Eh     change       -0.2544796E-03 Eh
   gradient norm :     0.0075045 Eh/α   predicted    -0.1826753E-03 ( -28.22%)
   displ. norm   :     0.5425521 α      lambda       -0.3544809E-03
   maximum displ.:     0.2153659 α      in ANC's #7, #3, #6, ...

........................................................................
.............................. CYCLE   26 ..............................
........................................................................

 iter      E             dE          RMSdq      gap      omega  full diag
   1   -191.1903438 -0.191190E+03  0.637E-02    2.14       0.0  T
   2   -191.1903480 -0.425533E-05  0.377E-02    2.15       1.0  T
   3   -191.1903421  0.598935E-05  0.731E-03    2.14       1.3  T
   4   -191.1903488 -0.671173E-05  0.214E-03    2.15       4.3  T
   5   -191.1903492 -0.465574E-06  0.784E-04    2.15      11.8  T
   6   -191.1903493 -0.185444E-07  0.425E-04    2.15      21.7  T
   7   -191.1903493 -0.432163E-08  0.163E-04    2.15      56.5  T
   8   -191.1903493 -0.117049E-08  0.755E-05    2.15     122.5  T
     SCC iter.                  ...        0 min,  0.207 sec
     gradient                   ...        0 min,  0.342 sec
 * total energy  :  -188.2289525 Eh     change       -0.2913324E-03 Eh
   gradient norm :     0.0066732 Eh/α   predicted    -0.2294177E-03 ( -21.25%)
   displ. norm   :     0.5448734 α      lambda       -0.3427720E-03
   maximum displ.:     0.2239774 α      in ANC's #7, #3, #9, ...

........................................................................
.............................. CYCLE   27 ..............................
........................................................................

 iter      E             dE          RMSdq      gap      omega  full diag
   1   -191.1880322 -0.191188E+03  0.631E-02    2.15       0.0  T
   2   -191.1880369 -0.472384E-05  0.375E-02    2.16       1.0  T
   3   -191.1880272  0.974070E-05  0.928E-03    2.16       1.0  T
   4   -191.1880380 -0.108253E-04  0.224E-03    2.16       4.1  T
   5   -191.1880385 -0.484148E-06  0.775E-04    2.16      11.9  T
   6   -191.1880385 -0.140179E-07  0.439E-04    2.16      21.1  T
   7   -191.1880385 -0.335896E-08  0.194E-04    2.16      47.7  T
   8   -191.1880385 -0.252032E-08  0.844E-05    2.16     109.5  T
     SCC iter.                  ...        0 min,  0.242 sec
     gradient                   ...        0 min,  0.364 sec
 * total energy  :  -188.2292377 Eh     change       -0.2851650E-03 Eh
   gradient norm :     0.0064758 Eh/α   predicted    -0.2222868E-03 ( -22.05%)
   displ. norm   :     0.5450150 α      lambda       -0.3572962E-03
   maximum displ.:     0.2305554 α      in ANC's #3, #7, #9, ...

........................................................................
.............................. CYCLE   28 ..............................
........................................................................

 iter      E             dE          RMSdq      gap      omega  full diag
   1   -191.1883867 -0.191188E+03  0.638E-02    2.17       0.0  T
   2   -191.1883910 -0.426667E-05  0.379E-02    2.17       1.0  T
   3   -191.1883759  0.150154E-04  0.116E-02    2.17       1.0  T
   4   -191.1883928 -0.168757E-04  0.200E-03    2.17       4.6  T
   5   -191.1883931 -0.317736E-06  0.809E-04    2.17      11.4  T
   6   -191.1883931 -0.141568E-07  0.463E-04    2.17      20.0  T
   7   -191.1883932 -0.541058E-08  0.210E-04    2.17      44.0  T
   8   -191.1883932 -0.327913E-08  0.901E-05    2.17     102.7  T
   9   -191.1883932 -0.417003E-09  0.460E-05    2.17     201.1  T
     SCC iter.                  ...        0 min,  0.270 sec
     gradient                   ...        0 min,  0.332 sec
 * total energy  :  -188.2295372 Eh     change       -0.2995449E-03 Eh
   gradient norm :     0.0066954 Eh/α   predicted    -0.2317932E-03 ( -22.62%)
   displ. norm   :     0.5857300 α      lambda       -0.3736598E-03
   maximum displ.:     0.2571184 α      in ANC's #3, #7, #9, ...

........................................................................
.............................. CYCLE   29 ..............................
........................................................................

 iter      E             dE          RMSdq      gap      omega  full diag
   1   -191.1904265 -0.191190E+03  0.688E-02    2.17       0.0  T
   2   -191.1904301 -0.356418E-05  0.407E-02    2.18       1.0  T
   3   -191.1904124  0.176977E-04  0.127E-02    2.17       1.0  T
   4   -191.1904325 -0.200421E-04  0.180E-03    2.17       5.1  T
   5   -191.1904326 -0.181058E-06  0.867E-04    2.18      10.7  T
   6   -191.1904327 -0.167220E-07  0.468E-04    2.18      19.8  T
   7   -191.1904327 -0.700817E-08  0.194E-04    2.18      47.7  T
   8   -191.1904327 -0.232453E-08  0.891E-05    2.18     103.8  T
     SCC iter.                  ...        0 min,  0.207 sec
     gradient                   ...        0 min,  0.319 sec
 * total energy  :  -188.2298567 Eh     change       -0.3195245E-03 Eh
   gradient norm :     0.0071758 Eh/α   predicted    -0.2509306E-03 ( -21.47%)
   displ. norm   :     0.6388564 α      lambda       -0.4130349E-03
   maximum displ.:     0.2880179 α      in ANC's #3, #7, #5, ...

........................................................................
.............................. CYCLE   30 ..............................
........................................................................

 iter      E             dE          RMSdq      gap      omega  full diag
   1   -191.1930116 -0.191193E+03  0.749E-02    2.17       0.0  T
   2   -191.1930147 -0.312219E-05  0.440E-02    2.17       1.0  T
   3   -191.1929967  0.180382E-04  0.128E-02    2.17       1.0  T
   4   -191.1930172 -0.205520E-04  0.174E-03    2.17       5.3  T
   5   -191.1930173 -0.970630E-07  0.931E-04    2.17       9.9  T
   6   -191.1930174 -0.245995E-07  0.454E-04    2.17      20.4  T
   7   -191.1930174 -0.709485E-08  0.180E-04    2.17      51.3  T
   8   -191.1930174 -0.177235E-08  0.786E-05    2.17     117.6  T
     SCC iter.                  ...        0 min,  0.214 sec
     gradient                   ...        0 min,  0.327 sec
 * total energy  :  -188.2302217 Eh     change       -0.3650011E-03 Eh
   gradient norm :     0.0072942 Eh/α   predicted    -0.2908114E-03 ( -20.33%)
   displ. norm   :     0.6853812 α      lambda       -0.4854196E-03
   maximum displ.:     0.3157524 α      in ANC's #3, #7, #5, ...

........................................................................
.............................. CYCLE   31 ..............................
........................................................................

 iter      E             dE          RMSdq      gap      omega  full diag
   1   -191.1954795 -0.191195E+03  0.824E-02    2.17       0.0  T
   2   -191.1954829 -0.340556E-05  0.483E-02    2.17       1.0  T
   3   -191.1954637  0.192056E-04  0.128E-02    2.17       1.0  T
   4   -191.1954857 -0.220356E-04  0.181E-03    2.17       5.1  T
   5   -191.1954858 -0.600077E-07  0.105E-03    2.17       8.8  T
   6   -191.1954858 -0.384743E-07  0.467E-04    2.17      19.8  T
   7   -191.1954858 -0.894869E-08  0.200E-04    2.17      46.1  T
   8   -191.1954858 -0.180870E-08  0.990E-05    2.17      93.3  T
   9   -191.1954858 -0.582730E-09  0.472E-05    2.17     195.7  T
     SCC iter.                  ...        0 min,  0.230 sec
     gradient                   ...        0 min,  0.284 sec
 * total energy  :  -188.2306478 Eh     change       -0.4260978E-03 Eh
   gradient norm :     0.0073316 Eh/α   predicted    -0.3567223E-03 ( -16.28%)
   displ. norm   :     0.6975866 α      lambda       -0.5102101E-03
   maximum displ.:     0.3286785 α      in ANC's #3, #7, #5, ...

........................................................................
.............................. CYCLE   32 ..............................
........................................................................

 iter      E             dE          RMSdq      gap      omega  full diag
   1   -191.1960352 -0.191196E+03  0.848E-02    2.16       0.0  T
   2   -191.1960387 -0.355457E-05  0.497E-02    2.16       1.0  T
   3   -191.1960201  0.186012E-04  0.120E-02    2.16       1.0  T
   4   -191.1960416 -0.214081E-04  0.176E-03    2.16       5.2  T
   5   -191.1960416 -0.499933E-07  0.109E-03    2.16       8.5  T
   6   -191.1960416 -0.476201E-07  0.560E-04    2.16      16.5  T
   7   -191.1960417 -0.148915E-07  0.213E-04    2.16      43.4  T
   8   -191.1960417 -0.301822E-08  0.101E-04    2.16      91.8  T
   9   -191.1960417 -0.544503E-09  0.404E-05    2.16     228.7  T
     SCC iter.                  ...        0 min,  0.238 sec
     gradient                   ...        0 min,  0.323 sec
 * total energy  :  -188.2310837 Eh     change       -0.4358142E-03 Eh
   gradient norm :     0.0071179 Eh/α   predicted    -0.3792467E-03 ( -12.98%)
   displ. norm   :     0.6980230 α      lambda       -0.4510730E-03
   maximum displ.:     0.3371929 α      in ANC's #3, #7, #5, ...

........................................................................
.............................. CYCLE   33 ..............................
........................................................................

 iter      E             dE          RMSdq      gap      omega  full diag
   1   -191.1937241 -0.191194E+03  0.829E-02    2.16       0.0  T
   2   -191.1937279 -0.375059E-05  0.487E-02    2.16       1.0  T
   3   -191.1937094  0.185110E-04  0.118E-02    2.16       1.0  T
   4   -191.1937306 -0.212600E-04  0.178E-03    2.16       5.2  T
   5   -191.1937307 -0.106300E-06  0.110E-03    2.16       8.4  T
   6   -191.1937308 -0.404825E-07  0.617E-04    2.16      15.0  T
   7   -191.1937308 -0.190361E-07  0.237E-04    2.16      39.0  T
   8   -191.1937308 -0.437905E-08  0.940E-05    2.16      98.4  T
   9   -191.1937308 -0.430845E-09  0.459E-05    2.16     201.5  T
     SCC iter.                  ...        0 min,  0.263 sec
     gradient                   ...        0 min,  0.321 sec
 * total energy  :  -188.2314595 Eh     change       -0.3758332E-03 Eh
   gradient norm :     0.0067912 Eh/α   predicted    -0.3354327E-03 ( -10.75%)
   displ. norm   :     0.6413458 α      lambda       -0.3736347E-03
   maximum displ.:     0.3227001 α      in ANC's #3, #7, #5, ...

........................................................................
.............................. CYCLE   34 ..............................
........................................................................

 iter      E             dE          RMSdq      gap      omega  full diag
   1   -191.1931057 -0.191193E+03  0.722E-02    2.15       0.0  T
   2   -191.1931093 -0.365254E-05  0.425E-02    2.15       1.0  T
   3   -191.1930910  0.182576E-04  0.118E-02    2.15       1.0  T
   4   -191.1931119 -0.208176E-04  0.184E-03    2.15       5.0  T
   5   -191.1931121 -0.194137E-06  0.985E-04    2.15       9.4  T
   6   -191.1931121 -0.271981E-07  0.532E-04    2.15      17.4  T
   7   -191.1931121 -0.907261E-08  0.274E-04    2.15      33.7  T
   8   -191.1931121 -0.603396E-08  0.909E-05    2.15     101.7  T
   9   -191.1931121 -0.360956E-09  0.484E-05    2.15     190.9  T
     SCC iter.                  ...        0 min,  0.261 sec
     gradient                   ...        0 min,  0.281 sec
 * total energy  :  -188.2317559 Eh     change       -0.2963796E-03 Eh
   gradient norm :     0.0059731 Eh/α   predicted    -0.2636601E-03 ( -11.04%)
   displ. norm   :     0.6859478 α      lambda       -0.3174586E-03
   maximum displ.:     0.3400926 α      in ANC's #3, #7, #5, ...

........................................................................
.............................. CYCLE   35 ..............................
........................................................................

 iter      E             dE          RMSdq      gap      omega  full diag
   1   -191.1875003 -0.191188E+03  0.714E-02    2.15       0.0  T
   2   -191.1875072 -0.690935E-05  0.421E-02    2.16       1.0  T
   3   -191.1874976  0.961450E-05  0.925E-03    2.15       1.0  T
   4   -191.1875088 -0.111996E-04  0.239E-03    2.16       3.9  T
   5   -191.1875093 -0.525791E-06  0.108E-03    2.16       8.5  T
   6   -191.1875094 -0.350938E-07  0.570E-04    2.16      16.2  T
   7   -191.1875094 -0.640253E-08  0.269E-04    2.16      34.4  T
   8   -191.1875094 -0.548599E-08  0.108E-04    2.16      86.0  T
   9   -191.1875094 -0.321307E-09  0.588E-05    2.16     157.2  T
     SCC iter.                  ...        0 min,  0.259 sec
     gradient                   ...        0 min,  0.332 sec
 * total energy  :  -188.2319855 Eh     change       -0.2296466E-03 Eh
   gradient norm :     0.0083086 Eh/α   predicted    -0.2334157E-03 (   1.64%)
   displ. norm   :     0.4983259 α      lambda       -0.3317419E-03
   maximum displ.:     0.2717988 α      in ANC's #3, #7, #1, ...

........................................................................
.............................. CYCLE   36 ..............................
........................................................................

 iter      E             dE          RMSdq      gap      omega  full diag
   1   -191.1937613 -0.191194E+03  0.520E-02    2.15       0.0  T
   2   -191.1937695 -0.819394E-05  0.309E-02    2.15       1.0  T
   3   -191.1937557  0.137750E-04  0.122E-02    2.15       1.0  T
   4   -191.1937718 -0.160753E-04  0.310E-03    2.15       3.0  T
   5   -191.1937727 -0.905449E-06  0.983E-04    2.15       9.4  T
   6   -191.1937727 -0.316993E-07  0.442E-04    2.15      20.9  T
   7   -191.1937727 -0.569855E-10  0.240E-04    2.15      38.5  T
   8   -191.1937727 -0.430816E-08  0.975E-05    2.15      94.8  T
   9   -191.1937727 -0.214698E-09  0.506E-05    2.15     182.6  T
     SCC iter.                  ...        0 min,  0.244 sec
     gradient                   ...        0 min,  0.310 sec
 * total energy  :  -188.2322035 Eh     change       -0.2179444E-03 Eh
   gradient norm :     0.0063605 Eh/α   predicted    -0.2070663E-03 (  -4.99%)
   displ. norm   :     0.5637826 α      lambda       -0.2489496E-03
   maximum displ.:     0.2892019 α      in ANC's #3, #7, #1, ...

........................................................................
.............................. CYCLE   37 ..............................
........................................................................

 iter      E             dE          RMSdq      gap      omega  full diag
   1   -191.1908288 -0.191191E+03  0.524E-02    2.15       0.0  T
   2   -191.1908335 -0.466390E-05  0.307E-02    2.15       1.0  T
   3   -191.1908284  0.500931E-05  0.704E-03    2.15       1.3  T
   4   -191.1908339 -0.547303E-05  0.220E-03    2.15       4.2  T
   5   -191.1908344 -0.534956E-06  0.715E-04    2.15      12.9  T
   6   -191.1908345 -0.173900E-07  0.427E-04    2.15      21.6  T
   7   -191.1908345 -0.677881E-08  0.161E-04    2.15      57.3  T
   8   -191.1908345 -0.133701E-08  0.830E-05    2.15     111.4  T
     SCC iter.                  ...        0 min,  0.216 sec
     gradient                   ...        0 min,  0.338 sec
 * total energy  :  -188.2323878 Eh     change       -0.1842980E-03 Eh
   gradient norm :     0.0061348 Eh/α   predicted    -0.1640406E-03 ( -10.99%)
   displ. norm   :     0.5111993 α      lambda       -0.2478156E-03
   maximum displ.:     0.2745653 α      in ANC's #3, #7, #1, ...

........................................................................
.............................. CYCLE   38 ..............................
........................................................................

 iter      E             dE          RMSdq      gap      omega  full diag
   1   -191.1931803 -0.191193E+03  0.462E-02    2.16       0.0  T
   2   -191.1931833 -0.297783E-05  0.273E-02    2.16       1.0  T
   3   -191.1931768  0.647677E-05  0.772E-03    2.16       1.2  T
   4   -191.1931845 -0.760464E-05  0.162E-03    2.16       5.7  T
   5   -191.1931846 -0.171522E-06  0.777E-04    2.16      11.9  T
   6   -191.1931846 -0.114127E-07  0.419E-04    2.16      22.1  T
   7   -191.1931846 -0.728838E-08  0.202E-04    2.16      45.8  T
   8   -191.1931846 -0.257324E-08  0.910E-05    2.16     101.5  T
   9   -191.1931846 -0.328754E-09  0.451E-05    2.16     204.9  T
     SCC iter.                  ...        0 min,  0.279 sec
     gradient                   ...        0 min,  0.322 sec
 * total energy  :  -188.2325786 Eh     change       -0.1908434E-03 Eh
   gradient norm :     0.0054026 Eh/α   predicted    -0.1562904E-03 ( -18.11%)
   displ. norm   :     0.5153539 α      lambda       -0.2652602E-03
   maximum displ.:     0.2777981 α      in ANC's #3, #1, #7, ...

........................................................................
.............................. CYCLE   39 ..............................
........................................................................

 iter      E             dE          RMSdq      gap      omega  full diag
   1   -191.1962503 -0.191196E+03  0.506E-02    2.16       0.0  T
   2   -191.1962550 -0.469418E-05  0.300E-02    2.16       1.0  T
   3   -191.1962480  0.695983E-05  0.836E-03    2.16       1.1  T
   4   -191.1962559 -0.788787E-05  0.221E-03    2.16       4.2  T
   5   -191.1962564 -0.500744E-06  0.775E-04    2.16      11.9  T
   6   -191.1962564 -0.182404E-07  0.403E-04    2.16      23.0  T
   7   -191.1962564 -0.325252E-08  0.212E-04    2.16      43.7  T
   8   -191.1962564 -0.342749E-08  0.845E-05    2.16     109.5  T
   9   -191.1962564 -0.248804E-09  0.434E-05    2.16     212.9  T
     SCC iter.                  ...        0 min,  0.250 sec
     gradient                   ...        0 min,  0.335 sec
 * total energy  :  -188.2327630 Eh     change       -0.1844100E-03 Eh
   gradient norm :     0.0057150 Eh/α   predicted    -0.1678557E-03 (  -8.98%)
   displ. norm   :     0.5145377 α      lambda       -0.2087874E-03
   maximum displ.:     0.2839960 α      in ANC's #3, #1, #7, ...

........................................................................
.............................. CYCLE   40 ..............................
........................................................................

 iter      E             dE          RMSdq      gap      omega  full diag
   1   -191.1966777 -0.191197E+03  0.456E-02    2.16       0.0  T
   2   -191.1966810 -0.331215E-05  0.270E-02    2.16       1.0  T
   3   -191.1966766  0.441373E-05  0.633E-03    2.16       1.5  T
   4   -191.1966817 -0.505262E-05  0.179E-03    2.16       5.2  T
   5   -191.1966820 -0.325790E-06  0.721E-04    2.16      12.8  T
   6   -191.1966820 -0.987774E-08  0.413E-04    2.16      22.4  T
   7   -191.1966820 -0.812082E-08  0.168E-04    2.16      55.0  T
   8   -191.1966820 -0.912109E-09  0.748E-05    2.16     123.6  T
     SCC iter.                  ...        0 min,  0.219 sec
     gradient                   ...        0 min,  0.339 sec
 * total energy  :  -188.2329367 Eh     change       -0.1737277E-03 Eh
   gradient norm :     0.0059165 Eh/α   predicted    -0.1320351E-03 ( -24.00%)
   displ. norm   :     0.4997572 α      lambda       -0.2341346E-03
   maximum displ.:     0.2762168 α      in ANC's #3, #1, #7, ...

........................................................................
.............................. CYCLE   41 ..............................
........................................................................

 iter      E             dE          RMSdq      gap      omega  full diag
   1   -191.1972786 -0.191197E+03  0.456E-02    2.15       0.0  T
   2   -191.1972824 -0.383938E-05  0.274E-02    2.15       1.0  T
   3   -191.1972749  0.756002E-05  0.801E-03    2.15       1.2  T
   4   -191.1972834 -0.849664E-05  0.197E-03    2.15       4.7  T
   5   -191.1972838 -0.419506E-06  0.751E-04    2.15      12.3  T
   6   -191.1972838 -0.134584E-07  0.419E-04    2.15      22.1  T
   7   -191.1972838 -0.991778E-08  0.169E-04    2.15      54.7  T
   8   -191.1972838 -0.728136E-09  0.817E-05    2.15     113.1  T
     SCC iter.                  ...        0 min,  0.185 sec
     gradient                   ...        0 min,  0.293 sec
 * total energy  :  -188.2331389 Eh     change       -0.2021812E-03 Eh
   gradient norm :     0.0058168 Eh/α   predicted    -0.1463116E-03 ( -27.63%)
   displ. norm   :     0.5687047 α      lambda       -0.2895946E-03
   maximum displ.:     0.3056942 α      in ANC's #3, #1, #7, ...

........................................................................
.............................. CYCLE   42 ..............................
........................................................................

 iter      E             dE          RMSdq      gap      omega  full diag
   1   -191.1957833 -0.191196E+03  0.543E-02    2.14       0.0  T
   2   -191.1957891 -0.577183E-05  0.327E-02    2.13       1.0  T
   3   -191.1957781  0.109707E-04  0.980E-03    2.14       1.0  T
   4   -191.1957905 -0.123834E-04  0.238E-03    2.13       3.9  T
   5   -191.1957911 -0.627901E-06  0.971E-04    2.13       9.5  T
   6   -191.1957912 -0.401432E-07  0.492E-04    2.13      18.8  T
   7   -191.1957912 -0.104866E-07  0.218E-04    2.13      42.5  T
   8   -191.1957912 -0.218708E-08  0.112E-04    2.13      82.5  T
   9   -191.1957912 -0.557520E-09  0.530E-05    2.13     174.5  T
     SCC iter.                  ...        0 min,  0.260 sec
     gradient                   ...        0 min,  0.331 sec
 * total energy  :  -188.2333808 Eh     change       -0.2418997E-03 Eh
   gradient norm :     0.0062295 Eh/α   predicted    -0.1916308E-03 ( -20.78%)
   displ. norm   :     0.6186921 α      lambda       -0.3009048E-03
   maximum displ.:     0.3234782 α      in ANC's #3, #1, #2, ...
 * RMSD in coord.:     0.9398000 α      energy gain  -0.5800579E-02 Eh

generating ANC from exact Hessian ...
Using Lindh-Hessian (1995)
 Shifting diagonal of input Hessian by    1.0064990428387635E-002
 Lowest  eigenvalues of input Hessian
    0.010000    0.000000    0.000000    0.000000    0.000000    0.000000
    0.000000    0.010118    0.010141    0.010222    0.010266    0.010318
    0.010334    0.010439    0.010465    0.010624    0.010864    0.010883
 Highest eigenvalues
    2.162759    2.219651    2.337107    2.340526    2.349482    3.129623


........................................................................
.............................. CYCLE   43 ..............................
........................................................................

 iter      E             dE          RMSdq      gap      omega  full diag
   1   -191.1945357 -0.191195E+03  0.618E-02    2.12       0.0  T
   2   -191.1945427 -0.697065E-05  0.371E-02    2.12       1.0  T
   3   -191.1945298  0.129085E-04  0.107E-02    2.12       1.0  T
   4   -191.1945445 -0.146908E-04  0.260E-03    2.11       3.6  T
   5   -191.1945452 -0.678896E-06  0.106E-03    2.11       8.7  T
   6   -191.1945452 -0.439017E-07  0.572E-04    2.12      16.2  T
   7   -191.1945452 -0.179671E-07  0.215E-04    2.12      43.0  T
   8   -191.1945452 -0.124379E-08  0.103E-04    2.12      90.0  T
   9   -191.1945452 -0.485556E-09  0.450E-05    2.12     205.5  T
     SCC iter.                  ...        0 min,  0.272 sec
     gradient                   ...        0 min,  0.291 sec
 * total energy  :  -188.2336336 Eh     change       -0.2528060E-03 Eh
   gradient norm :     0.0062637 Eh/α   predicted     0.0000000E+00 (-100.00%)
   displ. norm   :     0.0695313 α      lambda       -0.1116230E-03
   maximum displ.:     0.0247123 α      in ANC's #2, #1, #4, ...

........................................................................
.............................. CYCLE   44 ..............................
........................................................................

 iter      E             dE          RMSdq      gap      omega  full diag
   1   -191.1940194 -0.191194E+03  0.137E-02    2.11       0.0  T
   2   -191.1940200 -0.659566E-06  0.811E-03    2.11       1.1  T
   3   -191.1940194  0.629602E-06  0.269E-03    2.11       3.4  T
   4   -191.1940201 -0.686486E-06  0.894E-04    2.11      10.3  T
   5   -191.1940202 -0.907628E-07  0.281E-04    2.11      33.0  T
   6   -191.1940202 -0.242781E-08  0.160E-04    2.11      57.7  T
   7   -191.1940202 -0.127287E-08  0.716E-05    2.11     129.1  T
     SCC iter.                  ...        0 min,  0.184 sec
     gradient                   ...        0 min,  0.305 sec
 * total energy  :  -188.2337256 Eh     change       -0.9200899E-04 Eh
   gradient norm :     0.0032749 Eh/α   predicted    -0.5608163E-04 ( -39.05%)
   displ. norm   :     0.2245234 α      lambda       -0.2245516E-03
   maximum displ.:     0.0833826 α      in ANC's #2, #1, #4, ...

........................................................................
.............................. CYCLE   45 ..............................
........................................................................

 iter      E             dE          RMSdq      gap      omega  full diag
   1   -191.1929914 -0.191193E+03  0.371E-02    2.10       0.0  T
   2   -191.1929950 -0.361215E-05  0.218E-02    2.11       1.0  T
   3   -191.1929906  0.439396E-05  0.670E-03    2.10       1.4  T
   4   -191.1929954 -0.480044E-05  0.215E-03    2.11       4.3  T
   5   -191.1929959 -0.521705E-06  0.723E-04    2.11      12.8  T
   6   -191.1929960 -0.119875E-07  0.426E-04    2.11      21.7  T
   7   -191.1929960 -0.102143E-07  0.183E-04    2.11      50.4  T
   8   -191.1929960 -0.223687E-08  0.824E-05    2.11     112.3  T
     SCC iter.                  ...        0 min,  0.237 sec
     gradient                   ...        0 min,  0.308 sec
 * total energy  :  -188.2338702 Eh     change       -0.1445589E-03 Eh
   gradient norm :     0.0042680 Eh/α   predicted    -0.1179375E-03 ( -18.42%)
   displ. norm   :     0.1888439 α      lambda       -0.1038381E-03
   maximum displ.:     0.0751215 α      in ANC's #2, #1, #4, ...

........................................................................
.............................. CYCLE   46 ..............................
........................................................................

 iter      E             dE          RMSdq      gap      omega  full diag
   1   -191.1928414 -0.191193E+03  0.270E-02    2.10       0.0  T
   2   -191.1928422 -0.809362E-06  0.159E-02    2.10       1.0  T
   3   -191.1928401  0.215146E-05  0.429E-03    2.10       2.2  T
   4   -191.1928425 -0.241007E-05  0.107E-03    2.10       8.6  T
   5   -191.1928426 -0.948699E-07  0.477E-04    2.10      19.4  T
   6   -191.1928426 -0.494620E-08  0.282E-04    2.10      32.8  T
   7   -191.1928426 -0.464763E-08  0.105E-04    2.10      87.7  T
   8   -191.1928426 -0.523841E-09  0.514E-05    2.10     179.8  T
     SCC iter.                  ...        0 min,  0.194 sec
     gradient                   ...        0 min,  0.279 sec
 * total energy  :  -188.2339565 Eh     change       -0.8634515E-04 Eh
   gradient norm :     0.0059383 Eh/α   predicted    -0.5377425E-04 ( -37.72%)
   displ. norm   :     0.3724274 α      lambda       -0.2050795E-03
   maximum displ.:     0.1500349 α      in ANC's #2, #1, #4, ...

........................................................................
.............................. CYCLE   47 ..............................
........................................................................

 iter      E             dE          RMSdq      gap      omega  full diag
   1   -191.1927938 -0.191193E+03  0.493E-02    2.09       0.0  T
   2   -191.1927951 -0.126682E-05  0.290E-02    2.09       1.0  T
   3   -191.1927888  0.623466E-05  0.703E-03    2.09       1.3  T
   4   -191.1927959 -0.709912E-05  0.135E-03    2.09       6.8  T
   5   -191.1927960 -0.753778E-07  0.790E-04    2.09      11.7  T
   6   -191.1927960 -0.264303E-07  0.375E-04    2.09      24.6  T
   7   -191.1927960 -0.601190E-08  0.154E-04    2.09      60.0  T
   8   -191.1927960 -0.130862E-08  0.691E-05    2.09     133.7  T
     SCC iter.                  ...        0 min,  0.198 sec
     gradient                   ...        0 min,  0.277 sec
 * total energy  :  -188.2341315 Eh     change       -0.1749813E-03 Eh
   gradient norm :     0.0063241 Eh/α   predicted    -0.1167654E-03 ( -33.27%)
   displ. norm   :     0.5440713 α      lambda       -0.2971283E-03
   maximum displ.:     0.2239352 α      in ANC's #2, #1, #4, ...

........................................................................
.............................. CYCLE   48 ..............................
........................................................................

 iter      E             dE          RMSdq      gap      omega  full diag
   1   -191.1925189 -0.191193E+03  0.686E-02    2.07       0.0  T
   2   -191.1925210 -0.211732E-05  0.404E-02    2.07       1.0  T
   3   -191.1925082  0.128422E-04  0.994E-03    2.08       1.0  T
   4   -191.1925227 -0.145357E-04  0.166E-03    2.08       5.6  T
   5   -191.1925228 -0.125400E-06  0.998E-04    2.08       9.3  T
   6   -191.1925229 -0.453480E-07  0.470E-04    2.08      19.7  T
   7   -191.1925229 -0.612266E-08  0.201E-04    2.08      45.9  T
   8   -191.1925229 -0.365847E-08  0.670E-05    2.08     138.0  T
   9   -191.1925229 -0.177437E-09  0.304E-05    2.08     303.9  T
     SCC iter.                  ...        0 min,  0.248 sec
     gradient                   ...        0 min,  0.296 sec
 * total energy  :  -188.2343864 Eh     change       -0.2548842E-03 Eh
   gradient norm :     0.0054667 Eh/α   predicted    -0.1925596E-03 ( -24.45%)
   displ. norm   :     0.6256942 α      lambda       -0.3347272E-03
   maximum displ.:     0.2633332 α      in ANC's #2, #1, #3, ...

........................................................................
.............................. CYCLE   49 ..............................
........................................................................

 iter      E             dE          RMSdq      gap      omega  full diag
   1   -191.1924805 -0.191192E+03  0.750E-02    2.06       0.0  T
   2   -191.1924833 -0.284236E-05  0.442E-02    2.06       1.0  T
   3   -191.1924688  0.145522E-04  0.105E-02    2.06       1.0  T
   4   -191.1924852 -0.163721E-04  0.182E-03    2.06       5.1  T
   5   -191.1924854 -0.244951E-06  0.960E-04    2.06       9.6  T
   6   -191.1924854 -0.339188E-07  0.534E-04    2.06      17.3  T
   7   -191.1924854 -0.793091E-08  0.207E-04    2.06      44.8  T
   8   -191.1924854 -0.411626E-08  0.717E-05    2.06     128.9  T
   9   -191.1924854 -0.287514E-09  0.335E-05    2.06     275.8  T
     SCC iter.                  ...        0 min,  0.238 sec
     gradient                   ...        0 min,  0.338 sec
 * total energy  :  -188.2346781 Eh     change       -0.2916871E-03 Eh
   gradient norm :     0.0050566 Eh/α   predicted    -0.2329212E-03 ( -20.15%)
   displ. norm   :     0.6635012 α      lambda       -0.3698797E-03
   maximum displ.:     0.2850161 α      in ANC's #2, #1, #3, ...

........................................................................
.............................. CYCLE   50 ..............................
........................................................................

 iter      E             dE          RMSdq      gap      omega  full diag
   1   -191.1933043 -0.191193E+03  0.757E-02    2.05       0.0  T
   2   -191.1933072 -0.291540E-05  0.447E-02    2.05       1.0  T
   3   -191.1932918  0.154422E-04  0.108E-02    2.05       1.0  T
   4   -191.1933091 -0.172860E-04  0.178E-03    2.05       5.2  T
   5   -191.1933093 -0.284382E-06  0.842E-04    2.05      11.0  T
   6   -191.1933094 -0.192207E-07  0.490E-04    2.05      18.8  T
   7   -191.1933094 -0.647765E-08  0.187E-04    2.05      49.6  T
   8   -191.1933094 -0.325926E-08  0.732E-05    2.05     126.4  T
     SCC iter.                  ...        0 min,  0.232 sec
     gradient                   ...        0 min,  0.309 sec
 * total energy  :  -188.2350132 Eh     change       -0.3350914E-03 Eh
   gradient norm :     0.0063484 Eh/α   predicted    -0.2663570E-03 ( -20.51%)
   displ. norm   :     0.7262795 α      lambda       -0.4528916E-03
   maximum displ.:     0.3166304 α      in ANC's #2, #1, #3, ...

........................................................................
.............................. CYCLE   51 ..............................
........................................................................

 iter      E             dE          RMSdq      gap      omega  full diag
   1   -191.1946736 -0.191195E+03  0.803E-02    2.04       0.0  T
   2   -191.1946766 -0.299981E-05  0.473E-02    2.04       1.0  T
   3   -191.1946591  0.174551E-04  0.115E-02    2.05       1.0  T
   4   -191.1946786 -0.195138E-04  0.177E-03    2.04       5.2  T
   5   -191.1946789 -0.281777E-06  0.799E-04    2.04      11.6  T
   6   -191.1946789 -0.155579E-07  0.440E-04    2.04      21.0  T
   7   -191.1946789 -0.580050E-08  0.141E-04    2.04      65.8  T
   8   -191.1946789 -0.117836E-08  0.700E-05    2.04     132.1  T
     SCC iter.                  ...        0 min,  0.199 sec
     gradient                   ...        0 min,  0.287 sec
 * total energy  :  -188.2354348 Eh     change       -0.4216147E-03 Eh
   gradient norm :     0.0079370 Eh/α   predicted    -0.3458938E-03 ( -17.96%)
   displ. norm   :     0.7817545 α      lambda       -0.5538148E-03
   maximum displ.:     0.3447583 α      in ANC's #2, #1, #3, ...

........................................................................
.............................. CYCLE   52 ..............................
........................................................................

 iter      E             dE          RMSdq      gap      omega  full diag
   1   -191.1959518 -0.191196E+03  0.857E-02    2.03       0.0  T
   2   -191.1959551 -0.332720E-05  0.503E-02    2.04       1.0  T
   3   -191.1959349  0.201816E-04  0.126E-02    2.04       1.0  T
   4   -191.1959575 -0.225866E-04  0.177E-03    2.04       5.2  T
   5   -191.1959578 -0.245553E-06  0.823E-04    2.04      11.2  T
   6   -191.1959578 -0.182480E-07  0.419E-04    2.04      22.1  T
   7   -191.1959578 -0.632343E-08  0.138E-04    2.04      67.2  T
   8   -191.1959578 -0.112547E-08  0.723E-05    2.04     127.9  T
     SCC iter.                  ...        0 min,  0.203 sec
     gradient                   ...        0 min,  0.323 sec
 * total energy  :  -188.2359511 Eh     change       -0.5163042E-03 Eh
   gradient norm :     0.0082501 Eh/α   predicted    -0.4461383E-03 ( -13.59%)
   displ. norm   :     0.8109360 α      lambda       -0.6179168E-03
   maximum displ.:     0.3624269 α      in ANC's #2, #3, #1, ...

........................................................................
.............................. CYCLE   53 ..............................
........................................................................

 iter      E             dE          RMSdq      gap      omega  full diag
   1   -191.1963915 -0.191196E+03  0.890E-02    2.04       0.0  T
   2   -191.1963954 -0.389590E-05  0.520E-02    2.04       1.0  T
   3   -191.1963765  0.189412E-04  0.125E-02    2.04       1.0  T
   4   -191.1963978 -0.213121E-04  0.185E-03    2.04       5.0  T
   5   -191.1963981 -0.237245E-06  0.883E-04    2.04      10.5  T
   6   -191.1963981 -0.240956E-07  0.430E-04    2.04      21.5  T
   7   -191.1963981 -0.813287E-08  0.161E-04    2.04      57.5  T
   8   -191.1963981 -0.172932E-08  0.799E-05    2.04     115.8  T
     SCC iter.                  ...        0 min,  0.211 sec
     gradient                   ...        0 min,  0.285 sec
 * total energy  :  -188.2365204 Eh     change       -0.5692608E-03 Eh
   gradient norm :     0.0073880 Eh/α   predicted    -0.5121515E-03 ( -10.03%)
   displ. norm   :     0.8182018 α      lambda       -0.6242490E-03
   maximum displ.:     0.3727488 α      in ANC's #2, #3, #1, ...

........................................................................
.............................. CYCLE   54 ..............................
........................................................................

 iter      E             dE          RMSdq      gap      omega  full diag
   1   -191.1959352 -0.191196E+03  0.893E-02    2.04       0.0  T
   2   -191.1959398 -0.461359E-05  0.520E-02    2.04       1.0  T
   3   -191.1959213  0.185258E-04  0.126E-02    2.05       1.0  T
   4   -191.1959422 -0.209454E-04  0.206E-03    2.04       4.5  T
   5   -191.1959425 -0.269804E-06  0.939E-04    2.04       9.8  T
   6   -191.1959425 -0.219851E-07  0.445E-04    2.04      20.8  T
   7   -191.1959425 -0.113304E-07  0.150E-04    2.04      61.5  T
   8   -191.1959425 -0.986034E-09  0.736E-05    2.04     125.5  T
     SCC iter.                  ...        0 min,  0.278 sec
     gradient                   ...        0 min,  0.326 sec
 * total energy  :  -188.2370859 Eh     change       -0.5655140E-03 Eh
   gradient norm :     0.0062316 Eh/α   predicted    -0.5210790E-03 (  -7.86%)
   displ. norm   :     0.7930189 α      lambda       -0.5814832E-03
   maximum displ.:     0.3706308 α      in ANC's #2, #3, #8, ...

........................................................................
.............................. CYCLE   55 ..............................
........................................................................

 iter      E             dE          RMSdq      gap      omega  full diag
   1   -191.1963123 -0.191196E+03  0.849E-02    2.04       0.0  T
   2   -191.1963157 -0.345697E-05  0.494E-02    2.04       1.0  T
   3   -191.1963024  0.132654E-04  0.108E-02    2.05       1.0  T
   4   -191.1963176 -0.151886E-04  0.195E-03    2.04       4.7  T
   5   -191.1963178 -0.171763E-06  0.956E-04    2.05       9.7  T
   6   -191.1963178 -0.259818E-07  0.446E-04    2.05      20.7  T
   7   -191.1963178 -0.152773E-07  0.166E-04    2.05      55.8  T
   8   -191.1963178 -0.112726E-08  0.907E-05    2.05     101.9  T
     SCC iter.                  ...        0 min,  0.227 sec
     gradient                   ...        0 min,  0.287 sec
 * total energy  :  -188.2375993 Eh     change       -0.5134208E-03 Eh
   gradient norm :     0.0061516 Eh/α   predicted    -0.4735833E-03 (  -7.76%)
   displ. norm   :     0.7647469 α      lambda       -0.5153299E-03
   maximum displ.:     0.3661214 α      in ANC's #2, #3, #8, ...

........................................................................
.............................. CYCLE   56 ..............................
........................................................................

 iter      E             dE          RMSdq      gap      omega  full diag
   1   -191.1945627 -0.191195E+03  0.807E-02    2.04       0.0  T
   2   -191.1945660 -0.337173E-05  0.470E-02    2.04       1.0  T
   3   -191.1945452  0.207946E-04  0.130E-02    2.04       1.0  T
   4   -191.1945686 -0.233639E-04  0.191E-03    2.04       4.8  T
   5   -191.1945688 -0.156457E-06  0.100E-03    2.04       9.2  T
   6   -191.1945688 -0.295846E-07  0.504E-04    2.04      18.3  T
   7   -191.1945688 -0.195411E-07  0.190E-04    2.04      48.7  T
   8   -191.1945688 -0.195450E-08  0.949E-05    2.04      97.4  T
     SCC iter.                  ...        0 min,  0.249 sec
     gradient                   ...        0 min,  0.278 sec
 * total energy  :  -188.2380398 Eh     change       -0.4405139E-03 Eh
   gradient norm :     0.0073853 Eh/α   predicted    -0.4083748E-03 (  -7.30%)
   displ. norm   :     0.6478499 α      lambda       -0.5281682E-03
   maximum displ.:     0.3232689 α      in ANC's #2, #3, #8, ...

........................................................................
.............................. CYCLE   57 ..............................
........................................................................

 iter      E             dE          RMSdq      gap      omega  full diag
   1   -191.2086684 -0.191209E+03  0.720E-02    2.04       0.0  T
   2   -191.2086760 -0.761939E-05  0.416E-02    2.03       1.0  T
   3   -191.2086642  0.117901E-04  0.110E-02    2.04       1.0  T
   4   -191.2086777 -0.134780E-04  0.302E-03    2.03       3.1  T
   5   -191.2086785 -0.785793E-06  0.140E-03    2.03       6.6  T
   6   -191.2086786 -0.943050E-07  0.695E-04    2.03      13.3  T
   7   -191.2086786 -0.334698E-07  0.267E-04    2.03      34.6  T
   8   -191.2086786 -0.422443E-08  0.119E-04    2.03      77.5  T
   9   -191.2086786 -0.132587E-09  0.519E-05    2.03     178.3  T
     SCC iter.                  ...        0 min,  0.246 sec
     gradient                   ...        0 min,  0.267 sec
 * total energy  :  -188.2382710 Eh     change       -0.2311642E-03 Eh
   gradient norm :     0.0107824 Eh/α   predicted    -0.3749234E-03 (  62.19%)
   displ. norm   :     0.6089430 α      lambda       -0.6046487E-03
   maximum displ.:     0.2858911 α      in ANC's #2, #3, #4, ...

........................................................................
.............................. CYCLE   58 ..............................
........................................................................

 iter      E             dE          RMSdq      gap      omega  full diag
   1   -191.1958301 -0.191196E+03  0.764E-02    2.02       0.0  T
   2   -191.1958341 -0.398782E-05  0.451E-02    2.02       1.0  T
   3   -191.1958079  0.261348E-04  0.142E-02    2.02       1.0  T
   4   -191.1958371 -0.291857E-04  0.214E-03    2.01       4.3  T
   5   -191.1958375 -0.334958E-06  0.103E-03    2.01       9.0  T
   6   -191.1958375 -0.223221E-07  0.600E-04    2.01      15.4  T
   7   -191.1958375 -0.143502E-07  0.255E-04    2.01      36.2  T
   8   -191.1958375 -0.507953E-08  0.904E-05    2.01     102.2  T
   9   -191.1958375 -0.405294E-09  0.431E-05    2.01     214.5  T
     SCC iter.                  ...        0 min,  0.268 sec
     gradient                   ...        0 min,  0.289 sec
 * total energy  :  -188.2386386 Eh     change       -0.3676064E-03 Eh
   gradient norm :     0.0063976 Eh/α   predicted    -0.4144298E-03 (  12.74%)
   displ. norm   :     0.4115273 α      lambda       -0.2181042E-03
   maximum displ.:     0.2143690 α      in ANC's #2, #3, #4, ...

........................................................................
.............................. CYCLE   59 ..............................
........................................................................

 iter      E             dE          RMSdq      gap      omega  full diag
   1   -191.1951645 -0.191195E+03  0.444E-02    2.01       0.0  T
   2   -191.1951669 -0.248105E-05  0.261E-02    2.01       1.0  T
   3   -191.1951521  0.148595E-04  0.113E-02    2.00       1.0  T
   4   -191.1951689 -0.168457E-04  0.150E-03    2.00       6.2  T
   5   -191.1951691 -0.155232E-06  0.668E-04    2.00      13.8  T
   6   -191.1951691 -0.972929E-08  0.405E-04    2.00      22.8  T
   7   -191.1951691 -0.810658E-08  0.167E-04    2.00      55.2  T
   8   -191.1951691 -0.182800E-08  0.718E-05    2.00     128.8  T
     SCC iter.                  ...        0 min,  0.215 sec
     gradient                   ...        0 min,  0.295 sec
 * total energy  :  -188.2388156 Eh     change       -0.1769850E-03 Eh
   gradient norm :     0.0061657 Eh/α   predicted    -0.1275221E-03 ( -27.95%)
   displ. norm   :     0.4256133 α      lambda       -0.3624005E-03
   maximum displ.:     0.2203250 α      in ANC's #2, #3, #4, ...

........................................................................
.............................. CYCLE   60 ..............................
........................................................................

 iter      E             dE          RMSdq      gap      omega  full diag
   1   -191.1987311 -0.191199E+03  0.534E-02    1.99       0.0  T
   2   -191.1987369 -0.579467E-05  0.317E-02    1.98       1.0  T
   3   -191.1987199  0.170537E-04  0.126E-02    1.98       1.0  T
   4   -191.1987394 -0.194915E-04  0.253E-03    1.98       3.7  T
   5   -191.1987399 -0.561052E-06  0.104E-03    1.98       8.9  T
   6   -191.1987399 -0.264097E-07  0.593E-04    1.98      15.6  T
   7   -191.1987400 -0.183996E-07  0.246E-04    1.98      37.5  T
   8   -191.1987400 -0.341765E-08  0.119E-04    1.98      77.4  T
   9   -191.1987400 -0.738424E-09  0.497E-05    1.98     186.0  T
     SCC iter.                  ...        0 min,  0.262 sec
     gradient                   ...        0 min,  0.287 sec
 * total energy  :  -188.2390747 Eh     change       -0.2590938E-03 Eh
   gradient norm :     0.0056635 Eh/α   predicted    -0.2140286E-03 ( -17.39%)
   displ. norm   :     0.5372728 α      lambda       -0.2765415E-03
   maximum displ.:     0.2848108 α      in ANC's #2, #3, #4, ...

........................................................................
.............................. CYCLE   61 ..............................
........................................................................

 iter      E             dE          RMSdq      gap      omega  full diag
   1   -191.2002808 -0.191200E+03  0.626E-02    1.97       0.0  T
   2   -191.2002856 -0.485352E-05  0.368E-02    1.97       1.0  T
   3   -191.2002745  0.111535E-04  0.967E-03    1.97       1.0  T
   4   -191.2002872 -0.127384E-04  0.202E-03    1.97       4.6  T
   5   -191.2002875 -0.318736E-06  0.100E-03    1.97       9.2  T
   6   -191.2002876 -0.359846E-07  0.540E-04    1.97      17.1  T
   7   -191.2002876 -0.141382E-07  0.225E-04    1.97      41.1  T
   8   -191.2002876 -0.239294E-08  0.109E-04    1.97      85.0  T
   9   -191.2002876 -0.867601E-09  0.434E-05    1.97     213.1  T
     SCC iter.                  ...        0 min,  0.307 sec
     gradient                   ...        0 min,  0.277 sec
 * total energy  :  -188.2392985 Eh     change       -0.2238693E-03 Eh
   gradient norm :     0.0074847 Eh/α   predicted    -0.1781903E-03 ( -20.40%)
   displ. norm   :     0.5710333 α      lambda       -0.3711634E-03
   maximum displ.:     0.2772853 α      in ANC's #2, #13, #3, ...

........................................................................
.............................. CYCLE   62 ..............................
........................................................................

 iter      E             dE          RMSdq      gap      omega  full diag
   1   -191.2018884 -0.191202E+03  0.714E-02    1.96       0.0  T
   2   -191.2018952 -0.683358E-05  0.419E-02    1.95       1.0  T
   3   -191.2018801  0.151282E-04  0.114E-02    1.95       1.0  T
   4   -191.2018975 -0.174408E-04  0.234E-03    1.95       4.0  T
   5   -191.2018978 -0.322888E-06  0.113E-03    1.95       8.2  T
   6   -191.2018979 -0.523125E-07  0.551E-04    1.95      16.8  T
   7   -191.2018979 -0.119552E-07  0.242E-04    1.95      38.2  T
   8   -191.2018979 -0.165366E-08  0.122E-04    1.95      75.6  T
   9   -191.2018979 -0.100886E-08  0.534E-05    1.95     173.1  T
     SCC iter.                  ...        0 min,  0.273 sec
     gradient                   ...        0 min,  0.304 sec
 * total energy  :  -188.2396094 Eh     change       -0.3109022E-03 Eh
   gradient norm :     0.0086756 Eh/α   predicted    -0.2461045E-03 ( -20.84%)
   displ. norm   :     0.6654796 α      lambda       -0.4675835E-03
   maximum displ.:     0.3111596 α      in ANC's #2, #13, #3, ...

........................................................................
.............................. CYCLE   63 ..............................
........................................................................

 iter      E             dE          RMSdq      gap      omega  full diag
   1   -191.2006534 -0.191201E+03  0.836E-02    1.94       0.0  T
   2   -191.2006621 -0.867400E-05  0.493E-02    1.93       1.0  T
   3   -191.2006440  0.180768E-04  0.122E-02    1.93       1.0  T
   4   -191.2006648 -0.207188E-04  0.258E-03    1.93       3.6  T
   5   -191.2006652 -0.451203E-06  0.124E-03    1.93       7.4  T
   6   -191.2006653 -0.712336E-07  0.600E-04    1.93      15.4  T
   7   -191.2006653 -0.113384E-07  0.254E-04    1.93      36.4  T
   8   -191.2006653 -0.228363E-08  0.111E-04    1.93      83.4  T
   9   -191.2006653 -0.596742E-09  0.473E-05    1.93     195.3  T
     SCC iter.                  ...        0 min,  0.254 sec
     gradient                   ...        0 min,  0.293 sec
 * total energy  :  -188.2400126 Eh     change       -0.4031263E-03 Eh
   gradient norm :     0.0072607 Eh/α   predicted    -0.3373311E-03 ( -16.32%)
   displ. norm   :     0.7014080 α      lambda       -0.5129902E-03
   maximum displ.:     0.3010293 α      in ANC's #2, #13, #3, ...

........................................................................
.............................. CYCLE   64 ..............................
........................................................................

 iter      E             dE          RMSdq      gap      omega  full diag
   1   -191.1971474 -0.191197E+03  0.882E-02    1.93       0.0  T
   2   -191.1971593 -0.118105E-04  0.521E-02    1.91       1.0  T
   3   -191.1971416  0.176804E-04  0.130E-02    1.91       1.0  T
   4   -191.1971621 -0.204790E-04  0.310E-03    1.91       3.0  T
   5   -191.1971628 -0.762351E-06  0.134E-03    1.91       6.9  T
   6   -191.1971629 -0.612928E-07  0.671E-04    1.91      13.8  T
   7   -191.1971629 -0.127149E-07  0.308E-04    1.91      30.0  T
   8   -191.1971629 -0.372702E-08  0.137E-04    1.91      67.4  T
   9   -191.1971629 -0.101835E-08  0.633E-05    1.91     146.1  T
     SCC iter.                  ...        0 min,  0.264 sec
     gradient                   ...        0 min,  0.313 sec
 * total energy  :  -188.2404321 Eh     change       -0.4195002E-03 Eh
   gradient norm :     0.0070703 Eh/α   predicted    -0.3826873E-03 (  -8.78%)
   displ. norm   :     0.6701448 α      lambda       -0.4620021E-03
   maximum displ.:     0.2886114 α      in ANC's #2, #13, #4, ...

........................................................................
.............................. CYCLE   65 ..............................
........................................................................

 iter      E             dE          RMSdq      gap      omega  full diag
   1   -191.1938302 -0.191194E+03  0.837E-02    1.91       0.0  T
   2   -191.1938443 -0.140399E-04  0.498E-02    1.89       1.0  T
   3   -191.1938210  0.232449E-04  0.139E-02    1.89       1.0  T
   4   -191.1938468 -0.257706E-04  0.378E-03    1.89       2.4  T
   5   -191.1938483 -0.148765E-05  0.147E-03    1.89       6.3  T
   6   -191.1938484 -0.900818E-07  0.752E-04    1.89      12.3  T
   7   -191.1938484 -0.175841E-07  0.362E-04    1.89      25.6  T
   8   -191.1938484 -0.675612E-08  0.168E-04    1.89      55.1  T
   9   -191.1938484 -0.174629E-08  0.743E-05    1.89     124.5  T
     SCC iter.                  ...        0 min,  0.273 sec
     gradient                   ...        0 min,  0.299 sec
 * total energy  :  -188.2407974 Eh     change       -0.3653335E-03 Eh
   gradient norm :     0.0095387 Eh/α   predicted    -0.3347456E-03 (  -8.37%)
   displ. norm   :     0.5983608 α      lambda       -0.4997701E-03
   maximum displ.:     0.2584671 α      in ANC's #2, #4, #13, ...

........................................................................
.............................. CYCLE   66 ..............................
........................................................................

 iter      E             dE          RMSdq      gap      omega  full diag
   1   -191.1929595 -0.191193E+03  0.763E-02    1.89       0.0  T
   2   -191.1929770 -0.174368E-04  0.461E-02    1.87       1.0  T
   3   -191.1929526  0.243543E-04  0.156E-02    1.87       1.0  T
   4   -191.1929802 -0.275941E-04  0.398E-03    1.87       2.3  T
   5   -191.1929816 -0.145027E-05  0.153E-03    1.87       6.1  T
   6   -191.1929817 -0.945292E-07  0.839E-04    1.87      11.0  T
   7   -191.1929818 -0.324968E-07  0.426E-04    1.87      21.7  T
   8   -191.1929818 -0.102649E-07  0.175E-04    1.87      52.7  T
   9   -191.1929818 -0.128995E-08  0.766E-05    1.87     120.8  T
     SCC iter.                  ...        0 min,  0.231 sec
     gradient                   ...        0 min,  0.254 sec
 * total energy  :  -188.2412012 Eh     change       -0.4038333E-03 Eh
   gradient norm :     0.0108149 Eh/α   predicted    -0.3393581E-03 ( -15.97%)
   displ. norm   :     0.5584437 α      lambda       -0.6558803E-03
   maximum displ.:     0.2259232 α      in ANC's #2, #4, #7, ...
 * RMSD in coord.:     1.0916386 α      energy gain  -0.7820406E-02 Eh

generating ANC from exact Hessian ...
Using Lindh-Hessian (1995)
 Shifting diagonal of input Hessian by    1.0106773991574027E-002
 Lowest  eigenvalues of input Hessian
    0.010000    0.000000    0.000000    0.000000    0.000000    0.000000
    0.000000    0.010170    0.010228    0.010263    0.010351    0.010395
    0.010450    0.010524    0.010629    0.010837    0.011016    0.011050
 Highest eigenvalues
    2.155391    2.215671    2.325737    2.343937    2.394911    3.110749


........................................................................
.............................. CYCLE   67 ..............................
........................................................................

 iter      E             dE          RMSdq      gap      omega  full diag
   1   -191.1967672 -0.191197E+03  0.725E-02    1.87       0.0  T
   2   -191.1967881 -0.208493E-04  0.448E-02    1.85       1.0  T
   3   -191.1967669  0.211675E-04  0.145E-02    1.85       1.0  T
   4   -191.1967886 -0.216491E-04  0.540E-03    1.84       1.7  T
   5   -191.1967923 -0.376637E-05  0.191E-03    1.84       4.8  T
   6   -191.1967925 -0.207176E-06  0.998E-04    1.84       9.3  T
   7   -191.1967926 -0.510537E-07  0.425E-04    1.84      21.7  T
   8   -191.1967926 -0.785229E-08  0.190E-04    1.84      48.6  T
   9   -191.1967926 -0.163789E-08  0.812E-05    1.84     113.8  T
     SCC iter.                  ...        0 min,  0.275 sec
     gradient                   ...        0 min,  0.279 sec
 * total energy  :  -188.2417124 Eh     change       -0.5111922E-03 Eh
   gradient norm :     0.0120941 Eh/α   predicted     0.0000000E+00 (-100.00%)
   displ. norm   :     0.0899605 α      lambda       -0.3166735E-03
   maximum displ.:     0.0315370 α      in ANC's #6, #36, #4, ...

........................................................................
.............................. CYCLE   68 ..............................
........................................................................

 iter      E             dE          RMSdq      gap      omega  full diag
   1   -191.1991824 -0.191199E+03  0.199E-02    1.84       0.0  T
   2   -191.1991848 -0.246962E-05  0.120E-02    1.84       1.0  T
   3   -191.1991838  0.105746E-05  0.454E-03    1.84       2.0  T
   4   -191.1991852 -0.141397E-05  0.137E-03    1.84       6.7  T
   5   -191.1991854 -0.178002E-06  0.573E-04    1.84      16.1  T
   6   -191.1991854 -0.126844E-07  0.286E-04    1.84      32.4  T
   7   -191.1991854 -0.478303E-08  0.110E-04    1.84      83.7  T
   8   -191.1991854 -0.429793E-09  0.590E-05    1.84     156.7  T
     SCC iter.                  ...        0 min,  0.218 sec
     gradient                   ...        0 min,  0.313 sec
 * total energy  :  -188.2419628 Eh     change       -0.2504182E-03 Eh
   gradient norm :     0.0073808 Eh/α   predicted    -0.1596194E-03 ( -36.26%)
   displ. norm   :     0.2297820 α      lambda       -0.4479342E-03
   maximum displ.:     0.0898305 α      in ANC's #6, #4, #36, ...

........................................................................
.............................. CYCLE   69 ..............................
........................................................................

 iter      E             dE          RMSdq      gap      omega  full diag
   1   -191.2011471 -0.191201E+03  0.399E-02    1.82       0.0  T
   2   -191.2011612 -0.140713E-04  0.248E-02    1.82       1.0  T
   3   -191.2011578  0.339314E-05  0.980E-03    1.81       1.0  T
   4   -191.2011625 -0.475082E-05  0.331E-03    1.81       2.8  T
   5   -191.2011637 -0.115200E-05  0.145E-03    1.81       6.4  T
   6   -191.2011638 -0.941513E-07  0.724E-04    1.81      12.8  T
   7   -191.2011638 -0.388277E-07  0.285E-04    1.81      32.4  T
   8   -191.2011638 -0.265931E-08  0.147E-04    1.81      63.0  T
   9   -191.2011638 -0.108116E-08  0.667E-05    1.81     138.5  T
     SCC iter.                  ...        0 min,  0.235 sec
     gradient                   ...        0 min,  0.314 sec
 * total energy  :  -188.2422811 Eh     change       -0.3182683E-03 Eh
   gradient norm :     0.0082214 Eh/α   predicted    -0.2357990E-03 ( -25.91%)
   displ. norm   :     0.3010004 α      lambda       -0.3825945E-03
   maximum displ.:     0.1241295 α      in ANC's #6, #4, #36, ...

........................................................................
.............................. CYCLE   70 ..............................
........................................................................

 iter      E             dE          RMSdq      gap      omega  full diag
   1   -191.2008450 -0.191201E+03  0.473E-02    1.79       0.0  T
   2   -191.2008724 -0.274223E-04  0.305E-02    1.77       1.0  T
   3   -191.2008688  0.361567E-05  0.125E-02    1.77       1.0  T
   4   -191.2008741 -0.526230E-05  0.468E-03    1.77       2.0  T
   5   -191.2008766 -0.249128E-05  0.192E-03    1.77       4.8  T
   6   -191.2008767 -0.148459E-06  0.101E-03    1.77       9.1  T
   7   -191.2008768 -0.824043E-07  0.413E-04    1.77      22.4  T
   8   -191.2008768 -0.463876E-08  0.198E-04    1.77      46.6  T
   9   -191.2008768 -0.211267E-08  0.901E-05    1.77     102.6  T
     SCC iter.                  ...        0 min,  0.255 sec
     gradient                   ...        0 min,  0.344 sec
 * total energy  :  -188.2426080 Eh     change       -0.3269301E-03 Eh
   gradient norm :     0.0137512 Eh/α   predicted    -0.2086756E-03 ( -36.17%)
   displ. norm   :     0.6216324 α      lambda       -0.8383287E-03
   maximum displ.:     0.2579943 α      in ANC's #6, #4, #15, ...

........................................................................
.............................. CYCLE   71 ..............................
........................................................................

 iter      E             dE          RMSdq      gap      omega  full diag
   1   -191.1968848 -0.191197E+03  0.100E-01    1.72       0.0  T
   2   -191.1970471 -0.162374E-03  0.664E-02    1.67       1.0  T
   3   -191.1970365  0.106338E-04  0.286E-02    1.67       1.0  T
   4   -191.1970537 -0.172328E-04  0.113E-02    1.66       1.0  T
   5   -191.1970690 -0.152652E-04  0.445E-03    1.66       2.1  T
   6   -191.1970697 -0.724353E-06  0.243E-03    1.66       3.8  T
   7   -191.1970702 -0.488442E-06  0.101E-03    1.66       9.2  T
   8   -191.1970702 -0.279541E-07  0.457E-04    1.66      20.2  T
   9   -191.1970703 -0.109511E-07  0.204E-04    1.66      45.2  T
  10   -191.1970703 -0.197903E-08  0.940E-05    1.66      98.4  T
  11   -191.1970703 -0.579519E-09  0.400E-05    1.66     230.9  T
     SCC iter.                  ...        0 min,  0.301 sec
     gradient                   ...        0 min,  0.290 sec
 * total energy  :  -188.2433050 Eh     change       -0.6969490E-03 Eh
   gradient norm :     0.0249392 Eh/α   predicted    -0.5811552E-03 ( -16.61%)
   displ. norm   :     0.5947134 α      lambda       -0.1151264E-02
   maximum displ.:     0.2577146 α      in ANC's #6, #4, #15, ...

........................................................................
.............................. CYCLE   72 ..............................
........................................................................

 iter      E             dE          RMSdq      gap      omega  full diag
   1   -191.1930244 -0.191193E+03  0.109E-01    1.61       0.0  T
   2   -191.1932666 -0.242184E-03  0.740E-02    1.54       1.0  T
   3   -191.1932602  0.642252E-05  0.338E-02    1.53       1.0  T
   4   -191.1932743 -0.141453E-04  0.141E-02    1.52       1.0  T
   5   -191.1932979 -0.235613E-04  0.520E-03    1.53       1.8  T
   6   -191.1932987 -0.827231E-06  0.293E-03    1.53       3.2  T
   7   -191.1932994 -0.710704E-06  0.124E-03    1.53       7.5  T
   8   -191.1932995 -0.447739E-07  0.544E-04    1.53      17.0  T
   9   -191.1932995 -0.152763E-07  0.238E-04    1.53      38.9  T
  10   -191.1932995 -0.235323E-08  0.109E-04    1.53      84.4  T
  11   -191.1932995 -0.735582E-09  0.487E-05    1.53     189.8  T
     SCC iter.                  ...        0 min,  0.324 sec
     gradient                   ...        0 min,  0.327 sec
 * total energy  :  -188.2443125 Eh     change       -0.1007537E-02 Eh
   gradient norm :     0.0342918 Eh/α   predicted    -0.7792228E-03 ( -22.66%)
   displ. norm   :     0.5480457 α      lambda       -0.3087326E-02
   maximum displ.:     0.2293905 α      in ANC's #6, #4, #15, ...

........................................................................
.............................. CYCLE   73 ..............................
........................................................................

 iter      E             dE          RMSdq      gap      omega  full diag
   1   -191.1962530 -0.191196E+03  0.145E-01    1.44       0.0  T
   2   -191.1967138 -0.460793E-03  0.987E-02    1.33       1.0  T
   3   -191.1966996  0.141565E-04  0.461E-02    1.32       1.0  T
   4   -191.1967215 -0.218818E-04  0.214E-02    1.30       1.0  T
   5   -191.1967739 -0.524208E-04  0.718E-03    1.31       1.3  T
   6   -191.1967752 -0.125256E-05  0.413E-03    1.31       2.2  T
   7   -191.1967765 -0.134453E-05  0.183E-03    1.31       5.0  T
   8   -191.1967767 -0.112514E-06  0.820E-04    1.31      11.3  T
   9   -191.1967767 -0.360526E-07  0.346E-04    1.31      26.7  T
  10   -191.1967767 -0.453090E-08  0.165E-04    1.31      56.0  T
  11   -191.1967767 -0.147503E-08  0.709E-05    1.31     130.4  T
     SCC iter.                  ...        0 min,  0.309 sec
     gradient                   ...        0 min,  0.335 sec
 * total energy  :  -188.2465645 Eh     change       -0.2251956E-02 Eh
   gradient norm :     0.0343728 Eh/α   predicted    -0.2007305E-02 ( -10.86%)
   displ. norm   :     0.2446398 α      lambda       -0.2536336E-02
   maximum displ.:     0.0624123 α      in ANC's #41, #36, #35, ...

........................................................................
.............................. CYCLE   74 ..............................
........................................................................

 iter      E             dE          RMSdq      gap      omega  full diag
   1   -191.2100628 -0.191210E+03  0.932E-02    1.27       0.0  T
   2   -191.2101838 -0.121006E-03  0.581E-02    1.20       1.0  T
   3   -191.2101598  0.239788E-04  0.257E-02    1.20       1.0  T
   4   -191.2101896 -0.297244E-04  0.119E-02    1.19       1.0  T
   5   -191.2102042 -0.146342E-04  0.423E-03    1.19       2.2  T
   6   -191.2102049 -0.730252E-06  0.232E-03    1.19       4.0  T
   7   -191.2102053 -0.373542E-06  0.109E-03    1.19       8.5  T
   8   -191.2102053 -0.500802E-07  0.474E-04    1.19      19.5  T
   9   -191.2102054 -0.106204E-07  0.207E-04    1.19      44.6  T
  10   -191.2102054 -0.120946E-08  0.104E-04    1.19      89.2  T
  11   -191.2102054 -0.548852E-09  0.446E-05    1.19     207.5  T
     SCC iter.                  ...        0 min,  0.290 sec
     gradient                   ...        0 min,  0.293 sec
 * total energy  :  -188.2479882 Eh     change       -0.1423716E-02 Eh
   gradient norm :     0.0284347 Eh/α   predicted    -0.1344074E-02 (  -5.59%)
   displ. norm   :     0.3789389 α      lambda       -0.1933140E-02
   maximum displ.:     0.1505257 α      in ANC's #6, #4, #15, ...

........................................................................
.............................. CYCLE   75 ..............................
........................................................................

 iter      E             dE          RMSdq      gap      omega  full diag
   1   -191.2120167 -0.191212E+03  0.835E-02    1.16       0.0  T
   2   -191.2120673 -0.505739E-04  0.497E-02    1.12       1.0  T
   3   -191.2120343  0.330274E-04  0.212E-02    1.12       1.0  T
   4   -191.2120759 -0.416461E-04  0.721E-03    1.11       1.3  T
   5   -191.2120798 -0.391293E-05  0.311E-03    1.11       3.0  T
   6   -191.2120804 -0.551909E-06  0.159E-03    1.11       5.8  T
   7   -191.2120805 -0.162088E-06  0.769E-04    1.11      12.0  T
   8   -191.2120805 -0.232433E-07  0.329E-04    1.11      28.1  T
   9   -191.2120806 -0.457536E-08  0.149E-04    1.11      62.2  T
  10   -191.2120806 -0.667370E-09  0.790E-05    1.11     117.0  T
     SCC iter.                  ...        0 min,  0.271 sec
     gradient                   ...        0 min,  0.282 sec
 * total energy  :  -188.2492650 Eh     change       -0.1276782E-02 Eh
   gradient norm :     0.0194375 Eh/α   predicted    -0.1105366E-02 ( -13.43%)
   displ. norm   :     0.4551478 α      lambda       -0.2804478E-02
   maximum displ.:     0.1308818 α      in ANC's #35, #41, #36, ...

........................................................................
.............................. CYCLE   76 ..............................
........................................................................

 iter      E             dE          RMSdq      gap      omega  full diag
   1   -191.2189766 -0.191219E+03  0.104E-01    1.13       0.0  T
   2   -191.2190710 -0.944363E-04  0.628E-02    1.15       1.0  T
   3   -191.2190290  0.420060E-04  0.312E-02    1.16       1.0  T
   4   -191.2190877 -0.586450E-04  0.112E-02    1.16       1.0  T
   5   -191.2190984 -0.107462E-04  0.363E-03    1.16       2.5  T
   6   -191.2190985 -0.893249E-07  0.181E-03    1.16       5.1  T
   7   -191.2190987 -0.223530E-06  0.713E-04    1.16      13.0  T
   8   -191.2190988 -0.112049E-07  0.389E-04    1.16      23.8  T
   9   -191.2190988 -0.624598E-08  0.172E-04    1.16      53.8  T
  10   -191.2190988 -0.135591E-08  0.763E-05    1.16     121.1  T
     SCC iter.                  ...        0 min,  0.291 sec
     gradient                   ...        0 min,  0.335 sec
 * total energy  :  -188.2485621 Eh     change        0.7029155E-03 Eh
   gradient norm :     0.0363229 Eh/α   predicted    -0.1692734E-02 (-340.82%)
   displ. norm   :     0.2544776 α      lambda       -0.2680799E-02
   maximum displ.:     0.0963463 α      in ANC's #6, #4, #10, ...

........................................................................
.............................. CYCLE   77 ..............................
........................................................................

 iter      E             dE          RMSdq      gap      omega  full diag
   1   -191.2152627 -0.191215E+03  0.624E-02    1.13       0.0  T
   2   -191.2153209 -0.581874E-04  0.410E-02    1.11       1.0  T
   3   -191.2153135  0.738660E-05  0.195E-02    1.10       1.0  T
   4   -191.2153250 -0.115024E-04  0.771E-03    1.10       1.2  T
   5   -191.2153312 -0.620632E-05  0.268E-03    1.10       3.4  T
   6   -191.2153315 -0.239128E-06  0.126E-03    1.10       7.4  T
   7   -191.2153316 -0.903250E-07  0.534E-04    1.10      17.3  T
   8   -191.2153316 -0.624837E-08  0.230E-04    1.10      40.3  T
   9   -191.2153316 -0.255571E-08  0.103E-04    1.10      89.6  T
  10   -191.2153316 -0.412427E-09  0.505E-05    1.10     183.2  T
     SCC iter.                  ...        0 min,  0.278 sec
     gradient                   ...        0 min,  0.337 sec
 * total energy  :  -188.2502194 Eh     change       -0.1657341E-02 Eh
   gradient norm :     0.0107443 Eh/α   predicted    -0.1427205E-02 ( -13.89%)
   displ. norm   :     0.2418508 α      lambda       -0.3868150E-03
   maximum displ.:     0.0976596 α      in ANC's #4, #6, #10, ...

........................................................................
.............................. CYCLE   78 ..............................
........................................................................

 iter      E             dE          RMSdq      gap      omega  full diag
   1   -191.2138367 -0.191214E+03  0.436E-02    1.07       0.0  T
   2   -191.2138485 -0.117284E-04  0.270E-02    1.06       1.0  T
   3   -191.2138428  0.569999E-05  0.930E-03    1.06       1.0  T
   4   -191.2138496 -0.687601E-05  0.301E-03    1.06       3.1  T
   5   -191.2138505 -0.885952E-06  0.144E-03    1.06       6.4  T
   6   -191.2138506 -0.111981E-06  0.605E-04    1.06      15.3  T
   7   -191.2138507 -0.231816E-07  0.263E-04    1.06      35.1  T
   8   -191.2138507 -0.963098E-09  0.124E-04    1.06      74.3  T
   9   -191.2138507 -0.966139E-09  0.559E-05    1.06     165.5  T
     SCC iter.                  ...        0 min,  0.253 sec
     gradient                   ...        0 min,  0.337 sec
 * total energy  :  -188.2504666 Eh     change       -0.2472510E-03 Eh
   gradient norm :     0.0071580 Eh/α   predicted    -0.2047212E-03 ( -17.20%)
   displ. norm   :     0.2263969 α      lambda       -0.2665979E-03
   maximum displ.:     0.0747277 α      in ANC's #4, #13, #21, ...

........................................................................
.............................. CYCLE   79 ..............................
........................................................................

 iter      E             dE          RMSdq      gap      omega  full diag
   1   -191.2131807 -0.191213E+03  0.371E-02    1.05       0.0  T
   2   -191.2131843 -0.359093E-05  0.223E-02    1.04       1.0  T
   3   -191.2131802  0.405270E-05  0.701E-03    1.04       1.3  T
   4   -191.2131849 -0.466360E-05  0.200E-03    1.04       4.6  T
   5   -191.2131852 -0.335973E-06  0.829E-04    1.04      11.2  T
   6   -191.2131853 -0.234174E-07  0.435E-04    1.04      21.3  T
   7   -191.2131853 -0.205920E-07  0.154E-04    1.04      59.9  T
   8   -191.2131853 -0.120983E-08  0.858E-05    1.04     107.8  T
     SCC iter.                  ...        0 min,  0.221 sec
     gradient                   ...        0 min,  0.326 sec
 * total energy  :  -188.2506829 Eh     change       -0.2162486E-03 Eh
   gradient norm :     0.0053405 Eh/α   predicted    -0.1401328E-03 ( -35.20%)
   displ. norm   :     0.3946592 α      lambda       -0.3764347E-03
   maximum displ.:     0.1399112 α      in ANC's #21, #13, #4, ...

........................................................................
.............................. CYCLE   80 ..............................
........................................................................

 iter      E             dE          RMSdq      gap      omega  full diag
   1   -191.2130344 -0.191213E+03  0.637E-02    1.03       0.0  T
   2   -191.2130401 -0.568106E-05  0.375E-02    1.03       1.0  T
   3   -191.2130326  0.747610E-05  0.923E-03    1.02       1.0  T
   4   -191.2130413 -0.873420E-05  0.261E-03    1.03       3.5  T
   5   -191.2130418 -0.429329E-06  0.112E-03    1.03       8.3  T
   6   -191.2130418 -0.397211E-07  0.607E-04    1.03      15.2  T
   7   -191.2130419 -0.398217E-07  0.215E-04    1.03      43.1  T
   8   -191.2130419 -0.237571E-08  0.114E-04    1.03      80.9  T
   9   -191.2130419 -0.432976E-09  0.446E-05    1.03     207.5  T
     SCC iter.                  ...        0 min,  0.268 sec
     gradient                   ...        0 min,  0.310 sec
 * total energy  :  -188.2509456 Eh     change       -0.2627192E-03 Eh
   gradient norm :     0.0062571 Eh/α   predicted    -0.2175370E-03 ( -17.20%)
   displ. norm   :     0.3431979 α      lambda       -0.2015562E-03
   maximum displ.:     0.1301445 α      in ANC's #13, #21, #10, ...

........................................................................
.............................. CYCLE   81 ..............................
........................................................................

 iter      E             dE          RMSdq      gap      omega  full diag
   1   -191.2128664 -0.191213E+03  0.547E-02    1.01       0.0  T
   2   -191.2128688 -0.236236E-05  0.320E-02    1.01       1.0  T
   3   -191.2128641  0.471674E-05  0.664E-03    1.01       1.4  T
   4   -191.2128696 -0.554346E-05  0.153E-03    1.01       6.0  T
   5   -191.2128697 -0.111265E-06  0.684E-04    1.01      13.5  T
   6   -191.2128697 -0.186990E-07  0.308E-04    1.01      30.0  T
   7   -191.2128697 -0.637132E-08  0.137E-04    1.01      67.7  T
   8   -191.2128697 -0.668763E-09  0.726E-05    1.01     127.3  T
     SCC iter.                  ...        0 min,  0.256 sec
     gradient                   ...        0 min,  0.386 sec
 * total energy  :  -188.2511046 Eh     change       -0.1590109E-03 Eh
   gradient norm :     0.0076040 Eh/α   predicted    -0.1126499E-03 ( -29.16%)
   displ. norm   :     0.4123558 α      lambda       -0.2471783E-03
   maximum displ.:     0.1642137 α      in ANC's #13, #10, #21, ...

........................................................................
.............................. CYCLE   82 ..............................
........................................................................

 iter      E             dE          RMSdq      gap      omega  full diag
   1   -191.2135866 -0.191214E+03  0.662E-02    1.00       0.0  T
   2   -191.2135890 -0.237500E-05  0.387E-02    1.00       1.0  T
   3   -191.2135772  0.117940E-04  0.963E-03    1.00       1.0  T
   4   -191.2135906 -0.133307E-04  0.140E-03    1.00       6.6  T
   5   -191.2135907 -0.151417E-06  0.663E-04    1.00      13.9  T
   6   -191.2135907 -0.159465E-07  0.315E-04    1.00      29.3  T
   7   -191.2135907 -0.438962E-08  0.132E-04    1.00      69.8  T
   8   -191.2135907 -0.113809E-08  0.590E-05    1.00     156.7  T
     SCC iter.                  ...        0 min,  0.258 sec
     gradient                   ...        0 min,  0.335 sec
 * total energy  :  -188.2513054 Eh     change       -0.2007557E-03 Eh
   gradient norm :     0.0071501 Eh/α   predicted    -0.1446047E-03 ( -27.97%)
   displ. norm   :     0.4638523 α      lambda       -0.2924673E-03
   maximum displ.:     0.1870840 α      in ANC's #13, #10, #21, ...

........................................................................
.............................. CYCLE   83 ..............................
........................................................................

 iter      E             dE          RMSdq      gap      omega  full diag
   1   -191.2138656 -0.191214E+03  0.750E-02    0.99       0.0  T
   2   -191.2138696 -0.404418E-05  0.441E-02    0.99       1.0  T
   3   -191.2138438  0.258299E-04  0.141E-02    0.99       1.0  T
   4   -191.2138727 -0.289177E-04  0.184E-03    0.99       5.0  T
   5   -191.2138731 -0.336660E-06  0.729E-04    0.99      12.7  T
   6   -191.2138731 -0.162453E-07  0.416E-04    0.99      22.2  T
   7   -191.2138731 -0.677412E-08  0.202E-04    0.99      45.8  T
   8   -191.2138731 -0.312684E-08  0.786E-05    0.99     117.6  T
   9   -191.2138731 -0.224247E-09  0.388E-05    0.99     238.5  T
     SCC iter.                  ...        0 min,  0.285 sec
     gradient                   ...        0 min,  0.320 sec
 * total energy  :  -188.2515312 Eh     change       -0.2257811E-03 Eh
   gradient norm :     0.0059015 Eh/α   predicted    -0.1776981E-03 ( -21.30%)
   displ. norm   :     0.4466543 α      lambda       -0.2533682E-03
   maximum displ.:     0.1891079 α      in ANC's #10, #13, #4, ...

........................................................................
.............................. CYCLE   84 ..............................
........................................................................

 iter      E             dE          RMSdq      gap      omega  full diag
   1   -191.2146026 -0.191215E+03  0.714E-02    0.99       0.0  T
   2   -191.2146082 -0.562934E-05  0.419E-02    0.99       1.0  T
   3   -191.2145890  0.192198E-04  0.125E-02    0.99       1.0  T
   4   -191.2146102 -0.212366E-04  0.244E-03    0.99       3.8  T
   5   -191.2146110 -0.772953E-06  0.829E-04    0.99      11.2  T
   6   -191.2146110 -0.241362E-07  0.470E-04    0.99      19.7  T
   7   -191.2146110 -0.132456E-07  0.210E-04    0.99      44.0  T
   8   -191.2146110 -0.324178E-08  0.976E-05    0.99      94.7  T
   9   -191.2146110 -0.223707E-09  0.462E-05    0.99     200.2  T
     SCC iter.                  ...        0 min,  0.257 sec
     gradient                   ...        0 min,  0.306 sec
 * total energy  :  -188.2517060 Eh     change       -0.1748822E-03 Eh
   gradient norm :     0.0049982 Eh/α   predicted    -0.1519599E-03 ( -13.11%)
   displ. norm   :     0.3651584 α      lambda       -0.1641512E-03
   maximum displ.:     0.1581734 α      in ANC's #10, #13, #1, ...

........................................................................
.............................. CYCLE   85 ..............................
........................................................................

 iter      E             dE          RMSdq      gap      omega  full diag
   1   -191.2140682 -0.191214E+03  0.567E-02    1.00       0.0  T
   2   -191.2140730 -0.480742E-05  0.333E-02    1.00       1.0  T
   3   -191.2140580  0.149490E-04  0.110E-02    1.00       1.0  T
   4   -191.2140748 -0.167121E-04  0.224E-03    1.00       4.1  T
   5   -191.2140753 -0.533953E-06  0.785E-04    1.00      11.8  T
   6   -191.2140753 -0.202898E-07  0.392E-04    1.00      23.6  T
   7   -191.2140753 -0.443185E-08  0.202E-04    1.00      45.7  T
   8   -191.2140753 -0.370252E-08  0.878E-05    1.00     105.3  T
   9   -191.2140753 -0.708553E-10  0.467E-05    1.00     198.1  T
     SCC iter.                  ...        0 min,  0.286 sec
     gradient                   ...        0 min,  0.371 sec
 * total energy  :  -188.2518158 Eh     change       -0.1097142E-03 Eh
   gradient norm :     0.0042462 Eh/α   predicted    -0.9302191E-04 ( -15.21%)
   displ. norm   :     0.2614959 α      lambda       -0.1021205E-03
   maximum displ.:     0.1160435 α      in ANC's #10, #1, #13, ...

........................................................................
.............................. CYCLE   86 ..............................
........................................................................

 iter      E             dE          RMSdq      gap      omega  full diag
   1   -191.2150709 -0.191215E+03  0.371E-02    1.00       0.0  T
   2   -191.2150721 -0.125918E-05  0.216E-02    1.00       1.0  T
   3   -191.2150694  0.272017E-05  0.478E-03    1.00       1.9  T
   4   -191.2150724 -0.297869E-05  0.128E-03    1.00       7.2  T
   5   -191.2150726 -0.191715E-06  0.477E-04    1.00      19.4  T
   6   -191.2150726 -0.838872E-08  0.255E-04    1.00      36.2  T
   7   -191.2150726 -0.305545E-08  0.104E-04    1.00      88.8  T
   8   -191.2150726 -0.685134E-09  0.558E-05    1.00     165.5  T
     SCC iter.                  ...        0 min,  0.195 sec
     gradient                   ...        0 min,  0.323 sec
 * total energy  :  -188.2518956 Eh     change       -0.7981108E-04 Eh
   gradient norm :     0.0036406 Eh/α   predicted    -0.5455557E-04 ( -31.64%)
   displ. norm   :     0.3018187 α      lambda       -0.1221966E-03
   maximum displ.:     0.1280361 α      in ANC's #10, #1, #5, ...

........................................................................
.............................. CYCLE   87 ..............................
........................................................................

 iter      E             dE          RMSdq      gap      omega  full diag
   1   -191.2156939 -0.191216E+03  0.402E-02    1.01       0.0  T
   2   -191.2156955 -0.158259E-05  0.236E-02    1.01       1.0  T
   3   -191.2156928  0.269732E-05  0.493E-03    1.01       1.9  T
   4   -191.2156957 -0.294082E-05  0.140E-03    1.01       6.6  T
   5   -191.2156959 -0.220103E-06  0.497E-04    1.01      18.6  T
   6   -191.2156959 -0.108427E-07  0.267E-04    1.01      34.7  T
   7   -191.2156960 -0.201422E-08  0.109E-04    1.01      84.5  T
   8   -191.2156960 -0.667683E-09  0.538E-05    1.01     171.8  T
     SCC iter.                  ...        0 min,  0.307 sec
     gradient                   ...        0 min,  0.291 sec
 * total energy  :  -188.2519879 Eh     change       -0.9234415E-04 Eh
   gradient norm :     0.0039598 Eh/α   predicted    -0.6666457E-04 ( -27.81%)
   displ. norm   :     0.2849065 α      lambda       -0.1037234E-03
   maximum displ.:     0.1252462 α      in ANC's #1, #5, #10, ...

........................................................................
.............................. CYCLE   88 ..............................
........................................................................

 iter      E             dE          RMSdq      gap      omega  full diag
   1   -191.2165995 -0.191217E+03  0.364E-02    1.01       0.0  T
   2   -191.2166005 -0.100233E-05  0.215E-02    1.01       1.0  T
   3   -191.2165979  0.261311E-05  0.465E-03    1.01       2.0  T
   4   -191.2166007 -0.287716E-05  0.117E-03    1.01       7.9  T
   5   -191.2166009 -0.155431E-06  0.444E-04    1.01      20.8  T
   6   -191.2166009 -0.641114E-08  0.260E-04    1.01      35.6  T
   7   -191.2166009 -0.217511E-08  0.100E-04    1.01      92.1  T
   8   -191.2166009 -0.598050E-09  0.473E-05    1.01     195.4  T
     SCC iter.                  ...        0 min,  0.236 sec
     gradient                   ...        0 min,  0.331 sec
 * total energy  :  -188.2520647 Eh     change       -0.7677427E-04 Eh
   gradient norm :     0.0042583 Eh/α   predicted    -0.5607532E-04 ( -26.96%)
   displ. norm   :     0.2821047 α      lambda       -0.8854383E-04
   maximum displ.:     0.1297692 α      in ANC's #1, #5, #10, ...

........................................................................
.............................. CYCLE   89 ..............................
........................................................................

 iter      E             dE          RMSdq      gap      omega  full diag
   1   -191.2154364 -0.191215E+03  0.371E-02    1.01       0.0  T
   2   -191.2154374 -0.962168E-06  0.220E-02    1.01       1.0  T
   3   -191.2154322  0.518934E-05  0.650E-03    1.01       1.4  T
   4   -191.2154379 -0.573992E-05  0.122E-03    1.01       7.6  T
   5   -191.2154381 -0.140835E-06  0.455E-04    1.01      20.3  T
   6   -191.2154381 -0.232259E-08  0.280E-04    1.01      33.1  T
   7   -191.2154381 -0.374641E-08  0.109E-04    1.01      85.1  T
   8   -191.2154381 -0.814367E-09  0.511E-05    1.01     180.9  T
     SCC iter.                  ...        0 min,  0.240 sec
     gradient                   ...        0 min,  0.363 sec
 * total energy  :  -188.2521315 Eh     change       -0.6676087E-04 Eh
   gradient norm :     0.0041258 Eh/α   predicted    -0.4779570E-04 ( -28.41%)
   displ. norm   :     0.2660538 α      lambda       -0.1007838E-03
   maximum displ.:     0.1350676 α      in ANC's #1, #5, #4, ...

........................................................................
.............................. CYCLE   90 ..............................
........................................................................

 iter      E             dE          RMSdq      gap      omega  full diag
   1   -191.2177421 -0.191218E+03  0.336E-02    1.01       0.0  T
   2   -191.2177435 -0.138884E-05  0.200E-02    1.01       1.0  T
   3   -191.2177373  0.621011E-05  0.718E-03    1.01       1.3  T
   4   -191.2177441 -0.685247E-05  0.159E-03    1.01       5.8  T
   5   -191.2177444 -0.288688E-06  0.523E-04    1.01      17.7  T
   6   -191.2177444 -0.571288E-08  0.340E-04    1.01      27.2  T
   7   -191.2177444 -0.568730E-08  0.130E-04    1.01      71.0  T
   8   -191.2177444 -0.120934E-08  0.551E-05    1.01     167.7  T
     SCC iter.                  ...        0 min,  0.227 sec
     gradient                   ...        0 min,  0.316 sec
 * total energy  :  -188.2521998 Eh     change       -0.6836044E-04 Eh
   gradient norm :     0.0034636 Eh/α   predicted    -0.5396084E-04 ( -21.06%)
   displ. norm   :     0.3008166 α      lambda       -0.9880061E-04
   maximum displ.:     0.1530085 α      in ANC's #1, #5, #4, ...

........................................................................
.............................. CYCLE   91 ..............................
........................................................................

 iter      E             dE          RMSdq      gap      omega  full diag
   1   -191.2151633 -0.191215E+03  0.412E-02    1.00       0.0  T
   2   -191.2151651 -0.179733E-05  0.244E-02    1.00       1.0  T
   3   -191.2151561  0.905245E-05  0.876E-03    1.00       1.1  T
   4   -191.2151661 -0.100420E-04  0.160E-03    1.00       5.8  T
   5   -191.2151664 -0.262502E-06  0.578E-04    1.00      16.0  T
   6   -191.2151664 -0.105487E-07  0.354E-04    1.00      26.1  T
   7   -191.2151664 -0.545501E-08  0.155E-04    1.00      59.7  T
   8   -191.2151664 -0.189740E-08  0.621E-05    1.00     148.8  T
     SCC iter.                  ...        0 min,  0.219 sec
     gradient                   ...        0 min,  0.319 sec
 * total energy  :  -188.2522689 Eh     change       -0.6906352E-04 Eh
   gradient norm :     0.0037925 Eh/α   predicted    -0.5387178E-04 ( -22.00%)
   displ. norm   :     0.2283236 α      lambda       -0.8283049E-04
   maximum displ.:     0.1269221 α      in ANC's #1, #5, #4, ...

........................................................................
.............................. CYCLE   92 ..............................
........................................................................

 iter      E             dE          RMSdq      gap      omega  full diag
   1   -191.2157637 -0.191216E+03  0.284E-02    1.00       0.0  T
   2   -191.2157649 -0.113493E-05  0.169E-02    1.00       1.0  T
   3   -191.2157577  0.711432E-05  0.774E-03    1.00       1.2  T
   4   -191.2157658 -0.807448E-05  0.108E-03    1.00       8.6  T
   5   -191.2157659 -0.105233E-06  0.427E-04    1.00      21.7  T
   6   -191.2157659 -0.796490E-08  0.262E-04    1.00      35.2  T
   7   -191.2157659 -0.223088E-08  0.129E-04    1.00      71.5  T
   8   -191.2157659 -0.139175E-08  0.426E-05    1.00     216.8  T
     SCC iter.                  ...        0 min,  0.207 sec
     gradient                   ...        0 min,  0.285 sec
 * total energy  :  -188.2523335 Eh     change       -0.6459396E-04 Eh
   gradient norm :     0.0037640 Eh/α   predicted    -0.4357565E-04 ( -32.54%)
   displ. norm   :     0.2774864 α      lambda       -0.9628141E-04
   maximum displ.:     0.1557879 α      in ANC's #1, #5, #4, ...
 * RMSD in coord.:     0.5716803 α      energy gain  -0.1113225E-01 Eh

generating ANC from exact Hessian ...
Using Lindh-Hessian (1995)
 Shifting diagonal of input Hessian by    1.0088985909342743E-002
 Lowest  eigenvalues of input Hessian
    0.010000    0.000000    0.000000    0.000000    0.000000    0.000000
    0.000000    0.010141    0.010189    0.010305    0.010368    0.010383
    0.010432    0.010517    0.010615    0.010873    0.010930    0.011061
 Highest eigenvalues
    2.145829    2.290132    2.320850    2.332311    2.423905    3.108831


........................................................................
.............................. CYCLE   93 ..............................
........................................................................

 iter      E             dE          RMSdq      gap      omega  full diag
   1   -191.2161309 -0.191216E+03  0.351E-02    0.99       0.0  T
   2   -191.2161322 -0.130492E-05  0.208E-02    1.00       1.0  T
   3   -191.2161229  0.937999E-05  0.857E-03    1.00       1.1  T
   4   -191.2161334 -0.105263E-04  0.102E-03    1.00       9.0  T
   5   -191.2161335 -0.823410E-07  0.446E-04    1.00      20.7  T
   6   -191.2161335 -0.646895E-08  0.277E-04    1.00      33.4  T
   7   -191.2161335 -0.248536E-08  0.133E-04    1.00      69.5  T
   8   -191.2161335 -0.152872E-08  0.450E-05    1.00     205.4  T
     SCC iter.                  ...        0 min,  0.241 sec
     gradient                   ...        0 min,  0.345 sec
 * total energy  :  -188.2524040 Eh     change       -0.7053423E-04 Eh
   gradient norm :     0.0036557 Eh/α   predicted     0.0000000E+00 (-100.00%)
   displ. norm   :     0.0344908 α      lambda       -0.1746200E-04
   maximum displ.:     0.0134789 α      in ANC's #21, #11, #4, ...

........................................................................
.............................. CYCLE   94 ..............................
........................................................................

 iter      E             dE          RMSdq      gap      omega  full diag
   1   -191.2167845 -0.191217E+03  0.756E-03    1.00       0.0  T
   2   -191.2167847 -0.199215E-06  0.440E-03    1.00       2.1  T
   3   -191.2167845  0.209103E-06  0.165E-03    1.00       5.6  T
   4   -191.2167847 -0.236310E-06  0.499E-04    1.00      18.5  T
   5   -191.2167848 -0.244429E-07  0.168E-04    1.00      55.1  T
   6   -191.2167848 -0.157755E-08  0.862E-05    1.00     107.3  T
     SCC iter.                  ...        0 min,  0.182 sec
     gradient                   ...        0 min,  0.363 sec
 * total energy  :  -188.2524298 Eh     change       -0.2579991E-04 Eh
   gradient norm :     0.0021942 Eh/α   predicted    -0.1588192E-04 ( -38.44%)
   displ. norm   :     0.1025220 α      lambda       -0.5496152E-04
   maximum displ.:     0.0413871 α      in ANC's #21, #11, #4, ...

........................................................................
.............................. CYCLE   95 ..............................
........................................................................

 iter      E             dE          RMSdq      gap      omega  full diag
   1   -191.2174188 -0.191217E+03  0.172E-02    1.00       0.0  T
   2   -191.2174198 -0.101144E-05  0.997E-03    1.00       1.0  T
   3   -191.2174183  0.150558E-05  0.424E-03    1.00       2.2  T
   4   -191.2174200 -0.172508E-05  0.114E-03    1.00       8.1  T
   5   -191.2174202 -0.122476E-06  0.392E-04    1.00      23.6  T
   6   -191.2174202 -0.905740E-08  0.209E-04    1.00      44.3  T
   7   -191.2174202 -0.248173E-08  0.892E-05    1.00     103.7  T
   8   -191.2174202 -0.662652E-09  0.328E-05    1.00     281.9  T
     SCC iter.                  ...        0 min,  0.252 sec
     gradient                   ...        0 min,  0.388 sec
 * total energy  :  -188.2524642 Eh     change       -0.3435266E-04 Eh
   gradient norm :     0.0016113 Eh/α   predicted    -0.2776976E-04 ( -19.16%)
   displ. norm   :     0.1180556 α      lambda       -0.1944881E-04
   maximum displ.:     0.0463063 α      in ANC's #21, #11, #4, ...

........................................................................
.............................. CYCLE   96 ..............................
........................................................................

 iter      E             dE          RMSdq      gap      omega  full diag
   1   -191.2171745 -0.191217E+03  0.163E-02    1.00       0.0  T
   2   -191.2171749 -0.391775E-06  0.952E-03    1.00       1.0  T
   3   -191.2171733  0.156027E-05  0.386E-03    1.00       2.4  T
   4   -191.2171751 -0.176582E-05  0.677E-04    1.00      13.7  T
   5   -191.2171751 -0.330208E-07  0.302E-04    1.00      30.6  T
   6   -191.2171751 -0.450518E-08  0.168E-04    1.00      55.1  T
   7   -191.2171751 -0.175930E-08  0.652E-05    1.00     141.8  T
     SCC iter.                  ...        0 min,  0.226 sec
     gradient                   ...        0 min,  0.304 sec
 * total energy  :  -188.2524868 Eh     change       -0.2264259E-04 Eh
   gradient norm :     0.0026995 Eh/α   predicted    -0.1034999E-04 ( -54.29%)
   displ. norm   :     0.1342345 α      lambda       -0.3458566E-04
   maximum displ.:     0.0489751 α      in ANC's #4, #21, #11, ...

........................................................................
.............................. CYCLE   97 ..............................
........................................................................

 iter      E             dE          RMSdq      gap      omega  full diag
   1   -191.2167503 -0.191217E+03  0.180E-02    1.00       0.0  T
   2   -191.2167506 -0.262036E-06  0.106E-02    1.00       1.0  T
   3   -191.2167492  0.142543E-05  0.347E-03    1.00       2.7  T
   4   -191.2167508 -0.159447E-05  0.528E-04    1.00      17.5  T
   5   -191.2167508 -0.160777E-07  0.261E-04    1.00      35.4  T
   6   -191.2167508 -0.210449E-08  0.143E-04    1.00      64.8  T
   7   -191.2167508 -0.142086E-08  0.574E-05    1.00     161.0  T
     SCC iter.                  ...        0 min,  0.217 sec
     gradient                   ...        0 min,  0.302 sec
 * total energy  :  -188.2525161 Eh     change       -0.2929836E-04 Eh
   gradient norm :     0.0026730 Eh/α   predicted    -0.1760875E-04 ( -39.90%)
   displ. norm   :     0.2953833 α      lambda       -0.6602952E-04
   maximum displ.:     0.1128113 α      in ANC's #4, #11, #21, ...

........................................................................
.............................. CYCLE   98 ..............................
........................................................................

 iter      E             dE          RMSdq      gap      omega  full diag
   1   -191.2158206 -0.191216E+03  0.394E-02    1.01       0.0  T
   2   -191.2158219 -0.128000E-05  0.230E-02    1.00       1.0  T
   3   -191.2158176  0.435582E-05  0.610E-03    1.00       1.5  T
   4   -191.2158224 -0.487259E-05  0.117E-03    1.00       7.9  T
   5   -191.2158225 -0.101881E-06  0.523E-04    1.00      17.7  T
   6   -191.2158225 -0.853794E-08  0.278E-04    1.00      33.2  T
   7   -191.2158225 -0.441867E-08  0.123E-04    1.00      75.3  T
   8   -191.2158225 -0.842761E-09  0.574E-05    1.00     161.0  T
     SCC iter.                  ...        0 min,  0.213 sec
     gradient                   ...        0 min,  0.316 sec
 * total energy  :  -188.2525613 Eh     change       -0.4525155E-04 Eh
   gradient norm :     0.0026161 Eh/α   predicted    -0.3589595E-04 ( -20.67%)
   displ. norm   :     0.2074035 α      lambda       -0.3181470E-04
   maximum displ.:     0.0859469 α      in ANC's #4, #11, #6, ...

........................................................................
.............................. CYCLE   99 ..............................
........................................................................

 iter      E             dE          RMSdq      gap      omega  full diag
   1   -191.2157746 -0.191216E+03  0.270E-02    1.00       0.0  T
   2   -191.2157751 -0.521752E-06  0.158E-02    1.00       1.0  T
   3   -191.2157739  0.119890E-05  0.323E-03    1.00       2.9  T
   4   -191.2157752 -0.135225E-05  0.740E-04    1.00      12.5  T
   5   -191.2157753 -0.480624E-07  0.317E-04    1.00      29.2  T
   6   -191.2157753 -0.325494E-08  0.163E-04    1.00      56.8  T
   7   -191.2157753 -0.974268E-09  0.750E-05    1.00     123.3  T
     SCC iter.                  ...        0 min,  0.217 sec
     gradient                   ...        0 min,  0.359 sec
 * total energy  :  -188.2525863 Eh     change       -0.2497443E-04 Eh
   gradient norm :     0.0024542 Eh/α   predicted    -0.1659491E-04 ( -33.55%)
   displ. norm   :     0.2280065 α      lambda       -0.4012659E-04
   maximum displ.:     0.1014662 α      in ANC's #4, #1, #6, ...

........................................................................
.............................. CYCLE  100 ..............................
........................................................................

 iter      E             dE          RMSdq      gap      omega  full diag
   1   -191.2163598 -0.191216E+03  0.296E-02    1.00       0.0  T
   2   -191.2163604 -0.628706E-06  0.173E-02    1.00       1.0  T
   3   -191.2163595  0.925899E-06  0.300E-03    1.00       3.1  T
   4   -191.2163606 -0.105705E-05  0.803E-04    1.00      11.5  T
   5   -191.2163606 -0.655617E-07  0.318E-04    1.00      29.0  T
   6   -191.2163606 -0.338935E-08  0.170E-04    1.00      54.3  T
   7   -191.2163606 -0.118683E-08  0.736E-05    1.00     125.7  T
     SCC iter.                  ...        0 min,  0.258 sec
     gradient                   ...        0 min,  0.339 sec
 * total energy  :  -188.2526199 Eh     change       -0.3358797E-04 Eh
   gradient norm :     0.0020635 Eh/α   predicted    -0.2111014E-04 ( -37.15%)
   displ. norm   :     0.3149073 α      lambda       -0.6053582E-04
   maximum displ.:     0.1462061 α      in ANC's #4, #1, #3, ...

........................................................................
.............................. CYCLE  101 ..............................
........................................................................

 iter      E             dE          RMSdq      gap      omega  full diag
   1   -191.2169731 -0.191217E+03  0.412E-02    1.01       0.0  T
   2   -191.2169741 -0.102795E-05  0.241E-02    1.00       1.0  T
   3   -191.2169722  0.193338E-05  0.423E-03    1.01       2.2  T
   4   -191.2169743 -0.216172E-05  0.117E-03    1.00       7.9  T
   5   -191.2169745 -0.147291E-06  0.469E-04    1.00      19.7  T
   6   -191.2169745 -0.896961E-08  0.261E-04    1.00      35.4  T
   7   -191.2169745 -0.313236E-08  0.106E-04    1.00      87.2  T
   8   -191.2169745 -0.867487E-09  0.461E-05    1.00     200.7  T
     SCC iter.                  ...        0 min,  0.207 sec
     gradient                   ...        0 min,  0.307 sec
 * total energy  :  -188.2526696 Eh     change       -0.4972192E-04 Eh
   gradient norm :     0.0024950 Eh/α   predicted    -0.3328459E-04 ( -33.06%)
   displ. norm   :     0.3834403 α      lambda       -0.7227585E-04
   maximum displ.:     0.1830287 α      in ANC's #4, #1, #3, ...

........................................................................
.............................. CYCLE  102 ..............................
........................................................................

 iter      E             dE          RMSdq      gap      omega  full diag
   1   -191.2169912 -0.191217E+03  0.499E-02    1.01       0.0  T
   2   -191.2169924 -0.127672E-05  0.292E-02    1.01       1.0  T
   3   -191.2169894  0.301915E-05  0.501E-03    1.01       1.8  T
   4   -191.2169928 -0.334688E-05  0.140E-03    1.01       6.6  T
   5   -191.2169930 -0.218206E-06  0.589E-04    1.01      15.7  T
   6   -191.2169930 -0.156905E-07  0.311E-04    1.01      29.7  T
   7   -191.2169930 -0.377761E-08  0.119E-04    1.01      77.4  T
   8   -191.2169930 -0.958067E-09  0.564E-05    1.01     163.8  T
     SCC iter.                  ...        0 min,  0.231 sec
     gradient                   ...        0 min,  0.302 sec
 * total energy  :  -188.2527308 Eh     change       -0.6119597E-04 Eh
   gradient norm :     0.0036085 Eh/α   predicted    -0.4145202E-04 ( -32.26%)
   displ. norm   :     0.4574123 α      lambda       -0.9008930E-04
   maximum displ.:     0.2229490 α      in ANC's #4, #1, #3, ...

........................................................................
.............................. CYCLE  103 ..............................
........................................................................

 iter      E             dE          RMSdq      gap      omega  full diag
   1   -191.2165082 -0.191217E+03  0.584E-02    1.01       0.0  T
   2   -191.2165097 -0.154971E-05  0.342E-02    1.01       1.0  T
   3   -191.2165056  0.414885E-05  0.558E-03    1.01       1.7  T
   4   -191.2165102 -0.464228E-05  0.151E-03    1.01       6.1  T
   5   -191.2165105 -0.246716E-06  0.697E-04    1.01      13.3  T
   6   -191.2165105 -0.221721E-07  0.348E-04    1.01      26.6  T
   7   -191.2165105 -0.426522E-08  0.134E-04    1.01      69.2  T
   8   -191.2165105 -0.116009E-08  0.660E-05    1.01     140.2  T
     SCC iter.                  ...        0 min,  0.228 sec
     gradient                   ...        0 min,  0.270 sec
 * total energy  :  -188.2528075 Eh     change       -0.7670094E-04 Eh
   gradient norm :     0.0044121 Eh/α   predicted    -0.5447070E-04 ( -28.98%)
   displ. norm   :     0.4856174 α      lambda       -0.1036185E-03
   maximum displ.:     0.2425807 α      in ANC's #4, #3, #1, ...

........................................................................
.............................. CYCLE  104 ..............................
........................................................................

 iter      E             dE          RMSdq      gap      omega  full diag
   1   -191.2160899 -0.191216E+03  0.598E-02    1.01       0.0  T
   2   -191.2160915 -0.162989E-05  0.351E-02    1.01       1.0  T
   3   -191.2160863  0.520639E-05  0.610E-03    1.01       1.5  T
   4   -191.2160922 -0.592145E-05  0.140E-03    1.01       6.6  T
   5   -191.2160924 -0.171395E-06  0.736E-04    1.01      12.6  T
   6   -191.2160924 -0.240076E-07  0.355E-04    1.01      26.0  T
   7   -191.2160924 -0.456336E-08  0.143E-04    1.01      64.6  T
   8   -191.2160924 -0.144800E-08  0.663E-05    1.01     139.5  T
     SCC iter.                  ...        0 min,  0.212 sec
     gradient                   ...        0 min,  0.323 sec
 * total energy  :  -188.2528956 Eh     change       -0.8810904E-04 Eh
   gradient norm :     0.0044412 Eh/α   predicted    -0.6403341E-04 ( -27.32%)
   displ. norm   :     0.5091667 α      lambda       -0.1147354E-03
   maximum displ.:     0.2606808 α      in ANC's #4, #3, #1, ...

........................................................................
.............................. CYCLE  105 ..............................
........................................................................

 iter      E             dE          RMSdq      gap      omega  full diag
   1   -191.2156119 -0.191216E+03  0.602E-02    1.02       0.0  T
   2   -191.2156136 -0.173678E-05  0.354E-02    1.02       1.0  T
   3   -191.2156065  0.710788E-05  0.731E-03    1.02       1.3  T
   4   -191.2156147 -0.814240E-05  0.125E-03    1.02       7.4  T
   5   -191.2156148 -0.887587E-07  0.728E-04    1.02      12.7  T
   6   -191.2156148 -0.183657E-07  0.353E-04    1.02      26.2  T
   7   -191.2156148 -0.528649E-08  0.154E-04    1.02      59.9  T
   8   -191.2156148 -0.188919E-08  0.653E-05    1.02     141.7  T
     SCC iter.                  ...        0 min,  0.232 sec
     gradient                   ...        0 min,  0.364 sec
 * total energy  :  -188.2529943 Eh     change       -0.9861341E-04 Eh
   gradient norm :     0.0040591 Eh/α   predicted    -0.7224675E-04 ( -26.74%)
   displ. norm   :     0.5237132 α      lambda       -0.1267637E-03
   maximum displ.:     0.2757752 α      in ANC's #4, #3, #1, ...

........................................................................
.............................. CYCLE  106 ..............................
........................................................................

 iter      E             dE          RMSdq      gap      omega  full diag
   1   -191.2157178 -0.191216E+03  0.597E-02    1.02       0.0  T
   2   -191.2157197 -0.193291E-05  0.351E-02    1.02       1.0  T
   3   -191.2157105  0.917750E-05  0.852E-03    1.02       1.1  T
   4   -191.2157210 -0.104965E-04  0.127E-03    1.02       7.3  T
   5   -191.2157211 -0.636314E-07  0.737E-04    1.02      12.5  T
   6   -191.2157211 -0.154120E-07  0.342E-04    1.02      27.0  T
   7   -191.2157211 -0.516877E-08  0.166E-04    1.02      55.7  T
   8   -191.2157211 -0.162797E-08  0.808E-05    1.02     114.4  T
     SCC iter.                  ...        0 min,  0.232 sec
     gradient                   ...        0 min,  0.369 sec
 * total energy  :  -188.2531028 Eh     change       -0.1085790E-03 Eh
   gradient norm :     0.0039673 Eh/α   predicted    -0.8076745E-04 ( -25.61%)
   displ. norm   :     0.5507744 α      lambda       -0.1330788E-03
   maximum displ.:     0.2948433 α      in ANC's #4, #3, #1, ...

........................................................................
.............................. CYCLE  107 ..............................
........................................................................

 iter      E             dE          RMSdq      gap      omega  full diag
   1   -191.2150668 -0.191215E+03  0.618E-02    1.03       0.0  T
   2   -191.2150691 -0.221149E-05  0.363E-02    1.03       1.0  T
   3   -191.2150593  0.972438E-05  0.894E-03    1.02       1.0  T
   4   -191.2150705 -0.111372E-04  0.140E-03    1.03       6.6  T
   5   -191.2150705 -0.686174E-07  0.772E-04    1.03      12.0  T
   6   -191.2150706 -0.179382E-07  0.336E-04    1.03      27.5  T
   7   -191.2150706 -0.466940E-08  0.174E-04    1.03      53.3  T
   8   -191.2150706 -0.732996E-09  0.991E-05    1.03      93.3  T
     SCC iter.                  ...        0 min,  0.250 sec
     gradient                   ...        0 min,  0.345 sec
 * total energy  :  -188.2532172 Eh     change       -0.1144012E-03 Eh
   gradient norm :     0.0046019 Eh/α   predicted    -0.8672845E-04 ( -24.19%)
   displ. norm   :     0.5101381 α      lambda       -0.1555644E-03
   maximum displ.:     0.2843533 α      in ANC's #4, #3, #1, ...

........................................................................
.............................. CYCLE  108 ..............................
........................................................................

 iter      E             dE          RMSdq      gap      omega  full diag
   1   -191.2187979 -0.191219E+03  0.552E-02    1.03       0.0  T
   2   -191.2188004 -0.253260E-05  0.323E-02    1.03       1.0  T
   3   -191.2187922  0.816428E-05  0.844E-03    1.03       1.1  T
   4   -191.2188016 -0.939615E-05  0.164E-03    1.03       5.6  T
   5   -191.2188018 -0.124868E-06  0.828E-04    1.03      11.2  T
   6   -191.2188018 -0.249767E-07  0.344E-04    1.03      26.9  T
   7   -191.2188018 -0.474304E-08  0.181E-04    1.03      51.2  T
   8   -191.2188018 -0.309910E-09  0.111E-04    1.03      83.4  T
     SCC iter.                  ...        0 min,  0.247 sec
     gradient                   ...        0 min,  0.353 sec
 * total energy  :  -188.2533315 Eh     change       -0.1142578E-03 Eh
   gradient norm :     0.0053454 Eh/α   predicted    -0.9802625E-04 ( -14.21%)
   displ. norm   :     0.6599773 α      lambda       -0.1824886E-03
   maximum displ.:     0.3538128 α      in ANC's #4, #3, #1, ...

........................................................................
.............................. CYCLE  109 ..............................
........................................................................

 iter      E             dE          RMSdq      gap      omega  full diag
   1   -191.2136861 -0.191214E+03  0.754E-02    1.04       0.0  T
   2   -191.2136897 -0.354725E-05  0.442E-02    1.04       1.0  T
   3   -191.2136813  0.841474E-05  0.874E-03    1.04       1.1  T
   4   -191.2136910 -0.977607E-05  0.195E-03    1.04       4.7  T
   5   -191.2136913 -0.217824E-06  0.981E-04    1.04       9.4  T
   6   -191.2136913 -0.332365E-07  0.413E-04    1.04      22.4  T
   7   -191.2136913 -0.686225E-08  0.209E-04    1.04      44.2  T
   8   -191.2136913 -0.729472E-09  0.121E-04    1.04      76.4  T
   9   -191.2136913 -0.116503E-08  0.434E-05    1.04     213.1  T
     SCC iter.                  ...        0 min,  0.274 sec
     gradient                   ...        0 min,  0.349 sec
 * total energy  :  -188.2534605 Eh     change       -0.1290297E-03 Eh
   gradient norm :     0.0064292 Eh/α   predicted    -0.1309910E-03 (   1.52%)
   displ. norm   :     0.4381468 α      lambda       -0.1428294E-03
   maximum displ.:     0.2450283 α      in ANC's #4, #3, #1, ...

........................................................................
.............................. CYCLE  110 ..............................
........................................................................

 iter      E             dE          RMSdq      gap      omega  full diag
   1   -191.2142821 -0.191214E+03  0.466E-02    1.04       0.0  T
   2   -191.2142837 -0.153274E-05  0.273E-02    1.04       1.0  T
   3   -191.2142804  0.325336E-05  0.550E-03    1.04       1.7  T
   4   -191.2142842 -0.376445E-05  0.138E-03    1.04       6.7  T
   5   -191.2142843 -0.145971E-06  0.665E-04    1.04      13.9  T
   6   -191.2142843 -0.149842E-07  0.328E-04    1.04      28.2  T
   7   -191.2142843 -0.605189E-08  0.165E-04    1.04      56.1  T
   8   -191.2142843 -0.151047E-08  0.864E-05    1.04     107.0  T
     SCC iter.                  ...        0 min,  0.235 sec
     gradient                   ...        0 min,  0.273 sec
 * total energy  :  -188.2535857 Eh     change       -0.1252276E-03 Eh
   gradient norm :     0.0059704 Eh/α   predicted    -0.8512807E-04 ( -32.02%)
   displ. norm   :     0.5133812 α      lambda       -0.2580121E-03
   maximum displ.:     0.2841001 α      in ANC's #4, #3, #8, ...

........................................................................
.............................. CYCLE  111 ..............................
........................................................................

 iter      E             dE          RMSdq      gap      omega  full diag
   1   -191.2189142 -0.191219E+03  0.577E-02    1.04       0.0  T
   2   -191.2189171 -0.292584E-05  0.339E-02    1.04       1.0  T
   3   -191.2189075  0.961426E-05  0.947E-03    1.04       1.0  T
   4   -191.2189186 -0.110225E-04  0.189E-03    1.04       4.9  T
   5   -191.2189188 -0.264686E-06  0.855E-04    1.04      10.8  T
   6   -191.2189188 -0.109144E-07  0.486E-04    1.04      19.0  T
   7   -191.2189188 -0.138342E-07  0.223E-04    1.04      41.5  T
   8   -191.2189189 -0.353458E-08  0.105E-04    1.04      87.8  T
   9   -191.2189189 -0.389889E-09  0.448E-05    1.04     206.5  T
     SCC iter.                  ...        0 min,  0.241 sec
     gradient                   ...        0 min,  0.332 sec
 * total energy  :  -188.2537762 Eh     change       -0.1904668E-03 Eh
   gradient norm :     0.0052498 Eh/α   predicted    -0.1630108E-03 ( -14.42%)
   displ. norm   :     0.7325638 α      lambda       -0.2120922E-03
   maximum displ.:     0.4042743 α      in ANC's #4, #3, #8, ...

........................................................................
.............................. CYCLE  112 ..............................
........................................................................

 iter      E             dE          RMSdq      gap      omega  full diag
   1   -191.2152831 -0.191215E+03  0.779E-02    1.05       0.0  T
   2   -191.2152861 -0.296356E-05  0.458E-02    1.05       1.0  T
   3   -191.2152761  0.996763E-05  0.938E-03    1.05       1.0  T
   4   -191.2152876 -0.114535E-04  0.191E-03    1.05       4.8  T
   5   -191.2152878 -0.258999E-06  0.960E-04    1.05       9.6  T
   6   -191.2152878 -0.191010E-07  0.490E-04    1.05      18.8  T
   7   -191.2152879 -0.106183E-07  0.216E-04    1.05      42.9  T
   8   -191.2152879 -0.317880E-08  0.105E-04    1.05      88.4  T
   9   -191.2152879 -0.502098E-09  0.492E-05    1.05     187.7  T
     SCC iter.                  ...        0 min,  0.237 sec
     gradient                   ...        0 min,  0.295 sec
 * total energy  :  -188.2539541 Eh     change       -0.1778722E-03 Eh
   gradient norm :     0.0069501 Eh/α   predicted    -0.1629643E-03 (  -8.38%)
   displ. norm   :     0.6137461 α      lambda       -0.2377949E-03
   maximum displ.:     0.3279309 α      in ANC's #4, #3, #8, ...

........................................................................
.............................. CYCLE  113 ..............................
........................................................................

 iter      E             dE          RMSdq      gap      omega  full diag
   1   -191.2153990 -0.191215E+03  0.686E-02    1.05       0.0  T
   2   -191.2154019 -0.288043E-05  0.403E-02    1.04       1.0  T
   3   -191.2153874  0.144857E-04  0.110E-02    1.05       1.0  T
   4   -191.2154038 -0.163820E-04  0.183E-03    1.04       5.0  T
   5   -191.2154039 -0.181782E-06  0.932E-04    1.04       9.9  T
   6   -191.2154040 -0.247181E-07  0.407E-04    1.04      22.7  T
   7   -191.2154040 -0.550520E-08  0.204E-04    1.04      45.4  T
   8   -191.2154040 -0.115901E-08  0.111E-04    1.04      83.1  T
   9   -191.2154040 -0.633662E-09  0.484E-05    1.04     191.1  T
     SCC iter.                  ...        0 min,  0.227 sec
     gradient                   ...        0 min,  0.310 sec
 * total energy  :  -188.2541398 Eh     change       -0.1857443E-03 Eh
   gradient norm :     0.0069798 Eh/α   predicted    -0.1636873E-03 ( -11.87%)
   displ. norm   :     0.6095944 α      lambda       -0.2039800E-03
   maximum displ.:     0.3258665 α      in ANC's #4, #3, #8, ...

........................................................................
.............................. CYCLE  114 ..............................
........................................................................

 iter      E             dE          RMSdq      gap      omega  full diag
   1   -191.2145962 -0.191215E+03  0.646E-02    1.04       0.0  T
   2   -191.2145996 -0.335283E-05  0.380E-02    1.04       1.0  T
   3   -191.2145798  0.198341E-04  0.131E-02    1.04       1.0  T
   4   -191.2146021 -0.223680E-04  0.174E-03    1.04       5.3  T
   5   -191.2146023 -0.169524E-06  0.870E-04    1.04      10.6  T
   6   -191.2146023 -0.183524E-07  0.407E-04    1.04      22.7  T
   7   -191.2146023 -0.484093E-08  0.180E-04    1.04      51.2  T
   8   -191.2146023 -0.117507E-08  0.927E-05    1.04      99.7  T
     SCC iter.                  ...        0 min,  0.257 sec
     gradient                   ...        0 min,  0.304 sec
 * total energy  :  -188.2542988 Eh     change       -0.1589481E-03 Eh
   gradient norm :     0.0055716 Eh/α   predicted    -0.1398969E-03 ( -11.99%)
   displ. norm   :     0.5103033 α      lambda       -0.1753546E-03
   maximum displ.:     0.2634128 α      in ANC's #4, #3, #8, ...

........................................................................
.............................. CYCLE  115 ..............................
........................................................................

 iter      E             dE          RMSdq      gap      omega  full diag
   1   -191.2159753 -0.191216E+03  0.532E-02    1.04       0.0  T
   2   -191.2159792 -0.385334E-05  0.313E-02    1.03       1.0  T
   3   -191.2159582  0.209492E-04  0.141E-02    1.03       1.0  T
   4   -191.2159823 -0.240206E-04  0.178E-03    1.03       5.2  T
   5   -191.2159825 -0.198335E-06  0.780E-04    1.03      11.9  T
   6   -191.2159825 -0.154379E-07  0.408E-04    1.03      22.6  T
   7   -191.2159825 -0.498892E-08  0.183E-04    1.03      50.6  T
   8   -191.2159825 -0.194188E-08  0.872E-05    1.03     106.1  T
     SCC iter.                  ...        0 min,  0.218 sec
     gradient                   ...        0 min,  0.290 sec
 * total energy  :  -188.2544195 Eh     change       -0.1207573E-03 Eh
   gradient norm :     0.0038470 Eh/α   predicted    -0.1105115E-03 (  -8.48%)
   displ. norm   :     0.6110231 α      lambda       -0.1211235E-03
   maximum displ.:     0.3261759 α      in ANC's #4, #3, #8, ...

........................................................................
.............................. CYCLE  116 ..............................
........................................................................

 iter      E             dE          RMSdq      gap      omega  full diag
   1   -191.2114816 -0.191211E+03  0.612E-02    1.04       0.0  T
   2   -191.2114844 -0.284629E-05  0.361E-02    1.03       1.0  T
   3   -191.2114652  0.192202E-04  0.131E-02    1.03       1.0  T
   4   -191.2114869 -0.216796E-04  0.149E-03    1.03       6.2  T
   5   -191.2114870 -0.122051E-06  0.738E-04    1.03      12.5  T
   6   -191.2114870 -0.849641E-08  0.377E-04    1.03      24.5  T
   7   -191.2114870 -0.550804E-08  0.155E-04    1.03      59.5  T
   8   -191.2114870 -0.936922E-09  0.812E-05    1.03     113.8  T
     SCC iter.                  ...        0 min,  0.220 sec
     gradient                   ...        0 min,  0.292 sec
 * total energy  :  -188.2544937 Eh     change       -0.7412904E-04 Eh
   gradient norm :     0.0055377 Eh/α   predicted    -0.8317725E-04 (  12.21%)
   displ. norm   :     0.3057276 α      lambda       -0.1305316E-03
   maximum displ.:     0.1398414 α      in ANC's #3, #4, #8, ...

........................................................................
.............................. CYCLE  117 ..............................
........................................................................

 iter      E             dE          RMSdq      gap      omega  full diag
   1   -191.2178083 -0.191218E+03  0.324E-02    1.03       0.0  T
   2   -191.2178104 -0.210250E-05  0.190E-02    1.03       1.0  T
   3   -191.2178026  0.778768E-05  0.897E-03    1.03       1.0  T
   4   -191.2178117 -0.909793E-05  0.132E-03    1.03       7.0  T
   5   -191.2178118 -0.118197E-06  0.532E-04    1.03      17.4  T
   6   -191.2178118 -0.764967E-08  0.276E-04    1.03      33.5  T
   7   -191.2178118 -0.209263E-08  0.135E-04    1.03      68.2  T
   8   -191.2178118 -0.117439E-08  0.658E-05    1.03     140.5  T
     SCC iter.                  ...        0 min,  0.256 sec
     gradient                   ...        0 min,  0.412 sec
 * total energy  :  -188.2545666 Eh     change       -0.7296123E-04 Eh
   gradient norm :     0.0056864 Eh/α   predicted    -0.7136814E-04 (  -2.18%)
   displ. norm   :     0.3125456 α      lambda       -0.8684955E-04
   maximum displ.:     0.1462272 α      in ANC's #4, #3, #8, ...

........................................................................
.............................. CYCLE  118 ..............................
........................................................................

 iter      E             dE          RMSdq      gap      omega  full diag
   1   -191.2175700 -0.191218E+03  0.297E-02    1.04       0.0  T
   2   -191.2175709 -0.951364E-06  0.175E-02    1.04       1.0  T
   3   -191.2175680  0.290268E-05  0.534E-03    1.04       1.7  T
   4   -191.2175713 -0.330195E-05  0.104E-03    1.04       8.9  T
   5   -191.2175714 -0.767588E-07  0.454E-04    1.04      20.4  T
   6   -191.2175714 -0.616728E-08  0.218E-04    1.04      42.4  T
   7   -191.2175714 -0.202098E-08  0.950E-05    1.04      97.3  T
   8   -191.2175714 -0.153165E-09  0.547E-05    1.04     169.1  T
     SCC iter.                  ...        0 min,  0.244 sec
     gradient                   ...        0 min,  0.355 sec
 * total energy  :  -188.2546326 Eh     change       -0.6596131E-04 Eh
   gradient norm :     0.0043894 Eh/α   predicted    -0.4766759E-04 ( -27.73%)
   displ. norm   :     0.3655165 α      lambda       -0.1146570E-03
   maximum displ.:     0.1556693 α      in ANC's #3, #5, #4, ...

........................................................................
.............................. CYCLE  119 ..............................
........................................................................

 iter      E             dE          RMSdq      gap      omega  full diag
   1   -191.2180340 -0.191218E+03  0.367E-02    1.05       0.0  T
   2   -191.2180357 -0.167987E-05  0.215E-02    1.05       1.0  T
   3   -191.2180329  0.277559E-05  0.561E-03    1.05       1.6  T
   4   -191.2180360 -0.310824E-05  0.159E-03    1.05       5.8  T
   5   -191.2180363 -0.245379E-06  0.606E-04    1.05      15.2  T
   6   -191.2180363 -0.798238E-08  0.330E-04    1.05      28.1  T
   7   -191.2180363 -0.660395E-08  0.132E-04    1.05      69.9  T
   8   -191.2180363 -0.427775E-09  0.797E-05    1.05     116.0  T
     SCC iter.                  ...        0 min,  0.259 sec
     gradient                   ...        0 min,  0.362 sec
 * total energy  :  -188.2547125 Eh     change       -0.7992130E-04 Eh
   gradient norm :     0.0035282 Eh/α   predicted    -0.6499058E-04 ( -18.68%)
   displ. norm   :     0.3546591 α      lambda       -0.1005564E-03
   maximum displ.:     0.1631063 α      in ANC's #5, #3, #8, ...

........................................................................
.............................. CYCLE  120 ..............................
........................................................................

 iter      E             dE          RMSdq      gap      omega  full diag
   1   -191.2182560 -0.191218E+03  0.379E-02    1.06       0.0  T
   2   -191.2182575 -0.147673E-05  0.223E-02    1.06       1.0  T
   3   -191.2182526  0.489732E-05  0.683E-03    1.06       1.4  T
   4   -191.2182581 -0.548316E-05  0.148E-03    1.06       6.3  T
   5   -191.2182583 -0.215995E-06  0.541E-04    1.06      17.1  T
   6   -191.2182583 -0.785454E-08  0.303E-04    1.06      30.5  T
   7   -191.2182583 -0.377460E-08  0.120E-04    1.06      77.2  T
   8   -191.2182583 -0.637016E-09  0.649E-05    1.06     142.4  T
     SCC iter.                  ...        0 min,  0.254 sec
     gradient                   ...        0 min,  0.358 sec
 * total energy  :  -188.2547797 Eh     change       -0.6714999E-04 Eh
   gradient norm :     0.0045050 Eh/α   predicted    -0.5660660E-04 ( -15.70%)
   displ. norm   :     0.3282851 α      lambda       -0.9917543E-04
   maximum displ.:     0.1619904 α      in ANC's #5, #3, #8, ...
 * RMSD in coord.:     0.8839230 α      energy gain  -0.2446190E-02 Eh

generating ANC from exact Hessian ...
Using Lindh-Hessian (1995)
 Shifting diagonal of input Hessian by    1.0096974906594449E-002
 Lowest  eigenvalues of input Hessian
    0.010000    0.000000    0.000000    0.000000    0.000000    0.000000
    0.000000    0.010153    0.010250    0.010300    0.010388    0.010435
    0.010461    0.010579    0.010885    0.010934    0.010953    0.011119
 Highest eigenvalues
    2.146967    2.288309    2.325387    2.330917    2.436025    3.107411


........................................................................
.............................. CYCLE  121 ..............................
........................................................................

 iter      E             dE          RMSdq      gap      omega  full diag
   1   -191.2182454 -0.191218E+03  0.379E-02    1.07       0.0  T
   2   -191.2182467 -0.123890E-05  0.223E-02    1.07       1.0  T
   3   -191.2182406  0.606452E-05  0.732E-03    1.07       1.3  T
   4   -191.2182475 -0.684429E-05  0.118E-03    1.07       7.8  T
   5   -191.2182476 -0.127561E-06  0.514E-04    1.07      18.0  T
   6   -191.2182476 -0.968336E-08  0.254E-04    1.07      36.4  T
   7   -191.2182476 -0.231094E-08  0.962E-05    1.07      96.1  T
   8   -191.2182476 -0.387757E-09  0.479E-05    1.07     193.1  T
     SCC iter.                  ...        0 min,  0.229 sec
     gradient                   ...        0 min,  0.250 sec
 * total energy  :  -188.2548461 Eh     change       -0.6646824E-04 Eh
   gradient norm :     0.0048355 Eh/α   predicted     0.0000000E+00 (-100.00%)
   displ. norm   :     0.0379177 α      lambda       -0.2393025E-04
   maximum displ.:     0.0109478 α      in ANC's #11, #10, #5, ...

........................................................................
.............................. CYCLE  122 ..............................
........................................................................

 iter      E             dE          RMSdq      gap      omega  full diag
   1   -191.2181422 -0.191218E+03  0.790E-03    1.07       0.0  T
   2   -191.2181424 -0.205626E-06  0.476E-03    1.07       1.9  T
   3   -191.2181420  0.397057E-06  0.216E-03    1.07       4.3  T
   4   -191.2181425 -0.466481E-06  0.527E-04    1.07      17.5  T
   5   -191.2181425 -0.266031E-07  0.158E-04    1.07      58.4  T
   6   -191.2181425 -0.263725E-09  0.104E-04    1.07      88.6  T
     SCC iter.                  ...        0 min,  0.146 sec
     gradient                   ...        0 min,  0.277 sec
 * total energy  :  -188.2548813 Eh     change       -0.3520353E-04 Eh
   gradient norm :     0.0024675 Eh/α   predicted    -0.2269734E-04 ( -35.53%)
   displ. norm   :     0.0932468 α      lambda       -0.5080197E-04
   maximum displ.:     0.0288875 α      in ANC's #11, #5, #10, ...

........................................................................
.............................. CYCLE  123 ..............................
........................................................................

 iter      E             dE          RMSdq      gap      omega  full diag
   1   -191.2179950 -0.191218E+03  0.156E-02    1.07       0.0  T
   2   -191.2179956 -0.606988E-06  0.932E-03    1.07       1.0  T
   3   -191.2179941  0.141276E-05  0.389E-03    1.07       2.4  T
   4   -191.2179958 -0.161147E-05  0.959E-04    1.07       9.6  T
   5   -191.2179958 -0.895815E-07  0.296E-04    1.07      31.3  T
   6   -191.2179958 -0.669758E-09  0.189E-04    1.07      49.0  T
   7   -191.2179959 -0.288674E-08  0.652E-05    1.07     141.7  T
     SCC iter.                  ...        0 min,  0.178 sec
     gradient                   ...        0 min,  0.309 sec
 * total energy  :  -188.2549175 Eh     change       -0.3616632E-04 Eh
   gradient norm :     0.0018227 Eh/α   predicted    -0.2769933E-04 ( -23.41%)
   displ. norm   :     0.1384751 α      lambda       -0.2777816E-04
   maximum displ.:     0.0464257 α      in ANC's #5, #11, #10, ...

........................................................................
.............................. CYCLE  124 ..............................
........................................................................

 iter      E             dE          RMSdq      gap      omega  full diag
   1   -191.2178518 -0.191218E+03  0.201E-02    1.07       0.0  T
   2   -191.2178523 -0.560660E-06  0.119E-02    1.07       1.0  T
   3   -191.2178507  0.165081E-05  0.396E-03    1.07       2.3  T
   4   -191.2178525 -0.185244E-05  0.911E-04    1.07      10.1  T
   5   -191.2178526 -0.760001E-07  0.325E-04    1.07      28.5  T
   6   -191.2178526 -0.102585E-08  0.191E-04    1.07      48.4  T
   7   -191.2178526 -0.268477E-08  0.692E-05    1.07     133.6  T
     SCC iter.                  ...        0 min,  0.163 sec
     gradient                   ...        0 min,  0.254 sec
 * total energy  :  -188.2549474 Eh     change       -0.2990919E-04 Eh
   gradient norm :     0.0035141 Eh/α   predicted    -0.1415685E-04 ( -52.67%)
   displ. norm   :     0.1348423 α      lambda       -0.3849150E-04
   maximum displ.:     0.0490015 α      in ANC's #5, #11, #9, ...

........................................................................
.............................. CYCLE  125 ..............................
........................................................................

 iter      E             dE          RMSdq      gap      omega  full diag
   1   -191.2178530 -0.191218E+03  0.179E-02    1.07       0.0  T
   2   -191.2178533 -0.271673E-06  0.105E-02    1.07       1.0  T
   3   -191.2178525  0.811099E-06  0.265E-03    1.07       3.5  T
   4   -191.2178534 -0.931254E-06  0.527E-04    1.07      17.5  T
   5   -191.2178534 -0.204417E-07  0.259E-04    1.07      35.7  T
   6   -191.2178534 -0.144530E-08  0.134E-04    1.07      68.9  T
   7   -191.2178534 -0.107414E-08  0.474E-05    1.07     194.9  T
     SCC iter.                  ...        0 min,  0.234 sec
     gradient                   ...        0 min,  0.360 sec
 * total energy  :  -188.2549807 Eh     change       -0.3329873E-04 Eh
   gradient norm :     0.0034004 Eh/α   predicted    -0.1959722E-04 ( -41.15%)
   displ. norm   :     0.3351060 α      lambda       -0.8509788E-04
   maximum displ.:     0.1265819 α      in ANC's #5, #11, #9, ...

........................................................................
.............................. CYCLE  126 ..............................
........................................................................

 iter      E             dE          RMSdq      gap      omega  full diag
   1   -191.2174326 -0.191217E+03  0.427E-02    1.08       0.0  T
   2   -191.2174340 -0.139913E-05  0.251E-02    1.08       1.0  T
   3   -191.2174291  0.497090E-05  0.645E-03    1.08       1.4  T
   4   -191.2174348 -0.573944E-05  0.111E-03    1.08       8.4  T
   5   -191.2174349 -0.700413E-07  0.612E-04    1.08      15.1  T
   6   -191.2174349 -0.112532E-07  0.296E-04    1.08      31.2  T
   7   -191.2174349 -0.441062E-08  0.105E-04    1.08      88.2  T
   8   -191.2174349 -0.589012E-09  0.534E-05    1.08     173.1  T
     SCC iter.                  ...        0 min,  0.280 sec
     gradient                   ...        0 min,  0.339 sec
 * total energy  :  -188.2550412 Eh     change       -0.6048605E-04 Eh
   gradient norm :     0.0031489 Eh/α   predicted    -0.4735408E-04 ( -21.71%)
   displ. norm   :     0.2586774 α      lambda       -0.4708265E-04
   maximum displ.:     0.1053616 α      in ANC's #5, #11, #9, ...

........................................................................
.............................. CYCLE  127 ..............................
........................................................................

 iter      E             dE          RMSdq      gap      omega  full diag
   1   -191.2173489 -0.191217E+03  0.314E-02    1.09       0.0  T
   2   -191.2173496 -0.708859E-06  0.184E-02    1.09       1.0  T
   3   -191.2173463  0.330520E-05  0.528E-03    1.09       1.8  T
   4   -191.2173501 -0.380803E-05  0.786E-04    1.09      11.8  T
   5   -191.2173501 -0.277876E-07  0.469E-04    1.09      19.7  T
   6   -191.2173502 -0.878379E-08  0.209E-04    1.09      44.3  T
   7   -191.2173502 -0.163587E-08  0.757E-05    1.09     122.2  T
   8   -191.2173502 -0.316305E-09  0.349E-05    1.09     264.8  T
     SCC iter.                  ...        0 min,  0.253 sec
     gradient                   ...        0 min,  0.355 sec
 * total energy  :  -188.2550772 Eh     change       -0.3599509E-04 Eh
   gradient norm :     0.0028891 Eh/α   predicted    -0.2511768E-04 ( -30.22%)
   displ. norm   :     0.2382100 α      lambda       -0.4718933E-04
   maximum displ.:     0.1058136 α      in ANC's #5, #11, #9, ...

........................................................................
.............................. CYCLE  128 ..............................
........................................................................

 iter      E             dE          RMSdq      gap      omega  full diag
   1   -191.2179796 -0.191218E+03  0.271E-02    1.10       0.0  T
   2   -191.2179802 -0.582847E-06  0.159E-02    1.10       1.0  T
   3   -191.2179768  0.346105E-05  0.549E-03    1.10       1.7  T
   4   -191.2179807 -0.396066E-05  0.778E-04    1.10      11.9  T
   5   -191.2179808 -0.316067E-07  0.430E-04    1.10      21.5  T
   6   -191.2179808 -0.598214E-08  0.210E-04    1.10      44.0  T
   7   -191.2179808 -0.183718E-08  0.761E-05    1.10     121.5  T
   8   -191.2179808 -0.224929E-09  0.389E-05    1.10     237.4  T
     SCC iter.                  ...        0 min,  0.268 sec
     gradient                   ...        0 min,  0.372 sec
 * total energy  :  -188.2551142 Eh     change       -0.3698995E-04 Eh
   gradient norm :     0.0022468 Eh/α   predicted    -0.2493881E-04 ( -32.58%)
   displ. norm   :     0.2312983 α      lambda       -0.4420834E-04
   maximum displ.:     0.1113956 α      in ANC's #5, #11, #8, ...

........................................................................
.............................. CYCLE  129 ..............................
........................................................................

 iter      E             dE          RMSdq      gap      omega  full diag
   1   -191.2185001 -0.191219E+03  0.248E-02    1.11       0.0  T
   2   -191.2185007 -0.612310E-06  0.145E-02    1.11       1.0  T
   3   -191.2184971  0.367682E-05  0.574E-03    1.11       1.6  T
   4   -191.2185013 -0.420322E-05  0.797E-04    1.11      11.6  T
   5   -191.2185013 -0.372692E-07  0.410E-04    1.11      22.6  T
   6   -191.2185013 -0.368840E-08  0.221E-04    1.11      41.8  T
   7   -191.2185013 -0.231540E-08  0.772E-05    1.11     119.8  T
   8   -191.2185013 -0.193950E-09  0.424E-05    1.11     218.1  T
     SCC iter.                  ...        0 min,  0.225 sec
     gradient                   ...        0 min,  0.402 sec
 * total energy  :  -188.2551484 Eh     change       -0.3417844E-04 Eh
   gradient norm :     0.0021400 Eh/α   predicted    -0.2328732E-04 ( -31.87%)
   displ. norm   :     0.2174428 α      lambda       -0.3691494E-04
   maximum displ.:     0.1111607 α      in ANC's #5, #8, #11, ...

........................................................................
.............................. CYCLE  130 ..............................
........................................................................

 iter      E             dE          RMSdq      gap      omega  full diag
   1   -191.2185582 -0.191219E+03  0.220E-02    1.11       0.0  T
   2   -191.2185587 -0.556798E-06  0.129E-02    1.11       1.0  T
   3   -191.2185554  0.326920E-05  0.541E-03    1.11       1.7  T
   4   -191.2185592 -0.373455E-05  0.709E-04    1.11      13.0  T
   5   -191.2185592 -0.282976E-07  0.362E-04    1.11      25.5  T
   6   -191.2185592 -0.229551E-08  0.198E-04    1.11      46.7  T
   7   -191.2185592 -0.189695E-08  0.660E-05    1.11     140.2  T
     SCC iter.                  ...        0 min,  0.206 sec
     gradient                   ...        0 min,  0.346 sec
 * total energy  :  -188.2551784 Eh     change       -0.3000999E-04 Eh
   gradient norm :     0.0023426 Eh/α   predicted    -0.1933359E-04 ( -35.58%)
   displ. norm   :     0.2187266 α      lambda       -0.3920944E-04
   maximum displ.:     0.1177604 α      in ANC's #5, #8, #11, ...

........................................................................
.............................. CYCLE  131 ..............................
........................................................................

 iter      E             dE          RMSdq      gap      omega  full diag
   1   -191.2185108 -0.191219E+03  0.212E-02    1.12       0.0  T
   2   -191.2185113 -0.529585E-06  0.124E-02    1.12       1.0  T
   3   -191.2185084  0.291083E-05  0.507E-03    1.12       1.8  T
   4   -191.2185117 -0.332186E-05  0.684E-04    1.12      13.5  T
   5   -191.2185117 -0.243705E-07  0.356E-04    1.12      26.0  T
   6   -191.2185118 -0.228314E-08  0.187E-04    1.12      49.5  T
   7   -191.2185118 -0.158053E-08  0.615E-05    1.12     150.4  T
     SCC iter.                  ...        0 min,  0.206 sec
     gradient                   ...        0 min,  0.319 sec
 * total energy  :  -188.2552113 Eh     change       -0.3294124E-04 Eh
   gradient norm :     0.0022742 Eh/α   predicted    -0.2055100E-04 ( -37.61%)
   displ. norm   :     0.2579184 α      lambda       -0.4684625E-04
   maximum displ.:     0.1430004 α      in ANC's #5, #8, #11, ...

........................................................................
.............................. CYCLE  132 ..............................
........................................................................

 iter      E             dE          RMSdq      gap      omega  full diag
   1   -191.2180920 -0.191218E+03  0.245E-02    1.12       0.0  T
   2   -191.2180927 -0.672891E-06  0.144E-02    1.12       1.0  T
   3   -191.2180898  0.294576E-05  0.513E-03    1.12       1.8  T
   4   -191.2180931 -0.336375E-05  0.826E-04    1.12      11.2  T
   5   -191.2180932 -0.390991E-07  0.417E-04    1.12      22.1  T
   6   -191.2180932 -0.352060E-08  0.215E-04    1.12      43.1  T
   7   -191.2180932 -0.188061E-08  0.710E-05    1.12     130.2  T
   8   -191.2180932 -0.281034E-09  0.345E-05    1.12     267.8  T
     SCC iter.                  ...        0 min,  0.223 sec
     gradient                   ...        0 min,  0.344 sec
 * total energy  :  -188.2552511 Eh     change       -0.3977238E-04 Eh
   gradient norm :     0.0021021 Eh/α   predicted    -0.2498223E-04 ( -37.19%)
   displ. norm   :     0.3030160 α      lambda       -0.5446145E-04
   maximum displ.:     0.1726205 α      in ANC's #5, #8, #1, ...

........................................................................
.............................. CYCLE  133 ..............................
........................................................................

 iter      E             dE          RMSdq      gap      omega  full diag
   1   -191.2176267 -0.191218E+03  0.287E-02    1.13       0.0  T
   2   -191.2176276 -0.906754E-06  0.168E-02    1.13       1.0  T
   3   -191.2176249  0.275330E-05  0.503E-03    1.13       1.8  T
   4   -191.2176280 -0.316080E-05  0.102E-03    1.13       9.1  T
   5   -191.2176281 -0.738404E-07  0.485E-04    1.13      19.0  T
   6   -191.2176281 -0.486347E-08  0.255E-04    1.13      36.2  T
   7   -191.2176281 -0.267465E-08  0.822E-05    1.13     112.4  T
   8   -191.2176281 -0.422006E-09  0.396E-05    1.13     233.7  T
     SCC iter.                  ...        0 min,  0.235 sec
     gradient                   ...        0 min,  0.365 sec
 * total energy  :  -188.2552975 Eh     change       -0.4638510E-04 Eh
   gradient norm :     0.0023762 Eh/α   predicted    -0.2973137E-04 ( -35.90%)
   displ. norm   :     0.3411770 α      lambda       -0.6285679E-04
   maximum displ.:     0.1987648 α      in ANC's #5, #8, #1, ...

........................................................................
.............................. CYCLE  134 ..............................
........................................................................

 iter      E             dE          RMSdq      gap      omega  full diag
   1   -191.2172002 -0.191217E+03  0.326E-02    1.13       0.0  T
   2   -191.2172014 -0.124708E-05  0.192E-02    1.13       1.0  T
   3   -191.2171983  0.312929E-05  0.535E-03    1.13       1.7  T
   4   -191.2172019 -0.360027E-05  0.118E-03    1.13       7.8  T
   5   -191.2172020 -0.116098E-06  0.529E-04    1.13      17.5  T
   6   -191.2172020 -0.444388E-08  0.291E-04    1.13      31.8  T
   7   -191.2172020 -0.372600E-08  0.930E-05    1.13      99.4  T
   8   -191.2172020 -0.536602E-09  0.445E-05    1.13     207.9  T
     SCC iter.                  ...        0 min,  0.256 sec
     gradient                   ...        0 min,  0.327 sec
 * total energy  :  -188.2553525 Eh     change       -0.5500842E-04 Eh
   gradient norm :     0.0030609 Eh/α   predicted    -0.3508826E-04 ( -36.21%)
   displ. norm   :     0.4090225 α      lambda       -0.8496525E-04
   maximum displ.:     0.2426682 α      in ANC's #5, #8, #1, ...

........................................................................
.............................. CYCLE  135 ..............................
........................................................................

 iter      E             dE          RMSdq      gap      omega  full diag
   1   -191.2169425 -0.191217E+03  0.401E-02    1.14       0.0  T
   2   -191.2169443 -0.184111E-05  0.236E-02    1.14       1.0  T
   3   -191.2169392  0.507862E-05  0.659E-03    1.14       1.4  T
   4   -191.2169451 -0.583493E-05  0.141E-03    1.14       6.6  T
   5   -191.2169452 -0.177669E-06  0.614E-04    1.14      15.1  T
   6   -191.2169453 -0.373316E-08  0.344E-04    1.14      26.8  T
   7   -191.2169453 -0.593661E-08  0.109E-04    1.14      84.5  T
   8   -191.2169453 -0.620474E-09  0.552E-05    1.14     167.5  T
     SCC iter.                  ...        0 min,  0.239 sec
     gradient                   ...        0 min,  0.335 sec
 * total energy  :  -188.2554280 Eh     change       -0.7552149E-04 Eh
   gradient norm :     0.0037554 Eh/α   predicted    -0.4959358E-04 ( -34.33%)
   displ. norm   :     0.5002337 α      lambda       -0.1171522E-03
   maximum displ.:     0.3009616 α      in ANC's #5, #8, #1, ...

........................................................................
.............................. CYCLE  136 ..............................
........................................................................

 iter      E             dE          RMSdq      gap      omega  full diag
   1   -191.2164452 -0.191216E+03  0.504E-02    1.15       0.0  T
   2   -191.2164480 -0.282600E-05  0.298E-02    1.16       1.0  T
   3   -191.2164383  0.972591E-05  0.888E-03    1.16       1.0  T
   4   -191.2164495 -0.111824E-04  0.170E-03    1.16       5.4  T
   5   -191.2164497 -0.244889E-06  0.768E-04    1.16      12.0  T
   6   -191.2164497 -0.385623E-08  0.431E-04    1.16      21.4  T
   7   -191.2164497 -0.109845E-07  0.141E-04    1.16      65.5  T
   8   -191.2164497 -0.880078E-09  0.757E-05    1.16     122.1  T
     SCC iter.                  ...        0 min,  0.187 sec
     gradient                   ...        0 min,  0.287 sec
 * total energy  :  -188.2555304 Eh     change       -0.1024468E-03 Eh
   gradient norm :     0.0044366 Eh/α   predicted    -0.7323443E-04 ( -28.51%)
   displ. norm   :     0.5410530 α      lambda       -0.1487420E-03
   maximum displ.:     0.3306236 α      in ANC's #5, #8, #1, ...

........................................................................
.............................. CYCLE  137 ..............................
........................................................................

 iter      E             dE          RMSdq      gap      omega  full diag
   1   -191.2171194 -0.191217E+03  0.564E-02    1.17       0.0  T
   2   -191.2171226 -0.312997E-05  0.333E-02    1.17       1.0  T
   3   -191.2171076  0.149300E-04  0.107E-02    1.17       1.0  T
   4   -191.2171248 -0.171583E-04  0.177E-03    1.17       5.2  T
   5   -191.2171250 -0.223666E-06  0.857E-04    1.17      10.8  T
   6   -191.2171250 -0.690281E-08  0.476E-04    1.17      19.4  T
   7   -191.2171250 -0.147780E-07  0.171E-04    1.17      54.1  T
   8   -191.2171250 -0.153489E-08  0.918E-05    1.17     100.7  T
     SCC iter.                  ...        0 min,  0.235 sec
     gradient                   ...        0 min,  0.299 sec
 * total energy  :  -188.2556535 Eh     change       -0.1230413E-03 Eh
   gradient norm :     0.0041468 Eh/α   predicted    -0.9614463E-04 ( -21.86%)
   displ. norm   :     0.5971352 α      lambda       -0.1637663E-03
   maximum displ.:     0.3675258 α      in ANC's #5, #8, #1, ...

........................................................................
.............................. CYCLE  138 ..............................
........................................................................

 iter      E             dE          RMSdq      gap      omega  full diag
   1   -191.2145489 -0.191215E+03  0.625E-02    1.19       0.0  T
   2   -191.2145537 -0.476169E-05  0.368E-02    1.19       1.0  T
   3   -191.2145347  0.189972E-04  0.125E-02    1.19       1.0  T
   4   -191.2145569 -0.221706E-04  0.208E-03    1.19       4.5  T
   5   -191.2145571 -0.260650E-06  0.107E-03    1.19       8.6  T
   6   -191.2145571 -0.108731E-07  0.576E-04    1.19      16.0  T
   7   -191.2145571 -0.220232E-07  0.214E-04    1.19      43.2  T
   8   -191.2145572 -0.239683E-08  0.110E-04    1.19      83.7  T
   9   -191.2145572 -0.505139E-09  0.472E-05    1.19     195.9  T
     SCC iter.                  ...        0 min,  0.285 sec
     gradient                   ...        0 min,  0.359 sec
 * total energy  :  -188.2557655 Eh     change       -0.1119991E-03 Eh
   gradient norm :     0.0070892 Eh/α   predicted    -0.1110804E-03 (  -0.82%)
   displ. norm   :     0.4393144 α      lambda       -0.2236249E-03
   maximum displ.:     0.2674540 α      in ANC's #5, #8, #1, ...

........................................................................
.............................. CYCLE  139 ..............................
........................................................................

 iter      E             dE          RMSdq      gap      omega  full diag
   1   -191.2196247 -0.191220E+03  0.501E-02    1.20       0.0  T
   2   -191.2196284 -0.370569E-05  0.295E-02    1.20       1.0  T
   3   -191.2196116  0.167842E-04  0.118E-02    1.20       1.0  T
   4   -191.2196312 -0.195458E-04  0.173E-03    1.20       5.3  T
   5   -191.2196313 -0.177322E-06  0.870E-04    1.20      10.6  T
   6   -191.2196314 -0.168252E-07  0.474E-04    1.20      19.5  T
   7   -191.2196314 -0.129042E-07  0.201E-04    1.20      46.1  T
   8   -191.2196314 -0.295890E-08  0.894E-05    1.20     103.5  T
   9   -191.2196314 -0.251276E-09  0.427E-05    1.20     216.3  T
     SCC iter.                  ...        0 min,  0.260 sec
     gradient                   ...        0 min,  0.334 sec
 * total energy  :  -188.2558955 Eh     change       -0.1300425E-03 Eh
   gradient norm :     0.0051995 Eh/α   predicted    -0.1333960E-03 (   2.58%)
   displ. norm   :     0.4671061 α      lambda       -0.1358639E-03
   maximum displ.:     0.2964247 α      in ANC's #5, #8, #1, ...

........................................................................
.............................. CYCLE  140 ..............................
........................................................................

 iter      E             dE          RMSdq      gap      omega  full diag
   1   -191.2170180 -0.191217E+03  0.464E-02    1.22       0.0  T
   2   -191.2170205 -0.252805E-05  0.273E-02    1.22       1.0  T
   3   -191.2170104  0.101241E-04  0.966E-03    1.22       1.0  T
   4   -191.2170223 -0.118612E-04  0.151E-03    1.22       6.1  T
   5   -191.2170224 -0.135313E-06  0.825E-04    1.22      11.2  T
   6   -191.2170224 -0.880945E-08  0.465E-04    1.22      19.9  T
   7   -191.2170224 -0.124632E-07  0.169E-04    1.22      54.6  T
   8   -191.2170224 -0.169675E-08  0.769E-05    1.22     120.2  T
     SCC iter.                  ...        0 min,  0.233 sec
     gradient                   ...        0 min,  0.300 sec
 * total energy  :  -188.2560090 Eh     change       -0.1134751E-03 Eh
   gradient norm :     0.0065655 Eh/α   predicted    -0.8275431E-04 ( -27.07%)
   displ. norm   :     0.4813256 α      lambda       -0.2782840E-03
   maximum displ.:     0.2906624 α      in ANC's #5, #8, #1, ...

........................................................................
.............................. CYCLE  141 ..............................
........................................................................

 iter      E             dE          RMSdq      gap      omega  full diag
   1   -191.2175513 -0.191218E+03  0.502E-02    1.23       0.0  T
   2   -191.2175574 -0.611445E-05  0.295E-02    1.23       1.0  T
   3   -191.2175384  0.189758E-04  0.138E-02    1.23       1.0  T
   4   -191.2175606 -0.222175E-04  0.233E-03    1.23       4.0  T
   5   -191.2175610 -0.400644E-06  0.944E-04    1.23       9.8  T
   6   -191.2175610 -0.209012E-07  0.539E-04    1.23      17.2  T
   7   -191.2175610 -0.140586E-07  0.227E-04    1.23      40.8  T
   8   -191.2175610 -0.203670E-08  0.116E-04    1.23      80.0  T
   9   -191.2175610 -0.377440E-09  0.523E-05    1.23     176.8  T
     SCC iter.                  ...        0 min,  0.197 sec
     gradient                   ...        0 min,  0.331 sec
 * total energy  :  -188.2562127 Eh     change       -0.2037071E-03 Eh
   gradient norm :     0.0067683 Eh/α   predicted    -0.1713854E-03 ( -15.87%)
   displ. norm   :     0.4569536 α      lambda       -0.2256864E-03
   maximum displ.:     0.2789683 α      in ANC's #5, #8, #1, ...

........................................................................
.............................. CYCLE  142 ..............................
........................................................................

 iter      E             dE          RMSdq      gap      omega  full diag
   1   -191.2163846 -0.191216E+03  0.486E-02    1.24       0.0  T
   2   -191.2163899 -0.522253E-05  0.284E-02    1.24       1.0  T
   3   -191.2163812  0.862522E-05  0.985E-03    1.24       1.0  T
   4   -191.2163913 -0.100864E-04  0.225E-03    1.24       4.1  T
   5   -191.2163917 -0.384873E-06  0.914E-04    1.24      10.1  T
   6   -191.2163917 -0.174184E-07  0.539E-04    1.24      17.2  T
   7   -191.2163917 -0.150173E-07  0.223E-04    1.24      41.4  T
   8   -191.2163917 -0.207885E-08  0.100E-04    1.24      92.2  T
   9   -191.2163917 -0.183377E-09  0.451E-05    1.24     205.1  T
     SCC iter.                  ...        0 min,  0.274 sec
     gradient                   ...        0 min,  0.282 sec
 * total energy  :  -188.2563596 Eh     change       -0.1468514E-03 Eh
   gradient norm :     0.0082476 Eh/α   predicted    -0.1364086E-03 (  -7.11%)
   displ. norm   :     0.4127814 α      lambda       -0.2276548E-03
   maximum displ.:     0.2567647 α      in ANC's #5, #8, #1, ...

........................................................................
.............................. CYCLE  143 ..............................
........................................................................

 iter      E             dE          RMSdq      gap      omega  full diag
   1   -191.2178962 -0.191218E+03  0.418E-02    1.24       0.0  T
   2   -191.2179059 -0.978957E-05  0.249E-02    1.24       1.0  T
   3   -191.2178925  0.134531E-04  0.126E-02    1.24       1.0  T
   4   -191.2179094 -0.169048E-04  0.296E-03    1.24       3.1  T
   5   -191.2179103 -0.884129E-06  0.776E-04    1.24      11.9  T
   6   -191.2179103 -0.182735E-07  0.424E-04    1.24      21.8  T
   7   -191.2179103 -0.615188E-08  0.225E-04    1.24      41.1  T
   8   -191.2179103 -0.271777E-08  0.956E-05    1.24      96.7  T
   9   -191.2179103  0.325997E-10  0.519E-05    1.24     178.1  T
     SCC iter.                  ...        0 min,  0.253 sec
     gradient                   ...        0 min,  0.309 sec
 * total energy  :  -188.2565048 Eh     change       -0.1452233E-03 Eh
   gradient norm :     0.0073222 Eh/α   predicted    -0.1332234E-03 (  -8.26%)
   displ. norm   :     0.5587521 α      lambda       -0.1967454E-03
   maximum displ.:     0.3683348 α      in ANC's #5, #8, #1, ...

........................................................................
.............................. CYCLE  144 ..............................
........................................................................

 iter      E             dE          RMSdq      gap      omega  full diag
   1   -191.2153711 -0.191215E+03  0.510E-02    1.25       0.0  T
   2   -191.2153752 -0.408160E-05  0.299E-02    1.25       1.0  T
   3   -191.2153660  0.917189E-05  0.930E-03    1.26       1.0  T
   4   -191.2153769 -0.108792E-04  0.171E-03    1.25       5.4  T
   5   -191.2153771 -0.226694E-06  0.843E-04    1.25      11.0  T
   6   -191.2153771 -0.294307E-09  0.531E-04    1.25      17.4  T
   7   -191.2153771 -0.183792E-07  0.187E-04    1.25      49.4  T
   8   -191.2153771 -0.273579E-08  0.789E-05    1.25     117.2  T
     SCC iter.                  ...        0 min,  0.222 sec
     gradient                   ...        0 min,  0.320 sec
 * total energy  :  -188.2566549 Eh     change       -0.1500793E-03 Eh
   gradient norm :     0.0069862 Eh/α   predicted    -0.1290856E-03 ( -13.99%)
   displ. norm   :     0.3920309 α      lambda       -0.3856681E-03
   maximum displ.:     0.2219793 α      in ANC's #5, #8, #1, ...

........................................................................
.............................. CYCLE  145 ..............................
........................................................................

 iter      E             dE          RMSdq      gap      omega  full diag
   1   -191.2250225 -0.191225E+03  0.478E-02    1.25       0.0  T
   2   -191.2250476 -0.251523E-04  0.276E-02    1.25       1.0  T
   3   -191.2250438  0.383570E-05  0.118E-02    1.25       1.0  T
   4   -191.2250470 -0.314753E-05  0.530E-03    1.25       1.7  T
   5   -191.2250501 -0.315702E-05  0.106E-03    1.25       8.7  T
   6   -191.2250502 -0.402518E-07  0.568E-04    1.25      16.3  T
   7   -191.2250502 -0.118614E-07  0.265E-04    1.25      34.9  T
   8   -191.2250502 -0.367407E-08  0.118E-04    1.25      78.6  T
   9   -191.2250502 -0.726089E-09  0.525E-05    1.25     176.1  T
     SCC iter.                  ...        0 min,  0.267 sec
     gradient                   ...        0 min,  0.267 sec
 * total energy  :  -188.2567027 Eh     change       -0.4780560E-04 Eh
   gradient norm :     0.0104797 Eh/α   predicted    -0.2224710E-03 ( 365.37%)
   displ. norm   :     0.3686047 α      lambda       -0.3054642E-03
   maximum displ.:     0.2370637 α      in ANC's #5, #8, #1, ...

........................................................................
.............................. CYCLE  146 ..............................
........................................................................

 iter      E             dE          RMSdq      gap      omega  full diag
   1   -191.2183267 -0.191218E+03  0.374E-02    1.26       0.0  T
   2   -191.2183348 -0.806050E-05  0.218E-02    1.26       1.0  T
   3   -191.2183301  0.466165E-05  0.860E-03    1.27       1.1  T
   4   -191.2183357 -0.553755E-05  0.250E-03    1.26       3.7  T
   5   -191.2183364 -0.751335E-06  0.766E-04    1.26      12.1  T
   6   -191.2183365 -0.206652E-07  0.465E-04    1.26      19.9  T
   7   -191.2183365 -0.858759E-08  0.223E-04    1.26      41.4  T
   8   -191.2183365 -0.331474E-08  0.812E-05    1.26     113.9  T
   9   -191.2183365 -0.298826E-09  0.440E-05    1.26     210.2  T
     SCC iter.                  ...        0 min,  0.202 sec
     gradient                   ...        0 min,  0.270 sec
 * total energy  :  -188.2568882 Eh     change       -0.1855231E-03 Eh
   gradient norm :     0.0052615 Eh/α   predicted    -0.1734842E-03 (  -6.49%)
   displ. norm   :     0.3438747 α      lambda       -0.9767864E-04
   maximum displ.:     0.2262994 α      in ANC's #5, #8, #1, ...

........................................................................
.............................. CYCLE  147 ..............................
........................................................................

 iter      E             dE          RMSdq      gap      omega  full diag
   1   -191.2169026 -0.191217E+03  0.301E-02    1.27       0.0  T
   2   -191.2169042 -0.157592E-05  0.177E-02    1.27       1.0  T
   3   -191.2168982  0.605176E-05  0.763E-03    1.27       1.2  T
   4   -191.2169053 -0.712755E-05  0.104E-03    1.27       8.9  T
   5   -191.2169054 -0.715661E-07  0.549E-04    1.27      16.8  T
   6   -191.2169054 -0.103815E-07  0.319E-04    1.27      28.9  T
   7   -191.2169054 -0.478627E-08  0.128E-04    1.27      72.1  T
   8   -191.2169054 -0.108565E-08  0.505E-05    1.27     183.2  T
     SCC iter.                  ...        0 min,  0.225 sec
     gradient                   ...        0 min,  0.275 sec
 * total energy  :  -188.2569608 Eh     change       -0.7257981E-04 Eh
   gradient norm :     0.0048989 Eh/α   predicted    -0.5461981E-04 ( -24.75%)
   displ. norm   :     0.3353929 α      lambda       -0.1315131E-03
   maximum displ.:     0.2091613 α      in ANC's #5, #8, #1, ...

........................................................................
.............................. CYCLE  148 ..............................
........................................................................

 iter      E             dE          RMSdq      gap      omega  full diag
   1   -191.2182530 -0.191218E+03  0.310E-02    1.27       0.0  T
   2   -191.2182553 -0.233139E-05  0.182E-02    1.27       1.0  T
   3   -191.2182491  0.625873E-05  0.813E-03    1.27       1.1  T
   4   -191.2182566 -0.750185E-05  0.123E-03    1.27       7.5  T
   5   -191.2182567 -0.108520E-06  0.601E-04    1.27      15.4  T
   6   -191.2182567 -0.167768E-07  0.340E-04    1.27      27.2  T
   7   -191.2182567 -0.576736E-08  0.153E-04    1.27      60.3  T
   8   -191.2182567 -0.139073E-08  0.618E-05    1.27     149.5  T
     SCC iter.                  ...        0 min,  0.232 sec
     gradient                   ...        0 min,  0.324 sec
 * total energy  :  -188.2570505 Eh     change       -0.8976761E-04 Eh
   gradient norm :     0.0035672 Eh/α   predicted    -0.7315409E-04 ( -18.51%)
   displ. norm   :     0.3850314 α      lambda       -0.8560824E-04
   maximum displ.:     0.2415123 α      in ANC's #5, #8, #1, ...

........................................................................
.............................. CYCLE  149 ..............................
........................................................................

 iter      E             dE          RMSdq      gap      omega  full diag
   1   -191.2187385 -0.191219E+03  0.343E-02    1.27       0.0  T
   2   -191.2187409 -0.240441E-05  0.200E-02    1.27       1.0  T
   3   -191.2187363  0.457238E-05  0.695E-03    1.28       1.3  T
   4   -191.2187417 -0.537977E-05  0.133E-03    1.27       6.9  T
   5   -191.2187418 -0.132204E-06  0.602E-04    1.27      15.4  T
   6   -191.2187418 -0.972332E-08  0.358E-04    1.27      25.8  T
   7   -191.2187418 -0.660137E-08  0.139E-04    1.27      66.3  T
   8   -191.2187418 -0.121040E-08  0.636E-05    1.27     145.5  T
     SCC iter.                  ...        0 min,  0.203 sec
     gradient                   ...        0 min,  0.325 sec
 * total energy  :  -188.2571107 Eh     change       -0.6016525E-04 Eh
   gradient norm :     0.0028863 Eh/α   predicted    -0.4915156E-04 ( -18.31%)
   displ. norm   :     0.2326323 α      lambda       -0.6002113E-04
   maximum displ.:     0.1193986 α      in ANC's #5, #4, #1, ...

........................................................................
.............................. CYCLE  150 ..............................
........................................................................

 iter      E             dE          RMSdq      gap      omega  full diag
   1   -191.2212973 -0.191221E+03  0.250E-02    1.27       0.0  T
   2   -191.2212990 -0.165695E-05  0.147E-02    1.27       1.0  T
   3   -191.2212951  0.386714E-05  0.646E-03    1.27       1.4  T
   4   -191.2212998 -0.465157E-05  0.107E-03    1.27       8.7  T
   5   -191.2212998 -0.861140E-07  0.408E-04    1.27      22.6  T
   6   -191.2212999 -0.482569E-08  0.192E-04    1.27      48.2  T
   7   -191.2212999 -0.895454E-09  0.981E-05    1.27      94.2  T
     SCC iter.                  ...        0 min,  0.191 sec
     gradient                   ...        0 min,  0.293 sec
 * total energy  :  -188.2571470 Eh     change       -0.3631351E-04 Eh
   gradient norm :     0.0031206 Eh/α   predicted    -0.3163704E-04 ( -12.88%)
   displ. norm   :     0.3628408 α      lambda       -0.5126071E-04
   maximum displ.:     0.2214730 α      in ANC's #5, #8, #1, ...
 * RMSD in coord.:     0.7903319 α      energy gain  -0.2367355E-02 Eh

generating ANC from exact Hessian ...
Using Lindh-Hessian (1995)
 Shifting diagonal of input Hessian by    1.0060641787737787E-002
 Lowest  eigenvalues of input Hessian
    0.010000    0.000000    0.000000    0.000000    0.000000    0.000000
    0.000000    0.010115    0.010198    0.010290    0.010347    0.010394
    0.010447    0.010540    0.010785    0.010874    0.010933    0.011030
 Highest eigenvalues
    2.145869    2.269745    2.324533    2.327999    2.442094    3.101183


........................................................................
.............................. CYCLE  151 ..............................
........................................................................

 iter      E             dE          RMSdq      gap      omega  full diag
   1   -191.2191273 -0.191219E+03  0.338E-02    1.28       0.0  T
   2   -191.2191295 -0.215410E-05  0.198E-02    1.28       1.0  T
   3   -191.2191235  0.596923E-05  0.762E-03    1.28       1.2  T
   4   -191.2191306 -0.708131E-05  0.136E-03    1.28       6.8  T
   5   -191.2191307 -0.135729E-06  0.618E-04    1.28      15.0  T
   6   -191.2191307 -0.681811E-08  0.358E-04    1.28      25.8  T
   7   -191.2191307 -0.476606E-08  0.142E-04    1.28      65.1  T
   8   -191.2191307 -0.128711E-08  0.581E-05    1.28     159.2  T
     SCC iter.                  ...        0 min,  0.183 sec
     gradient                   ...        0 min,  0.309 sec
 * total energy  :  -188.2571733 Eh     change       -0.2629017E-04 Eh
   gradient norm :     0.0028678 Eh/α   predicted     0.0000000E+00 (-100.00%)
   displ. norm   :     0.0307833 α      lambda       -0.2513804E-04
   maximum displ.:     0.0120760 α      in ANC's #19, #26, #4, ...

........................................................................
.............................. CYCLE  152 ..............................
........................................................................

 iter      E             dE          RMSdq      gap      omega  full diag
   1   -191.2202230 -0.191220E+03  0.581E-03    1.28       0.0  T
   2   -191.2202232 -0.196015E-06  0.348E-03    1.28       2.7  T
   3   -191.2202230  0.195655E-06  0.158E-03    1.28       5.9  T
   4   -191.2202232 -0.240555E-06  0.492E-04    1.28      18.8  T
   5   -191.2202232 -0.238886E-07  0.143E-04    1.28      64.7  T
   6   -191.2202232 -0.544418E-09  0.729E-05    1.28     126.7  T
     SCC iter.                  ...        0 min,  0.166 sec
     gradient                   ...        0 min,  0.299 sec
 * total energy  :  -188.2571936 Eh     change       -0.2027293E-04 Eh
   gradient norm :     0.0013783 Eh/α   predicted    -0.1282152E-04 ( -36.76%)
   displ. norm   :     0.1345498 α      lambda       -0.4231847E-04
   maximum displ.:     0.0540338 α      in ANC's #19, #26, #4, ...

........................................................................
.............................. CYCLE  153 ..............................
........................................................................

 iter      E             dE          RMSdq      gap      omega  full diag
   1   -191.2222821 -0.191222E+03  0.228E-02    1.28       0.0  T
   2   -191.2222833 -0.114618E-05  0.134E-02    1.28       1.0  T
   3   -191.2222817  0.150814E-05  0.393E-03    1.28       2.4  T
   4   -191.2222834 -0.169735E-05  0.129E-03    1.28       7.2  T
   5   -191.2222836 -0.172382E-06  0.522E-04    1.28      17.7  T
   6   -191.2222836 -0.105152E-07  0.269E-04    1.28      34.4  T
   7   -191.2222836 -0.284845E-08  0.124E-04    1.28      74.7  T
   8   -191.2222836 -0.848246E-09  0.582E-05    1.28     158.7  T
     SCC iter.                  ...        0 min,  0.245 sec
     gradient                   ...        0 min,  0.287 sec
 * total energy  :  -188.2572260 Eh     change       -0.3242033E-04 Eh
   gradient norm :     0.0031530 Eh/α   predicted    -0.2132999E-04 ( -34.21%)
   displ. norm   :     0.0467776 α      lambda       -0.1678051E-04
   maximum displ.:     0.0203111 α      in ANC's #4, #19, #26, ...

........................................................................
.............................. CYCLE  154 ..............................
........................................................................

 iter      E             dE          RMSdq      gap      omega  full diag
   1   -191.2217118 -0.191222E+03  0.728E-03    1.28       0.0  T
   2   -191.2217120 -0.126393E-06  0.433E-03    1.28       2.1  T
   3   -191.2217115  0.432342E-06  0.202E-03    1.28       4.6  T
   4   -191.2217120 -0.501973E-06  0.422E-04    1.28      21.9  T
   5   -191.2217120 -0.163085E-07  0.151E-04    1.28      61.3  T
   6   -191.2217120 -0.311701E-09  0.925E-05    1.28     100.0  T
     SCC iter.                  ...        0 min,  0.152 sec
     gradient                   ...        0 min,  0.274 sec
 * total energy  :  -188.2572404 Eh     change       -0.1438928E-04 Eh
   gradient norm :     0.0022333 Eh/α   predicted    -0.8409879E-05 ( -41.55%)
   displ. norm   :     0.1382988 α      lambda       -0.3885683E-04
   maximum displ.:     0.0637402 α      in ANC's #4, #19, #26, ...

........................................................................
.............................. CYCLE  155 ..............................
........................................................................

 iter      E             dE          RMSdq      gap      omega  full diag
   1   -191.2201818 -0.191220E+03  0.210E-02    1.28       0.0  T
   2   -191.2201828 -0.102249E-05  0.125E-02    1.28       1.0  T
   3   -191.2201791  0.365169E-05  0.598E-03    1.27       1.5  T
   4   -191.2201834 -0.425747E-05  0.117E-03    1.28       7.9  T
   5   -191.2201835 -0.120066E-06  0.414E-04    1.28      22.3  T
   6   -191.2201835 -0.198040E-08  0.257E-04    1.28      35.9  T
   7   -191.2201835 -0.188052E-08  0.124E-04    1.28      74.6  T
   8   -191.2201835 -0.127366E-08  0.410E-05    1.28     225.5  T
     SCC iter.                  ...        0 min,  0.210 sec
     gradient                   ...        0 min,  0.334 sec
 * total energy  :  -188.2572640 Eh     change       -0.2360330E-04 Eh
   gradient norm :     0.0014717 Eh/α   predicted    -0.1980088E-04 ( -16.11%)
   displ. norm   :     0.0968185 α      lambda       -0.9703464E-05
   maximum displ.:     0.0523176 α      in ANC's #4, #19, #26, ...

........................................................................
.............................. CYCLE  156 ..............................
........................................................................

 iter      E             dE          RMSdq      gap      omega  full diag
   1   -191.2198245 -0.191220E+03  0.133E-02    1.27       0.0  T
   2   -191.2198248 -0.300803E-06  0.786E-03    1.28       1.2  T
   3   -191.2198234  0.146384E-05  0.383E-03    1.28       2.4  T
   4   -191.2198251 -0.169803E-05  0.561E-04    1.28      16.5  T
   5   -191.2198251 -0.222010E-07  0.234E-04    1.28      39.5  T
   6   -191.2198251 -0.849980E-09  0.143E-04    1.28      64.6  T
   7   -191.2198251 -0.508948E-09  0.637E-05    1.28     145.0  T
     SCC iter.                  ...        0 min,  0.201 sec
     gradient                   ...        0 min,  0.312 sec
 * total energy  :  -188.2572754 Eh     change       -0.1140682E-04 Eh
   gradient norm :     0.0018479 Eh/α   predicted    -0.4879193E-05 ( -57.23%)
   displ. norm   :     0.1311322 α      lambda       -0.1760493E-04
   maximum displ.:     0.0743453 α      in ANC's #4, #31, #5, ...

........................................................................
.............................. CYCLE  157 ..............................
........................................................................

 iter      E             dE          RMSdq      gap      omega  full diag
   1   -191.2202661 -0.191220E+03  0.173E-02    1.27       0.0  T
   2   -191.2202665 -0.383006E-06  0.102E-02    1.27       1.0  T
   3   -191.2202642  0.236716E-05  0.499E-03    1.28       1.9  T
   4   -191.2202669 -0.273223E-05  0.542E-04    1.28      17.1  T
   5   -191.2202669 -0.116108E-07  0.282E-04    1.28      32.7  T
   6   -191.2202669 -0.157837E-08  0.163E-04    1.28      56.7  T
   7   -191.2202669 -0.116569E-08  0.557E-05    1.28     165.9  T
     SCC iter.                  ...        0 min,  0.239 sec
     gradient                   ...        0 min,  0.316 sec
 * total energy  :  -188.2572963 Eh     change       -0.2089409E-04 Eh
   gradient norm :     0.0014859 Eh/α   predicted    -0.8870507E-05 ( -57.55%)
   displ. norm   :     0.1871936 α      lambda       -0.1887114E-04
   maximum displ.:     0.1077232 α      in ANC's #4, #31, #5, ...

........................................................................
.............................. CYCLE  158 ..............................
........................................................................

 iter      E             dE          RMSdq      gap      omega  full diag
   1   -191.2204404 -0.191220E+03  0.230E-02    1.27       0.0  T
   2   -191.2204409 -0.534431E-06  0.135E-02    1.28       1.0  T
   3   -191.2204370  0.398987E-05  0.632E-03    1.28       1.5  T
   4   -191.2204415 -0.457426E-05  0.688E-04    1.28      13.4  T
   5   -191.2204415 -0.165658E-07  0.370E-04    1.28      25.0  T
   6   -191.2204416 -0.164897E-08  0.205E-04    1.28      45.1  T
   7   -191.2204416 -0.201203E-08  0.728E-05    1.28     126.9  T
   8   -191.2204416 -0.224929E-09  0.334E-05    1.28     276.7  T
     SCC iter.                  ...        0 min,  0.241 sec
     gradient                   ...        0 min,  0.311 sec
 * total energy  :  -188.2573180 Eh     change       -0.2172429E-04 Eh
   gradient norm :     0.0014674 Eh/α   predicted    -0.9584969E-05 ( -55.88%)
   displ. norm   :     0.1951258 α      lambda       -0.1653464E-04
   maximum displ.:     0.1150463 α      in ANC's #4, #5, #31, ...

........................................................................
.............................. CYCLE  159 ..............................
........................................................................

 iter      E             dE          RMSdq      gap      omega  full diag
   1   -191.2206373 -0.191221E+03  0.219E-02    1.28       0.0  T
   2   -191.2206377 -0.427088E-06  0.129E-02    1.28       1.0  T
   3   -191.2206355  0.221482E-05  0.468E-03    1.28       2.0  T
   4   -191.2206380 -0.252107E-05  0.673E-04    1.28      13.7  T
   5   -191.2206380 -0.212561E-07  0.339E-04    1.28      27.3  T
   6   -191.2206380 -0.128674E-08  0.187E-04    1.28      49.4  T
   7   -191.2206380 -0.170829E-08  0.624E-05    1.28     148.2  T
     SCC iter.                  ...        0 min,  0.209 sec
     gradient                   ...        0 min,  0.426 sec
 * total energy  :  -188.2573384 Eh     change       -0.2039754E-04 Eh
   gradient norm :     0.0014301 Eh/α   predicted    -0.8408923E-05 ( -58.77%)
   displ. norm   :     0.2555914 α      lambda       -0.2227345E-04
   maximum displ.:     0.1520931 α      in ANC's #4, #5, #1, ...

........................................................................
.............................. CYCLE  160 ..............................
........................................................................

 iter      E             dE          RMSdq      gap      omega  full diag
   1   -191.2206195 -0.191221E+03  0.256E-02    1.28       0.0  T
   2   -191.2206201 -0.629445E-06  0.151E-02    1.28       1.0  T
   3   -191.2206188  0.123245E-05  0.353E-03    1.28       2.6  T
   4   -191.2206203 -0.143781E-05  0.825E-04    1.28      11.2  T
   5   -191.2206203 -0.437964E-07  0.388E-04    1.28      23.8  T
   6   -191.2206203 -0.245393E-08  0.216E-04    1.28      42.7  T
   7   -191.2206203 -0.205011E-08  0.700E-05    1.28     132.0  T
   8   -191.2206203 -0.263469E-09  0.333E-05    1.28     278.0  T
     SCC iter.                  ...        0 min,  0.304 sec
     gradient                   ...        0 min,  0.430 sec
 * total energy  :  -188.2573657 Eh     change       -0.2726663E-04 Eh
   gradient norm :     0.0017767 Eh/α   predicted    -0.1146070E-04 ( -57.97%)
   displ. norm   :     0.3693099 α      lambda       -0.3394241E-04
   maximum displ.:     0.2225395 α      in ANC's #4, #5, #1, ...

........................................................................
.............................. CYCLE  161 ..............................
........................................................................

 iter      E             dE          RMSdq      gap      omega  full diag
   1   -191.2199198 -0.191220E+03  0.355E-02    1.28       0.0  T
   2   -191.2199214 -0.156903E-05  0.209E-02    1.28       1.0  T
   3   -191.2199187  0.267359E-05  0.515E-03    1.28       1.8  T
   4   -191.2199218 -0.311262E-05  0.121E-03    1.28       7.7  T
   5   -191.2199219 -0.101985E-06  0.540E-04    1.28      17.1  T
   6   -191.2199219 -0.544702E-08  0.312E-04    1.28      29.6  T
   7   -191.2199219 -0.333966E-08  0.110E-04    1.28      84.3  T
   8   -191.2199219 -0.800867E-09  0.477E-05    1.28     193.7  T
     SCC iter.                  ...        0 min,  0.351 sec
     gradient                   ...        0 min,  0.384 sec
 * total energy  :  -188.2574024 Eh     change       -0.3674555E-04 Eh
   gradient norm :     0.0026250 Eh/α   predicted    -0.1800022E-04 ( -51.01%)
   displ. norm   :     0.2509693 α      lambda       -0.4213870E-04
   maximum displ.:     0.1548770 α      in ANC's #4, #5, #1, ...

........................................................................
.............................. CYCLE  162 ..............................
........................................................................

 iter      E             dE          RMSdq      gap      omega  full diag
   1   -191.2203421 -0.191220E+03  0.218E-02    1.28       0.0  T
   2   -191.2203428 -0.622808E-06  0.129E-02    1.28       1.0  T
   3   -191.2203410  0.179792E-05  0.384E-03    1.28       2.4  T
   4   -191.2203430 -0.204643E-05  0.756E-04    1.28      12.2  T
   5   -191.2203430 -0.426797E-07  0.357E-04    1.28      25.9  T
   6   -191.2203430 -0.370764E-08  0.193E-04    1.28      47.9  T
   7   -191.2203430 -0.989701E-09  0.831E-05    1.28     111.2  T
     SCC iter.                  ...        0 min,  0.214 sec
     gradient                   ...        0 min,  0.393 sec
 * total energy  :  -188.2574362 Eh     change       -0.3380054E-04 Eh
   gradient norm :     0.0023501 Eh/α   predicted    -0.2241933E-04 ( -33.67%)
   displ. norm   :     0.4114197 α      lambda       -0.5346351E-04
   maximum displ.:     0.2530549 α      in ANC's #4, #5, #1, ...

........................................................................
.............................. CYCLE  163 ..............................
........................................................................

 iter      E             dE          RMSdq      gap      omega  full diag
   1   -191.2190379 -0.191219E+03  0.354E-02    1.29       0.0  T
   2   -191.2190394 -0.153064E-05  0.208E-02    1.29       1.0  T
   3   -191.2190369  0.251200E-05  0.476E-03    1.29       1.9  T
   4   -191.2190399 -0.299037E-05  0.105E-03    1.29       8.8  T
   5   -191.2190399 -0.749086E-07  0.541E-04    1.29      17.1  T
   6   -191.2190399 -0.334853E-08  0.306E-04    1.29      30.2  T
   7   -191.2190399 -0.458672E-08  0.121E-04    1.29      76.1  T
   8   -191.2190399 -0.132391E-08  0.485E-05    1.29     190.8  T
     SCC iter.                  ...        0 min,  0.293 sec
     gradient                   ...        0 min,  0.346 sec
 * total energy  :  -188.2574743 Eh     change       -0.3806565E-04 Eh
   gradient norm :     0.0034871 Eh/α   predicted    -0.3125983E-04 ( -17.88%)
   displ. norm   :     0.3240006 α      lambda       -0.7241761E-04
   maximum displ.:     0.2001776 α      in ANC's #4, #5, #1, ...

........................................................................
.............................. CYCLE  164 ..............................
........................................................................

 iter      E             dE          RMSdq      gap      omega  full diag
   1   -191.2201868 -0.191220E+03  0.292E-02    1.29       0.0  T
   2   -191.2201877 -0.871750E-06  0.173E-02    1.29       1.0  T
   3   -191.2201855  0.212980E-05  0.427E-03    1.29       2.2  T
   4   -191.2201880 -0.248321E-05  0.916E-04    1.29      10.1  T
   5   -191.2201881 -0.511154E-07  0.487E-04    1.29      19.0  T
   6   -191.2201881 -0.621534E-08  0.266E-04    1.29      34.8  T
   7   -191.2201881 -0.370932E-08  0.109E-04    1.29      85.2  T
   8   -191.2201881 -0.722366E-09  0.508E-05    1.29     182.0  T
     SCC iter.                  ...        0 min,  0.283 sec
     gradient                   ...        0 min,  0.363 sec
 * total energy  :  -188.2575170 Eh     change       -0.4267088E-04 Eh
   gradient norm :     0.0023504 Eh/α   predicted    -0.4001058E-04 (  -6.23%)
   displ. norm   :     0.4208660 α      lambda       -0.5121280E-04
   maximum displ.:     0.2605131 α      in ANC's #4, #5, #1, ...

........................................................................
.............................. CYCLE  165 ..............................
........................................................................

 iter      E             dE          RMSdq      gap      omega  full diag
   1   -191.2181784 -0.191218E+03  0.357E-02    1.29       0.0  T
   2   -191.2181806 -0.216868E-05  0.209E-02    1.29       1.0  T
   3   -191.2181778  0.276528E-05  0.529E-03    1.29       1.7  T
   4   -191.2181811 -0.321436E-05  0.134E-03    1.29       6.9  T
   5   -191.2181812 -0.165334E-06  0.573E-04    1.29      16.1  T
   6   -191.2181812 -0.544696E-08  0.348E-04    1.29      26.6  T
   7   -191.2181812 -0.606303E-08  0.126E-04    1.29      73.3  T
   8   -191.2181812 -0.132303E-08  0.525E-05    1.29     176.1  T
     SCC iter.                  ...        0 min,  0.272 sec
     gradient                   ...        0 min,  0.397 sec
 * total energy  :  -188.2575362 Eh     change       -0.1922749E-04 Eh
   gradient norm :     0.0045117 Eh/α   predicted    -0.3014255E-04 (  56.77%)
   displ. norm   :     0.0694846 α      lambda       -0.5968960E-04
   maximum displ.:     0.0265571 α      in ANC's #11, #8, #21, ...

........................................................................
.............................. CYCLE  166 ..............................
........................................................................

 iter      E             dE          RMSdq      gap      omega  full diag
   1   -191.2206082 -0.191221E+03  0.123E-02    1.29       0.0  T
   2   -191.2206087 -0.524914E-06  0.729E-03    1.29       1.3  T
   3   -191.2206078  0.907469E-06  0.327E-03    1.29       2.8  T
   4   -191.2206089 -0.104602E-05  0.766E-04    1.29      12.1  T
   5   -191.2206089 -0.653716E-07  0.221E-04    1.29      41.8  T
   6   -191.2206089 -0.156663E-08  0.125E-04    1.29      73.9  T
   7   -191.2206089 -0.543281E-09  0.441E-05    1.29     209.8  T
     SCC iter.                  ...        0 min,  0.326 sec
     gradient                   ...        0 min,  0.379 sec
 * total energy  :  -188.2575769 Eh     change       -0.4070631E-04 Eh
   gradient norm :     0.0020722 Eh/α   predicted    -0.2999178E-04 ( -26.32%)
   displ. norm   :     0.2365787 α      lambda       -0.5470671E-04
   maximum displ.:     0.1333151 α      in ANC's #4, #1, #5, ...

........................................................................
.............................. CYCLE  167 ..............................
........................................................................

 iter      E             dE          RMSdq      gap      omega  full diag
   1   -191.2208139 -0.191221E+03  0.252E-02    1.29       0.0  T
   2   -191.2208155 -0.160334E-05  0.151E-02    1.30       1.0  T
   3   -191.2208096  0.591448E-05  0.816E-03    1.30       1.1  T
   4   -191.2208167 -0.712445E-05  0.129E-03    1.30       7.2  T
   5   -191.2208168 -0.142102E-06  0.439E-04    1.30      21.1  T
   6   -191.2208168 -0.653739E-08  0.254E-04    1.30      36.4  T
   7   -191.2208169 -0.169666E-08  0.106E-04    1.30      87.0  T
   8   -191.2208169 -0.608026E-09  0.412E-05    1.30     224.2  T
     SCC iter.                  ...        0 min,  0.286 sec
     gradient                   ...        0 min,  0.401 sec
 * total energy  :  -188.2576156 Eh     change       -0.3874154E-04 Eh
   gradient norm :     0.0024605 Eh/α   predicted    -0.2888479E-04 ( -25.44%)
   displ. norm   :     0.3073377 α      lambda       -0.4834931E-04
   maximum displ.:     0.1758018 α      in ANC's #4, #1, #5, ...

........................................................................
.............................. CYCLE  168 ..............................
........................................................................

 iter      E             dE          RMSdq      gap      omega  full diag
   1   -191.2204245 -0.191220E+03  0.300E-02    1.30       0.0  T
   2   -191.2204260 -0.146573E-05  0.178E-02    1.30       1.0  T
   3   -191.2204202  0.580800E-05  0.757E-03    1.30       1.2  T
   4   -191.2204268 -0.662438E-05  0.133E-03    1.30       6.9  T
   5   -191.2204270 -0.161079E-06  0.482E-04    1.30      19.2  T
   6   -191.2204270 -0.696738E-08  0.283E-04    1.30      32.7  T
   7   -191.2204270 -0.259251E-08  0.880E-05    1.30     105.0  T
   8   -191.2204270 -0.440508E-09  0.430E-05    1.30     215.1  T
     SCC iter.                  ...        0 min,  0.264 sec
     gradient                   ...        0 min,  0.458 sec
 * total energy  :  -188.2576499 Eh     change       -0.3427003E-04 Eh
   gradient norm :     0.0032261 Eh/α   predicted    -0.2646030E-04 ( -22.79%)
   displ. norm   :     0.2340447 α      lambda       -0.4743973E-04
   maximum displ.:     0.1230093 α      in ANC's #4, #1, #5, ...

........................................................................
.............................. CYCLE  169 ..............................
........................................................................

 iter      E             dE          RMSdq      gap      omega  full diag
   1   -191.2198285 -0.191220E+03  0.246E-02    1.30       0.0  T
   2   -191.2198297 -0.115104E-05  0.146E-02    1.30       1.0  T
   3   -191.2198255  0.416934E-05  0.629E-03    1.30       1.5  T
   4   -191.2198302 -0.475275E-05  0.122E-03    1.30       7.6  T
   5   -191.2198304 -0.129288E-06  0.429E-04    1.30      21.6  T
   6   -191.2198304 -0.496945E-08  0.257E-04    1.30      36.0  T
   7   -191.2198304 -0.218671E-08  0.100E-04    1.30      92.1  T
   8   -191.2198304 -0.715062E-09  0.447E-05    1.30     206.9  T
     SCC iter.                  ...        0 min,  0.303 sec
     gradient                   ...        0 min,  0.358 sec
 * total energy  :  -188.2576847 Eh     change       -0.3482669E-04 Eh
   gradient norm :     0.0030119 Eh/α   predicted    -0.2502125E-04 ( -28.15%)
   displ. norm   :     0.2101500 α      lambda       -0.5116737E-04
   maximum displ.:     0.1092661 α      in ANC's #1, #4, #8, ...

........................................................................
.............................. CYCLE  170 ..............................
........................................................................

 iter      E             dE          RMSdq      gap      omega  full diag
   1   -191.2201751 -0.191220E+03  0.218E-02    1.30       0.0  T
   2   -191.2201759 -0.799958E-06  0.128E-02    1.30       1.0  T
   3   -191.2201748  0.111930E-05  0.334E-03    1.30       2.8  T
   4   -191.2201760 -0.124192E-05  0.998E-04    1.30       9.3  T
   5   -191.2201761 -0.966449E-07  0.404E-04    1.30      22.9  T
   6   -191.2201761 -0.583412E-08  0.244E-04    1.30      37.8  T
   7   -191.2201761 -0.372788E-08  0.758E-05    1.30     122.0  T
   8   -191.2201761 -0.298257E-09  0.374E-05    1.30     247.2  T
     SCC iter.                  ...        0 min,  0.302 sec
     gradient                   ...        0 min,  0.370 sec
 * total energy  :  -188.2577245 Eh     change       -0.3979769E-04 Eh
   gradient norm :     0.0024572 Eh/α   predicted    -0.2671581E-04 ( -32.87%)
   displ. norm   :     0.3233254 α      lambda       -0.6490171E-04
   maximum displ.:     0.1668621 α      in ANC's #1, #4, #5, ...

........................................................................
.............................. CYCLE  171 ..............................
........................................................................

 iter      E             dE          RMSdq      gap      omega  full diag
   1   -191.2190718 -0.191219E+03  0.330E-02    1.29       0.0  T
   2   -191.2190732 -0.142349E-05  0.192E-02    1.29       1.0  T
   3   -191.2190712  0.207007E-05  0.454E-03    1.29       2.0  T
   4   -191.2190735 -0.238123E-05  0.118E-03    1.29       7.8  T
   5   -191.2190736 -0.111844E-06  0.556E-04    1.29      16.6  T
   6   -191.2190737 -0.816172E-08  0.341E-04    1.29      27.1  T
   7   -191.2190737 -0.827956E-08  0.105E-04    1.29      88.1  T
   8   -191.2190737 -0.654126E-09  0.479E-05    1.29     192.9  T
     SCC iter.                  ...        0 min,  0.343 sec
     gradient                   ...        0 min,  0.324 sec
 * total energy  :  -188.2577682 Eh     change       -0.4369198E-04 Eh
   gradient norm :     0.0041541 Eh/α   predicted    -0.3584421E-04 ( -17.96%)
   displ. norm   :     0.2194908 α      lambda       -0.8014425E-04
   maximum displ.:     0.1060129 α      in ANC's #1, #8, #7, ...

........................................................................
.............................. CYCLE  172 ..............................
........................................................................

 iter      E             dE          RMSdq      gap      omega  full diag
   1   -191.2218869 -0.191222E+03  0.266E-02    1.28       0.0  T
   2   -191.2218892 -0.226257E-05  0.154E-02    1.28       1.0  T
   3   -191.2218843  0.484233E-05  0.741E-03    1.28       1.2  T
   4   -191.2218901 -0.579094E-05  0.139E-03    1.28       6.7  T
   5   -191.2218903 -0.136736E-06  0.567E-04    1.28      16.3  T
   6   -191.2218903 -0.147469E-07  0.287E-04    1.28      32.2  T
   7   -191.2218903 -0.274372E-08  0.132E-04    1.28      70.1  T
   8   -191.2218903 -0.135967E-08  0.510E-05    1.28     181.3  T
     SCC iter.                  ...        0 min,  0.327 sec
     gradient                   ...        0 min,  0.397 sec
 * total energy  :  -188.2577854 Eh     change       -0.1718888E-04 Eh
   gradient norm :     0.0051734 Eh/α   predicted    -0.4200324E-04 ( 144.36%)
   displ. norm   :     0.2156037 α      lambda       -0.6527849E-04
   maximum displ.:     0.1213057 α      in ANC's #4, #1, #5, ...

........................................................................
.............................. CYCLE  173 ..............................
........................................................................

 iter      E             dE          RMSdq      gap      omega  full diag
   1   -191.2201750 -0.191220E+03  0.211E-02    1.28       0.0  T
   2   -191.2201758 -0.881165E-06  0.123E-02    1.28       1.0  T
   3   -191.2201750  0.872529E-06  0.325E-03    1.28       2.8  T
   4   -191.2201760 -0.101381E-05  0.868E-04    1.28      10.6  T
   5   -191.2201760 -0.682921E-07  0.320E-04    1.28      28.9  T
   6   -191.2201760  0.222258E-09  0.188E-04    1.28      49.1  T
   7   -191.2201760 -0.206117E-08  0.621E-05    1.28     149.0  T
     SCC iter.                  ...        0 min,  0.282 sec
     gradient                   ...        0 min,  0.439 sec
 * total energy  :  -188.2578277 Eh     change       -0.4226494E-04 Eh
   gradient norm :     0.0039604 Eh/α   predicted    -0.3416037E-04 ( -19.18%)
   displ. norm   :     0.1441846 α      lambda       -0.3906618E-04
   maximum displ.:     0.0753229 α      in ANC's #1, #4, #5, ...

........................................................................
.............................. CYCLE  174 ..............................
........................................................................

 iter      E             dE          RMSdq      gap      omega  full diag
   1   -191.2192671 -0.191219E+03  0.158E-02    1.27       0.0  T
   2   -191.2192679 -0.757770E-06  0.925E-03    1.27       1.0  T
   3   -191.2192665  0.134597E-05  0.412E-03    1.27       2.2  T
   4   -191.2192681 -0.160979E-05  0.811E-04    1.27      11.4  T
   5   -191.2192682 -0.480977E-07  0.295E-04    1.27      31.3  T
   6   -191.2192682 -0.248895E-08  0.173E-04    1.27      53.4  T
   7   -191.2192682 -0.772076E-09  0.857E-05    1.27     107.8  T
     SCC iter.                  ...        0 min,  0.282 sec
     gradient                   ...        0 min,  0.420 sec
 * total energy  :  -188.2578564 Eh     change       -0.2875929E-04 Eh
   gradient norm :     0.0033622 Eh/α   predicted    -0.1994293E-04 ( -30.66%)
   displ. norm   :     0.1559980 α      lambda       -0.4882408E-04
   maximum displ.:     0.0910399 α      in ANC's #1, #4, #8, ...

........................................................................
.............................. CYCLE  175 ..............................
........................................................................

 iter      E             dE          RMSdq      gap      omega  full diag
   1   -191.2201566 -0.191220E+03  0.187E-02    1.27       0.0  T
   2   -191.2201575 -0.907482E-06  0.108E-02    1.27       1.0  T
   3   -191.2201563  0.117804E-05  0.399E-03    1.27       2.3  T
   4   -191.2201577 -0.135188E-05  0.962E-04    1.27       9.6  T
   5   -191.2201578 -0.775656E-07  0.347E-04    1.27      26.7  T
   6   -191.2201578 -0.467293E-08  0.213E-04    1.27      43.4  T
   7   -191.2201578 -0.302325E-08  0.811E-05    1.27     114.0  T
   8   -191.2201578 -0.409869E-09  0.376E-05    1.27     246.2  T
     SCC iter.                  ...        0 min,  0.345 sec
     gradient                   ...        0 min,  0.440 sec
 * total energy  :  -188.2578891 Eh     change       -0.3262301E-04 Eh
   gradient norm :     0.0027210 Eh/α   predicted    -0.2500809E-04 ( -23.34%)
   displ. norm   :     0.2137372 α      lambda       -0.3124553E-04
   maximum displ.:     0.1302264 α      in ANC's #1, #8, #4, ...

........................................................................
.............................. CYCLE  176 ..............................
........................................................................

 iter      E             dE          RMSdq      gap      omega  full diag
   1   -191.2201510 -0.191220E+03  0.222E-02    1.27       0.0  T
   2   -191.2201514 -0.396592E-06  0.130E-02    1.27       1.0  T
   3   -191.2201499  0.153522E-05  0.379E-03    1.27       2.4  T
   4   -191.2201517 -0.177113E-05  0.619E-04    1.26      14.9  T
   5   -191.2201517 -0.182454E-07  0.317E-04    1.26      29.2  T
   6   -191.2201517 -0.192011E-08  0.164E-04    1.26      56.4  T
   7   -191.2201517 -0.856517E-09  0.655E-05    1.26     141.2  T
     SCC iter.                  ...        0 min,  0.294 sec
     gradient                   ...        0 min,  0.446 sec
 * total energy  :  -188.2579142 Eh     change       -0.2510663E-04 Eh
   gradient norm :     0.0030178 Eh/α   predicted    -0.1634060E-04 ( -34.92%)
   displ. norm   :     0.2684708 α      lambda       -0.4415645E-04
   maximum displ.:     0.1695594 α      in ANC's #1, #8, #4, ...

........................................................................
.............................. CYCLE  177 ..............................
........................................................................

 iter      E             dE          RMSdq      gap      omega  full diag
   1   -191.2208233 -0.191221E+03  0.269E-02    1.26       0.0  T
   2   -191.2208238 -0.458069E-06  0.158E-02    1.26       1.0  T
   3   -191.2208227  0.105902E-05  0.320E-03    1.26       2.9  T
   4   -191.2208240 -0.124592E-05  0.678E-04    1.26      13.6  T
   5   -191.2208240 -0.259174E-07  0.357E-04    1.26      25.9  T
   6   -191.2208240 -0.338676E-08  0.189E-04    1.26      48.8  T
   7   -191.2208240 -0.141205E-08  0.601E-05    1.26     153.8  T
     SCC iter.                  ...        0 min,  0.301 sec
     gradient                   ...        0 min,  0.379 sec
 * total energy  :  -188.2579491 Eh     change       -0.3491269E-04 Eh
   gradient norm :     0.0022048 Eh/α   predicted    -0.2367081E-04 ( -32.20%)
   displ. norm   :     0.3902181 α      lambda       -0.5097281E-04
   maximum displ.:     0.2464673 α      in ANC's #1, #8, #4, ...

........................................................................
.............................. CYCLE  178 ..............................
........................................................................

 iter      E             dE          RMSdq      gap      omega  full diag
   1   -191.2202676 -0.191220E+03  0.384E-02    1.26       0.0  T
   2   -191.2202688 -0.121406E-05  0.225E-02    1.26       1.0  T
   3   -191.2202653  0.351097E-05  0.567E-03    1.26       1.6  T
   4   -191.2202693 -0.403453E-05  0.110E-03    1.26       8.4  T
   5   -191.2202694 -0.728116E-07  0.536E-04    1.26      17.3  T
   6   -191.2202694 -0.588679E-08  0.289E-04    1.26      32.0  T
   7   -191.2202694 -0.285871E-08  0.965E-05    1.26      95.8  T
   8   -191.2202694 -0.645571E-09  0.407E-05    1.26     227.3  T
     SCC iter.                  ...        0 min,  0.272 sec
     gradient                   ...        0 min,  0.347 sec
 * total energy  :  -188.2579864 Eh     change       -0.3736336E-04 Eh
   gradient norm :     0.0025583 Eh/α   predicted    -0.2937010E-04 ( -21.39%)
   displ. norm   :     0.3362043 α      lambda       -0.5442844E-04
   maximum displ.:     0.2179742 α      in ANC's #1, #8, #5, ...

........................................................................
.............................. CYCLE  179 ..............................
........................................................................

 iter      E             dE          RMSdq      gap      omega  full diag
   1   -191.2209547 -0.191221E+03  0.332E-02    1.25       0.0  T
   2   -191.2209557 -0.101553E-05  0.194E-02    1.25       1.0  T
   3   -191.2209544  0.127883E-05  0.362E-03    1.26       2.6  T
   4   -191.2209559 -0.148595E-05  0.109E-03    1.25       8.5  T
   5   -191.2209560 -0.100077E-06  0.464E-04    1.26      19.9  T
   6   -191.2209560 -0.424069E-08  0.257E-04    1.26      36.0  T
   7   -191.2209560 -0.248815E-08  0.855E-05    1.26     108.2  T
   8   -191.2209560 -0.527166E-09  0.377E-05    1.26     245.2  T
     SCC iter.                  ...        0 min,  0.279 sec
     gradient                   ...        0 min,  0.365 sec
 * total energy  :  -188.2580222 Eh     change       -0.3571515E-04 Eh
   gradient norm :     0.0024578 Eh/α   predicted    -0.3029423E-04 ( -15.18%)
   displ. norm   :     0.3995889 α      lambda       -0.4315023E-04
   maximum displ.:     0.2565084 α      in ANC's #1, #8, #5, ...

........................................................................
.............................. CYCLE  180 ..............................
........................................................................

 iter      E             dE          RMSdq      gap      omega  full diag
   1   -191.2200628 -0.191220E+03  0.361E-02    1.25       0.0  T
   2   -191.2200640 -0.112476E-05  0.212E-02    1.25       1.0  T
   3   -191.2200619  0.204410E-05  0.435E-03    1.25       2.1  T
   4   -191.2200643 -0.236609E-05  0.111E-03    1.25       8.3  T
   5   -191.2200644 -0.952782E-07  0.511E-04    1.25      18.1  T
   6   -191.2200644 -0.617646E-08  0.265E-04    1.25      34.8  T
   7   -191.2200644 -0.266411E-08  0.105E-04    1.25      88.2  T
   8   -191.2200644 -0.981117E-09  0.404E-05    1.25     228.7  T
     SCC iter.                  ...        0 min,  0.266 sec
     gradient                   ...        0 min,  0.353 sec
 * total energy  :  -188.2580467 Eh     change       -0.2455322E-04 Eh
   gradient norm :     0.0040217 Eh/α   predicted    -0.2502448E-04 (   1.92%)
   displ. norm   :     0.1964725 α      lambda       -0.4106960E-04
   maximum displ.:     0.1193169 α      in ANC's #1, #3, #11, ...

........................................................................
.............................. CYCLE  181 ..............................
........................................................................

 iter      E             dE          RMSdq      gap      omega  full diag
   1   -191.2211565 -0.191221E+03  0.169E-02    1.26       0.0  T
   2   -191.2211569 -0.302836E-06  0.989E-03    1.25       1.0  T
   3   -191.2211560  0.857575E-06  0.279E-03    1.25       3.3  T
   4   -191.2211570 -0.958373E-06  0.689E-04    1.25      13.4  T
   5   -191.2211570 -0.443010E-07  0.282E-04    1.25      32.8  T
   6   -191.2211570 -0.217995E-08  0.158E-04    1.25      58.3  T
   7   -191.2211570 -0.118280E-08  0.587E-05    1.25     157.4  T
     SCC iter.                  ...        0 min,  0.285 sec
     gradient                   ...        0 min,  0.362 sec
 * total energy  :  -188.2580786 Eh     change       -0.3186351E-04 Eh
   gradient norm :     0.0026816 Eh/α   predicted    -0.2132942E-04 ( -33.06%)
   displ. norm   :     0.3091606 α      lambda       -0.5271552E-04
   maximum displ.:     0.1876607 α      in ANC's #1, #3, #5, ...

........................................................................
.............................. CYCLE  182 ..............................
........................................................................

 iter      E             dE          RMSdq      gap      omega  full diag
   1   -191.2209177 -0.191221E+03  0.246E-02    1.26       0.0  T
   2   -191.2209185 -0.721346E-06  0.145E-02    1.26       1.0  T
   3   -191.2209164  0.208100E-05  0.440E-03    1.26       2.1  T
   4   -191.2209187 -0.232422E-05  0.107E-03    1.26       8.7  T
   5   -191.2209188 -0.115589E-06  0.419E-04    1.26      22.1  T
   6   -191.2209188 -0.456450E-08  0.245E-04    1.26      37.7  T
   7   -191.2209188 -0.325571E-08  0.852E-05    1.26     108.5  T
   8   -191.2209188 -0.438689E-09  0.403E-05    1.26     229.2  T
     SCC iter.                  ...        0 min,  0.335 sec
     gradient                   ...        0 min,  0.356 sec
 * total energy  :  -188.2581149 Eh     change       -0.3631230E-04 Eh
   gradient norm :     0.0020140 Eh/α   predicted    -0.2888156E-04 ( -20.46%)
   displ. norm   :     0.2787188 α      lambda       -0.3844120E-04
   maximum displ.:     0.1670672 α      in ANC's #1, #3, #5, ...

........................................................................
.............................. CYCLE  183 ..............................
........................................................................

 iter      E             dE          RMSdq      gap      omega  full diag
   1   -191.2213517 -0.191221E+03  0.211E-02    1.26       0.0  T
   2   -191.2213523 -0.654836E-06  0.125E-02    1.26       1.0  T
   3   -191.2213501  0.227365E-05  0.453E-03    1.26       2.0  T
   4   -191.2213526 -0.254259E-05  0.101E-03    1.26       9.1  T
   5   -191.2213527 -0.107487E-06  0.352E-04    1.26      26.2  T
   6   -191.2213527 -0.438720E-08  0.203E-04    1.26      45.6  T
   7   -191.2213527 -0.184065E-08  0.822E-05    1.26     112.5  T
   8   -191.2213527 -0.471346E-09  0.347E-05    1.26     266.1  T
     SCC iter.                  ...        0 min,  0.246 sec
     gradient                   ...        0 min,  0.392 sec
 * total energy  :  -188.2581402 Eh     change       -0.2528232E-04 Eh
   gradient norm :     0.0023533 Eh/α   predicted    -0.2071891E-04 ( -18.05%)
   displ. norm   :     0.2675308 α      lambda       -0.2857059E-04
   maximum displ.:     0.1710768 α      in ANC's #1, #3, #5, ...
 * RMSD in coord.:     0.5058796 α      energy gain  -0.9931550E-03 Eh

generating ANC from exact Hessian ...
Using Lindh-Hessian (1995)
 Shifting diagonal of input Hessian by    1.0062149257483435E-002
 Lowest  eigenvalues of input Hessian
    0.010000    0.000000    0.000000    0.000000    0.000000    0.000000
    0.000000    0.010106    0.010185    0.010296    0.010347    0.010386
    0.010429    0.010519    0.010736    0.010871    0.010905    0.011020
 Highest eigenvalues
    2.145221    2.262042    2.325205    2.328260    2.446174    3.085716


........................................................................
.............................. CYCLE  184 ..............................
........................................................................

 iter      E             dE          RMSdq      gap      omega  full diag
   1   -191.2205701 -0.191221E+03  0.207E-02    1.26       0.0  T
   2   -191.2205706 -0.580199E-06  0.122E-02    1.26       1.0  T
   3   -191.2205690  0.161353E-05  0.381E-03    1.26       2.4  T
   4   -191.2205709 -0.184599E-05  0.806E-04    1.26      11.5  T
   5   -191.2205709 -0.605567E-07  0.333E-04    1.26      27.8  T
   6   -191.2205709 -0.270410E-08  0.195E-04    1.26      47.3  T
   7   -191.2205709 -0.188305E-08  0.724E-05    1.26     127.7  T
     SCC iter.                  ...        0 min,  0.259 sec
     gradient                   ...        0 min,  0.407 sec
 * total energy  :  -188.2581597 Eh     change       -0.1953754E-04 Eh
   gradient norm :     0.0024892 Eh/α   predicted     0.0000000E+00 (-100.00%)
   displ. norm   :     0.0239213 α      lambda       -0.1206630E-04
   maximum displ.:     0.0082463 α      in ANC's #29, #16, #22, ...

........................................................................
.............................. CYCLE  185 ..............................
........................................................................

 iter      E             dE          RMSdq      gap      omega  full diag
   1   -191.2213624 -0.191221E+03  0.468E-03    1.26       0.0  T
   2   -191.2213624 -0.772324E-07  0.275E-03    1.26       3.4  T
   3   -191.2213623  0.131950E-06  0.128E-03    1.26       7.2  T
   4   -191.2213625 -0.152028E-06  0.321E-04    1.26      28.8  T
   5   -191.2213625 -0.924487E-08  0.984E-05    1.26      94.0  T
   6   -191.2213625 -0.366356E-10  0.614E-05    1.26     150.7  T
     SCC iter.                  ...        0 min,  0.223 sec
     gradient                   ...        0 min,  0.380 sec
 * total energy  :  -188.2581726 Eh     change       -0.1292530E-04 Eh
   gradient norm :     0.0012978 Eh/α   predicted    -0.8142651E-05 ( -37.00%)
   displ. norm   :     0.1005179 α      lambda       -0.2218882E-04
   maximum displ.:     0.0356265 α      in ANC's #29, #16, #22, ...

........................................................................
.............................. CYCLE  186 ..............................
........................................................................

 iter      E             dE          RMSdq      gap      omega  full diag
   1   -191.2225801 -0.191223E+03  0.174E-02    1.26       0.0  T
   2   -191.2225807 -0.608760E-06  0.103E-02    1.26       1.0  T
   3   -191.2225785  0.218391E-05  0.473E-03    1.26       2.0  T
   4   -191.2225810 -0.250256E-05  0.849E-04    1.26      10.9  T
   5   -191.2225811 -0.520927E-07  0.324E-04    1.26      28.6  T
   6   -191.2225811 -0.177349E-08  0.197E-04    1.26      47.0  T
   7   -191.2225811 -0.224307E-08  0.696E-05    1.26     132.8  T
     SCC iter.                  ...        0 min,  0.248 sec
     gradient                   ...        0 min,  0.402 sec
 * total energy  :  -188.2581913 Eh     change       -0.1865573E-04 Eh
   gradient norm :     0.0022352 Eh/α   predicted    -0.1226249E-04 ( -34.27%)
   displ. norm   :     0.0362484 α      lambda       -0.9442577E-05
   maximum displ.:     0.0138203 α      in ANC's #29, #1, #3, ...

........................................................................
.............................. CYCLE  187 ..............................
........................................................................

 iter      E             dE          RMSdq      gap      omega  full diag
   1   -191.2222350 -0.191222E+03  0.553E-03    1.26       0.0  T
   2   -191.2222351 -0.289461E-07  0.327E-03    1.26       2.8  T
   3   -191.2222350  0.116613E-06  0.102E-03    1.26       9.1  T
   4   -191.2222351 -0.131855E-06  0.186E-04    1.26      49.6  T
   5   -191.2222351 -0.192009E-08  0.917E-05    1.26     100.9  T
     SCC iter.                  ...        0 min,  0.217 sec
     gradient                   ...        0 min,  0.385 sec
 * total energy  :  -188.2581999 Eh     change       -0.8624014E-05 Eh
   gradient norm :     0.0018697 Eh/α   predicted    -0.4897572E-05 ( -43.21%)
   displ. norm   :     0.2306902 α      lambda       -0.3386673E-04
   maximum displ.:     0.0891360 α      in ANC's #29, #1, #3, ...

........................................................................
.............................. CYCLE  188 ..............................
........................................................................

 iter      E             dE          RMSdq      gap      omega  full diag
   1   -191.2198935 -0.191220E+03  0.345E-02    1.25       0.0  T
   2   -191.2198945 -0.962843E-06  0.205E-02    1.25       1.0  T
   3   -191.2198924  0.210906E-05  0.415E-03    1.25       2.2  T
   4   -191.2198947 -0.238557E-05  0.117E-03    1.25       7.9  T
   5   -191.2198949 -0.119875E-06  0.570E-04    1.25      16.2  T
   6   -191.2198949 -0.682800E-08  0.341E-04    1.25      27.1  T
   7   -191.2198949 -0.626991E-08  0.103E-04    1.25      90.0  T
   8   -191.2198949 -0.796462E-09  0.437E-05    1.25     211.8  T
     SCC iter.                  ...        0 min,  0.340 sec
     gradient                   ...        0 min,  0.364 sec
 * total energy  :  -188.2582136 Eh     change       -0.1367361E-04 Eh
   gradient norm :     0.0028797 Eh/α   predicted    -0.1735117E-04 (  26.90%)
   displ. norm   :     0.0327664 α      lambda       -0.1228824E-04
   maximum displ.:     0.0121479 α      in ANC's #29, #16, #22, ...

........................................................................
.............................. CYCLE  189 ..............................
........................................................................

 iter      E             dE          RMSdq      gap      omega  full diag
   1   -191.2207302 -0.191221E+03  0.625E-03    1.25       0.0  T
   2   -191.2207303 -0.818187E-07  0.371E-03    1.25       2.5  T
   3   -191.2207300  0.293508E-06  0.170E-03    1.25       5.5  T
   4   -191.2207303 -0.336851E-06  0.284E-04    1.25      32.6  T
   5   -191.2207304 -0.500299E-08  0.119E-04    1.25      77.9  T
   6   -191.2207304 -0.266823E-09  0.692E-05    1.25     133.7  T
     SCC iter.                  ...        0 min,  0.276 sec
     gradient                   ...        0 min,  0.397 sec
 * total energy  :  -188.2582225 Eh     change       -0.8963240E-05 Eh
   gradient norm :     0.0016511 Eh/α   predicted    -0.6151375E-05 ( -31.37%)
   displ. norm   :     0.0383166 α      lambda       -0.9984781E-05
   maximum displ.:     0.0127712 α      in ANC's #22, #1, #27, ...

........................................................................
.............................. CYCLE  190 ..............................
........................................................................

 iter      E             dE          RMSdq      gap      omega  full diag
   1   -191.2219199 -0.191222E+03  0.835E-03    1.26       0.0  T
   2   -191.2219202 -0.277072E-06  0.497E-03    1.26       1.9  T
   3   -191.2219195  0.700772E-06  0.308E-03    1.26       3.0  T
   4   -191.2219204 -0.909916E-06  0.489E-04    1.26      18.9  T
   5   -191.2219204 -0.129643E-07  0.184E-04    1.26      50.2  T
   6   -191.2219204 -0.860553E-09  0.103E-04    1.26      89.4  T
     SCC iter.                  ...        0 min,  0.242 sec
     gradient                   ...        0 min,  0.395 sec
 * total energy  :  -188.2582308 Eh     change       -0.8254580E-05 Eh
   gradient norm :     0.0007793 Eh/α   predicted    -0.5003454E-05 ( -39.39%)
   displ. norm   :     0.0663355 α      lambda       -0.5219431E-05
   maximum displ.:     0.0287832 α      in ANC's #1, #29, #3, ...

........................................................................
.............................. CYCLE  191 ..............................
........................................................................

 iter      E             dE          RMSdq      gap      omega  full diag
   1   -191.2218955 -0.191222E+03  0.782E-03    1.26       0.0  T
   2   -191.2218956 -0.599364E-07  0.464E-03    1.26       2.0  T
   3   -191.2218952  0.396350E-06  0.195E-03    1.26       4.7  T
   4   -191.2218956 -0.450906E-06  0.241E-04    1.26      38.4  T
   5   -191.2218957 -0.281699E-08  0.118E-04    1.26      78.3  T
   6   -191.2218957 -0.306642E-09  0.625E-05    1.26     148.0  T
     SCC iter.                  ...        0 min,  0.209 sec
     gradient                   ...        0 min,  0.360 sec
 * total energy  :  -188.2582379 Eh     change       -0.7068519E-05 Eh
   gradient norm :     0.0008317 Eh/α   predicted    -0.2655838E-05 ( -62.43%)
   displ. norm   :     0.2295495 α      lambda       -0.1651270E-04
   maximum displ.:     0.1004610 α      in ANC's #1, #29, #3, ...

........................................................................
.............................. CYCLE  192 ..............................
........................................................................

 iter      E             dE          RMSdq      gap      omega  full diag
   1   -191.2211777 -0.191221E+03  0.261E-02    1.26       0.0  T
   2   -191.2211781 -0.469359E-06  0.154E-02    1.26       1.0  T
   3   -191.2211753  0.279184E-05  0.511E-03    1.26       1.8  T
   4   -191.2211785 -0.317159E-05  0.677E-04    1.26      13.7  T
   5   -191.2211785 -0.165969E-07  0.377E-04    1.26      24.5  T
   6   -191.2211785 -0.371853E-08  0.191E-04    1.26      48.5  T
   7   -191.2211785 -0.153761E-08  0.739E-05    1.26     125.2  T
     SCC iter.                  ...        0 min,  0.264 sec
     gradient                   ...        0 min,  0.342 sec
 * total energy  :  -188.2582512 Eh     change       -0.1332096E-04 Eh
   gradient norm :     0.0013762 Eh/α   predicted    -0.8450530E-05 ( -36.56%)
   displ. norm   :     0.0552120 α      lambda       -0.4356375E-05
   maximum displ.:     0.0289168 α      in ANC's #1, #3, #29, ...

........................................................................
.............................. CYCLE  193 ..............................
........................................................................

 iter      E             dE          RMSdq      gap      omega  full diag
   1   -191.2214069 -0.191221E+03  0.560E-03    1.26       0.0  T
   2   -191.2214069 -0.278446E-07  0.332E-03    1.26       2.8  T
   3   -191.2214068  0.931393E-07  0.890E-04    1.26      10.4  T
   4   -191.2214069 -0.105559E-06  0.163E-04    1.26      56.7  T
   5   -191.2214069 -0.180412E-08  0.771E-05    1.26     119.8  T
     SCC iter.                  ...        0 min,  0.180 sec
     gradient                   ...        0 min,  0.374 sec
 * total energy  :  -188.2582560 Eh     change       -0.4792685E-05 Eh
   gradient norm :     0.0009793 Eh/α   predicted    -0.2182109E-05 ( -54.47%)
   displ. norm   :     0.0870157 α      lambda       -0.6280275E-05
   maximum displ.:     0.0468676 α      in ANC's #1, #3, #29, ...

........................................................................
.............................. CYCLE  194 ..............................
........................................................................

 iter      E             dE          RMSdq      gap      omega  full diag
   1   -191.2219941 -0.191222E+03  0.847E-03    1.27       0.0  T
   2   -191.2219942 -0.981351E-07  0.501E-03    1.27       1.8  T
   3   -191.2219938  0.350418E-06  0.186E-03    1.27       5.0  T
   4   -191.2219942 -0.390856E-06  0.342E-04    1.27      27.0  T
   5   -191.2219942 -0.102741E-07  0.123E-04    1.27      75.3  T
   6   -191.2219942 -0.244995E-09  0.718E-05    1.27     128.8  T
     SCC iter.                  ...        0 min,  0.219 sec
     gradient                   ...        0 min,  0.336 sec
 * total energy  :  -188.2582626 Eh     change       -0.6567327E-05 Eh
   gradient norm :     0.0007161 Eh/α   predicted    -0.3154752E-05 ( -51.96%)
   displ. norm   :     0.1244585 α      lambda       -0.5524027E-05
   maximum displ.:     0.0664498 α      in ANC's #1, #3, #29, ...

........................................................................
.............................. CYCLE  195 ..............................
........................................................................

 iter      E             dE          RMSdq      gap      omega  full diag
   1   -191.2219340 -0.191222E+03  0.107E-02    1.27       0.0  T
   2   -191.2219341 -0.106562E-06  0.635E-03    1.27       1.5  T
   3   -191.2219335  0.627929E-06  0.240E-03    1.27       3.9  T
   4   -191.2219342 -0.705418E-06  0.316E-04    1.27      29.3  T
   5   -191.2219342 -0.628697E-08  0.144E-04    1.27      64.3  T
   6   -191.2219342 -0.501103E-09  0.802E-05    1.27     115.3  T
     SCC iter.                  ...        0 min,  0.234 sec
     gradient                   ...        0 min,  0.375 sec
 * total energy  :  -188.2582689 Eh     change       -0.6348647E-05 Eh
   gradient norm :     0.0007347 Eh/α   predicted    -0.2782755E-05 ( -56.17%)
   displ. norm   :     0.1197273 α      lambda       -0.5252108E-05
   maximum displ.:     0.0668186 α      in ANC's #1, #3, #5, ...

........................................................................
.............................. CYCLE  196 ..............................
........................................................................

 iter      E             dE          RMSdq      gap      omega  full diag
   1   -191.2217693 -0.191222E+03  0.103E-02    1.27       0.0  T
   2   -191.2217694 -0.794506E-07  0.607E-03    1.27       1.5  T
   3   -191.2217689  0.504913E-06  0.211E-03    1.27       4.4  T
   4   -191.2217694 -0.565187E-06  0.277E-04    1.27      33.4  T
   5   -191.2217694 -0.430441E-08  0.132E-04    1.27      69.9  T
   6   -191.2217694 -0.388127E-09  0.706E-05    1.27     131.0  T
     SCC iter.                  ...        0 min,  0.249 sec
     gradient                   ...        0 min,  0.358 sec
 * total energy  :  -188.2582750 Eh     change       -0.6126977E-05 Eh
   gradient norm :     0.0008135 Eh/α   predicted    -0.2644786E-05 ( -56.83%)
   displ. norm   :     0.1045647 α      lambda       -0.4538155E-05
   maximum displ.:     0.0602714 α      in ANC's #1, #5, #3, ...

........................................................................
.............................. CYCLE  197 ..............................
........................................................................

 iter      E             dE          RMSdq      gap      omega  full diag
   1   -191.2216402 -0.191222E+03  0.935E-03    1.27       0.0  T
   2   -191.2216403 -0.569202E-07  0.549E-03    1.27       1.7  T
   3   -191.2216400  0.255486E-06  0.147E-03    1.27       6.3  T
   4   -191.2216403 -0.287939E-06  0.254E-04    1.27      36.4  T
   5   -191.2216403 -0.439701E-08  0.116E-04    1.27      79.4  T
   6   -191.2216403 -0.346688E-09  0.643E-05    1.27     143.9  T
     SCC iter.                  ...        0 min,  0.239 sec
     gradient                   ...        0 min,  0.392 sec
 * total energy  :  -188.2582803 Eh     change       -0.5243702E-05 Eh
   gradient norm :     0.0007074 Eh/α   predicted    -0.2282485E-05 ( -56.47%)
   displ. norm   :     0.0801532 α      lambda       -0.3344292E-05
   maximum displ.:     0.0483810 α      in ANC's #1, #5, #4, ...

........................................................................
.............................. CYCLE  198 ..............................
........................................................................

 iter      E             dE          RMSdq      gap      omega  full diag
   1   -191.2216272 -0.191222E+03  0.753E-03    1.27       0.0  T
   2   -191.2216273 -0.580542E-07  0.444E-03    1.27       2.1  T
   3   -191.2216271  0.169643E-06  0.128E-03    1.27       7.2  T
   4   -191.2216273 -0.194734E-06  0.224E-04    1.27      41.3  T
   5   -191.2216273 -0.416605E-08  0.848E-05    1.27     109.0  T
   6   -191.2216273 -0.837872E-10  0.505E-05    1.27     183.1  T
     SCC iter.                  ...        0 min,  0.228 sec
     gradient                   ...        0 min,  0.336 sec
 * total energy  :  -188.2582841 Eh     change       -0.3796033E-05 Eh
   gradient norm :     0.0004870 Eh/α   predicted    -0.1678386E-05 ( -55.79%)
   displ. norm   :     0.0582356 α      lambda       -0.2286145E-05
   maximum displ.:     0.0373153 α      in ANC's #1, #2, #4, ...

........................................................................
.............................. CYCLE  199 ..............................
........................................................................

 iter      E             dE          RMSdq      gap      omega  full diag
   1   -191.2215431 -0.191222E+03  0.540E-03    1.27       0.0  T
   2   -191.2215432 -0.465281E-07  0.322E-03    1.27       2.9  T
   3   -191.2215430  0.143756E-06  0.122E-03    1.27       7.6  T
   4   -191.2215432 -0.166009E-06  0.219E-04    1.27      42.3  T
   5   -191.2215432 -0.395968E-08  0.739E-05    1.27     125.1  T
   6   -191.2215432 -0.635794E-10  0.447E-05    1.27     206.8  T
     SCC iter.                  ...        0 min,  0.200 sec
     gradient                   ...        0 min,  0.365 sec
 * total energy  :  -188.2582867 Eh     change       -0.2588168E-05 Eh
   gradient norm :     0.0004016 Eh/α   predicted    -0.1148274E-05 ( -55.63%)
   displ. norm   :     0.0469904 α      lambda       -0.2061114E-05
   maximum displ.:     0.0298001 α      in ANC's #1, #2, #4, ...

........................................................................
.............................. CYCLE  200 ..............................
........................................................................

 iter      E             dE          RMSdq      gap      omega  full diag
   1   -191.2217392 -0.191222E+03  0.509E-03    1.27       0.0  T
   2   -191.2217393 -0.405393E-07  0.302E-03    1.27       3.1  T
   3   -191.2217392  0.110026E-06  0.993E-04    1.27       9.3  T
   4   -191.2217393 -0.124001E-06  0.231E-04    1.27      40.1  T
   5   -191.2217393 -0.491957E-08  0.819E-05    1.27     112.8  T
   6   -191.2217393 -0.547118E-10  0.539E-05    1.27     171.4  T
     SCC iter.                  ...        0 min,  0.246 sec
     gradient                   ...        0 min,  0.329 sec
 * total energy  :  -188.2582888 Eh     change       -0.2185673E-05 Eh
   gradient norm :     0.0005235 Eh/α   predicted    -0.1033125E-05 ( -52.73%)
   displ. norm   :     0.0427415 α      lambda       -0.1823756E-05
   maximum displ.:     0.0276744 α      in ANC's #1, #2, #16, ...

........................................................................
.............................. CYCLE  201 ..............................
........................................................................

 iter      E             dE          RMSdq      gap      omega  full diag
   1   -191.2217351 -0.191222E+03  0.457E-03    1.27       0.0  T
   2   -191.2217351 -0.311565E-07  0.272E-03    1.27       3.4  T
   3   -191.2217350  0.109555E-06  0.913E-04    1.27      10.1  T
   4   -191.2217351 -0.122267E-06  0.217E-04    1.27      42.7  T
   5   -191.2217351 -0.450942E-08  0.813E-05    1.27     113.7  T
   6   -191.2217351 -0.164704E-09  0.504E-05    1.27     183.5  T
     SCC iter.                  ...        0 min,  0.195 sec
     gradient                   ...        0 min,  0.368 sec
 * total energy  :  -188.2582910 Eh     change       -0.2177304E-05 Eh
   gradient norm :     0.0004753 Eh/α   predicted    -0.9167980E-06 ( -57.89%)
   displ. norm   :     0.0460492 α      lambda       -0.1792921E-05
   maximum displ.:     0.0302695 α      in ANC's #1, #2, #18, ...

........................................................................
.............................. CYCLE  202 ..............................
........................................................................

 iter      E             dE          RMSdq      gap      omega  full diag
   1   -191.2217754 -0.191222E+03  0.469E-03    1.27       0.0  T
   2   -191.2217754 -0.299554E-07  0.278E-03    1.27       3.3  T
   3   -191.2217753  0.133047E-06  0.103E-03    1.27       9.0  T
   4   -191.2217754 -0.150654E-06  0.182E-04    1.27      50.9  T
   5   -191.2217754 -0.276378E-08  0.774E-05    1.27     119.4  T
     SCC iter.                  ...        0 min,  0.165 sec
     gradient                   ...        0 min,  0.367 sec
 * total energy  :  -188.2582932 Eh     change       -0.2219468E-05 Eh
   gradient norm :     0.0003897 Eh/α   predicted    -0.9004320E-06 ( -59.43%)
   displ. norm   :     0.0490644 α      lambda       -0.1751379E-05
   maximum displ.:     0.0327477 α      in ANC's #1, #2, #18, ...

........................................................................
.............................. CYCLE  203 ..............................
........................................................................

 iter      E             dE          RMSdq      gap      omega  full diag
   1   -191.2218390 -0.191222E+03  0.465E-03    1.27       0.0  T
   2   -191.2218390 -0.300303E-07  0.274E-03    1.27       3.4  T
   3   -191.2218389  0.138480E-06  0.111E-03    1.27       8.3  T
   4   -191.2218390 -0.159007E-06  0.149E-04    1.27      62.1  T
   5   -191.2218390 -0.174066E-08  0.664E-05    1.27     139.1  T
     SCC iter.                  ...        0 min,  0.162 sec
     gradient                   ...        0 min,  0.319 sec
 * total energy  :  -188.2582954 Eh     change       -0.2167284E-05 Eh
   gradient norm :     0.0003490 Eh/α   predicted    -0.8779064E-06 ( -59.49%)
   displ. norm   :     0.0507584 α      lambda       -0.1668289E-05
   maximum displ.:     0.0341005 α      in ANC's #1, #2, #8, ...

........................................................................
.............................. CYCLE  204 ..............................
........................................................................

 iter      E             dE          RMSdq      gap      omega  full diag
   1   -191.2218675 -0.191222E+03  0.463E-03    1.27       0.0  T
   2   -191.2218675 -0.192199E-07  0.272E-03    1.27       3.4  T
   3   -191.2218674  0.924053E-07  0.885E-04    1.27      10.4  T
   4   -191.2218675 -0.104853E-06  0.125E-04    1.27      73.9  T
   5   -191.2218675 -0.113408E-08  0.579E-05    1.27     159.7  T
     SCC iter.                  ...        0 min,  0.113 sec
     gradient                   ...        0 min,  0.296 sec
 * total energy  :  -188.2582976 Eh     change       -0.2167475E-05 Eh
   gradient norm :     0.0003880 Eh/α   predicted    -0.8389385E-06 ( -61.29%)
   displ. norm   :     0.0585785 α      lambda       -0.1955094E-05
   maximum displ.:     0.0393058 α      in ANC's #1, #2, #8, ...

........................................................................
.............................. CYCLE  205 ..............................
........................................................................

 iter      E             dE          RMSdq      gap      omega  full diag
   1   -191.2218625 -0.191222E+03  0.534E-03    1.27       0.0  T
   2   -191.2218625 -0.153464E-07  0.312E-03    1.27       3.0  T
   3   -191.2218625  0.725020E-07  0.734E-04    1.27      12.6  T
   4   -191.2218626 -0.822930E-07  0.128E-04    1.27      72.1  T
   5   -191.2218626 -0.946869E-09  0.626E-05    1.27     147.7  T
     SCC iter.                  ...        0 min,  0.149 sec
     gradient                   ...        0 min,  0.319 sec
 * total energy  :  -188.2583002 Eh     change       -0.2601128E-05 Eh
   gradient norm :     0.0004230 Eh/α   predicted    -0.9830723E-06 ( -62.21%)
   displ. norm   :     0.0769853 α      lambda       -0.2574579E-05
   maximum displ.:     0.0518821 α      in ANC's #1, #2, #8, ...

........................................................................
.............................. CYCLE  206 ..............................
........................................................................

 iter      E             dE          RMSdq      gap      omega  full diag
   1   -191.2218560 -0.191222E+03  0.710E-03    1.27       0.0  T
   2   -191.2218560 -0.206901E-07  0.415E-03    1.27       2.2  T
   3   -191.2218559  0.127016E-06  0.978E-04    1.27       9.4  T
   4   -191.2218560 -0.143694E-06  0.159E-04    1.27      58.3  T
   5   -191.2218560 -0.884484E-09  0.817E-05    1.27     113.1  T
     SCC iter.                  ...        0 min,  0.156 sec
     gradient                   ...        0 min,  0.293 sec
 * total energy  :  -188.2583036 Eh     change       -0.3401070E-05 Eh
   gradient norm :     0.0004428 Eh/α   predicted    -0.1292407E-05 ( -62.00%)
   displ. norm   :     0.0930651 α      lambda       -0.2940214E-05
   maximum displ.:     0.0630806 α      in ANC's #1, #2, #8, ...

........................................................................
.............................. CYCLE  207 ..............................
........................................................................

 iter      E             dE          RMSdq      gap      omega  full diag
   1   -191.2218139 -0.191222E+03  0.852E-03    1.27       0.0  T
   2   -191.2218139 -0.295755E-07  0.501E-03    1.27       1.8  T
   3   -191.2218137  0.234870E-06  0.135E-03    1.27       6.8  T
   4   -191.2218139 -0.264302E-06  0.172E-04    1.27      53.6  T
   5   -191.2218139 -0.933852E-09  0.968E-05    1.27      95.6  T
   6   -191.2218139 -0.231665E-09  0.472E-05    1.27     195.7  T
     SCC iter.                  ...        0 min,  0.177 sec
     gradient                   ...        0 min,  0.387 sec
 * total energy  :  -188.2583074 Eh     change       -0.3874870E-05 Eh
   gradient norm :     0.0004474 Eh/α   predicted    -0.1476978E-05 ( -61.88%)
   displ. norm   :     0.1020511 α      lambda       -0.3022843E-05
   maximum displ.:     0.0696208 α      in ANC's #1, #2, #8, ...

........................................................................
.............................. CYCLE  208 ..............................
........................................................................

 iter      E             dE          RMSdq      gap      omega  full diag
   1   -191.2217814 -0.191222E+03  0.922E-03    1.26       0.0  T
   2   -191.2217814 -0.343366E-07  0.543E-03    1.26       1.7  T
   3   -191.2217811  0.292257E-06  0.152E-03    1.26       6.1  T
   4   -191.2217814 -0.327403E-06  0.180E-04    1.26      51.5  T
   5   -191.2217814 -0.147304E-08  0.102E-04    1.26      90.3  T
   6   -191.2217814 -0.294875E-09  0.520E-05    1.26     177.6  T
     SCC iter.                  ...        0 min,  0.195 sec
     gradient                   ...        0 min,  0.314 sec
 * total energy  :  -188.2583114 Eh     change       -0.3981785E-05 Eh
   gradient norm :     0.0004343 Eh/α   predicted    -0.1521279E-05 ( -61.79%)
   displ. norm   :     0.1096794 α      lambda       -0.3075857E-05
   maximum displ.:     0.0753086 α      in ANC's #1, #2, #8, ...

........................................................................
.............................. CYCLE  209 ..............................
........................................................................

 iter      E             dE          RMSdq      gap      omega  full diag
   1   -191.2217559 -0.191222E+03  0.979E-03    1.26       0.0  T
   2   -191.2217559 -0.346478E-07  0.577E-03    1.26       1.6  T
   3   -191.2217557  0.236164E-06  0.134E-03    1.26       6.9  T
   4   -191.2217560 -0.266157E-06  0.183E-04    1.26      50.6  T
   5   -191.2217560 -0.151948E-08  0.108E-04    1.26      85.6  T
   6   -191.2217560 -0.342567E-09  0.547E-05    1.26     168.9  T
     SCC iter.                  ...        0 min,  0.175 sec
     gradient                   ...        0 min,  0.309 sec
 * total energy  :  -188.2583155 Eh     change       -0.4105837E-05 Eh
   gradient norm :     0.0004128 Eh/α   predicted    -0.1548147E-05 ( -62.29%)
   displ. norm   :     0.1152830 α      lambda       -0.3171920E-05
   maximum displ.:     0.0795641 α      in ANC's #1, #2, #3, ...

........................................................................
.............................. CYCLE  210 ..............................
........................................................................

 iter      E             dE          RMSdq      gap      omega  full diag
   1   -191.2217534 -0.191222E+03  0.102E-02    1.26       0.0  T
   2   -191.2217534 -0.350783E-07  0.603E-03    1.26       1.5  T
   3   -191.2217533  0.150219E-06  0.105E-03    1.26       8.8  T
   4   -191.2217534 -0.172933E-06  0.186E-04    1.26      49.6  T
   5   -191.2217534 -0.146659E-08  0.114E-04    1.26      81.3  T
     SCC iter.                  ...        0 min,  0.148 sec
     gradient                   ...        0 min,  0.318 sec
 * total energy  :  -188.2583198 Eh     change       -0.4286905E-05 Eh
   gradient norm :     0.0003743 Eh/α   predicted    -0.1596646E-05 ( -62.76%)
   displ. norm   :     0.1246826 α      lambda       -0.3434848E-05
   maximum displ.:     0.0862619 α      in ANC's #1, #2, #3, ...

........................................................................
.............................. CYCLE  211 ..............................
........................................................................

 iter      E             dE          RMSdq      gap      omega  full diag
   1   -191.2217692 -0.191222E+03  0.110E-02    1.26       0.0  T
   2   -191.2217692 -0.411682E-07  0.646E-03    1.26       1.4  T
   3   -191.2217691  0.127863E-06  0.998E-04    1.26       9.3  T
   4   -191.2217693 -0.151037E-06  0.200E-04    1.26      46.3  T
   5   -191.2217693 -0.147884E-08  0.114E-04    1.26      81.2  T
     SCC iter.                  ...        0 min,  0.177 sec
     gradient                   ...        0 min,  0.331 sec
 * total energy  :  -188.2583245 Eh     change       -0.4699785E-05 Eh
   gradient norm :     0.0003565 Eh/α   predicted    -0.1731920E-05 ( -63.15%)
   displ. norm   :     0.1424641 α      lambda       -0.3915849E-05
   maximum displ.:     0.0985644 α      in ANC's #1, #2, #3, ...

........................................................................
.............................. CYCLE  212 ..............................
........................................................................

 iter      E             dE          RMSdq      gap      omega  full diag
   1   -191.2217733 -0.191222E+03  0.124E-02    1.26       0.0  T
   2   -191.2217734 -0.554928E-07  0.731E-03    1.26       1.3  T
   3   -191.2217732  0.186781E-06  0.125E-03    1.26       7.4  T
   4   -191.2217734 -0.217534E-06  0.250E-04    1.26      37.0  T
   5   -191.2217734 -0.282452E-08  0.135E-04    1.26      68.3  T
   6   -191.2217734 -0.295842E-09  0.666E-05    1.26     138.8  T
     SCC iter.                  ...        0 min,  0.198 sec
     gradient                   ...        0 min,  0.325 sec
 * total energy  :  -188.2583299 Eh     change       -0.5407539E-05 Eh
   gradient norm :     0.0003923 Eh/α   predicted    -0.1980357E-05 ( -63.38%)
   displ. norm   :     0.1671136 α      lambda       -0.4603058E-05
   maximum displ.:     0.1153986 α      in ANC's #1, #2, #3, ...

........................................................................
.............................. CYCLE  213 ..............................
........................................................................

 iter      E             dE          RMSdq      gap      omega  full diag
   1   -191.2217645 -0.191222E+03  0.143E-02    1.26       0.0  T
   2   -191.2217646 -0.713794E-07  0.838E-03    1.26       1.1  T
   3   -191.2217643  0.264680E-06  0.151E-03    1.26       6.1  T
   4   -191.2217646 -0.304857E-06  0.297E-04    1.26      31.1  T
   5   -191.2217646 -0.473278E-08  0.152E-04    1.26      60.6  T
   6   -191.2217646 -0.301611E-09  0.771E-05    1.26     119.9  T
     SCC iter.                  ...        0 min,  0.175 sec
     gradient                   ...        0 min,  0.308 sec
 * total energy  :  -188.2583363 Eh     change       -0.6323828E-05 Eh
   gradient norm :     0.0004725 Eh/α   predicted    -0.2334472E-05 ( -63.08%)
   displ. norm   :     0.2074416 α      lambda       -0.5532268E-05
   maximum displ.:     0.1432433 α      in ANC's #1, #2, #3, ...

........................................................................
.............................. CYCLE  214 ..............................
........................................................................

 iter      E             dE          RMSdq      gap      omega  full diag
   1   -191.2217371 -0.191222E+03  0.175E-02    1.26       0.0  T
   2   -191.2217372 -0.105627E-06  0.103E-02    1.26       1.0  T
   3   -191.2217368  0.460603E-06  0.199E-03    1.26       4.7  T
   4   -191.2217373 -0.524738E-06  0.367E-04    1.26      25.2  T
   5   -191.2217373 -0.773358E-08  0.183E-04    1.26      50.5  T
   6   -191.2217373 -0.417629E-09  0.953E-05    1.26      97.0  T
     SCC iter.                  ...        0 min,  0.170 sec
     gradient                   ...        0 min,  0.296 sec
 * total energy  :  -188.2583439 Eh     change       -0.7634719E-05 Eh
   gradient norm :     0.0005203 Eh/α   predicted    -0.2822887E-05 ( -63.03%)
   displ. norm   :     0.2266054 α      lambda       -0.5946084E-05
   maximum displ.:     0.1561078 α      in ANC's #1, #2, #3, ...

........................................................................
.............................. CYCLE  215 ..............................
........................................................................

 iter      E             dE          RMSdq      gap      omega  full diag
   1   -191.2217194 -0.191222E+03  0.187E-02    1.26       0.0  T
   2   -191.2217195 -0.117713E-06  0.110E-02    1.26       1.0  T
   3   -191.2217190  0.498501E-06  0.206E-03    1.26       4.5  T
   4   -191.2217196 -0.567705E-06  0.399E-04    1.26      23.2  T
   5   -191.2217196 -0.988135E-08  0.194E-04    1.26      47.6  T
   6   -191.2217196 -0.494538E-09  0.104E-04    1.26      88.8  T
     SCC iter.                  ...        0 min,  0.176 sec
     gradient                   ...        0 min,  0.252 sec
 * total energy  :  -188.2583520 Eh     change       -0.8122698E-05 Eh
   gradient norm :     0.0004962 Eh/α   predicted    -0.3044209E-05 ( -62.52%)
   displ. norm   :     0.2640463 α      lambda       -0.6608738E-05
   maximum displ.:     0.1822447 α      in ANC's #1, #2, #3, ...

........................................................................
.............................. CYCLE  216 ..............................
........................................................................

 iter      E             dE          RMSdq      gap      omega  full diag
   1   -191.2216929 -0.191222E+03  0.215E-02    1.26       0.0  T
   2   -191.2216931 -0.146582E-06  0.126E-02    1.26       1.0  T
   3   -191.2216926  0.525255E-06  0.211E-03    1.26       4.4  T
   4   -191.2216932 -0.602613E-06  0.455E-04    1.26      20.3  T
   5   -191.2216932 -0.136687E-07  0.219E-04    1.26      42.2  T
   6   -191.2216932 -0.653671E-09  0.119E-04    1.26      77.7  T
   7   -191.2216932 -0.732598E-09  0.379E-05    1.26     243.8  T
     SCC iter.                  ...        0 min,  0.200 sec
     gradient                   ...        0 min,  0.331 sec
 * total energy  :  -188.2583610 Eh     change       -0.8943462E-05 Eh
   gradient norm :     0.0004153 Eh/α   predicted    -0.3410069E-05 ( -61.87%)
   displ. norm   :     0.2478474 α      lambda       -0.6016241E-05
   maximum displ.:     0.1713910 α      in ANC's #1, #2, #3, ...

........................................................................
.............................. CYCLE  217 ..............................
........................................................................

 iter      E             dE          RMSdq      gap      omega  full diag
   1   -191.2217259 -0.191222E+03  0.199E-02    1.26       0.0  T
   2   -191.2217260 -0.118459E-06  0.117E-02    1.26       1.0  T
   3   -191.2217257  0.361896E-06  0.175E-03    1.26       5.3  T
   4   -191.2217261 -0.421861E-06  0.401E-04    1.26      23.0  T
   5   -191.2217261 -0.101190E-07  0.198E-04    1.26      46.7  T
   6   -191.2217261 -0.552262E-09  0.107E-04    1.26      86.7  T
     SCC iter.                  ...        0 min,  0.195 sec
     gradient                   ...        0 min,  0.317 sec
 * total energy  :  -188.2583692 Eh     change       -0.8201516E-05 Eh
   gradient norm :     0.0003144 Eh/α   predicted    -0.3092989E-05 ( -62.29%)
   displ. norm   :     0.2419820 α      lambda       -0.5839936E-05
   maximum displ.:     0.1676208 α      in ANC's #1, #2, #3, ...

........................................................................
.............................. CYCLE  218 ..............................
........................................................................

 iter      E             dE          RMSdq      gap      omega  full diag
   1   -191.2217809 -0.191222E+03  0.191E-02    1.26       0.0  T
   2   -191.2217811 -0.103669E-06  0.112E-02    1.26       1.0  T
   3   -191.2217808  0.245738E-06  0.144E-03    1.26       6.4  T
   4   -191.2217811 -0.293654E-06  0.363E-04    1.26      25.5  T
   5   -191.2217811 -0.823223E-08  0.186E-04    1.26      49.7  T
   6   -191.2217811 -0.489138E-09  0.103E-04    1.26      90.2  T
     SCC iter.                  ...        0 min,  0.196 sec
     gradient                   ...        0 min,  0.293 sec
 * total energy  :  -188.2583772 Eh     change       -0.8057313E-05 Eh
   gradient norm :     0.0002732 Eh/α   predicted    -0.2999669E-05 ( -62.77%)
   displ. norm   :     0.2459892 α      lambda       -0.5925837E-05
   maximum displ.:     0.1708031 α      in ANC's #1, #2, #3, ...

........................................................................
.............................. CYCLE  219 ..............................
........................................................................

 iter      E             dE          RMSdq      gap      omega  full diag
   1   -191.2218054 -0.191222E+03  0.191E-02    1.26       0.0  T
   2   -191.2218055 -0.101552E-06  0.112E-02    1.26       1.0  T
   3   -191.2218052  0.219882E-06  0.136E-03    1.26       6.8  T
   4   -191.2218055 -0.268454E-06  0.332E-04    1.26      27.9  T
   5   -191.2218055 -0.590001E-08  0.179E-04    1.26      51.6  T
   6   -191.2218055 -0.310791E-09  0.100E-04    1.26      92.1  T
     SCC iter.                  ...        0 min,  0.149 sec
     gradient                   ...        0 min,  0.286 sec
 * total energy  :  -188.2583854 Eh     change       -0.8189278E-05 Eh
   gradient norm :     0.0003128 Eh/α   predicted    -0.3043657E-05 ( -62.83%)
   displ. norm   :     0.2415601 α      lambda       -0.5783015E-05
   maximum displ.:     0.1680718 α      in ANC's #1, #2, #3, ...
 * RMSD in coord.:     0.2730268 α      energy gain  -0.2452360E-03 Eh

generating ANC from exact Hessian ...
Using Lindh-Hessian (1995)
 Shifting diagonal of input Hessian by    1.0061094326574566E-002
 Lowest  eigenvalues of input Hessian
    0.010000    0.000000    0.000000    0.000000    0.000000    0.000000
    0.000000    0.010104    0.010183    0.010283    0.010344    0.010383
    0.010425    0.010517    0.010735    0.010878    0.010895    0.011008
 Highest eigenvalues
    2.145439    2.260931    2.325146    2.328269    2.449150    3.079688


........................................................................
.............................. CYCLE  220 ..............................
........................................................................

 iter      E             dE          RMSdq      gap      omega  full diag
   1   -191.2218364 -0.191222E+03  0.184E-02    1.26       0.0  T
   2   -191.2218365 -0.100086E-06  0.108E-02    1.25       1.0  T
   3   -191.2218363  0.235947E-06  0.138E-03    1.26       6.7  T
   4   -191.2218366 -0.286445E-06  0.309E-04    1.25      29.9  T
   5   -191.2218366 -0.474017E-08  0.169E-04    1.25      54.8  T
   6   -191.2218366 -0.202647E-10  0.942E-05    1.25      98.1  T
     SCC iter.                  ...        0 min,  0.169 sec
     gradient                   ...        0 min,  0.284 sec
 * total energy  :  -188.2583934 Eh     change       -0.7983966E-05 Eh
   gradient norm :     0.0003525 Eh/α   predicted     0.0000000E+00 (-100.00%)
   displ. norm   :     0.0123457 α      lambda       -0.4680502E-06
   maximum displ.:     0.0061245 α      in ANC's #1, #16, #3, ...

........................................................................
.............................. CYCLE  221 ..............................
........................................................................

 iter      E             dE          RMSdq      gap      omega  full diag
   1   -191.2220063 -0.191222E+03  0.160E-03    1.25       0.0  T
   2   -191.2220063 -0.297379E-08  0.935E-04    1.25       9.9  T
   3   -191.2220063  0.735676E-08  0.256E-04    1.25      36.1  T
   4   -191.2220063 -0.836849E-08  0.634E-05    1.25     145.8  T
   5   -191.2220063 -0.256620E-09  0.251E-05    1.25     367.8  T
     SCC iter.                  ...        0 min,  0.122 sec
     gradient                   ...        0 min,  0.289 sec
 * total energy  :  -188.2583946 Eh     change       -0.1226360E-05 Eh
   gradient norm :     0.0002411 Eh/α   predicted    -0.4528501E-06 ( -63.07%)
   displ. norm   :     0.0718091 α      lambda       -0.4393768E-05
   maximum displ.:     0.0331335 α      in ANC's #1, #16, #3, ...

........................................................................
.............................. CYCLE  222 ..............................
........................................................................

 iter      E             dE          RMSdq      gap      omega  full diag
   1   -191.2222513 -0.191222E+03  0.884E-03    1.26       0.0  T
   2   -191.2222513 -0.832226E-07  0.515E-03    1.25       1.8  T
   3   -191.2222510  0.329904E-06  0.167E-03    1.26       5.5  T
   4   -191.2222514 -0.373628E-06  0.328E-04    1.25      28.2  T
   5   -191.2222514 -0.593036E-08  0.149E-04    1.25      61.9  T
   6   -191.2222514 -0.437836E-09  0.864E-05    1.25     107.0  T
     SCC iter.                  ...        0 min,  0.199 sec
     gradient                   ...        0 min,  0.341 sec
 * total energy  :  -188.2583990 Eh     change       -0.4403532E-05 Eh
   gradient norm :     0.0003829 Eh/α   predicted    -0.2202930E-05 ( -49.97%)
   displ. norm   :     0.0487491 α      lambda       -0.1551388E-05
   maximum displ.:     0.0249605 α      in ANC's #1, #16, #5, ...

........................................................................
.............................. CYCLE  223 ..............................
........................................................................

 iter      E             dE          RMSdq      gap      omega  full diag
   1   -191.2220486 -0.191222E+03  0.544E-03    1.26       0.0  T
   2   -191.2220486 -0.235318E-07  0.320E-03    1.25       2.9  T
   3   -191.2220485  0.144071E-06  0.109E-03    1.26       8.5  T
   4   -191.2220487 -0.161640E-06  0.173E-04    1.25      53.5  T
   5   -191.2220487 -0.177494E-08  0.840E-05    1.25     110.0  T
     SCC iter.                  ...        0 min,  0.150 sec
     gradient                   ...        0 min,  0.277 sec
 * total energy  :  -188.2584006 Eh     change       -0.1630292E-05 Eh
   gradient norm :     0.0004948 Eh/α   predicted    -0.7766391E-06 ( -52.36%)
   displ. norm   :     0.0391121 α      lambda       -0.1146544E-05
   maximum displ.:     0.0217739 α      in ANC's #1, #5, #16, ...

........................................................................
.............................. CYCLE  224 ..............................
........................................................................

 iter      E             dE          RMSdq      gap      omega  full diag
   1   -191.2219932 -0.191222E+03  0.408E-03    1.26       0.0  T
   2   -191.2219932 -0.127385E-07  0.243E-03    1.26       3.8  T
   3   -191.2219931  0.895911E-07  0.864E-04    1.26      10.7  T
   4   -191.2219932 -0.100426E-06  0.119E-04    1.26      77.6  T
   5   -191.2219932 -0.100795E-08  0.519E-05    1.26     178.1  T
     SCC iter.                  ...        0 min,  0.149 sec
     gradient                   ...        0 min,  0.275 sec
 * total energy  :  -188.2584020 Eh     change       -0.1394385E-05 Eh
   gradient norm :     0.0004402 Eh/α   predicted    -0.5738601E-06 ( -58.84%)
   displ. norm   :     0.0497686 α      lambda       -0.1701465E-05
   maximum displ.:     0.0293580 α      in ANC's #1, #5, #3, ...

........................................................................
.............................. CYCLE  225 ..............................
........................................................................

 iter      E             dE          RMSdq      gap      omega  full diag
   1   -191.2218806 -0.191222E+03  0.535E-03    1.26       0.0  T
   2   -191.2218807 -0.259135E-07  0.318E-03    1.26       2.9  T
   3   -191.2218806  0.766361E-07  0.844E-04    1.26      11.0  T
   4   -191.2218807 -0.856165E-07  0.201E-04    1.26      45.9  T
   5   -191.2218807 -0.348274E-08  0.808E-05    1.26     114.4  T
   6   -191.2218807 -0.881641E-10  0.447E-05    1.26     206.9  T
     SCC iter.                  ...        0 min,  0.181 sec
     gradient                   ...        0 min,  0.333 sec
 * total energy  :  -188.2584039 Eh     change       -0.1875672E-05 Eh
   gradient norm :     0.0002614 Eh/α   predicted    -0.8521421E-06 ( -54.57%)
   displ. norm   :     0.0440746 α      lambda       -0.1303057E-05
   maximum displ.:     0.0278577 α      in ANC's #1, #5, #4, ...

........................................................................
.............................. CYCLE  226 ..............................
........................................................................

 iter      E             dE          RMSdq      gap      omega  full diag
   1   -191.2218200 -0.191222E+03  0.467E-03    1.26       0.0  T
   2   -191.2218200 -0.237924E-07  0.276E-03    1.26       3.4  T
   3   -191.2218200  0.503250E-07  0.698E-04    1.26      13.2  T
   4   -191.2218200 -0.551825E-07  0.214E-04    1.26      43.2  T
   5   -191.2218200 -0.443549E-08  0.905E-05    1.26     102.1  T
   6   -191.2218200 -0.308376E-09  0.474E-05    1.26     195.2  T
     SCC iter.                  ...        0 min,  0.266 sec
     gradient                   ...        0 min,  0.328 sec
 * total energy  :  -188.2584051 Eh     change       -0.1224300E-05 Eh
   gradient norm :     0.0002675 Eh/α   predicted    -0.6557242E-06 ( -46.44%)
   displ. norm   :     0.0249593 α      lambda       -0.6586428E-06
   maximum displ.:     0.0167445 α      in ANC's #1, #5, #2, ...

........................................................................
.............................. CYCLE  227 ..............................
........................................................................

 iter      E             dE          RMSdq      gap      omega  full diag
   1   -191.2219317 -0.191222E+03  0.255E-03    1.26       0.0  T
   2   -191.2219317 -0.517710E-08  0.150E-03    1.26       6.2  T
   3   -191.2219317  0.240364E-07  0.465E-04    1.26      19.9  T
   4   -191.2219317 -0.266674E-07  0.101E-04    1.26      91.3  T
   5   -191.2219317 -0.837076E-09  0.463E-05    1.26     199.5  T
     SCC iter.                  ...        0 min,  0.156 sec
     gradient                   ...        0 min,  0.336 sec
 * total energy  :  -188.2584059 Eh     change       -0.7606259E-06 Eh
   gradient norm :     0.0002764 Eh/α   predicted    -0.3328208E-06 ( -56.24%)
   displ. norm   :     0.0246015 α      lambda       -0.7542726E-06
   maximum displ.:     0.0158785 α      in ANC's #1, #5, #7, ...

........................................................................
.............................. CYCLE  228 ..............................
........................................................................

 iter      E             dE          RMSdq      gap      omega  full diag
   1   -191.2220269 -0.191222E+03  0.260E-03    1.26       0.0  T
   2   -191.2220269 -0.478889E-08  0.153E-03    1.26       6.1  T
   3   -191.2220268  0.474599E-07  0.648E-04    1.26      14.3  T
   4   -191.2220269 -0.536196E-07  0.784E-05    1.26     117.9  T
   5   -191.2220269 -0.273587E-09  0.439E-05    1.26     210.6  T
     SCC iter.                  ...        0 min,  0.177 sec
     gradient                   ...        0 min,  0.310 sec
 * total energy  :  -188.2584069 Eh     change       -0.9901103E-06 Eh
   gradient norm :     0.0002941 Eh/α   predicted    -0.3780666E-06 ( -61.82%)
   displ. norm   :     0.0438173 α      lambda       -0.1336219E-05
   maximum displ.:     0.0270410 α      in ANC's #1, #5, #7, ...

........................................................................
.............................. CYCLE  229 ..............................
........................................................................

 iter      E             dE          RMSdq      gap      omega  full diag
   1   -191.2220617 -0.191222E+03  0.481E-03    1.26       0.0  T
   2   -191.2220617 -0.157526E-07  0.283E-03    1.26       3.3  T
   3   -191.2220616  0.172591E-06  0.124E-03    1.26       7.5  T
   4   -191.2220617 -0.194869E-06  0.135E-04    1.26      68.4  T
   5   -191.2220617 -0.501217E-09  0.760E-05    1.26     121.7  T
     SCC iter.                  ...        0 min,  0.151 sec
     gradient                   ...        0 min,  0.304 sec
 * total energy  :  -188.2584085 Eh     change       -0.1631628E-05 Eh
   gradient norm :     0.0002567 Eh/α   predicted    -0.6735499E-06 ( -58.72%)
   displ. norm   :     0.0474283 α      lambda       -0.1195931E-05
   maximum displ.:     0.0301950 α      in ANC's #1, #5, #7, ...

........................................................................
.............................. CYCLE  230 ..............................
........................................................................

 iter      E             dE          RMSdq      gap      omega  full diag
   1   -191.2220605 -0.191222E+03  0.479E-03    1.26       0.0  T
   2   -191.2220605 -0.166557E-07  0.281E-03    1.26       3.3  T
   3   -191.2220604  0.136488E-06  0.110E-03    1.26       8.4  T
   4   -191.2220605 -0.154722E-06  0.141E-04    1.26      65.6  T
   5   -191.2220605 -0.451536E-09  0.747E-05    1.26     123.8  T
     SCC iter.                  ...        0 min,  0.151 sec
     gradient                   ...        0 min,  0.357 sec
 * total energy  :  -188.2584099 Eh     change       -0.1371732E-05 Eh
   gradient norm :     0.0002286 Eh/α   predicted    -0.5989148E-06 ( -56.34%)
   displ. norm   :     0.0406359 α      lambda       -0.9073585E-06
   maximum displ.:     0.0267869 α      in ANC's #1, #5, #2, ...

........................................................................
.............................. CYCLE  231 ..............................
........................................................................

 iter      E             dE          RMSdq      gap      omega  full diag
   1   -191.2220362 -0.191222E+03  0.381E-03    1.26       0.0  T
   2   -191.2220362 -0.943007E-08  0.224E-03    1.26       4.1  T
   3   -191.2220361  0.612413E-07  0.741E-04    1.26      12.5  T
   4   -191.2220362 -0.695367E-07  0.109E-04    1.26      84.8  T
   5   -191.2220362 -0.261338E-09  0.553E-05    1.26     167.2  T
     SCC iter.                  ...        0 min,  0.134 sec
     gradient                   ...        0 min,  0.324 sec
 * total energy  :  -188.2584110 Eh     change       -0.1113488E-05 Eh
   gradient norm :     0.0002263 Eh/α   predicted    -0.4561672E-06 ( -59.03%)
   displ. norm   :     0.0412162 α      lambda       -0.9547998E-06
   maximum displ.:     0.0277740 α      in ANC's #1, #5, #2, ...

........................................................................
.............................. CYCLE  232 ..............................
........................................................................

 iter      E             dE          RMSdq      gap      omega  full diag
   1   -191.2219635 -0.191222E+03  0.366E-03    1.26       0.0  T
   2   -191.2219635 -0.837841E-08  0.214E-03    1.26       4.3  T
   3   -191.2219635  0.330504E-07  0.528E-04    1.26      17.5  T
   4   -191.2219635 -0.379215E-07  0.993E-05    1.26      93.1  T
   5   -191.2219635 -0.384659E-09  0.519E-05    1.26     178.0  T
     SCC iter.                  ...        0 min,  0.171 sec
     gradient                   ...        0 min,  0.320 sec
 * total energy  :  -188.2584123 Eh     change       -0.1299945E-05 Eh
   gradient norm :     0.0002607 Eh/α   predicted    -0.4811111E-06 ( -62.99%)
   displ. norm   :     0.0534474 α      lambda       -0.1331446E-05
   maximum displ.:     0.0362250 α      in ANC's #1, #5, #2, ...

........................................................................
.............................. CYCLE  233 ..............................
........................................................................

 iter      E             dE          RMSdq      gap      omega  full diag
   1   -191.2219026 -0.191222E+03  0.498E-03    1.26       0.0  T
   2   -191.2219026 -0.135202E-07  0.292E-03    1.26       3.2  T
   3   -191.2219026  0.267374E-07  0.471E-04    1.26      19.6  T
   4   -191.2219026 -0.313578E-07  0.125E-04    1.26      74.0  T
   5   -191.2219026 -0.106456E-08  0.635E-05    1.26     145.6  T
     SCC iter.                  ...        0 min,  0.132 sec
     gradient                   ...        0 min,  0.281 sec
 * total energy  :  -188.2584141 Eh     change       -0.1803583E-05 Eh
   gradient norm :     0.0002909 Eh/α   predicted    -0.6709400E-06 ( -62.80%)
   displ. norm   :     0.0636088 α      lambda       -0.1506230E-05
   maximum displ.:     0.0431812 α      in ANC's #1, #5, #2, ...

........................................................................
.............................. CYCLE  234 ..............................
........................................................................

 iter      E             dE          RMSdq      gap      omega  full diag
   1   -191.2218397 -0.191222E+03  0.605E-03    1.26       0.0  T
   2   -191.2218397 -0.186833E-07  0.355E-03    1.26       2.6  T
   3   -191.2218397  0.290691E-07  0.500E-04    1.26      18.5  T
   4   -191.2218397 -0.349526E-07  0.140E-04    1.26      65.9  T
   5   -191.2218397 -0.127886E-08  0.713E-05    1.26     129.7  T
     SCC iter.                  ...        0 min,  0.130 sec
     gradient                   ...        0 min,  0.313 sec
 * total energy  :  -188.2584161 Eh     change       -0.2001691E-05 Eh
   gradient norm :     0.0002633 Eh/α   predicted    -0.7557561E-06 ( -62.24%)
   displ. norm   :     0.0673588 α      lambda       -0.1459817E-05
   maximum displ.:     0.0458365 α      in ANC's #1, #5, #2, ...

........................................................................
.............................. CYCLE  235 ..............................
........................................................................

 iter      E             dE          RMSdq      gap      omega  full diag
   1   -191.2218225 -0.191222E+03  0.634E-03    1.26       0.0  T
   2   -191.2218225 -0.181898E-07  0.371E-03    1.26       2.5  T
   3   -191.2218225  0.249416E-07  0.494E-04    1.26      18.7  T
   4   -191.2218225 -0.311906E-07  0.137E-04    1.26      67.4  T
   5   -191.2218225 -0.902133E-09  0.723E-05    1.26     127.8  T
     SCC iter.                  ...        0 min,  0.170 sec
     gradient                   ...        0 min,  0.294 sec
 * total energy  :  -188.2584181 Eh     change       -0.1961910E-05 Eh
   gradient norm :     0.0002070 Eh/α   predicted    -0.7343657E-06 ( -62.57%)
   displ. norm   :     0.0709001 α      lambda       -0.1497958E-05
   maximum displ.:     0.0484323 α      in ANC's #1, #5, #2, ...

........................................................................
.............................. CYCLE  236 ..............................
........................................................................

 iter      E             dE          RMSdq      gap      omega  full diag
   1   -191.2218417 -0.191222E+03  0.654E-03    1.26       0.0  T
   2   -191.2218417 -0.166380E-07  0.383E-03    1.26       2.4  T
   3   -191.2218417  0.259628E-07  0.519E-04    1.26      17.8  T
   4   -191.2218417 -0.327038E-07  0.131E-04    1.26      70.8  T
   5   -191.2218417 -0.571106E-09  0.717E-05    1.26     129.0  T
     SCC iter.                  ...        0 min,  0.150 sec
     gradient                   ...        0 min,  0.346 sec
 * total energy  :  -188.2584201 Eh     change       -0.2044045E-05 Eh
   gradient norm :     0.0001885 Eh/α   predicted    -0.7528345E-06 ( -63.17%)
   displ. norm   :     0.0753232 α      lambda       -0.1616989E-05
   maximum displ.:     0.0515820 α      in ANC's #1, #5, #2, ...

........................................................................
.............................. CYCLE  237 ..............................
........................................................................

 iter      E             dE          RMSdq      gap      omega  full diag
   1   -191.2218700 -0.191222E+03  0.678E-03    1.26       0.0  T
   2   -191.2218700 -0.155862E-07  0.397E-03    1.26       2.3  T
   3   -191.2218699  0.272235E-07  0.536E-04    1.26      17.2  T
   4   -191.2218700 -0.344941E-07  0.129E-04    1.26      71.4  T
   5   -191.2218700 -0.497494E-09  0.739E-05    1.26     125.1  T
     SCC iter.                  ...        0 min,  0.131 sec
     gradient                   ...        0 min,  0.284 sec
 * total energy  :  -188.2584224 Eh     change       -0.2241793E-05 Eh
   gradient norm :     0.0002326 Eh/α   predicted    -0.8121035E-06 ( -63.77%)
   displ. norm   :     0.0810908 α      lambda       -0.1771390E-05
   maximum displ.:     0.0556475 α      in ANC's #1, #5, #2, ...

........................................................................
.............................. CYCLE  238 ..............................
........................................................................

 iter      E             dE          RMSdq      gap      omega  full diag
   1   -191.2219219 -0.191222E+03  0.726E-03    1.26       0.0  T
   2   -191.2219219 -0.164566E-07  0.425E-03    1.26       2.2  T
   3   -191.2219219  0.321651E-07  0.571E-04    1.26      16.2  T
   4   -191.2219219 -0.401926E-07  0.135E-04    1.26      68.6  T
   5   -191.2219219 -0.787452E-09  0.756E-05    1.26     122.3  T
     SCC iter.                  ...        0 min,  0.145 sec
     gradient                   ...        0 min,  0.315 sec
 * total energy  :  -188.2584248 Eh     change       -0.2465684E-05 Eh
   gradient norm :     0.0002658 Eh/α   predicted    -0.8900743E-06 ( -63.90%)
   displ. norm   :     0.0873963 α      lambda       -0.1870740E-05
   maximum displ.:     0.0601448 α      in ANC's #1, #5, #2, ...

........................................................................
.............................. CYCLE  239 ..............................
........................................................................

 iter      E             dE          RMSdq      gap      omega  full diag
   1   -191.2219569 -0.191222E+03  0.785E-03    1.26       0.0  T
   2   -191.2219569 -0.198758E-07  0.459E-03    1.26       2.0  T
   3   -191.2219569  0.379491E-07  0.610E-04    1.26      15.2  T
   4   -191.2219569 -0.470873E-07  0.153E-04    1.26      60.5  T
   5   -191.2219569 -0.131197E-08  0.812E-05    1.26     113.9  T
     SCC iter.                  ...        0 min,  0.145 sec
     gradient                   ...        0 min,  0.336 sec
 * total energy  :  -188.2584274 Eh     change       -0.2607774E-05 Eh
   gradient norm :     0.0002488 Eh/α   predicted    -0.9409128E-06 ( -63.92%)
   displ. norm   :     0.0881818 α      lambda       -0.1818536E-05
   maximum displ.:     0.0609867 α      in ANC's #1, #5, #2, ...

........................................................................
.............................. CYCLE  240 ..............................
........................................................................

 iter      E             dE          RMSdq      gap      omega  full diag
   1   -191.2219854 -0.191222E+03  0.802E-03    1.26       0.0  T
   2   -191.2219854 -0.215462E-07  0.470E-03    1.26       2.0  T
   3   -191.2219853  0.391425E-07  0.612E-04    1.26      15.1  T
   4   -191.2219854 -0.482078E-07  0.161E-04    1.26      57.5  T
   5   -191.2219854 -0.166327E-08  0.809E-05    1.26     114.3  T
     SCC iter.                  ...        0 min,  0.232 sec
     gradient                   ...        0 min,  0.326 sec
 * total energy  :  -188.2584300 Eh     change       -0.2550714E-05 Eh
   gradient norm :     0.0001931 Eh/α   predicted    -0.9148490E-06 ( -64.13%)
   displ. norm   :     0.0821017 α      lambda       -0.1677529E-05
   maximum displ.:     0.0571038 α      in ANC's #1, #5, #2, ...

........................................................................
.............................. CYCLE  241 ..............................
........................................................................

 iter      E             dE          RMSdq      gap      omega  full diag
   1   -191.2220031 -0.191222E+03  0.760E-03    1.26       0.0  T
   2   -191.2220031 -0.195894E-07  0.445E-03    1.26       2.1  T
   3   -191.2220031  0.356852E-07  0.578E-04    1.26      16.0  T
   4   -191.2220031 -0.437091E-07  0.155E-04    1.26      59.5  T
   5   -191.2220031 -0.155393E-08  0.765E-05    1.26     120.8  T
     SCC iter.                  ...        0 min,  0.250 sec
     gradient                   ...        0 min,  0.372 sec
 * total energy  :  -188.2584324 Eh     change       -0.2389415E-05 Eh
   gradient norm :     0.0001362 Eh/α   predicted    -0.8437385E-06 ( -64.69%)
   displ. norm   :     0.0760596 α      lambda       -0.1616090E-05
   maximum displ.:     0.0531484 α      in ANC's #1, #2, #5, ...

........................................................................
.............................. CYCLE  242 ..............................
........................................................................

 iter      E             dE          RMSdq      gap      omega  full diag
   1   -191.2220004 -0.191222E+03  0.723E-03    1.26       0.0  T
   2   -191.2220004 -0.168252E-07  0.423E-03    1.26       2.2  T
   3   -191.2220004  0.353945E-07  0.562E-04    1.26      16.4  T
   4   -191.2220004 -0.428044E-07  0.141E-04    1.26      65.7  T
   5   -191.2220004 -0.118166E-08  0.699E-05    1.26     132.3  T
     SCC iter.                  ...        0 min,  0.168 sec
     gradient                   ...        0 min,  0.349 sec
 * total energy  :  -188.2584347 Eh     change       -0.2329586E-05 Eh
   gradient norm :     0.0001292 Eh/α   predicted    -0.8115519E-06 ( -65.16%)
   displ. norm   :     0.0751762 α      lambda       -0.1686654E-05
   maximum displ.:     0.0526582 α      in ANC's #1, #2, #5, ...

........................................................................
.............................. CYCLE  243 ..............................
........................................................................

 iter      E             dE          RMSdq      gap      omega  full diag
   1   -191.2219959 -0.191222E+03  0.734E-03    1.25       0.0  T
   2   -191.2219959 -0.167502E-07  0.430E-03    1.25       2.2  T
   3   -191.2219958  0.411086E-07  0.599E-04    1.25      15.4  T
   4   -191.2219959 -0.493476E-07  0.136E-04    1.25      68.2  T
   5   -191.2219959 -0.912962E-09  0.705E-05    1.25     131.1  T
     SCC iter.                  ...        0 min,  0.142 sec
     gradient                   ...        0 min,  0.317 sec
 * total energy  :  -188.2584371 Eh     change       -0.2441326E-05 Eh
   gradient norm :     0.0001649 Eh/α   predicted    -0.8464807E-06 ( -65.33%)
   displ. norm   :     0.0796277 α      lambda       -0.1847820E-05
   maximum displ.:     0.0558106 α      in ANC's #1, #2, #5, ...

........................................................................
.............................. CYCLE  244 ..............................
........................................................................

 iter      E             dE          RMSdq      gap      omega  full diag
   1   -191.2219763 -0.191222E+03  0.800E-03    1.25       0.0  T
   2   -191.2219763 -0.189886E-07  0.469E-03    1.25       2.0  T
   3   -191.2219762  0.540497E-07  0.678E-04    1.25      13.6  T
   4   -191.2219763 -0.644982E-07  0.135E-04    1.25      68.5  T
   5   -191.2219763 -0.729472E-09  0.747E-05    1.25     123.8  T
     SCC iter.                  ...        0 min,  0.144 sec
     gradient                   ...        0 min,  0.307 sec
 * total energy  :  -188.2584398 Eh     change       -0.2662380E-05 Eh
   gradient norm :     0.0001907 Eh/α   predicted    -0.9274930E-06 ( -65.16%)
   displ. norm   :     0.0883159 α      lambda       -0.2041148E-05
   maximum displ.:     0.0619254 α      in ANC's #1, #2, #5, ...

........................................................................
.............................. CYCLE  245 ..............................
........................................................................

 iter      E             dE          RMSdq      gap      omega  full diag
   1   -191.2219506 -0.191222E+03  0.905E-03    1.25       0.0  T
   2   -191.2219506 -0.237156E-07  0.530E-03    1.25       1.7  T
   3   -191.2219506  0.653854E-07  0.755E-04    1.25      12.2  T
   4   -191.2219506 -0.785593E-07  0.148E-04    1.25      62.3  T
   5   -191.2219506 -0.780005E-09  0.835E-05    1.25     110.8  T
     SCC iter.                  ...        0 min,  0.150 sec
     gradient                   ...        0 min,  0.284 sec
 * total energy  :  -188.2584427 Eh     change       -0.2909691E-05 Eh
   gradient norm :     0.0001922 Eh/α   predicted    -0.1025475E-05 ( -64.76%)
   displ. norm   :     0.0964942 α      lambda       -0.2149322E-05
   maximum displ.:     0.0677388 α      in ANC's #1, #2, #5, ...

........................................................................
.............................. CYCLE  246 ..............................
........................................................................

 iter      E             dE          RMSdq      gap      omega  full diag
   1   -191.2219271 -0.191222E+03  0.998E-03    1.25       0.0  T
   2   -191.2219272 -0.300368E-07  0.584E-03    1.25       1.6  T
   3   -191.2219271  0.815508E-07  0.845E-04    1.25      10.9  T
   4   -191.2219272 -0.982770E-07  0.159E-04    1.25      58.2  T
   5   -191.2219272 -0.776026E-09  0.908E-05    1.25     101.8  T
     SCC iter.                  ...        0 min,  0.147 sec
     gradient                   ...        0 min,  0.352 sec
 * total energy  :  -188.2584458 Eh     change       -0.3046222E-05 Eh
   gradient norm :     0.0001671 Eh/α   predicted    -0.1080632E-05 ( -64.53%)
   displ. norm   :     0.0989458 α      lambda       -0.2095795E-05
   maximum displ.:     0.0695926 α      in ANC's #1, #2, #5, ...

........................................................................
.............................. CYCLE  247 ..............................
........................................................................

 iter      E             dE          RMSdq      gap      omega  full diag
   1   -191.2219051 -0.191222E+03  0.102E-02    1.25       0.0  T
   2   -191.2219052 -0.303733E-07  0.598E-03    1.25       1.5  T
   3   -191.2219051  0.726492E-07  0.814E-04    1.25      11.4  T
   4   -191.2219052 -0.890052E-07  0.162E-04    1.25      57.2  T
   5   -191.2219052 -0.730580E-09  0.909E-05    1.25     101.7  T
     SCC iter.                  ...        0 min,  0.187 sec
     gradient                   ...        0 min,  0.332 sec
 * total energy  :  -188.2584487 Eh     change       -0.2970990E-05 Eh
   gradient norm :     0.0001315 Eh/α   predicted    -0.1053731E-05 ( -64.53%)
   displ. norm   :     0.0932594 α      lambda       -0.1892302E-05
   maximum displ.:     0.0658070 α      in ANC's #1, #2, #5, ...

........................................................................
.............................. CYCLE  248 ..............................
........................................................................

 iter      E             dE          RMSdq      gap      omega  full diag
   1   -191.2219069 -0.191222E+03  0.957E-03    1.25       0.0  T
   2   -191.2219069 -0.266963E-07  0.560E-03    1.25       1.7  T
   3   -191.2219068  0.605095E-07  0.746E-04    1.25      12.4  T
   4   -191.2219069 -0.746637E-07  0.150E-04    1.25      61.6  T
   5   -191.2219069 -0.553797E-09  0.849E-05    1.25     108.9  T
     SCC iter.                  ...        0 min,  0.230 sec
     gradient                   ...        0 min,  0.392 sec
 * total energy  :  -188.2584514 Eh     change       -0.2698577E-05 Eh
   gradient norm :     0.0001008 Eh/α   predicted    -0.9509251E-06 ( -64.76%)
   displ. norm   :     0.0820046 α      lambda       -0.1637400E-05
   maximum displ.:     0.0581596 α      in ANC's #1, #2, #5, ...

........................................................................
.............................. CYCLE  249 ..............................
........................................................................

 iter      E             dE          RMSdq      gap      omega  full diag
   1   -191.2219144 -0.191222E+03  0.825E-03    1.25       0.0  T
   2   -191.2219144 -0.186316E-07  0.483E-03    1.25       1.9  T
   3   -191.2219144  0.379379E-07  0.599E-04    1.25      15.4  T
   4   -191.2219145 -0.476563E-07  0.129E-04    1.25      71.9  T
   5   -191.2219145 -0.357630E-09  0.727E-05    1.25     127.1  T
     SCC iter.                  ...        0 min,  0.196 sec
     gradient                   ...        0 min,  0.420 sec
 * total energy  :  -188.2584538 Eh     change       -0.2348086E-05 Eh
   gradient norm :     0.0000909 Eh/α   predicted    -0.8257953E-06 ( -64.83%)
   displ. norm   :     0.0709598 α      lambda       -0.1429692E-05
   maximum displ.:     0.0506495 α      in ANC's #1, #2, #5, ...

........................................................................
.............................. CYCLE  250 ..............................
........................................................................

 iter      E             dE          RMSdq      gap      omega  full diag
   1   -191.2219330 -0.191222E+03  0.702E-03    1.25       0.0  T
   2   -191.2219330 -0.125484E-07  0.411E-03    1.25       2.3  T
   3   -191.2219330  0.232825E-07  0.472E-04    1.25      19.6  T
   4   -191.2219330 -0.296772E-07  0.110E-04    1.25      83.9  T
   5   -191.2219330 -0.230813E-09  0.652E-05    1.25     141.7  T
     SCC iter.                  ...        0 min,  0.202 sec
     gradient                   ...        0 min,  0.354 sec
 * total energy  :  -188.2584558 Eh     change       -0.2064280E-05 Eh
   gradient norm :     0.0000899 Eh/α   predicted    -0.7172994E-06 ( -65.25%)
   displ. norm   :     0.0627105 α      lambda       -0.1286799E-05
   maximum displ.:     0.0451529 α      in ANC's #1, #2, #5, ...

........................................................................
.............................. CYCLE  251 ..............................
........................................................................

 iter      E             dE          RMSdq      gap      omega  full diag
   1   -191.2219547 -0.191222E+03  0.605E-03    1.25       0.0  T
   2   -191.2219547 -0.891239E-08  0.354E-03    1.25       2.6  T
   3   -191.2219547  0.175036E-07  0.406E-04    1.25      22.8  T
   4   -191.2219547 -0.220680E-07  0.968E-05    1.25      95.5  T
   5   -191.2219547 -0.207365E-09  0.588E-05    1.25     157.2  T
     SCC iter.                  ...        0 min,  0.177 sec
     gradient                   ...        0 min,  0.374 sec
 * total energy  :  -188.2584577 Eh     change       -0.1869319E-05 Eh
   gradient norm :     0.0000883 Eh/α   predicted    -0.6481585E-06 ( -65.33%)
   displ. norm   :     0.0556114 α      lambda       -0.1166515E-05
   maximum displ.:     0.0403833 α      in ANC's #1, #2, #5, ...

........................................................................
.............................. CYCLE  252 ..............................
........................................................................

 iter      E             dE          RMSdq      gap      omega  full diag
   1   -191.2219719 -0.191222E+03  0.524E-03    1.25       0.0  T
   2   -191.2219720 -0.630232E-08  0.307E-03    1.25       3.0  T
   3   -191.2219719  0.119026E-07  0.334E-04    1.25      27.7  T
   4   -191.2219720 -0.150111E-07  0.860E-05    1.25     107.5  T
   5   -191.2219720 -0.234110E-09  0.512E-05    1.25     180.5  T
     SCC iter.                  ...        0 min,  0.201 sec
     gradient                   ...        0 min,  0.391 sec
 * total energy  :  -188.2584594 Eh     change       -0.1704330E-05 Eh
   gradient norm :     0.0000835 Eh/α   predicted    -0.5884168E-06 ( -65.48%)
   displ. norm   :     0.0514682 α      lambda       -0.1109276E-05
   maximum displ.:     0.0375572 α      in ANC's #1, #2, #5, ...

........................................................................
.............................. CYCLE  253 ..............................
........................................................................

 iter      E             dE          RMSdq      gap      omega  full diag
   1   -191.2219897 -0.191222E+03  0.474E-03    1.25       0.0  T
   2   -191.2219897 -0.540902E-08  0.278E-03    1.25       3.3  T
   3   -191.2219897  0.119279E-07  0.327E-04    1.25      28.2  T
   4   -191.2219897 -0.146360E-07  0.798E-05    1.25     115.9  T
   5   -191.2219897 -0.257160E-09  0.457E-05    1.25     202.3  T
     SCC iter.                  ...        0 min,  0.215 sec
     gradient                   ...        0 min,  0.384 sec
 * total energy  :  -188.2584610 Eh     change       -0.1617359E-05 Eh
   gradient norm :     0.0000806 Eh/α   predicted    -0.5600774E-06 ( -65.37%)
   displ. norm   :     0.0526168 α      lambda       -0.1159707E-05
   maximum displ.:     0.0384468 α      in ANC's #1, #2, #5, ...

........................................................................
.............................. CYCLE  254 ..............................
........................................................................

 iter      E             dE          RMSdq      gap      omega  full diag
   1   -191.2220050 -0.191222E+03  0.477E-03    1.25       0.0  T
   2   -191.2220050 -0.577180E-08  0.279E-03    1.25       3.3  T
   3   -191.2220049  0.148529E-07  0.360E-04    1.25      25.7  T
   4   -191.2220050 -0.178623E-07  0.816E-05    1.25     113.2  T
   5   -191.2220050 -0.297803E-09  0.453E-05    1.25     204.2  T
     SCC iter.                  ...        0 min,  0.218 sec
     gradient                   ...        0 min,  0.437 sec
 * total energy  :  -188.2584627 Eh     change       -0.1694335E-05 Eh
   gradient norm :     0.0000771 Eh/α   predicted    -0.5814800E-06 ( -65.68%)
   displ. norm   :     0.0562764 α      lambda       -0.1259596E-05
   maximum displ.:     0.0410372 α      in ANC's #1, #2, #5, ...

........................................................................
.............................. CYCLE  255 ..............................
........................................................................

 iter      E             dE          RMSdq      gap      omega  full diag
   1   -191.2220058 -0.191222E+03  0.505E-03    1.25       0.0  T
   2   -191.2220058 -0.708442E-08  0.295E-03    1.25       3.1  T
   3   -191.2220058  0.200081E-07  0.413E-04    1.25      22.4  T
   4   -191.2220058 -0.238552E-07  0.875E-05    1.25     105.7  T
   5   -191.2220058 -0.336911E-09  0.477E-05    1.25     193.9  T
     SCC iter.                  ...        0 min,  0.236 sec
     gradient                   ...        0 min,  0.406 sec
 * total energy  :  -188.2584646 Eh     change       -0.1838598E-05 Eh
   gradient norm :     0.0000736 Eh/α   predicted    -0.6315373E-06 ( -65.65%)
   displ. norm   :     0.0613752 α      lambda       -0.1382154E-05
   maximum displ.:     0.0446295 α      in ANC's #1, #2, #5, ...

........................................................................
.............................. CYCLE  256 ..............................
........................................................................

 iter      E             dE          RMSdq      gap      omega  full diag
   1   -191.2220107 -0.191222E+03  0.545E-03    1.25       0.0  T
   2   -191.2220107 -0.894536E-08  0.319E-03    1.25       2.9  T
   3   -191.2220107  0.285046E-07  0.488E-04    1.25      18.9  T
   4   -191.2220107 -0.336249E-07  0.955E-05    1.25      96.8  T
   5   -191.2220107 -0.406175E-09  0.515E-05    1.25     179.4  T
     SCC iter.                  ...        0 min,  0.187 sec
     gradient                   ...        0 min,  0.358 sec
 * total energy  :  -188.2584666 Eh     change       -0.2014366E-05 Eh
   gradient norm :     0.0000757 Eh/α   predicted    -0.6931129E-06 ( -65.59%)
   displ. norm   :     0.0665691 α      lambda       -0.1489686E-05
   maximum displ.:     0.0482990 α      in ANC's #1, #2, #9, ...

........................................................................
.............................. CYCLE  257 ..............................
........................................................................

 iter      E             dE          RMSdq      gap      omega  full diag
   1   -191.2220131 -0.191222E+03  0.587E-03    1.25       0.0  T
   2   -191.2220131 -0.110764E-07  0.343E-03    1.25       2.7  T
   3   -191.2220131  0.380207E-07  0.560E-04    1.25      16.5  T
   4   -191.2220131 -0.446255E-07  0.105E-04    1.25      88.1  T
   5   -191.2220131 -0.487574E-09  0.564E-05    1.25     163.8  T
     SCC iter.                  ...        0 min,  0.143 sec
     gradient                   ...        0 min,  0.347 sec
 * total energy  :  -188.2584688 Eh     change       -0.2166256E-05 Eh
   gradient norm :     0.0000765 Eh/α   predicted    -0.7471749E-06 ( -65.51%)
   displ. norm   :     0.0696347 α      lambda       -0.1531181E-05
   maximum displ.:     0.0505061 α      in ANC's #1, #2, #9, ...

........................................................................
.............................. CYCLE  258 ..............................
........................................................................

 iter      E             dE          RMSdq      gap      omega  full diag
   1   -191.2220077 -0.191222E+03  0.610E-03    1.25       0.0  T
   2   -191.2220077 -0.126214E-07  0.357E-03    1.25       2.6  T
   3   -191.2220076  0.439182E-07  0.599E-04    1.25      15.4  T
   4   -191.2220077 -0.513851E-07  0.111E-04    1.25      83.5  T
   5   -191.2220077 -0.593701E-09  0.584E-05    1.25     158.4  T
     SCC iter.                  ...        0 min,  0.197 sec
     gradient                   ...        0 min,  0.313 sec
 * total energy  :  -188.2584710 Eh     change       -0.2213206E-05 Eh
   gradient norm :     0.0000762 Eh/α   predicted    -0.7712421E-06 ( -65.15%)
   displ. norm   :     0.0702977 α      lambda       -0.1496951E-05
   maximum displ.:     0.0511753 α      in ANC's #1, #2, #9, ...
 * RMSD in coord.:     0.1028437 α      energy gain  -0.8556155E-04 Eh

generating ANC from exact Hessian ...
Using Lindh-Hessian (1995)
 Shifting diagonal of input Hessian by    1.0062066509705170E-002
 Lowest  eigenvalues of input Hessian
    0.010000    0.000000    0.000000    0.000000    0.000000    0.000000
    0.000000    0.010105    0.010169    0.010257    0.010347    0.010383
    0.010426    0.010505    0.010714    0.010877    0.010891    0.010998
 Highest eigenvalues
    2.145343    2.260382    2.325273    2.328370    2.448423    3.078876


........................................................................
.............................. CYCLE  259 ..............................
........................................................................

 iter      E             dE          RMSdq      gap      omega  full diag
   1   -191.2220103 -0.191222E+03  0.613E-03    1.25       0.0  T
   2   -191.2220103 -0.131863E-07  0.359E-03    1.25       2.6  T
   3   -191.2220103  0.466700E-07  0.618E-04    1.25      15.0  T
   4   -191.2220103 -0.544907E-07  0.114E-04    1.25      81.1  T
   5   -191.2220103 -0.643013E-09  0.600E-05    1.25     154.0  T
     SCC iter.                  ...        0 min,  0.157 sec
     gradient                   ...        0 min,  0.332 sec
 * total energy  :  -188.2584731 Eh     change       -0.2161289E-05 Eh
   gradient norm :     0.0000727 Eh/α   predicted     0.0000000E+00 (-100.00%)
   displ. norm   :     0.0001090 α      lambda        0.0000000E+00
   maximum displ.:     0.0000674 α      in ANC's #1, #344, #334, ...

........................................................................
.............................. CYCLE  260 ..............................
........................................................................

 iter      E             dE          RMSdq      gap      omega  full diag
   1   -191.2220087 -0.191222E+03  0.686E-05    1.25       0.0  T
   2   -191.2220087 -0.101750E-09  0.383E-05    1.25     241.4  T
   3   -191.2220087  0.110845E-11  0.239E-05    1.25     386.5  T
     SCC iter.                  ...        0 min,  0.094 sec
     gradient                   ...        0 min,  0.344 sec
 * total energy  :  -188.2584731 Eh     change       -0.6784234E-08 Eh
   gradient norm :     0.0000618 Eh/α   predicted    -0.3970151E-08 ( -41.48%)
   displ. norm   :     0.0001090 α      lambda        0.0000000E+00
   maximum displ.:     0.0000674 α      in ANC's #1, #344, #334, ...

   *** GEOMETRY OPTIMIZATION CONVERGED AFTER 260 ITERATIONS ***

------------------------------------------------------------------------
 total energy gain   :        -0.1365435 Eh      -85.6823 kcal/mol
 total RMSD          :         2.9444927 a0        1.5582 Å
 total power (kW/mol):        -1.3788262 (step)   -2.0778 (real)
------------------------------------------------------------------------

 ANCopt (total)                0 d,  0 h,  2 min, 52.539 sec
 optimizer setup                ...        0 min,  0.002 sec (  0.001%)
 model hessian                  ...        0 min,  1.228 sec (  0.712%)
 ANC generation                 ...        0 min,  0.243 sec (  0.141%)
 coordinate transformation      ...        0 min,  0.050 sec (  0.029%)
 single point calculation       ...        2 min, 50.568 sec ( 98.857%)
 optimization log               ...        0 min,  0.238 sec (  0.138%)
 hessian update                 ...        0 min,  0.043 sec (  0.025%)
 rational function              ...        0 min,  0.111 sec (  0.064%)

================
 final structure:
================
117
 xtb: 6.7.1 (edcfbbe)
O            0.63493274384138        3.13395586796932       -0.54515483099340
P           -0.10044197530012        2.16578562485683        0.30245013263000
O           -1.03543047598647        2.68635861722695        1.35957994327593
O           -0.90967904939206        1.12195181729475       -0.67342040465375
C           -1.39680144770889        0.02853389536543        0.00626973931531
C           -2.73860323129192        0.02355101986333        0.45534052761595
C           -3.19736063944909       -1.07905556761906        1.13543910068984
C           -2.35826946234108       -2.16982681452494        1.43261546471776
C           -2.82781787297146       -3.28468395771310        2.16054276750257
C           -1.98443317489459       -4.30301618684691        2.50520303231990
C           -0.62814196548279       -4.24260242584445        2.14924298443917
C           -0.14454867739613       -3.18357352820618        1.43179080942565
C           -0.99653704958224       -2.13186736809054        1.03026102752301
C           -0.53739017656178       -1.01628932473757        0.28238423266843
C            0.86336901075202       -0.87260780631446       -0.16832292297180
C            1.55263460143767        0.25053435672205        0.24556175586590
O            0.92939036837836        1.14647152944158        1.08433528939284
C            2.86229093894231        0.52221779115274       -0.21370809994148
C            3.47101057515464       -0.38196531760514       -1.04822510771000
C            2.81154320045163       -1.54785871775522       -1.48237970653967
C            3.43280985208086       -2.46273660847761       -2.35959148246833
C            2.75630691755139       -3.55240147594435       -2.83091454454540
C            1.42009439454409       -3.76373397307437       -2.45776468949169
C            0.79330026335589       -2.90271395487283       -1.59988245472405
C            1.47514165979321       -1.78782093953390       -1.06523787305360
C           -3.59954390640350        1.19958241434152        0.24923302327581
C           -4.32273957821426        1.71589685493783        1.32258350511980
C           -5.14023748821924        2.81846884150604        1.15457479276229
C           -5.25015795867543        3.42050486948098       -0.08805783884553
C           -4.52540223621786        2.92205798771569       -1.15781654275086
C           -3.70656234319606        1.81944658885986       -0.99302961327562
C            3.52617531433917        1.78745514940565        0.14517024238601
C            3.98099258445578        2.62918898669184       -0.86634743749596
C            4.58952283212854        3.83192652800921       -0.55768098088654
C            4.76918536491480        4.20146662345173        0.76546483201761
C            4.33433471635723        3.36093170277912        1.77734870875647
C            3.70650286445168        2.16518701554269        1.47172620169664
H           -1.93119366458796        3.96083956028619        1.21274503973840
H           -4.22642870758090       -1.11025031251463        1.46625609250774
H           -3.86960367164919       -3.31099668866862        2.44806111142799
H           -2.35061705322601       -5.15236704682122        3.06337167121879
H            0.03569692720304       -5.04042697911716        2.44938177735978
H            0.90237678139663       -3.14002664936713        1.16984557628552
H            4.47633501980269       -0.18953305302216       -1.39748982225590
H            4.45534040623929       -2.27739774173621       -2.65761096494118
H            3.23825141414935       -4.24836722898655       -3.50204675805803
H            0.88535987239123       -4.61343506195486       -2.85706961363726
H           -0.23863077612667       -3.06804792453188       -1.32757733302479
H           -4.22819154493050        1.25304835131105        2.29458108255976
H           -5.70045776740257        3.20551723494571        1.99429368654469
H           -5.89926756696570        4.27274694525472       -0.22562347900367
H           -4.60175611675384        3.39346904234564       -2.12713075696218
H           -3.15471198626326        1.42650768481322       -1.83393186329628
H            3.83193977675094        2.34329508581950       -1.89760532344180
H            4.92908727122282        4.48100670784443       -1.35226544005710
H            5.24736855499958        5.13911299864702        1.00868047440368
H            4.49218927438178        3.63842838671596        2.81065355987087
H            3.36084523930273        1.51282776626718        2.26119782088904
C           -2.58867694302044        4.26452432053731        3.60090732273157
C           -2.79160618204081        5.23331522042769        2.50486351524893
N           -2.47734209649331        4.87242705571961        1.30132682122766
C           -2.69339602173830        5.53987817361724        0.08527649498995
C           -1.78205905446339        5.31859984221222       -0.94274497249360
C           -1.95849700614172        5.94169779302805       -2.16486074958361
C           -3.05102838533020        6.76599340189122       -2.37825934709557
C           -3.98245523774924        6.95096362715713       -1.36767883135099
C           -3.81205107726533        6.34160508748181       -0.13948557737264
C           -3.23669292526736        6.58271342671445        2.85267888004150
C           -4.21184145037977        6.81202469798116        3.82580956436116
C           -4.54447830612155        8.10445352347712        4.18815645015064
C           -3.89677612940700        9.18451949281606        3.60745374505184
C           -2.91764380970625        8.96799875185400        2.64982609404527
C           -2.59659121864440        7.68097670795896        2.26870530628985
H           -2.20268355679285        3.32285948071912        3.22130074810029
H           -1.87986029609301        4.68753072329965        4.31894667158333
H           -3.51990334829775        4.09336502369046        4.13797125201617
H           -0.94621187662926        4.65831571232866       -0.77991169895376
H           -1.24185446121012        5.77103736804088       -2.95342697530585
H           -3.18736924018478        7.25011256657808       -3.33375232429634
H           -4.85054709265013        7.56991592306072       -1.53777303235818
H           -4.55119097694168        6.47345576475902        0.63551459028844
H           -4.73260437617358        5.98078984311825        4.27609493920973
H           -5.30897414643868        8.26900894241745        4.93279944209354
H           -4.15352529091136       10.19073997529742        3.90208876311985
H           -2.39549440924566        9.79274743982523        2.18925275586083
H           -1.82494958899671        7.52195644110184        1.53297668172337
C           -1.00413759489240        8.50884476717117        5.77754601314509
O           -0.31116560385101        8.26293313388262        4.56486174056351
C           -0.09477716173057        6.96750514267250        4.25274863627945
O           -0.47895549021897        6.07164315075929        4.99098042169164
C            0.59725957883686        6.81586223889116        2.98618915246339
C            1.07820845388208        5.63334240439132        2.51548449363278
C            1.09861949803420        4.33230928639254        3.23755605912032
N            1.62456135680962        5.59244793325670        1.25625882100993
C            1.32808194773784        6.52468752905649        0.28641231568460
C            1.63521139304876        6.06870371941310       -1.09852319492039
C            0.82500178148248        7.72384530966680        0.67831710352318
C            0.19463955664637        8.73505825869947       -0.16022549650702
O           -0.47024631454267        9.65364279347095        0.28801335786987
O            0.36220512345459        8.58080341950754       -1.49213582859946
C           -0.30759048869634        9.52447056912961       -2.31600415486353
C            0.84696861986138        8.05387891698258        2.15802680384544
H           -1.10476086323384        9.58851563343466        5.85077053359724
H           -1.98667615289993        8.03101593794673        5.75922468828993
H           -0.43846985562856        8.11712048011252        6.62635126161003
H            0.75171132732753        4.44571475147668        4.25783516447180
H            0.46807738024937        3.61021686264505        2.71936046305837
H            2.11192054381608        3.93520293810742        3.23532708261180
H            1.89796756488490        4.67721148951012        0.91652686503191
H            1.06019046506647        6.61723533420615       -1.83326736109385
H            2.69408278872860        6.24070005480876       -1.29357010382458
H            1.44317606422770        5.00215730501663       -1.19490914203209
H            0.00083623123397       10.54058989498189       -2.06015725332871
H           -0.02481755351638        9.28399790097375       -3.33773788862129
H           -1.38915427138086        9.44066656390410       -2.18447529119280
H            0.10471765625292        8.82064422570275        2.37333631573867
H            1.82914745211406        8.47445666403534        2.41508715472649

 Bond Distances (Angstroems)
 ---------------------------
O1-P2=1.4821         P2-O1=1.4821         P2-O3=1.5042         P2-O4=1.6422         P2-O17=1.6465        O3-P2=1.5042         
O4-P2=1.6422         O4-C5=1.3765         C5-O4=1.3765         C5-C6=1.4150         C5-C14=1.3808        C6-C5=1.4150         
C6-C7=1.3743         C6-C26=1.4720        C7-C6=1.3743         C7-C8=1.4079         C7-H39=1.0814        C8-C7=1.4079         
C8-C9=1.4118         C8-C13=1.4204        C9-C8=1.4118         C9-C10=1.3664        C9-H40=1.0811        C10-C9=1.3664        
C10-C11=1.4035       C10-H41=1.0803       C11-C10=1.4035       C11-C12=1.3675       C11-H42=1.0804       C12-C11=1.3675       
C12-C13=1.4118       C12-H43=1.0801       C13-C8=1.4204        C13-C12=1.4118       C13-C14=1.4194       C14-C5=1.3808        
C14-C13=1.4194       C14-C15=1.4785       C15-C14=1.4785       C15-C16=1.3812       C15-C25=1.4200       C16-C15=1.3812       
C16-O17=1.3765       C16-C18=1.4142       O17-P2=1.6465        O17-C16=1.3765       C18-C16=1.4142       C18-C19=1.3728       
C18-C32=1.4732       C19-C18=1.3728       C19-C20=1.4081       C19-H44=1.0815       C20-C19=1.4081       C20-C21=1.4116       
C20-C25=1.4204       C21-C20=1.4116       C21-C22=1.3664       C21-H45=1.0811       C22-C21=1.3664       C22-C23=1.4033       
C22-H46=1.0803       C23-C22=1.4033       C23-C24=1.3675       C23-H47=1.0805       C24-C23=1.3675       C24-C25=1.4120       
C24-H48=1.0800       C25-C15=1.4200       C25-C20=1.4204       C25-C24=1.4120       C26-C6=1.4720        C26-C27=1.3934       
C26-C31=1.3924       C27-C26=1.3934       C27-C28=1.3828       C27-H49=1.0807       C28-C27=1.3828       C28-C29=1.3852       
C28-H50=1.0811       C29-C28=1.3852       C29-C30=1.3850       C29-H51=1.0801       C30-C29=1.3850       C30-C31=1.3833       
C30-H52=1.0806       C31-C26=1.3924       C31-C30=1.3833       C31-H53=1.0798       C32-C18=1.4732       C32-C33=1.3923       
C32-C37=1.3910       C33-C32=1.3923       C33-C34=1.3828       C33-H54=1.0805       C34-C33=1.3828       C34-C35=1.3855       
C34-H55=1.0807       C35-C34=1.3855       C35-C36=1.3855       C35-H56=1.0803       C36-C35=1.3855       C36-C37=1.3847       
C36-H57=1.0815       C37-C32=1.3910       C37-C36=1.3847       C37-H58=1.0809       H38-N61=1.0664       H39-C7=1.0814        
H40-C9=1.0811        H41-C10=1.0803       H42-C11=1.0804       H43-C12=1.0801       H44-C19=1.0815       H45-C21=1.0811       
H46-C22=1.0803       H47-C23=1.0805       H48-C24=1.0800       H49-C27=1.0807       H50-C28=1.0811       H51-C29=1.0801       
H52-C30=1.0806       H53-C31=1.0798       H54-C33=1.0805       H55-C34=1.0807       H56-C35=1.0803       H57-C36=1.0815       
H58-C37=1.0809       C59-C60=1.4768       C59-H74=1.0862       C59-H75=1.0940       C59-H76=1.0885       C60-C59=1.4768       
C60-N61=1.2952       C60-C68=1.4629       N61-H38=1.0664       N61-C60=1.2952       N61-C62=1.4039       C62-N61=1.4039       
C62-C63=1.3915       C62-C67=1.3945       C63-C62=1.3915       C63-C64=1.3831       C63-H77=1.0776       C64-C63=1.3831       
C64-C65=1.3851       C64-H78=1.0791       C65-C64=1.3851       C65-C66=1.3867       C65-H79=1.0798       C66-C65=1.3867       
C66-C67=1.3816       C66-H80=1.0796       C67-C62=1.3945       C67-C66=1.3816       C67-H81=1.0790       C68-C60=1.4629       
C68-C69=1.3966       C68-C73=1.3989       C69-C68=1.3966       C69-C70=1.3829       C69-H82=1.0793       C70-C69=1.3829       
C70-C71=1.3868       C70-H83=1.0798       C71-C70=1.3868       C71-C72=1.3866       C71-H84=1.0794       C72-C71=1.3866       
C72-C73=1.3801       C72-H85=1.0793       C73-C68=1.3989       C73-C72=1.3801       C73-H86=1.0780       H74-C59=1.0862       
H75-C59=1.0940       H76-C59=1.0885       H77-C63=1.0776       H78-C64=1.0791       H79-C65=1.0798       H80-C66=1.0796       
H81-C67=1.0790       H82-C69=1.0793       H83-C70=1.0798       H84-C71=1.0794       H85-C72=1.0793       H86-C73=1.0780       
C87-O88=1.4182       C87-H103=1.0868      C87-H104=1.0927      C87-H105=1.0927      O88-C87=1.4182       O88-C89=1.3500       
C89-O88=1.3500       C89-O90=1.2228       C89-C91=1.4512       O90-C89=1.2228       C91-C89=1.4512       C91-C92=1.3606       
C91-C102=1.5103      C92-C91=1.3606       C92-C93=1.4881       C92-N94=1.3733       C93-C92=1.4881       C93-H106=1.0836      
C93-H107=1.0897      C93-H108=1.0883      N94-C92=1.3733       N94-C95=1.3775       N94-H109=1.0138      C95-N94=1.3775       
C95-C96=1.4901       C95-C97=1.3582       C96-C95=1.4901       C96-H110=1.0823      C96-H111=1.0903      C96-H112=1.0880      
C97-C95=1.3582       C97-C98=1.4571       C97-C102=1.5162      C98-C97=1.4571       C98-O99=1.2193       C98-O100=1.3512      
O99-C98=1.2193       O100-C98=1.3512      O100-C101=1.4205     C101-O100=1.4205     C101-H113=1.0923     C101-H114=1.0871     
C101-H115=1.0928     C102-C91=1.5103      C102-C97=1.5162      C102-H116=1.0887     C102-H117=1.0989     H103-C87=1.0868      
H104-C87=1.0927      H105-C87=1.0927      H106-C93=1.0836      H107-C93=1.0897      H108-C93=1.0883      H109-N94=1.0138      
H110-C96=1.0823      H111-C96=1.0903      H112-C96=1.0880      H113-C101=1.0923     H114-C101=1.0871     H115-C101=1.0928     
H116-C102=1.0887     H117-C102=1.0989     
 C  H  Rav=1.0835 sigma=0.0052  Rmin=1.0776  Rmax=1.0989    47
 C  C  Rav=1.4076 sigma=0.0385  Rmin=1.3582  Rmax=1.5162    59
 N  H  Rav=1.0401 sigma=0.0263  Rmin=1.0138  Rmax=1.0664     2
 N  C  Rav=1.3625 sigma=0.0406  Rmin=1.2952  Rmax=1.4039     4
 O  C  Rav=1.3419 sigma=0.0740  Rmin=1.2193  Rmax=1.4205     8
 P  O  Rav=1.5687 sigma=0.0760  Rmin=1.4821  Rmax=1.6465     4

 selected bond angles (degree)
 --------------------
O3-P2-O1=118.96                O4-P2-O1=108.66                O4-P2-O3=109.35                O17-P2-O1=111.45               
O17-P2-O3=105.62               O17-P2-O4=101.36               C5-O4-P2=112.70                C6-C5-O4=119.68                
C14-C5-O4=118.66               C14-C5-C6=121.61               C7-C6-C5=118.45                C26-C6-C5=120.49               
C26-C6-C7=121.00               C8-C7-C6=121.81                H39-C7-C6=119.48               H39-C7-C8=118.70               
C9-C8-C7=121.49                C13-C8-C7=119.40               C13-C8-C9=119.08               C10-C9-C8=120.88               
H40-C9-C8=118.48               H40-C9-C10=120.64              C11-C10-C9=120.03              H41-C10-C9=120.47              
H41-C10-C11=119.50             

 selected dihedral angles (degree)
 ---------------------------------
C5-O4-P2-O1=167.52            C5-O4-P2-O3=298.84            C5-O4-P2-O17= 50.04           C6-C5-O4-P2= 96.44            
C14-C5-O4-P2=279.21           C7-C6-C5-O4=180.23            C7-C6-C5-C14=357.37           C26-C6-C5-O4=357.50           
C26-C6-C5-C14=174.64          C8-C7-C6-C5=  2.27            C8-C7-C6-C26=185.01           H39-C7-C6-C5=181.40           
H39-C7-C6-C26=  4.14          C9-C8-C7-C6=178.41            C9-C8-C7-H39=359.26           C13-C8-C7-C6=  0.49           
C13-C8-C7-H39=181.34          C10-C9-C8-C7=183.61           C10-C9-C8-C13=  1.54          H40-C9-C8-C7=  3.04           
H40-C9-C8-C13=180.97          C11-C10-C9-C8=  0.75          C11-C10-C9-H40=181.32         H41-C10-C9-C8=179.92          
H41-C10-C9-H40=  0.50         

 CMA Distance (Angstroems)
 ---------------------------
R(CMA):  6.9918
           -------------------------------------------------
          |                Final Singlepoint                |
           -------------------------------------------------

          ...................................................
          :                      SETUP                      :
          :.................................................:
          :  # basis functions                 327          :
          :  # atomic orbitals                 326          :
          :  # shells                          186          :
          :  # electrons                       340          :
          :  max. iterations                   250          :
          :  Hamiltonian                  GFN2-xTB          :
          :  restarted?                      false          :
          :  GBSA solvation                   true          :
          :  PC potential                    false          :
          :  electronic temp.          300.0000000     K    :
          :  accuracy                    0.2000000          :
          :  -> integral cutoff          0.3198970E+02      :
          :  -> integral neglect         0.2000000E-08      :
          :  -> SCF convergence          0.2000000E-06 Eh   :
          :  -> wf. convergence          0.2000000E-04 e    :
          :  Broyden damping             0.4000000          :
          :  net charge                          0          :
          :  unpaired electrons                  0          :
          ...................................................

 iter      E             dE          RMSdq      gap      omega  full diag
   1   -191.2220087 -0.191222E+03  0.106E-05    1.25       0.0  T
   2   -191.2220087 -0.198952E-12  0.835E-06    1.25    1107.3  T
   3   -191.2220087 -0.716227E-11  0.390E-06    1.25    2367.9  T

   *** convergence criteria satisfied after 3 iterations ***

         #    Occupation            Energy/Eh            Energy/eV
      -------------------------------------------------------------
         1        2.0000           -0.7339803             -19.9726
       ...           ...                  ...                  ...
       164        2.0000           -0.4015210             -10.9259
       165        2.0000           -0.4002401             -10.8911
       166        2.0000           -0.3860210             -10.5042
       167        2.0000           -0.3836929             -10.4408
       168        2.0000           -0.3783055             -10.2942
       169        2.0000           -0.3684750             -10.0267
       170        2.0000           -0.3615527              -9.8383 (HOMO)
       171                         -0.3157749              -8.5927 (LUMO)
       172                         -0.2738182              -7.4510
       173                         -0.2689150              -7.3175
       174                         -0.2574412              -7.0053
       175                         -0.2488713              -6.7721
       ...                                ...                  ...
       326                          1.3907506              37.8442
      -------------------------------------------------------------
                  HL-Gap            0.0457777 Eh            1.2457 eV
             Fermi-level           -0.3386634 Eh           -9.2155 eV

 SCC (total)                   0 d,  0 h,  0 min,  0.592 sec
 SCC setup                      ...        0 min,  0.007 sec (  1.130%)
 Dispersion                     ...        0 min,  0.003 sec (  0.591%)
 classical contributions        ...        0 min,  0.001 sec (  0.186%)
 integral evaluation            ...        0 min,  0.060 sec ( 10.110%)
 iterations                     ...        0 min,  0.129 sec ( 21.831%)
 molecular gradient             ...        0 min,  0.387 sec ( 65.339%)
 printout                       ...        0 min,  0.005 sec (  0.807%)

         :::::::::::::::::::::::::::::::::::::::::::::::::::::
         ::                     SUMMARY                     ::
         :::::::::::::::::::::::::::::::::::::::::::::::::::::
         :: total energy            -188.258473134186 Eh    ::
         :: total w/o Gsasa/hb      -188.182435245246 Eh    ::
         :: gradient norm              0.000138155138 Eh/a0 ::
         :: HOMO-LUMO gap              1.245675550074 eV    ::
         ::.................................................::
         :: SCC energy              -191.211158383937 Eh    ::
         :: -> isotropic ES            0.275466434015 Eh    ::
         :: -> anisotropic ES         -0.037489346158 Eh    ::
         :: -> anisotropic XC          0.082971666992 Eh    ::
         :: -> dispersion             -0.190760756908 Eh    ::
         :: -> Gsolv                  -0.087909551474 Eh    ::
         ::    -> Gelec               -0.011871662534 Eh    ::
         ::    -> Gsasa               -0.078246032078 Eh    ::
         ::    -> Ghb                  0.000000000000 Eh    ::
         ::    -> Gshift               0.002208143139 Eh    ::
         :: repulsion energy           2.952685249751 Eh    ::
         :: add. restraining           0.000000000000 Eh    ::
         :: total charge               0.000000000000 e     ::
         :::::::::::::::::::::::::::::::::::::::::::::::::::::

           -------------------------------------------------
          |                Property Printout                |
           -------------------------------------------------

    * Orbital Energies and Occupations

         #    Occupation            Energy/Eh            Energy/eV
      -------------------------------------------------------------
         1        2.0000           -0.7339803             -19.9726
       ...           ...                  ...                  ...
       158        2.0000           -0.4092051             -11.1350
       159        2.0000           -0.4087274             -11.1220
       160        2.0000           -0.4073814             -11.0854
       161        2.0000           -0.4069598             -11.0739
       162        2.0000           -0.4049665             -11.0197
       163        2.0000           -0.4034817             -10.9793
       164        2.0000           -0.4015210             -10.9259
       165        2.0000           -0.4002401             -10.8911
       166        2.0000           -0.3860210             -10.5042
       167        2.0000           -0.3836929             -10.4408
       168        2.0000           -0.3783055             -10.2942
       169        2.0000           -0.3684750             -10.0267
       170        2.0000           -0.3615527              -9.8383 (HOMO)
       171                         -0.3157749              -8.5927 (LUMO)
       172                         -0.2738182              -7.4510
       173                         -0.2689150              -7.3175
       174                         -0.2574412              -7.0053
       175                         -0.2488713              -6.7721
       176                         -0.2457258              -6.6865
       177                         -0.2422906              -6.5931
       178                         -0.2383433              -6.4857
       179                         -0.2366713              -6.4402
       180                         -0.2355779              -6.4104
       181                         -0.2257749              -6.1436
       ...                                ...                  ...
       326                          1.3907506              37.8442
      -------------------------------------------------------------
                  HL-Gap            0.0457777 Eh            1.2457 eV
             Fermi-level           -0.3386634 Eh           -9.2155 eV

     #   Z          covCN         q      C6AA      α(0)
     1   8 O        0.808    -0.577    25.599     6.782
     2  15 P        3.980     0.642   134.767    20.854
     3   8 O        0.813    -0.587    25.833     6.813
     4   8 O        1.661    -0.323    19.417     5.949
     5   6 C        3.240     0.152    23.880     7.923
     6   6 C        2.969    -0.007    28.199     8.710
     7   6 C        2.925    -0.051    29.278     8.873
     8   6 C        2.984     0.006    27.881     8.661
     9   6 C        2.919    -0.036    28.897     8.815
    10   6 C        2.915    -0.032    28.789     8.798
    11   6 C        2.916    -0.031    28.780     8.797
    12   6 C        2.917    -0.035    28.861     8.810
    13   6 C        2.986     0.010    27.792     8.648
    14   6 C        2.975    -0.011    28.277     8.723
    15   6 C        2.975    -0.011    28.291     8.725
    16   6 C        3.218     0.152    24.075     7.980
    17   8 O        1.661    -0.327    19.481     5.958
    18   6 C        2.970    -0.007    28.186     8.708
    19   6 C        2.925    -0.051    29.272     8.873
    20   6 C        2.984     0.006    27.870     8.660
    21   6 C        2.920    -0.036    28.897     8.815
    22   6 C        2.915    -0.032    28.795     8.799
    23   6 C        2.916    -0.032    28.790     8.799
    24   6 C        2.917    -0.035    28.877     8.812
    25   6 C        2.985     0.010    27.794     8.648
    26   6 C        2.977     0.026    27.410     8.588
    27   6 C        2.926    -0.036    28.886     8.814
    28   6 C        2.918    -0.037    28.909     8.817
    29   6 C        2.919    -0.038    28.936     8.821
    30   6 C        2.919    -0.033    28.822     8.804
    31   6 C        2.923    -0.028    28.707     8.786
    32   6 C        2.978     0.028    27.378     8.583
    33   6 C        2.926    -0.028    28.707     8.787
    34   6 C        2.919    -0.031    28.769     8.796
    35   6 C        2.919    -0.035    28.875     8.812
    36   6 C        2.919    -0.034    28.857     8.809
    37   6 C        2.923    -0.031    28.775     8.797
    38   1 H        0.860     0.272     0.804     1.405
    39   1 H        0.925     0.041     2.439     2.442
    40   1 H        0.926     0.035     2.518     2.482
    41   1 H        0.926     0.034     2.525     2.485
    42   1 H        0.926     0.033     2.550     2.497
    43   1 H        0.926     0.031     2.574     2.509
    44   1 H        0.925     0.039     2.464     2.455
    45   1 H        0.926     0.034     2.530     2.487
    46   1 H        0.926     0.034     2.533     2.489
    47   1 H        0.926     0.032     2.555     2.499
    48   1 H        0.926     0.031     2.574     2.509
    49   1 H        0.926     0.035     2.520     2.483
    50   1 H        0.926     0.031     2.571     2.507
    51   1 H        0.926     0.032     2.559     2.501
    52   1 H        0.926     0.029     2.598     2.520
    53   1 H        0.926     0.034     2.531     2.488
    54   1 H        0.926     0.033     2.548     2.496
    55   1 H        0.926     0.033     2.541     2.493
    56   1 H        0.926     0.033     2.538     2.491
    57   1 H        0.925     0.029     2.600     2.521
    58   1 H        0.926     0.030     2.582     2.513
    59   6 C        3.763    -0.149    23.419     6.898
    60   6 C        2.887     0.124    25.282     8.243
    61   7 N        2.696    -0.074    22.690     7.075
    62   6 C        2.912     0.063    26.585     8.455
    63   6 C        2.924    -0.046    29.140     8.853
    64   6 C        2.920    -0.020    28.515     8.757
    65   6 C        2.919    -0.026    28.654     8.778
    66   6 C        2.920    -0.026    28.640     8.776
    67   6 C        2.919    -0.037    28.914     8.818
    68   6 C        2.974     0.003    27.958     8.673
    69   6 C        2.921    -0.026    28.654     8.778
    70   6 C        2.917    -0.025    28.628     8.774
    71   6 C        2.920    -0.018    28.447     8.746
    72   6 C        2.917    -0.018    28.465     8.749
    73   6 C        2.926    -0.019    28.474     8.751
    74   1 H        0.925     0.094     1.841     2.122
    75   1 H        0.924     0.131     1.526     1.932
    76   1 H        0.925     0.100     1.780     2.087
    77   1 H        0.926     0.077     2.009     2.216
    78   1 H        0.926     0.054     2.265     2.354
    79   1 H        0.926     0.054     2.272     2.357
    80   1 H        0.926     0.055     2.261     2.352
    81   1 H        0.926     0.047     2.358     2.401
    82   1 H        0.926     0.053     2.287     2.365
    83   1 H        0.926     0.056     2.249     2.345
    84   1 H        0.926     0.057     2.240     2.341
    85   1 H        0.926     0.068     2.104     2.268
    86   1 H        0.926     0.045     2.383     2.414
    87   6 C        3.653     0.037    20.259     6.463
    88   8 O        1.705    -0.274    18.552     5.815
    89   6 C        2.726     0.340    21.223     7.542
    90   8 O        0.856    -0.482    23.384     6.483
    91   6 C        2.957    -0.073    29.828     8.958
    92   6 C        2.894     0.085    26.105     8.377
    93   6 C        3.760    -0.142    23.296     6.881
    94   7 N        2.716    -0.109    23.390     7.183
    95   6 C        2.891     0.083    26.149     8.384
    96   6 C        3.760    -0.143    23.302     6.882
    97   6 C        2.956    -0.072    29.789     8.952
    98   6 C        2.725     0.341    21.202     7.538
    99   8 O        0.857    -0.467    23.059     6.438
   100   8 O        1.704    -0.282    18.687     5.836
   101   6 C        3.653     0.037    20.258     6.463
   102   6 C        3.820    -0.061    21.652     6.622
   103   1 H        0.925     0.071     2.076     2.253
   104   1 H        0.924     0.055     2.253     2.348
   105   1 H        0.924     0.061     2.185     2.312
   106   1 H        0.925     0.084     1.937     2.176
   107   1 H        0.925     0.087     1.909     2.160
   108   1 H        0.925     0.065     2.139     2.287
   109   1 H        0.860     0.199     1.110     1.650
   110   1 H        0.925     0.082     1.954     2.186
   111   1 H        0.924     0.072     2.061     2.245
   112   1 H        0.925     0.088     1.897     2.154
   113   1 H        0.924     0.063     2.169     2.303
   114   1 H        0.925     0.070     2.088     2.260
   115   1 H        0.924     0.057     2.240     2.340
   116   1 H        0.925     0.077     2.015     2.220
   117   1 H        0.923     0.041     2.441     2.443

 Mol. C6AA /au·bohr⁶  :     183350.340926
 Mol. C8AA /au·bohr⁸  :    4617406.534643
 Mol. α(0) /au        :        681.253642


Wiberg/Mayer (AO) data.
largest (>0.10) Wiberg bond orders for each atom

 ---------------------------------------------------------------------------
     #   Z sym  total        # sym  WBO       # sym  WBO       # sym  WBO
 ---------------------------------------------------------------------------
     1   8 O    1.985 --     2 P    1.731
     2  15 P    5.533 --     1 O    1.731     3 O    1.598     4 O    1.050
                            17 O    1.043
     3   8 O    1.999 --     2 P    1.598    38 H    0.120
     4   8 O    2.287 --     2 P    1.050     5 C    0.992
     5   6 C    3.923 --    14 C    1.449     6 C    1.246     4 O    0.992
     6   6 C    3.987 --     7 C    1.498     5 C    1.246    26 C    1.041
     7   6 C    3.984 --     6 C    1.498     8 C    1.285    39 H    0.965
                            14 C    0.102
     8   6 C    3.988 --     7 C    1.285     9 C    1.277    13 C    1.248
     9   6 C    3.986 --    10 C    1.557     8 C    1.277    40 H    0.968
                            12 C    0.117
    10   6 C    3.987 --     9 C    1.557    11 C    1.321    41 H    0.971
    11   6 C    3.985 --    12 C    1.553    10 C    1.321    42 H    0.971
    12   6 C    3.990 --    11 C    1.553    13 C    1.284    43 H    0.966
                             9 C    0.117
    13   6 C    3.986 --    12 C    1.284     8 C    1.248    14 C    1.243
    14   6 C    3.984 --     5 C    1.449    13 C    1.243    15 C    1.030
                             7 C    0.102
    15   6 C    3.983 --    16 C    1.448    25 C    1.242    14 C    1.030
                            19 C    0.103
    16   6 C    3.923 --    15 C    1.448    18 C    1.247    17 O    0.992
    17   8 O    2.280 --     2 P    1.043    16 C    0.992
    18   6 C    3.986 --    19 C    1.504    16 C    1.247    32 C    1.032
    19   6 C    3.984 --    18 C    1.504    20 C    1.283    44 H    0.966
                            15 C    0.103
    20   6 C    3.988 --    19 C    1.283    21 C    1.278    25 C    1.249
    21   6 C    3.985 --    22 C    1.556    20 C    1.278    45 H    0.968
                            24 C    0.117
    22   6 C    3.987 --    21 C    1.556    23 C    1.321    46 H    0.971
    23   6 C    3.986 --    24 C    1.553    22 C    1.321    47 H    0.971
    24   6 C    3.990 --    23 C    1.553    25 C    1.284    48 H    0.966
                            21 C    0.117
    25   6 C    3.986 --    24 C    1.284    20 C    1.249    15 C    1.242
    26   6 C    3.988 --    31 C    1.392    27 C    1.388     6 C    1.041
                            29 C    0.106
    27   6 C    3.989 --    28 C    1.451    26 C    1.388    49 H    0.969
                            30 C    0.109
    28   6 C    3.991 --    27 C    1.451    29 C    1.434    50 H    0.970
                            31 C    0.108
    29   6 C    3.987 --    30 C    1.435    28 C    1.434    51 H    0.970
                            26 C    0.106
    30   6 C    3.992 --    31 C    1.449    29 C    1.435    52 H    0.971
                            27 C    0.109
    31   6 C    3.988 --    30 C    1.449    26 C    1.392    53 H    0.970
                            28 C    0.108
    32   6 C    3.988 --    37 C    1.397    33 C    1.391    18 C    1.032
                            35 C    0.107
    33   6 C    3.987 --    34 C    1.450    32 C    1.391    54 H    0.970
                            36 C    0.110
    34   6 C    3.992 --    33 C    1.450    35 C    1.434    55 H    0.970
                            37 C    0.109
    35   6 C    3.988 --    36 C    1.435    34 C    1.434    56 H    0.971
                            32 C    0.107
    36   6 C    3.992 --    37 C    1.445    35 C    1.435    57 H    0.969
                            33 C    0.110
    37   6 C    3.989 --    36 C    1.445    32 C    1.397    58 H    0.970
                            34 C    0.109
    38   1 H    0.925 --    61 N    0.764     3 O    0.120
    39   1 H    0.997 --     7 C    0.965
    40   1 H    0.998 --     9 C    0.968
    41   1 H    0.998 --    10 C    0.971
    42   1 H    0.998 --    11 C    0.971
    43   1 H    0.999 --    12 C    0.966
    44   1 H    0.997 --    19 C    0.966
    45   1 H    0.998 --    21 C    0.968
    46   1 H    0.998 --    22 C    0.971
    47   1 H    0.998 --    23 C    0.971
    48   1 H    0.999 --    24 C    0.966
    49   1 H    0.999 --    27 C    0.969
    50   1 H    0.998 --    28 C    0.970
    51   1 H    0.999 --    29 C    0.970
    52   1 H    0.999 --    30 C    0.971
    53   1 H    0.999 --    31 C    0.970
    54   1 H    0.999 --    33 C    0.970
    55   1 H    0.998 --    34 C    0.970
    56   1 H    0.998 --    35 C    0.971
    57   1 H    0.998 --    36 C    0.969
    58   1 H    0.999 --    37 C    0.970
    59   6 C    3.975 --    60 C    1.066    74 H    0.968    76 H    0.935
                            75 H    0.912
    60   6 C    3.932 --    61 N    1.577    68 C    1.072    59 C    1.066
    61   7 N    3.648 --    60 C    1.577    62 C    1.046    38 H    0.764
    62   6 C    3.954 --    63 C    1.374    67 C    1.364    61 N    1.046
    63   6 C    3.975 --    64 C    1.447    62 C    1.374    77 H    0.951
                            66 C    0.105
    64   6 C    3.989 --    63 C    1.447    65 C    1.437    78 H    0.968
                            67 C    0.107
    65   6 C    3.981 --    64 C    1.437    66 C    1.425    79 H    0.969
    66   6 C    3.990 --    67 C    1.458    65 C    1.425    80 H    0.969
                            63 C    0.105
    67   6 C    3.989 --    66 C    1.458    62 C    1.364    81 H    0.965
                            64 C    0.107
    68   6 C    3.984 --    69 C    1.371    73 C    1.357    60 C    1.072
    69   6 C    3.983 --    70 C    1.456    68 C    1.371    82 H    0.965
                            72 C    0.105
    70   6 C    3.990 --    69 C    1.456    71 C    1.430    83 H    0.968
                            73 C    0.105
    71   6 C    3.985 --    70 C    1.430    72 C    1.427    84 H    0.969
    72   6 C    3.988 --    73 C    1.459    71 C    1.427    85 H    0.964
                            69 C    0.105
    73   6 C    3.989 --    72 C    1.459    68 C    1.357    86 H    0.964
                            70 C    0.105
    74   1 H    0.990 --    59 C    0.968
    75   1 H    0.979 --    59 C    0.912
    76   1 H    0.986 --    59 C    0.935
    77   1 H    0.994 --    63 C    0.951
    78   1 H    0.996 --    64 C    0.968
    79   1 H    0.997 --    65 C    0.969
    80   1 H    0.996 --    66 C    0.969
    81   1 H    0.998 --    67 C    0.965
    82   1 H    0.997 --    69 C    0.965
    83   1 H    0.996 --    70 C    0.968
    84   1 H    0.996 --    71 C    0.969
    85   1 H    0.995 --    72 C    0.964
    86   1 H    0.998 --    73 C    0.964
    87   6 C    3.928 --   103 H    0.981   105 H    0.977   104 H    0.976
                            88 O    0.962
    88   8 O    2.284 --    89 C    1.098    87 C    0.962    90 O    0.146
    89   6 C    3.922 --    90 O    1.617    88 O    1.098    91 C    1.098
    90   8 O    1.965 --    89 C    1.617    88 O    0.146
    91   6 C    3.966 --    92 C    1.584    89 C    1.098   102 C    0.996
    92   6 C    3.965 --    91 C    1.584    94 N    1.170    93 C    1.037
    93   6 C    3.984 --    92 C    1.037   106 H    0.971   108 H    0.957
                           107 H    0.941
    94   7 N    3.532 --    92 C    1.170    95 C    1.157   109 H    0.919
    95   6 C    3.964 --    97 C    1.602    94 N    1.157    96 C    1.034
    96   6 C    3.984 --    95 C    1.034   110 H    0.965   112 H    0.959
                           111 H    0.951
    97   6 C    3.967 --    95 C    1.602    98 C    1.085   102 C    0.993
    98   6 C    3.922 --    99 O    1.651   100 O    1.087    97 C    1.085
    99   8 O    1.976 --    98 C    1.651   100 O    0.147
   100   8 O    2.275 --    98 C    1.087   101 C    0.959    99 O    0.147
   101   6 C    3.927 --   114 H    0.981   115 H    0.977   113 H    0.977
                           100 O    0.959
   102   6 C    3.992 --    91 C    0.996    97 C    0.993   116 H    0.963
                           117 H    0.955
   103   1 H    0.995 --    87 C    0.981
   104   1 H    0.996 --    87 C    0.976
   105   1 H    0.996 --    87 C    0.977
   106   1 H    0.992 --    93 C    0.971
   107   1 H    0.992 --    93 C    0.941
   108   1 H    0.995 --    93 C    0.957
   109   1 H    0.959 --    94 N    0.919
   110   1 H    0.993 --    96 C    0.965
   111   1 H    0.994 --    96 C    0.951
   112   1 H    0.992 --    96 C    0.959
   113   1 H    0.996 --   101 C    0.977
   114   1 H    0.995 --   101 C    0.981
   115   1 H    0.996 --   101 C    0.977
   116   1 H    0.994 --   102 C    0.963
   117   1 H    0.998 --   102 C    0.955
 ---------------------------------------------------------------------------

Topologies differ in total number of bonds
Writing topology from bond orders to xtbtopo.mol

molecular dipole:
                 x           y           z       tot (Debye)
 q only:       -2.482       2.123       0.626
   full:       -2.207       1.611       0.428       7.031
molecular quadrupole (traceless):
                xx          xy          yy          xz          yz          zz
 q only:        1.284     -50.331      16.348     -23.814      10.503     -17.632
  q+dip:        6.979     -46.422       8.720     -29.107       6.548     -15.699
   full:        8.092     -44.249       6.610     -21.596       7.550     -14.702

           -------------------------------------------------
          |                Geometry Summary                 |
           -------------------------------------------------

      molecular mass/u    :      920.9834508
   center of mass at/Å    :       -0.5302933       3.3241467       0.7838155
  moments of inertia/u·Å² :        0.8959522E+04   0.1852699E+05   0.2139436E+05
rotational constants/cm⁻¹ :        0.1881533E-02   0.9098961E-03   0.7879473E-03

 * 113 selected distances

     #   Z          #   Z                                           value/Å
     1   8 O        2  15 P                                       1.4820810
     2  15 P        3   8 O                                       1.5042352
     2  15 P        4   8 O                                       1.6421868
     4   8 O        5   6 C                                       1.3765283
     5   6 C        6   6 C                                       1.4149635
     6   6 C        7   6 C                                       1.3743122
     7   6 C        8   6 C                                       1.4078956
     8   6 C        9   6 C                                       1.4118288
     9   6 C       10   6 C                                       1.3664148
    10   6 C       11   6 C                                       1.4035254
    11   6 C       12   6 C                                       1.3675316
     8   6 C       13   6 C                                       1.4204385
    12   6 C       13   6 C                                       1.4118061
     5   6 C       14   6 C                                       1.3807545
    13   6 C       14   6 C                                       1.4193838
    15   6 C       16   6 C                                       1.3812445
     2  15 P       17   8 O                                       1.6464813 (max)
    16   6 C       17   8 O                                       1.3764731
    16   6 C       18   6 C                                       1.4141926
    18   6 C       19   6 C                                       1.3727730
    19   6 C       20   6 C                                       1.4080821
    20   6 C       21   6 C                                       1.4115505
    21   6 C       22   6 C                                       1.3664448
    22   6 C       23   6 C                                       1.4033412
    23   6 C       24   6 C                                       1.3675484
    15   6 C       25   6 C                                       1.4199780
    20   6 C       25   6 C                                       1.4204079
    24   6 C       25   6 C                                       1.4119983
    26   6 C       27   6 C                                       1.3934397
    27   6 C       28   6 C                                       1.3828214
    28   6 C       29   6 C                                       1.3851592
    29   6 C       30   6 C                                       1.3849564
    26   6 C       31   6 C                                       1.3924444
    30   6 C       31   6 C                                       1.3832591
    32   6 C       33   6 C                                       1.3923157
    33   6 C       34   6 C                                       1.3828095
    34   6 C       35   6 C                                       1.3854796
    35   6 C       36   6 C                                       1.3854614
    32   6 C       37   6 C                                       1.3910250
    36   6 C       37   6 C                                       1.3846962
     7   6 C       39   1 H                                       1.0813854
     9   6 C       40   1 H                                       1.0810537
    10   6 C       41   1 H                                       1.0802962
    11   6 C       42   1 H                                       1.0804118
    12   6 C       43   1 H                                       1.0800763
    19   6 C       44   1 H                                       1.0815237
    21   6 C       45   1 H                                       1.0810805
    22   6 C       46   1 H                                       1.0803044
    23   6 C       47   1 H                                       1.0804525
    24   6 C       48   1 H                                       1.0799849
    27   6 C       49   1 H                                       1.0807162
    28   6 C       50   1 H                                       1.0811019
    29   6 C       51   1 H                                       1.0800853
    30   6 C       52   1 H                                       1.0805686
    31   6 C       53   1 H                                       1.0798410
    33   6 C       54   1 H                                       1.0804837
    34   6 C       55   1 H                                       1.0807284
    35   6 C       56   1 H                                       1.0802749
    36   6 C       57   1 H                                       1.0814997
    37   6 C       58   1 H                                       1.0808873
    59   6 C       60   6 C                                       1.4768373
    60   6 C       61   7 N                                       1.2951846
    61   7 N       62   6 C                                       1.4039049
    62   6 C       63   6 C                                       1.3915199
    63   6 C       64   6 C                                       1.3830939
    64   6 C       65   6 C                                       1.3851453
    65   6 C       66   6 C                                       1.3867384
    62   6 C       67   6 C                                       1.3945155
    66   6 C       67   6 C                                       1.3815985
    68   6 C       69   6 C                                       1.3965966
    69   6 C       70   6 C                                       1.3828648
    70   6 C       71   6 C                                       1.3868225
    71   6 C       72   6 C                                       1.3865902
    68   6 C       73   6 C                                       1.3989060
    72   6 C       73   6 C                                       1.3801282
    59   6 C       74   1 H                                       1.0861975
    59   6 C       75   1 H                                       1.0940458
    59   6 C       76   1 H                                       1.0885385
    63   6 C       77   1 H                                       1.0775577
    64   6 C       78   1 H                                       1.0791378
    65   6 C       79   1 H                                       1.0797811
    66   6 C       80   1 H                                       1.0796377
    67   6 C       81   1 H                                       1.0790449
    69   6 C       82   1 H                                       1.0793065
    70   6 C       83   1 H                                       1.0798267
    71   6 C       84   1 H                                       1.0794488
    72   6 C       85   1 H                                       1.0793417
    73   6 C       86   1 H                                       1.0779680
    87   6 C       88   8 O                                       1.4181982
    88   8 O       89   6 C                                       1.3499528
    89   6 C       90   8 O                                       1.2227625
    91   6 C       92   6 C                                       1.3605985
    92   6 C       94   7 N                                       1.3732529
    94   7 N       95   6 C                                       1.3775243
    95   6 C       97   6 C                                       1.3581821
    98   6 C       99   8 O                                       1.2193396
    98   6 C      100   8 O                                       1.3512432
   100   8 O      101   6 C                                       1.4205257
    87   6 C      103   1 H                                       1.0868193
    87   6 C      104   1 H                                       1.0927206
    87   6 C      105   1 H                                       1.0926566
    93   6 C      106   1 H                                       1.0835939
    93   6 C      107   1 H                                       1.0897375
    93   6 C      108   1 H                                       1.0883371
    94   7 N      109   1 H                                       1.0138179 (min)
    96   6 C      110   1 H                                       1.0823055
    96   6 C      111   1 H                                       1.0903371
    96   6 C      112   1 H                                       1.0879749
   101   6 C      113   1 H                                       1.0922836
   101   6 C      114   1 H                                       1.0870730
   101   6 C      115   1 H                                       1.0927504
   102   6 C      116   1 H                                       1.0886799
   102   6 C      117   1 H                                       1.0989273
Note: The following floating-point exceptions are signalling: IEEE_DIVIDE_BY_ZERO IEEE_UNDERFLOW_FLAG IEEE_DENORMAL
normal termination of xtb

 * 6 distinct bonds (by element types)

   Z      Z             #   av. dist./Å        max./Å        min./Å
   1 H    6 C          47     1.0835486     1.0989273     1.0775577
   6 C    6 C          49     1.3928657     1.4768373     1.3581821
   1 H    7 N           1     1.0138179     1.0138179     1.0138179
   6 C    7 N           4     1.3624667     1.4039049     1.2951846
   6 C    8 O           8     1.3418779     1.4205257     1.2193396
   8 O   15 P           4     1.5687461     1.6464813     1.4820810


optimized geometry written to: xtbopt.xyz


           -------------------------------------------------
          | TOTAL ENERGY             -188.258473134186 Eh   |
          | GRADIENT NORM               0.000138155138 Eh/α |
          | HOMO-LUMO GAP               1.245675550074 eV   |
           -------------------------------------------------

------------------------------------------------------------------------
 * finished run on 2026/09/10 at 23:50:04.345     
------------------------------------------------------------------------
 total:
 * wall-time:     0 d,  0 h,  2 min, 54.310 sec
 *  cpu-time:     0 d,  0 h,  0 min, 55.234 sec
 * ratio c/w:     0.317 speedup
 SCF:
 * wall-time:     0 d,  0 h,  0 min,  1.016 sec
 *  cpu-time:     0 d,  0 h,  0 min,  0.375 sec
 * ratio c/w:     0.369 speedup
 ANC optimizer:
 * wall-time:     0 d,  0 h,  2 min, 53.143 sec
 *  cpu-time:     0 d,  0 h,  0 min, 54.859 sec
 * ratio c/w:     0.317 speedup

