117
 energy: -188.258473134186 gnorm: 0.000138155138 xtb: 6.7.1 (edcfbbe)
O            0.63493274384138        3.13395586796932       -0.54515483099340
P           -0.10044197530012        2.16578562485683        0.30245013263000
O           -1.03543047598647        2.68635861722695        1.35957994327593
O           -0.90967904939206        1.12195181729475       -0.67342040465375
C           -1.39680144770889        0.02853389536543        0.00626973931531
C           -2.73860323129192        0.02355101986333        0.45534052761595
C           -3.19736063944909       -1.07905556761906        1.13543910068984
C           -2.35826946234108       -2.16982681452494        1.43261546471776
C           -2.82781787297146       -3.28468395771310        2.16054276750257
C           -1.98443317489459       -4.30301618684691        2.50520303231990
C           -0.62814196548279       -4.24260242584445        2.14924298443917
C           -0.14454867739613       -3.18357352820618        1.43179080942565
C           -0.99653704958224       -2.13186736809054        1.03026102752301
C           -0.53739017656178       -1.01628932473757        0.28238423266843
C            0.86336901075202       -0.87260780631446       -0.16832292297180
C            1.55263460143767        0.25053435672205        0.24556175586590
O            0.92939036837836        1.14647152944158        1.08433528939284
C            2.86229093894231        0.52221779115274       -0.21370809994148
C            3.47101057515464       -0.38196531760514       -1.04822510771000
C            2.81154320045163       -1.54785871775522       -1.48237970653967
C            3.43280985208086       -2.46273660847761       -2.35959148246833
C            2.75630691755139       -3.55240147594435       -2.83091454454540
C            1.42009439454409       -3.76373397307437       -2.45776468949169
C            0.79330026335589       -2.90271395487283       -1.59988245472405
C            1.47514165979321       -1.78782093953390       -1.06523787305360
C           -3.59954390640350        1.19958241434152        0.24923302327581
C           -4.32273957821426        1.71589685493783        1.32258350511980
C           -5.14023748821924        2.81846884150604        1.15457479276229
C           -5.25015795867543        3.42050486948098       -0.08805783884553
C           -4.52540223621786        2.92205798771569       -1.15781654275086
C           -3.70656234319606        1.81944658885986       -0.99302961327562
C            3.52617531433917        1.78745514940565        0.14517024238601
C            3.98099258445578        2.62918898669184       -0.86634743749596
C            4.58952283212854        3.83192652800921       -0.55768098088654
C            4.76918536491480        4.20146662345173        0.76546483201761
C            4.33433471635723        3.36093170277912        1.77734870875647
C            3.70650286445168        2.16518701554269        1.47172620169664
H           -1.93119366458796        3.96083956028619        1.21274503973840
H           -4.22642870758090       -1.11025031251463        1.46625609250774
H           -3.86960367164919       -3.31099668866862        2.44806111142799
H           -2.35061705322601       -5.15236704682122        3.06337167121879
H            0.03569692720304       -5.04042697911716        2.44938177735978
H            0.90237678139663       -3.14002664936713        1.16984557628552
H            4.47633501980269       -0.18953305302216       -1.39748982225590
H            4.45534040623929       -2.27739774173621       -2.65761096494118
H            3.23825141414935       -4.24836722898655       -3.50204675805803
H            0.88535987239123       -4.61343506195486       -2.85706961363726
H           -0.23863077612667       -3.06804792453188       -1.32757733302479
H           -4.22819154493050        1.25304835131105        2.29458108255976
H           -5.70045776740257        3.20551723494571        1.99429368654469
H           -5.89926756696570        4.27274694525472       -0.22562347900367
H           -4.60175611675384        3.39346904234564       -2.12713075696218
H           -3.15471198626326        1.42650768481322       -1.83393186329628
H            3.83193977675094        2.34329508581950       -1.89760532344180
H            4.92908727122282        4.48100670784443       -1.35226544005710
H            5.24736855499958        5.13911299864702        1.00868047440368
H            4.49218927438178        3.63842838671596        2.81065355987087
H            3.36084523930273        1.51282776626718        2.26119782088904
C           -2.58867694302044        4.26452432053731        3.60090732273157
C           -2.79160618204081        5.23331522042769        2.50486351524893
N           -2.47734209649331        4.87242705571961        1.30132682122766
C           -2.69339602173830        5.53987817361724        0.08527649498995
C           -1.78205905446339        5.31859984221222       -0.94274497249360
C           -1.95849700614172        5.94169779302805       -2.16486074958361
C           -3.05102838533020        6.76599340189122       -2.37825934709557
C           -3.98245523774924        6.95096362715713       -1.36767883135099
C           -3.81205107726533        6.34160508748181       -0.13948557737264
C           -3.23669292526736        6.58271342671445        2.85267888004150
C           -4.21184145037977        6.81202469798116        3.82580956436116
C           -4.54447830612155        8.10445352347712        4.18815645015064
C           -3.89677612940700        9.18451949281606        3.60745374505184
C           -2.91764380970625        8.96799875185400        2.64982609404527
C           -2.59659121864440        7.68097670795896        2.26870530628985
H           -2.20268355679285        3.32285948071912        3.22130074810029
H           -1.87986029609301        4.68753072329965        4.31894667158333
H           -3.51990334829775        4.09336502369046        4.13797125201617
H           -0.94621187662926        4.65831571232866       -0.77991169895376
H           -1.24185446121012        5.77103736804088       -2.95342697530585
H           -3.18736924018478        7.25011256657808       -3.33375232429634
H           -4.85054709265013        7.56991592306072       -1.53777303235818
H           -4.55119097694168        6.47345576475902        0.63551459028844
H           -4.73260437617358        5.98078984311825        4.27609493920973
H           -5.30897414643868        8.26900894241745        4.93279944209354
H           -4.15352529091136       10.19073997529742        3.90208876311985
H           -2.39549440924566        9.79274743982523        2.18925275586083
H           -1.82494958899671        7.52195644110184        1.53297668172337
C           -1.00413759489240        8.50884476717117        5.77754601314509
O           -0.31116560385101        8.26293313388262        4.56486174056351
C           -0.09477716173057        6.96750514267250        4.25274863627945
O           -0.47895549021897        6.07164315075929        4.99098042169164
C            0.59725957883686        6.81586223889116        2.98618915246339
C            1.07820845388208        5.63334240439132        2.51548449363278
C            1.09861949803420        4.33230928639254        3.23755605912032
N            1.62456135680962        5.59244793325670        1.25625882100993
C            1.32808194773784        6.52468752905649        0.28641231568460
C            1.63521139304876        6.06870371941310       -1.09852319492039
C            0.82500178148248        7.72384530966680        0.67831710352318
C            0.19463955664637        8.73505825869947       -0.16022549650702
O           -0.47024631454267        9.65364279347095        0.28801335786987
O            0.36220512345459        8.58080341950754       -1.49213582859946
C           -0.30759048869634        9.52447056912961       -2.31600415486353
C            0.84696861986138        8.05387891698258        2.15802680384544
H           -1.10476086323384        9.58851563343466        5.85077053359724
H           -1.98667615289993        8.03101593794673        5.75922468828993
H           -0.43846985562856        8.11712048011252        6.62635126161003
H            0.75171132732753        4.44571475147668        4.25783516447180
H            0.46807738024937        3.61021686264505        2.71936046305837
H            2.11192054381608        3.93520293810742        3.23532708261180
H            1.89796756488490        4.67721148951012        0.91652686503191
H            1.06019046506647        6.61723533420615       -1.83326736109385
H            2.69408278872860        6.24070005480876       -1.29357010382458
H            1.44317606422770        5.00215730501663       -1.19490914203209
H            0.00083623123397       10.54058989498189       -2.06015725332871
H           -0.02481755351638        9.28399790097375       -3.33773788862129
H           -1.38915427138086        9.44066656390410       -2.18447529119280
H            0.10471765625292        8.82064422570275        2.37333631573867
H            1.82914745211406        8.47445666403534        2.41508715472649
