31
MMFF starting geometry; not quantum validated
C -0.2170091453 1.6005821889 -3.0250874544
C 0.3079273468 0.9564634313 -1.7621132513
N 1.5954113097 0.9682007619 -1.5776834577
C 2.1650281441 0.4439812278 -0.4093184085
C 2.0579980345 1.1102583838 0.8152198890
C 2.6519023395 0.5824491006 1.9636778075
C 3.3736738953 -0.6081094535 1.8897088138
C 3.5088602726 -1.2650606621 0.6675369058
C 2.9122792671 -0.7343827173 -0.4780658880
C -0.7107303442 0.3797755790 -0.8520313621
C -1.6752863693 1.2173307040 -0.2872488212
C -2.6467584124 0.6786590940 0.5584224770
C -2.6682090114 -0.6962552554 0.8301834692
C -3.6899278813 -1.2674313666 1.7693193230
C -1.6895906075 -1.5235366757 0.2622544609
C -0.7166715200 -0.9899794826 -0.5846407401
H 0.3558514640 1.2360282323 -3.8831425199
H -0.0955311627 2.6852099890 -2.9515809720
H -1.2725331019 1.3677266017 -3.1894570864
H 1.5097723654 2.0457998116 0.8723261587
H 2.5558645608 1.1042029281 2.9117913297
H 3.8396355885 -1.0177858868 2.7820264956
H 4.0834223552 -2.1848735464 0.6029759054
H 3.0283815087 -1.2371463627 -1.4339184562
H -1.6676915110 2.2851687379 -0.4880092817
H -3.3869106317 1.3378222995 1.0071376082
H -3.3100180216 -1.2423404309 2.7952505319
H -3.9278736082 -2.3030352527 1.5045567769
H -4.6241645765 -0.6979886577 1.7232443820
H -1.6786732131 -2.5898818311 0.4775418139
H 0.0315706658 -1.6418514899 -1.0269141484
