31
 energy: -42.687058328792 gnorm: 0.000047092846 xtb: 6.7.1 (edcfbbe)
C           -0.16047632826531        1.69131963368396       -2.93294999910897
C            0.27866710477742        0.95248071644231       -1.70554507006281
N            1.52461223758464        0.81874635009376       -1.51422714291453
C            2.14472060971757        0.29651270917200       -0.40123111132253
C            1.94722222278077        0.83838615257280        0.87230678084748
C            2.68005426362009        0.37628306576016        1.94753902389233
C            3.61237401981504       -0.63476802544728        1.78022947353789
C            3.81885461852465       -1.17235596067713        0.51908332069091
C            3.10515218728109       -0.70552385828909       -0.56619452396179
C           -0.78027107078379        0.40418629711726       -0.83042061798730
C           -1.92883997622087        1.13808264094466       -0.54234438644541
C           -2.90357967250102        0.62118143217254        0.29005765294350
C           -2.77425824107284       -0.64636063012080        0.84472955499733
C           -3.82246023906064       -1.20303052736793        1.75850529368873
C           -1.63371679513604       -1.38390502860769        0.54389165100941
C           -0.64917413732239       -0.86757864118950       -0.27443265027036
H            0.68795063258736        1.83676960466409       -3.59568471628728
H           -0.55348788690499        2.66851413137025       -2.65547780806004
H           -0.94682683783496        1.14268301258411       -3.44762144019000
H            1.22182301717504        1.63029612850643        1.00020180525149
H            2.51778399349530        0.80580642896952        2.92646841716550
H            4.17841144310532       -0.99802716251566        2.62558094604936
H            4.54845590201609       -1.95803934908649        0.38012673603770
H            3.26290642752679       -1.12035451140035       -1.55150351985254
H           -2.05385687465825        2.12980015897752       -0.95129833199221
H           -3.78171366859806        1.21244598051688        0.50988088672038
H           -3.49976264427363       -1.10494785767323        2.79594289951420
H           -3.98571317637383       -2.26050593990247        1.55956029145565
H           -4.76405496531086       -0.67138175321383        1.64327450984298
H           -1.51504726083730       -2.37526748741951        0.95821143533435
H            0.22425109504727       -1.46144771063844       -0.50269705992403
