      -----------------------------------------------------------      
     |                   =====================                   |     
     |                           x T B                           |     
     |                   =====================                   |     
     |                         S. Grimme                         |     
     |          Mulliken Center for Theoretical Chemistry        |     
     |                    University of Bonn                     |     
      -----------------------------------------------------------      

   * xtb version 6.7.1 (edcfbbe) compiled by 'VssAdministrator@runnervm171ch' on 2026-06-10

   xtb is free software: you can redistribute it and/or modify it under
   the terms of the GNU Lesser General Public License as published by
   the Free Software Foundation, either version 3 of the License, or
   (at your option) any later version.
   
   xtb is distributed in the hope that it will be useful,
   but WITHOUT ANY WARRANTY; without even the implied warranty of
   MERCHANTABILITY or FITNESS FOR A PARTICULAR PURPOSE.  See the
   GNU Lesser General Public License for more details.
   
   Cite this work as:
   * C. Bannwarth, E. Caldeweyher, S. Ehlert, A. Hansen, P. Pracht,
     J. Seibert, S. Spicher, S. Grimme, WIREs Comput. Mol. Sci., 2020, 11,
     e01493. DOI: 10.1002/wcms.1493
   
   for GFN2-xTB:
   * C. Bannwarth, S. Ehlert and S. Grimme., J. Chem. Theory Comput., 2019,
     15, 1652-1671. DOI: 10.1021/acs.jctc.8b01176
   for GFN1-xTB:
   * S. Grimme, C. Bannwarth, P. Shushkov, J. Chem. Theory Comput., 2017,
     13, 1989-2009. DOI: 10.1021/acs.jctc.7b00118
   for GFN0-xTB:
   * P. Pracht, E. Caldeweyher, S. Ehlert, S. Grimme, ChemRxiv, 2019, preprint.
     DOI: 10.26434/chemrxiv.8326202.v1
   for GFN-FF:
   * S. Spicher and S. Grimme, Angew. Chem. Int. Ed., 2020, 59, 15665-15673.
     DOI: 10.1002/anie.202004239
   
   for ALPB and GBSA implicit solvation:
   * S. Ehlert, M. Stahn, S. Spicher, S. Grimme, J. Chem. Theory Comput.,
     2021, 17, 4250-4261. DOI: 10.1021/acs.jctc.1c00471
   
   for ddCOSMO and CPCM-X implicit solvation:
   * M. Stahn, S. Ehlert, S. Grimme, J. Phys. Chem. A,
     2023, XX, XXXX-XXXX. DOI: 10.1021/acs.jpca.3c04382
   
   for DFT-D4:
   * E. Caldeweyher, C. Bannwarth and S. Grimme, J. Chem. Phys., 2017,
     147, 034112. DOI: 10.1063/1.4993215
   * E. Caldeweyher, S. Ehlert, A. Hansen, H. Neugebauer, S. Spicher,
     C. Bannwarth and S. Grimme, J. Chem. Phys., 2019, 150, 154122.
     DOI: 10.1063/1.5090222
   * E. Caldeweyher, J.-M. Mewes, S. Ehlert and S. Grimme, Phys. Chem. Chem. Phys.
     2020, 22, 8499-8512. DOI: 10.1039/D0CP00502A
   
   for sTDA-xTB:
   * S. Grimme and C. Bannwarth, J. Chem. Phys., 2016, 145, 054103.
     DOI: 10.1063/1.4959605
   
   in the mass-spec context:
   * V. Asgeirsson, C. Bauer and S. Grimme, Chem. Sci., 2017, 8, 4879.
     DOI: 10.1039/c7sc00601b
   * J. Koopman and S. Grimme, ACS Omega 2019, 4, 12, 15120-15133.
     DOI: 10.1021/acsomega.9b02011
   
   for metadynamics refer to:
   * S. Grimme, J. Chem. Theory Comput., 2019, 155, 2847-2862
     DOI: 10.1021/acs.jctc.9b00143
   
   for SPH calculations refer to:
   * S. Spicher and S. Grimme, J. Chem. Theory Comput., 2021, 17, 1701-1714
     DOI: 10.1021/acs.jctc.0c01306
   
   for ONIOM refer to:
   * C. Plett, A. Katbashev, S. Ehlert, S. Grimme, M. Bursch,
     Phys. Chem. Chem. Phys., 2023, 25, 17860-17868. DOI: 10.1039/D3CP02178E
   
   for DIPRO refer to:
   * J. Kohn, N. Gildemeister, S. Grimme, D. Fazzi, A. Hansen,
     J. Chem. Phys., 2023, just accepted.
   
   for PTB refer to:
   * S. Grimme, M. Mueller, A. Hansen, J. Chem. Phys., 2023, 158, 124111.
     DOI: 10.1063/5.0137838
   
   with help from (in alphabetical order)
   P. Atkinson, C. Bannwarth, F. Bohle, G. Brandenburg, E. Caldeweyher
   M. Checinski, S. Dohm, S. Ehlert, S. Ehrlich, I. Gerasimov, C. Hölzer
   A. Katbashev, J. Kohn, J. Koopman, C. Lavigne, S. Lehtola, F. März, M. Müller,
   F. Musil, H. Neugebauer, J. Pisarek, C. Plett, P. Pracht, F. Pultar,
   J. Seibert, P. Shushkov, S. Spicher, M. Stahn, M. Steiner, T. Strunk,
   J. Stückrath, T. Rose, and J. Unsleber
   
 * started run on 2026/09/10 at 22:57:33.487     
   ID    Z sym.   atoms
    1    6 C      1, 2, 4-19
    2    7 N      3
    3    1 H      20-34

           -------------------------------------------------
          |                Calculation Setup                |
           -------------------------------------------------

          program call               : C:\Users\HUIWEI\miniconda3\envs\phase2ff\Library\bin\xtb.exe input.xyz --gfn 2 --chrg 0 --uhf 0 --alpb toluene --acc 0.2 --opt vtight
          coordinate file            : input.xyz
          omp threads                :                     1


           -------------------------------------------------
          |                 G F N 2 - x T B                 |
           -------------------------------------------------

        Reference                      10.1021/acs.jctc.8b01176
      * Hamiltonian:
        H0-scaling (s, p, d)           1.850000    2.230000    2.230000
        zeta-weighting                 0.500000
      * Dispersion:
        s8                             2.700000
        a1                             0.520000
        a2                             5.000000
        s9                             5.000000
      * Repulsion:
        kExp                           1.500000    1.000000
        rExp                           1.000000
      * Coulomb:
        alpha                          2.000000
        third order                    shell-resolved
        anisotropic                    true
        a3                             3.000000
        a5                             4.000000
        cn-shift                       1.200000
        cn-exp                         4.000000
        max-rad                        5.000000

      * Solvation model:               ALPB
        Solvent                        toluene
        Parameter file                 internal GFN2-xTB/ALPB
        Dielectric constant                7.0000E+00
        Reference state                gsolv [1 M gas/solution]
        Free energy shift                  2.2081E-03 Eh       1.3856E+00 kcal/mol
        Temperature                        2.9815E+02 K
        Density                            8.6700E-01 kg/L
        Solvent mass                       7.8110E+01 g/mol
        Interaction kernel             P16
        Born radius scaling (c1)           1.7172E+00
        Born radii integrator          GBOBC
        Born offset                        0.0000E+00 a0       0.0000E+00 AA
        H-bond correction              false
        Ion screening                  false
        Surface tension                    1.0000E-05 Eh       1.5569E+01 dyn/cm
        Grid points                               230 per atom

          ...................................................
          :                      SETUP                      :
          :.................................................:
          :  # basis functions                  91          :
          :  # atomic orbitals                  91          :
          :  # shells                           53          :
          :  # electrons                        92          :
          :  max. iterations                   250          :
          :  Hamiltonian                  GFN2-xTB          :
          :  restarted?                      false          :
          :  GBSA solvation                   true          :
          :  PC potential                    false          :
          :  electronic temp.          300.0000000     K    :
          :  accuracy                    0.2000000          :
          :  -> integral cutoff          0.3198970E+02      :
          :  -> integral neglect         0.2000000E-08      :
          :  -> SCF convergence          0.2000000E-06 Eh   :
          :  -> wf. convergence          0.2000000E-04 e    :
          :  Broyden damping             0.4000000          :
          :  net charge                          0          :
          :  unpaired electrons                  0          :
          ...................................................

 iter      E             dE          RMSdq      gap      omega  full diag
   1    -49.9465901 -0.499466E+02  0.405E+00    2.58       0.0  T
   2    -49.9730559 -0.264658E-01  0.239E+00    2.56       1.0  T
   3    -49.9615099  0.115460E-01  0.797E-01    2.46       1.0  T
   4    -49.9757255 -0.142155E-01  0.286E-01    2.42       1.0  T
   5    -49.9774898 -0.176434E-02  0.112E-01    2.41       1.0  T
   6    -49.9779042 -0.414429E-03  0.341E-02    2.41       1.0  T
   7    -49.9779071 -0.283323E-05  0.165E-02    2.41       1.0  T
   8    -49.9779111 -0.403904E-05  0.411E-03    2.41       4.2  T
   9    -49.9779115 -0.386594E-06  0.117E-03    2.41      14.7  T
  10    -49.9779115 -0.178934E-07  0.675E-04    2.41      25.4  T
  11    -49.9779115 -0.314149E-08  0.220E-04    2.41      77.8  T
  12    -49.9779115 -0.113000E-08  0.685E-05    2.41     250.3  T
  13    -49.9779115 -0.100968E-10  0.396E-05    2.41     433.2  T

   *** convergence criteria satisfied after 13 iterations ***

         #    Occupation            Energy/Eh            Energy/eV
      -------------------------------------------------------------
         1        2.0000           -0.6553938             -17.8342
       ...           ...                  ...                  ...
        40        2.0000           -0.4219574             -11.4820
        41        2.0000           -0.4097867             -11.1509
        42        2.0000           -0.4068625             -11.0713
        43        2.0000           -0.4031679             -10.9708
        44        2.0000           -0.3949278             -10.7465
        45        2.0000           -0.3765395             -10.2462
        46        2.0000           -0.3597728              -9.7899 (HOMO)
        47                         -0.2710428              -7.3754 (LUMO)
        48                         -0.2449192              -6.6646
        49                         -0.2306720              -6.2769
        50                         -0.2187185              -5.9516
        51                         -0.2092790              -5.6948
       ...                                ...                  ...
        91                          0.6812395              18.5375
      -------------------------------------------------------------
                  HL-Gap            0.0887300 Eh            2.4145 eV
             Fermi-level           -0.3154078 Eh           -8.5827 eV

 SCC (total)                   0 d,  0 h,  0 min,  0.041 sec
 SCC setup                      ...        0 min,  0.001 sec (  2.899%)
 Dispersion                     ...        0 min,  0.000 sec (  0.992%)
 classical contributions        ...        0 min,  0.000 sec (  0.204%)
 integral evaluation            ...        0 min,  0.005 sec ( 12.715%)
 iterations                     ...        0 min,  0.018 sec ( 43.633%)
 molecular gradient             ...        0 min,  0.016 sec ( 38.869%)
 printout                       ...        0 min,  0.000 sec (  0.637%)

         :::::::::::::::::::::::::::::::::::::::::::::::::::::
         ::                     SUMMARY                     ::
         :::::::::::::::::::::::::::::::::::::::::::::::::::::
         :: total energy             -49.101265436552 Eh    ::
         :: total w/o Gsasa/hb       -49.079810915946 Eh    ::
         :: gradient norm              0.091549766994 Eh/a0 ::
         :: HOMO-LUMO gap              2.414466314422 eV    ::
         ::.................................................::
         :: SCC energy               -49.977030432081 Eh    ::
         :: -> isotropic ES            0.011176797157 Eh    ::
         :: -> anisotropic ES          0.007193484439 Eh    ::
         :: -> anisotropic XC          0.037631486257 Eh    ::
         :: -> dispersion             -0.038952978373 Eh    ::
         :: -> Gsolv                  -0.021889326661 Eh    ::
         ::    -> Gelec               -0.000434806056 Eh    ::
         ::    -> Gsasa               -0.023662663744 Eh    ::
         ::    -> Ghb                  0.000000000000 Eh    ::
         ::    -> Gshift               0.002208143139 Eh    ::
         :: repulsion energy           0.875764995529 Eh    ::
         :: add. restraining           0.000000000000 Eh    ::
         :: total charge              -0.000000000000 e     ::
         :::::::::::::::::::::::::::::::::::::::::::::::::::::

      ----------------------------------------------------------- 
     |                   =====================                   |
     |                        A N C O P T                        |
     |                   =====================                   |
     |               Approximate Normal Coordinate               |
     |                Rational Function Optimizer                |
      ----------------------------------------------------------- 
      ----------------------------------------------------------- 
     |                   =====================                   |
     |                        A N C O P T                        |
     |                   =====================                   |
     |               Approximate Normal Coordinate               |
     |                Rational Function Optimizer                |
      ----------------------------------------------------------- 

          ...................................................
          :                      SETUP                      :
          :.................................................:
          :   optimization level         verytight          :
          :   max. optcycles                   680          :
          :   ANC micro-cycles                  20          :
          :   degrees of freedom                96          :
          :.................................................:
          :   RF solver                   davidson          :
          :   write xtbopt.log                true          :
          :   linear?                        false          :
          :   energy convergence         0.1000000E-06 Eh   :
          :   grad. convergence          0.2000000E-03 Eh/α :
          :   maxmium RF displ.          1.0000000          :
          :   Hlow (freq-cutoff)         0.1000000E-01      :
          :   Hmax (freq-cutoff)         5.0000000          :
          :   S6 in model hess.         20.0000000          :
          ...................................................

generating ANC from exact Hessian ...
Using Lindh-Hessian (1995)
 Shifting diagonal of input Hessian by    9.6130512193875958E-003
 Lowest  eigenvalues of input Hessian
    0.000000    0.000000    0.000000    0.000000    0.000000    0.000000
    0.010000    0.010264    0.010600    0.011974    0.012255    0.014708
    0.015024    0.016192    0.018499    0.019314    0.021198    0.024150
 Highest eigenvalues
    1.880369    1.914064    1.948142    2.001508    2.058871    2.073138


........................................................................
.............................. CYCLE    1 ..............................
........................................................................

 iter      E             dE          RMSdq      gap      omega  full diag
   1    -49.9779115 -0.499779E+02  0.154E-05    2.41       0.0  T
   2    -49.9779115 -0.169820E-11  0.114E-05    2.41    1504.6  T
   3    -49.9779115 -0.257927E-11  0.620E-06    2.41    2764.2  T
     SCC iter.                  ...        0 min,  0.005 sec
     gradient                   ...        0 min,  0.019 sec
 * total energy  :   -49.1012654 Eh     change       -0.1655565E-10 Eh
   gradient norm :     0.0915500 Eh/α   predicted     0.0000000E+00 (-100.00%)
   displ. norm   :     0.2087794 α      lambda       -0.9085376E-02
   maximum displ.:     0.0865306 α      in ANC's #24, #11, #18, ...

........................................................................
.............................. CYCLE    2 ..............................
........................................................................

 iter      E             dE          RMSdq      gap      omega  full diag
   1    -50.0242118 -0.500242E+02  0.151E-01    2.47       0.0  T
   2    -50.0242755 -0.636871E-04  0.927E-02    2.51       1.0  T
   3    -50.0242566  0.188768E-04  0.415E-02    2.51       1.0  T
   4    -50.0242856 -0.289706E-04  0.993E-03    2.51       1.7  T
   5    -50.0242881 -0.246974E-05  0.383E-03    2.51       4.5  T
   6    -50.0242884 -0.318416E-06  0.169E-03    2.51      10.2  T
   7    -50.0242884 -0.205465E-07  0.736E-04    2.51      23.3  T
   8    -50.0242884 -0.880075E-08  0.291E-04    2.51      58.9  T
   9    -50.0242884 -0.882906E-09  0.956E-05    2.51     179.3  T
  10    -50.0242884 -0.142059E-09  0.443E-05    2.51     386.9  T
     SCC iter.                  ...        0 min,  0.014 sec
     gradient                   ...        0 min,  0.015 sec
 * total energy  :   -49.1072650 Eh     change       -0.5999561E-02 Eh
   gradient norm :     0.0334329 Eh/α   predicted    -0.4741676E-02 ( -20.97%)
   displ. norm   :     0.1537681 α      lambda       -0.1808526E-02
   maximum displ.:     0.0696252 α      in ANC's #7, #4, #24, ...

........................................................................
.............................. CYCLE    3 ..............................
........................................................................

 iter      E             dE          RMSdq      gap      omega  full diag
   1    -50.0422775 -0.500423E+02  0.970E-02    2.53       0.0  T
   2    -50.0422987 -0.211458E-04  0.587E-02    2.55       1.0  T
   3    -50.0422886  0.100843E-04  0.293E-02    2.55       1.0  T
   4    -50.0423053 -0.167157E-04  0.470E-03    2.55       3.6  T
   5    -50.0423059 -0.571343E-06  0.171E-03    2.55      10.0  T
   6    -50.0423059 -0.449580E-07  0.767E-04    2.55      22.4  T
   7    -50.0423059 -0.956859E-09  0.336E-04    2.55      51.1  T
   8    -50.0423059 -0.149042E-08  0.141E-04    2.55     121.7  T
   9    -50.0423059 -0.301263E-09  0.545E-05    2.55     314.5  T
     SCC iter.                  ...        0 min,  0.013 sec
     gradient                   ...        0 min,  0.015 sec
 * total energy  :   -49.1082907 Eh     change       -0.1025723E-02 Eh
   gradient norm :     0.0093705 Eh/α   predicted    -0.9257878E-03 (  -9.74%)
   displ. norm   :     0.1135671 α      lambda       -0.2717032E-03
   maximum displ.:     0.0666488 α      in ANC's #4, #7, #5, ...

........................................................................
.............................. CYCLE    4 ..............................
........................................................................

 iter      E             dE          RMSdq      gap      omega  full diag
   1    -50.0419519 -0.500420E+02  0.570E-02    2.54       0.0  T
   2    -50.0419541 -0.223153E-05  0.338E-02    2.55       1.0  T
   3    -50.0419484  0.565065E-05  0.162E-02    2.54       1.1  T
   4    -50.0419557 -0.724013E-05  0.133E-03    2.55      12.9  T
   5    -50.0419557 -0.350505E-07  0.651E-04    2.55      26.4  T
   6    -50.0419557 -0.609904E-08  0.330E-04    2.55      52.0  T
   7    -50.0419557 -0.533582E-09  0.134E-04    2.55     128.4  T
   8    -50.0419557 -0.507249E-09  0.373E-05    2.55     459.7  T
     SCC iter.                  ...        0 min,  0.010 sec
     gradient                   ...        0 min,  0.015 sec
 * total energy  :   -49.1084979 Eh     change       -0.2072010E-03 Eh
   gradient norm :     0.0052964 Eh/α   predicted    -0.1376061E-03 ( -33.59%)
   displ. norm   :     0.1967193 α      lambda       -0.2539328E-03
   maximum displ.:     0.1291898 α      in ANC's #4, #7, #6, ...

........................................................................
.............................. CYCLE    5 ..............................
........................................................................

 iter      E             dE          RMSdq      gap      omega  full diag
   1    -50.0391487 -0.500391E+02  0.897E-02    2.52       0.0  T
   2    -50.0391519 -0.313255E-05  0.527E-02    2.53       1.0  T
   3    -50.0391415  0.103409E-04  0.203E-02    2.52       1.0  T
   4    -50.0391539 -0.123440E-04  0.166E-03    2.53      10.4  T
   5    -50.0391539 -0.440234E-07  0.879E-04    2.53      19.5  T
   6    -50.0391539 -0.837120E-08  0.446E-04    2.53      38.4  T
   7    -50.0391539 -0.186346E-08  0.145E-04    2.53     118.0  T
   8    -50.0391539 -0.577991E-09  0.487E-05    2.53     352.3  T
     SCC iter.                  ...        0 min,  0.010 sec
     gradient                   ...        0 min,  0.017 sec
 * total energy  :   -49.1086564 Eh     change       -0.1584859E-03 Eh
   gradient norm :     0.0035191 Eh/α   predicted    -0.1318813E-03 ( -16.79%)
   displ. norm   :     0.1152882 α      lambda       -0.7185126E-04
   maximum displ.:     0.0791651 α      in ANC's #4, #3, #6, ...

........................................................................
.............................. CYCLE    6 ..............................
........................................................................

 iter      E             dE          RMSdq      gap      omega  full diag
   1    -50.0385269 -0.500385E+02  0.495E-02    2.52       0.0  T
   2    -50.0385273 -0.368033E-06  0.290E-02    2.52       1.0  T
   3    -50.0385266  0.692504E-06  0.523E-03    2.52       3.3  T
   4    -50.0385274 -0.830550E-06  0.689E-04    2.52      24.9  T
   5    -50.0385274 -0.552593E-08  0.355E-04    2.52      48.3  T
   6    -50.0385274 -0.421601E-09  0.154E-04    2.52     111.7  T
   7    -50.0385274 -0.431307E-09  0.345E-05    2.52     496.8  T
     SCC iter.                  ...        0 min,  0.009 sec
     gradient                   ...        0 min,  0.015 sec
 * total energy  :   -49.1087149 Eh     change       -0.5851448E-04 Eh
   gradient norm :     0.0035951 Eh/α   predicted    -0.3641116E-04 ( -37.77%)
   displ. norm   :     0.1613197 α      lambda       -0.9808886E-04
   maximum displ.:     0.1031631 α      in ANC's #4, #3, #6, ...

........................................................................
.............................. CYCLE    7 ..............................
........................................................................

 iter      E             dE          RMSdq      gap      omega  full diag
   1    -50.0387239 -0.500387E+02  0.673E-02    2.51       0.0  T
   2    -50.0387242 -0.302287E-06  0.395E-02    2.51       1.0  T
   3    -50.0387240  0.134746E-06  0.270E-03    2.51       6.4  T
   4    -50.0387243 -0.234991E-06  0.884E-04    2.51      19.4  T
   5    -50.0387243 -0.709811E-08  0.407E-04    2.51      42.2  T
   6    -50.0387243 -0.520828E-09  0.170E-04    2.51     101.1  T
   7    -50.0387243 -0.705384E-09  0.560E-05    2.51     306.3  T
     SCC iter.                  ...        0 min,  0.010 sec
     gradient                   ...        0 min,  0.016 sec
 * total energy  :   -49.1087918 Eh     change       -0.7686458E-04 Eh
   gradient norm :     0.0027061 Eh/α   predicted    -0.5032111E-04 ( -34.53%)
   displ. norm   :     0.2150903 α      lambda       -0.9592267E-04
   maximum displ.:     0.1303659 α      in ANC's #4, #3, #6, ...

........................................................................
.............................. CYCLE    8 ..............................
........................................................................

 iter      E             dE          RMSdq      gap      omega  full diag
   1    -50.0390840 -0.500391E+02  0.868E-02    2.50       0.0  T
   2    -50.0390844 -0.345568E-06  0.509E-02    2.50       1.0  T
   3    -50.0390844  0.173681E-07  0.239E-03    2.50       7.2  T
   4    -50.0390845 -0.141692E-06  0.106E-03    2.50      16.2  T
   5    -50.0390845 -0.106073E-07  0.517E-04    2.50      33.2  T
   6    -50.0390845 -0.266007E-08  0.188E-04    2.50      91.3  T
   7    -50.0390845 -0.814616E-09  0.571E-05    2.50     300.5  T
     SCC iter.                  ...        0 min,  0.011 sec
     gradient                   ...        0 min,  0.016 sec
 * total energy  :   -49.1088625 Eh     change       -0.7075890E-04 Eh
   gradient norm :     0.0028759 Eh/α   predicted    -0.5018540E-04 ( -29.08%)
   displ. norm   :     0.2242931 α      lambda       -0.8041965E-04
   maximum displ.:     0.1226079 α      in ANC's #4, #3, #6, ...

........................................................................
.............................. CYCLE    9 ..............................
........................................................................

 iter      E             dE          RMSdq      gap      omega  full diag
   1    -50.0393559 -0.500394E+02  0.872E-02    2.49       0.0  T
   2    -50.0393561 -0.268753E-06  0.512E-02    2.49       1.0  T
   3    -50.0393558  0.317658E-06  0.356E-03    2.50       4.8  T
   4    -50.0393563 -0.460357E-06  0.975E-04    2.49      17.6  T
   5    -50.0393563 -0.458981E-08  0.485E-04    2.49      35.4  T
   6    -50.0393563 -0.284280E-08  0.132E-04    2.49     129.5  T
   7    -50.0393563 -0.412676E-09  0.439E-05    2.49     390.9  T
     SCC iter.                  ...        0 min,  0.009 sec
     gradient                   ...        0 min,  0.017 sec
 * total energy  :   -49.1089245 Eh     change       -0.6198529E-04 Eh
   gradient norm :     0.0035699 Eh/α   predicted    -0.4223381E-04 ( -31.86%)
   displ. norm   :     0.2573131 α      lambda       -0.1048272E-03
   maximum displ.:     0.1349864 α      in ANC's #3, #4, #1, ...

........................................................................
.............................. CYCLE   10 ..............................
........................................................................

 iter      E             dE          RMSdq      gap      omega  full diag
   1    -50.0397823 -0.500398E+02  0.960E-02    2.49       0.0  T
   2    -50.0397827 -0.354508E-06  0.564E-02    2.49       1.0  T
   3    -50.0397813  0.144506E-05  0.645E-03    2.49       2.7  T
   4    -50.0397830 -0.171248E-05  0.109E-03    2.49      15.7  T
   5    -50.0397830 -0.488302E-08  0.677E-04    2.49      25.3  T
   6    -50.0397830 -0.512640E-08  0.162E-04    2.49     105.8  T
   7    -50.0397830 -0.595740E-09  0.430E-05    2.49     398.6  T
     SCC iter.                  ...        0 min,  0.013 sec
     gradient                   ...        0 min,  0.016 sec
 * total energy  :   -49.1090100 Eh     change       -0.8544028E-04 Eh
   gradient norm :     0.0041291 Eh/α   predicted    -0.5589157E-04 ( -34.58%)
   displ. norm   :     0.3495763 α      lambda       -0.1688232E-03
   maximum displ.:     0.1878838 α      in ANC's #3, #7, #1, ...

........................................................................
.............................. CYCLE   11 ..............................
........................................................................

 iter      E             dE          RMSdq      gap      omega  full diag
   1    -50.0397520 -0.500398E+02  0.127E-01    2.49       0.0  T
   2    -50.0397530 -0.975329E-06  0.745E-02    2.49       1.0  T
   3    -50.0397487  0.432381E-05  0.110E-02    2.49       1.6  T
   4    -50.0397536 -0.497939E-05  0.173E-03    2.49       9.9  T
   5    -50.0397537 -0.334139E-07  0.101E-03    2.49      17.0  T
   6    -50.0397537 -0.780080E-08  0.388E-04    2.49      44.2  T
   7    -50.0397537 -0.234196E-08  0.866E-05    2.49     198.1  T
   8    -50.0397537 -0.123592E-09  0.372E-05    2.49     461.4  T
     SCC iter.                  ...        0 min,  0.012 sec
     gradient                   ...        0 min,  0.016 sec
 * total energy  :   -49.1091422 Eh     change       -0.1322293E-03 Eh
   gradient norm :     0.0051367 Eh/α   predicted    -0.9473090E-04 ( -28.36%)
   displ. norm   :     0.3583673 α      lambda       -0.2013387E-03
   maximum displ.:     0.1995464 α      in ANC's #3, #7, #1, ...

........................................................................
.............................. CYCLE   12 ..............................
........................................................................

 iter      E             dE          RMSdq      gap      omega  full diag
   1    -50.0396515 -0.500397E+02  0.131E-01    2.49       0.0  T
   2    -50.0396531 -0.162566E-05  0.770E-02    2.49       1.0  T
   3    -50.0396468  0.630683E-05  0.135E-02    2.49       1.3  T
   4    -50.0396540 -0.719640E-05  0.209E-03    2.49       8.2  T
   5    -50.0396541 -0.656170E-07  0.116E-03    2.49      14.8  T
   6    -50.0396541 -0.149330E-07  0.500E-04    2.49      34.3  T
   7    -50.0396541 -0.261138E-08  0.125E-04    2.49     137.4  T
   8    -50.0396541 -0.236767E-09  0.526E-05    2.49     325.9  T
     SCC iter.                  ...        0 min,  0.015 sec
     gradient                   ...        0 min,  0.017 sec
 * total energy  :   -49.1092941 Eh     change       -0.1518667E-03 Eh
   gradient norm :     0.0052510 Eh/α   predicted    -0.1135998E-03 ( -25.20%)
   displ. norm   :     0.3937268 α      lambda       -0.1930791E-03
   maximum displ.:     0.2287855 α      in ANC's #3, #1, #7, ...

........................................................................
.............................. CYCLE   13 ..............................
........................................................................

 iter      E             dE          RMSdq      gap      omega  full diag
   1    -50.0366958 -0.500367E+02  0.145E-01    2.49       0.0  T
   2    -50.0366976 -0.187180E-05  0.851E-02    2.49       1.0  T
   3    -50.0366932  0.441837E-05  0.117E-02    2.49       1.5  T
   4    -50.0366984 -0.515780E-05  0.240E-03    2.49       7.1  T
   5    -50.0366985 -0.104266E-06  0.122E-03    2.49      14.1  T
   6    -50.0366985 -0.805353E-08  0.618E-04    2.49      27.8  T
   7    -50.0366985 -0.545580E-08  0.104E-04    2.49     164.6  T
   8    -50.0366985 -0.149967E-09  0.505E-05    2.49     339.4  T
     SCC iter.                  ...        0 min,  0.013 sec
     gradient                   ...        0 min,  0.017 sec
 * total energy  :   -49.1094275 Eh     change       -0.1333964E-03 Eh
   gradient norm :     0.0070357 Eh/α   predicted    -0.1115182E-03 ( -16.40%)
   displ. norm   :     0.4084541 α      lambda       -0.4038324E-03
   maximum displ.:     0.2281332 α      in ANC's #3, #1, #7, ...

........................................................................
.............................. CYCLE   14 ..............................
........................................................................

 iter      E             dE          RMSdq      gap      omega  full diag
   1    -50.0393602 -0.500394E+02  0.163E-01    2.50       0.0  T
   2    -50.0393676 -0.739125E-05  0.956E-02    2.50       1.0  T
   3    -50.0393573  0.102778E-04  0.185E-02    2.50       1.0  T
   4    -50.0393689 -0.115648E-04  0.443E-03    2.50       3.9  T
   5    -50.0393694 -0.543590E-06  0.190E-03    2.50       9.0  T
   6    -50.0393695 -0.486213E-07  0.960E-04    2.50      17.9  T
   7    -50.0393695 -0.728824E-08  0.212E-04    2.50      80.9  T
   8    -50.0393695 -0.447187E-09  0.973E-05    2.50     176.3  T
   9    -50.0393695 -0.157080E-09  0.281E-05    2.50     609.7  T
     SCC iter.                  ...        0 min,  0.015 sec
     gradient                   ...        0 min,  0.021 sec
 * total energy  :   -49.1095525 Eh     change       -0.1250127E-03 Eh
   gradient norm :     0.0080338 Eh/α   predicted    -0.2356048E-03 (  88.46%)
   displ. norm   :     0.3912561 α      lambda       -0.3238114E-03
   maximum displ.:     0.2258510 α      in ANC's #3, #1, #10, ...

........................................................................
.............................. CYCLE   15 ..............................
........................................................................

 iter      E             dE          RMSdq      gap      omega  full diag
   1    -50.0335723 -0.500336E+02  0.145E-01    2.50       0.0  T
   2    -50.0335783 -0.606150E-05  0.848E-02    2.49       1.0  T
   3    -50.0335747  0.362375E-05  0.128E-02    2.49       1.3  T
   4    -50.0335792 -0.444390E-05  0.371E-03    2.49       4.6  T
   5    -50.0335795 -0.311849E-06  0.150E-03    2.49      11.5  T
   6    -50.0335795  0.796484E-08  0.923E-04    2.49      18.6  T
   7    -50.0335795 -0.186719E-07  0.189E-04    2.49      90.7  T
   8    -50.0335795 -0.741544E-09  0.650E-05    2.49     264.0  T
     SCC iter.                  ...        0 min,  0.011 sec
     gradient                   ...        0 min,  0.017 sec
 * total energy  :   -49.1097017 Eh     change       -0.1492048E-03 Eh
   gradient norm :     0.0093598 Eh/α   predicted    -0.1866957E-03 (  25.13%)
   displ. norm   :     0.1759356 α      lambda       -0.2876810E-03
   maximum displ.:     0.1406149 α      in ANC's #7, #3, #1, ...

........................................................................
.............................. CYCLE   16 ..............................
........................................................................

 iter      E             dE          RMSdq      gap      omega  full diag
   1    -50.0390814 -0.500391E+02  0.809E-02    2.49       0.0  T
   2    -50.0390824 -0.105234E-05  0.474E-02    2.49       1.0  T
   3    -50.0390795  0.294859E-05  0.958E-03    2.49       1.8  T
   4    -50.0390829 -0.343002E-05  0.198E-03    2.49       8.7  T
   5    -50.0390830 -0.735147E-07  0.935E-04    2.49      18.3  T
   6    -50.0390830 -0.581600E-08  0.352E-04    2.49      48.8  T
   7    -50.0390830 -0.191144E-08  0.109E-04    2.49     156.8  T
   8    -50.0390830 -0.188727E-09  0.535E-05    2.49     320.6  T
     SCC iter.                  ...        0 min,  0.011 sec
     gradient                   ...        0 min,  0.016 sec
 * total energy  :   -49.1098718 Eh     change       -0.1700691E-03 Eh
   gradient norm :     0.0055299 Eh/α   predicted    -0.1482970E-03 ( -12.80%)
   displ. norm   :     0.1765633 α      lambda        0.1186638E-03
   maximum displ.:     0.1411851 α      in ANC's #7, #3, #1, ...

........................................................................
.............................. CYCLE   17 ..............................
........................................................................

 iter      E             dE          RMSdq      gap      omega  full diag
   1    -50.0438629 -0.500439E+02  0.809E-02    2.49       0.0  T
   2    -50.0438639 -0.100147E-05  0.473E-02    2.49       1.0  T
   3    -50.0438610  0.291479E-05  0.945E-03    2.49       1.8  T
   4    -50.0438644 -0.339396E-05  0.194E-03    2.49       8.8  T
   5    -50.0438644 -0.677136E-07  0.926E-04    2.49      18.5  T
   6    -50.0438644 -0.582690E-08  0.333E-04    2.49      51.5  T
   7    -50.0438644 -0.183273E-08  0.108E-04    2.49     158.8  T
   8    -50.0438644 -0.185061E-09  0.522E-05    2.49     328.3  T
     SCC iter.                  ...        0 min,  0.013 sec
     gradient                   ...        0 min,  0.017 sec
 * total energy  :   -49.1098169 Eh     change        0.5486864E-04 Eh
   gradient norm :     0.0080738 Eh/α   predicted     0.6118005E-04 (  11.50%)
   displ. norm   :     0.3242093 α      lambda       -0.3075695E-03
   maximum displ.:     0.2091240 α      in ANC's #3, #1, #7, ...

........................................................................
.............................. CYCLE   18 ..............................
........................................................................

 iter      E             dE          RMSdq      gap      omega  full diag
   1    -50.0388880 -0.500389E+02  0.127E-01    2.49       0.0  T
   2    -50.0388896 -0.154020E-05  0.745E-02    2.49       1.0  T
   3    -50.0388850  0.460918E-05  0.125E-02    2.49       1.4  T
   4    -50.0388903 -0.535121E-05  0.201E-03    2.49       8.5  T
   5    -50.0388904 -0.783253E-07  0.108E-03    2.49      15.9  T
   6    -50.0388904 -0.115729E-07  0.435E-04    2.49      39.4  T
   7    -50.0388904 -0.225333E-08  0.140E-04    2.49     122.8  T
   8    -50.0388904 -0.316852E-09  0.451E-05    2.49     379.8  T
     SCC iter.                  ...        0 min,  0.012 sec
     gradient                   ...        0 min,  0.015 sec
 * total energy  :   -49.1100336 Eh     change       -0.2167093E-03 Eh
   gradient norm :     0.0043341 Eh/α   predicted    -0.1699490E-03 ( -21.58%)
   displ. norm   :     0.4146336 α      lambda       -0.2078171E-03
   maximum displ.:     0.2357713 α      in ANC's #3, #1, #10, ...

........................................................................
.............................. CYCLE   19 ..............................
........................................................................

 iter      E             dE          RMSdq      gap      omega  full diag
   1    -50.0341127 -0.500341E+02  0.156E-01    2.50       0.0  T
   2    -50.0341163 -0.362876E-05  0.915E-02    2.50       1.0  T
   3    -50.0341088  0.753598E-05  0.163E-02    2.50       1.1  T
   4    -50.0341176 -0.877387E-05  0.280E-03    2.50       6.1  T
   5    -50.0341177 -0.159549E-06  0.141E-03    2.50      12.1  T
   6    -50.0341177 -0.191718E-07  0.764E-04    2.50      22.4  T
   7    -50.0341177 -0.644297E-08  0.172E-04    2.50      99.9  T
   8    -50.0341177 -0.607741E-09  0.553E-05    2.50     310.1  T
     SCC iter.                  ...        0 min,  0.011 sec
     gradient                   ...        0 min,  0.015 sec
 * total energy  :   -49.1101346 Eh     change       -0.1010269E-03 Eh
   gradient norm :     0.0087248 Eh/α   predicted    -0.1217720E-03 (  20.53%)
   displ. norm   :     0.1123450 α      lambda       -0.1663737E-03
   maximum displ.:     0.0724474 α      in ANC's #4, #1, #7, ...

........................................................................
.............................. CYCLE   20 ..............................
........................................................................

 iter      E             dE          RMSdq      gap      omega  full diag
   1    -50.0367433 -0.500367E+02  0.497E-02    2.50       0.0  T
   2    -50.0367446 -0.129578E-05  0.289E-02    2.50       1.0  T
   3    -50.0367443  0.271114E-06  0.435E-03    2.50       3.9  T
   4    -50.0367447 -0.344654E-06  0.168E-03    2.50      10.2  T
   5    -50.0367448 -0.812495E-07  0.676E-04    2.50      25.4  T
   6    -50.0367448 -0.952625E-09  0.388E-04    2.50      44.2  T
   7    -50.0367448 -0.349544E-08  0.833E-05    2.50     205.8  T
   8    -50.0367448 -0.451124E-10  0.368E-05    2.50     466.0  T
     SCC iter.                  ...        0 min,  0.010 sec
     gradient                   ...        0 min,  0.016 sec
 * total energy  :   -49.1102445 Eh     change       -0.1099232E-03 Eh
   gradient norm :     0.0045344 Eh/α   predicted    -0.8424090E-04 ( -23.36%)
   displ. norm   :     0.2936210 α      lambda       -0.1517809E-03
   maximum displ.:     0.1474385 α      in ANC's #1, #3, #4, ...
 * RMSD in coord.:     0.6010060 α      energy gain  -0.8979105E-02 Eh

generating ANC from exact Hessian ...
Using Lindh-Hessian (1995)
 Shifting diagonal of input Hessian by    9.5339398151284838E-003
 Lowest  eigenvalues of input Hessian
    0.000000    0.000000    0.000000    0.000000    0.000000    0.000000
    0.010000    0.010263    0.010532    0.012152    0.012656    0.014783
    0.015661    0.016629    0.019343    0.019785    0.022006    0.025117
 Highest eigenvalues
    1.965830    1.982015    2.005053    2.045159    2.102938    2.204423


........................................................................
.............................. CYCLE   21 ..............................
........................................................................

 iter      E             dE          RMSdq      gap      omega  full diag
   1    -50.0372429 -0.500372E+02  0.115E-01    2.51       0.0  T
   2    -50.0372440 -0.108147E-05  0.675E-02    2.50       1.0  T
   3    -50.0372423  0.172091E-05  0.852E-03    2.50       2.0  T
   4    -50.0372445 -0.220065E-05  0.141E-03    2.50      12.1  T
   5    -50.0372445 -0.106606E-07  0.678E-04    2.50      25.3  T
   6    -50.0372445 -0.159539E-08  0.267E-04    2.50      64.2  T
   7    -50.0372445 -0.141254E-08  0.750E-05    2.50     228.7  T
   8    -50.0372445 -0.237677E-10  0.425E-05    2.50     403.3  T
     SCC iter.                  ...        0 min,  0.012 sec
     gradient                   ...        0 min,  0.015 sec
 * total energy  :   -49.1103443 Eh     change       -0.9976213E-04 Eh
   gradient norm :     0.0037559 Eh/α   predicted     0.0000000E+00 (-100.00%)
   displ. norm   :     0.0372869 α      lambda       -0.5285872E-04
   maximum displ.:     0.0227754 α      in ANC's #7, #10, #4, ...

........................................................................
.............................. CYCLE   22 ..............................
........................................................................

 iter      E             dE          RMSdq      gap      omega  full diag
   1    -50.0399942 -0.500400E+02  0.142E-02    2.50       0.0  T
   2    -50.0399944 -0.166041E-06  0.856E-03    2.50       2.0  T
   3    -50.0399941  0.250077E-06  0.284E-03    2.50       6.0  T
   4    -50.0399944 -0.294681E-06  0.600E-04    2.50      28.6  T
   5    -50.0399944 -0.907883E-08  0.242E-04    2.50      70.7  T
   6    -50.0399944 -0.489713E-09  0.139E-04    2.50     123.0  T
   7    -50.0399944 -0.199492E-09  0.411E-05    2.50     417.2  T
     SCC iter.                  ...        0 min,  0.010 sec
     gradient                   ...        0 min,  0.015 sec
 * total energy  :   -49.1103828 Eh     change       -0.3844808E-04 Eh
   gradient norm :     0.0011944 Eh/α   predicted    -0.2647363E-04 ( -31.14%)
   displ. norm   :     0.1130510 α      lambda       -0.4497384E-04
   maximum displ.:     0.0698693 α      in ANC's #7, #10, #4, ...

........................................................................
.............................. CYCLE   23 ..............................
........................................................................

 iter      E             dE          RMSdq      gap      omega  full diag
   1    -50.0429313 -0.500429E+02  0.311E-02    2.51       0.0  T
   2    -50.0429316 -0.326451E-06  0.186E-02    2.50       1.0  T
   3    -50.0429306  0.101134E-05  0.544E-03    2.51       3.2  T
   4    -50.0429317 -0.116076E-05  0.868E-04    2.50      19.8  T
   5    -50.0429318 -0.135280E-07  0.453E-04    2.50      37.9  T
   6    -50.0429318 -0.268294E-08  0.215E-04    2.50      79.7  T
   7    -50.0429318 -0.487582E-09  0.623E-05    2.50     275.4  T
   8    -50.0429318 -0.897913E-10  0.226E-05    2.50     759.6  T
     SCC iter.                  ...        0 min,  0.012 sec
     gradient                   ...        0 min,  0.015 sec
 * total energy  :   -49.1104266 Eh     change       -0.4389497E-04 Eh
   gradient norm :     0.0025670 Eh/α   predicted    -0.2261954E-04 ( -48.47%)
   displ. norm   :     0.1108251 α      lambda       -0.4680456E-04
   maximum displ.:     0.0659524 α      in ANC's #10, #7, #6, ...

........................................................................
.............................. CYCLE   24 ..............................
........................................................................

 iter      E             dE          RMSdq      gap      omega  full diag
   1    -50.0427066 -0.500427E+02  0.262E-02    2.50       0.0  T
   2    -50.0427066 -0.858382E-07  0.155E-02    2.50       1.1  T
   3    -50.0427063  0.289519E-06  0.303E-03    2.50       5.7  T
   4    -50.0427067 -0.335657E-06  0.619E-04    2.50      27.7  T
   5    -50.0427067 -0.403868E-08  0.339E-04    2.50      50.6  T
   6    -50.0427067 -0.103221E-08  0.118E-04    2.50     145.5  T
   7    -50.0427067 -0.251674E-09  0.304E-05    2.50     564.9  T
     SCC iter.                  ...        0 min,  0.012 sec
     gradient                   ...        0 min,  0.016 sec
 * total energy  :   -49.1104682 Eh     change       -0.4160309E-04 Eh
   gradient norm :     0.0028207 Eh/α   predicted    -0.2369221E-04 ( -43.05%)
   displ. norm   :     0.3709792 α      lambda       -0.1399493E-03
   maximum displ.:     0.2292007 α      in ANC's #10, #7, #6, ...

........................................................................
.............................. CYCLE   25 ..............................
........................................................................

 iter      E             dE          RMSdq      gap      omega  full diag
   1    -50.0386142 -0.500386E+02  0.864E-02    2.51       0.0  T
   2    -50.0386169 -0.274996E-05  0.509E-02    2.50       1.0  T
   3    -50.0386152  0.167574E-05  0.877E-03    2.51       2.0  T
   4    -50.0386172 -0.191934E-05  0.350E-03    2.50       4.9  T
   5    -50.0386175 -0.317015E-06  0.129E-03    2.50      13.3  T
   6    -50.0386175 -0.412463E-09  0.695E-04    2.50      24.7  T
   7    -50.0386175 -0.910669E-08  0.125E-04    2.50     137.2  T
   8    -50.0386175 -0.116330E-09  0.562E-05    2.50     304.9  T
     SCC iter.                  ...        0 min,  0.012 sec
     gradient                   ...        0 min,  0.016 sec
 * total energy  :   -49.1104666 Eh     change        0.1681918E-05 Eh
   gradient norm :     0.0087067 Eh/α   predicted    -0.7962545E-04 (*******%)
   displ. norm   :     0.1877782 α      lambda       -0.1960791E-03
   maximum displ.:     0.1156383 α      in ANC's #10, #7, #6, ...

........................................................................
.............................. CYCLE   26 ..............................
........................................................................

 iter      E             dE          RMSdq      gap      omega  full diag
   1    -50.0407225 -0.500407E+02  0.485E-02    2.50       0.0  T
   2    -50.0407245 -0.204412E-05  0.282E-02    2.50       1.0  T
   3    -50.0407242  0.267171E-06  0.550E-03    2.50       3.1  T
   4    -50.0407246 -0.394841E-06  0.213E-03    2.50       8.0  T
   5    -50.0407247 -0.112862E-06  0.841E-04    2.50      20.4  T
   6    -50.0407247  0.143092E-08  0.451E-04    2.50      38.0  T
   7    -50.0407247 -0.518997E-08  0.108E-04    2.50     159.5  T
   8    -50.0407247 -0.124054E-09  0.443E-05    2.50     386.9  T
     SCC iter.                  ...        0 min,  0.011 sec
     gradient                   ...        0 min,  0.017 sec
 * total energy  :   -49.1105340 Eh     change       -0.6745815E-04 Eh
   gradient norm :     0.0014832 Eh/α   predicted    -0.1014994E-03 (  50.46%)
   displ. norm   :     0.0985389 α      lambda       -0.2068138E-04
   maximum displ.:     0.0652785 α      in ANC's #10, #7, #6, ...

........................................................................
.............................. CYCLE   27 ..............................
........................................................................

 iter      E             dE          RMSdq      gap      omega  full diag
   1    -50.0398107 -0.500398E+02  0.221E-02    2.50       0.0  T
   2    -50.0398107 -0.522668E-07  0.131E-02    2.51       1.3  T
   3    -50.0398106  0.155764E-06  0.223E-03    2.50       7.7  T
   4    -50.0398107 -0.179257E-06  0.512E-04    2.50      33.5  T
   5    -50.0398107 -0.379093E-08  0.260E-04    2.50      66.1  T
   6    -50.0398107 -0.502077E-09  0.105E-04    2.50     162.8  T
   7    -50.0398107 -0.192486E-09  0.269E-05    2.50     636.6  T
     SCC iter.                  ...        0 min,  0.012 sec
     gradient                   ...        0 min,  0.016 sec
 * total energy  :   -49.1105603 Eh     change       -0.2624846E-04 Eh
   gradient norm :     0.0015268 Eh/α   predicted    -0.1039881E-04 ( -60.38%)
   displ. norm   :     0.2675337 α      lambda       -0.4863621E-04
   maximum displ.:     0.1833904 α      in ANC's #10, #6, #7, ...

........................................................................
.............................. CYCLE   28 ..............................
........................................................................

 iter      E             dE          RMSdq      gap      omega  full diag
   1    -50.0376092 -0.500376E+02  0.627E-02    2.51       0.0  T
   2    -50.0376100 -0.873688E-06  0.372E-02    2.51       1.0  T
   3    -50.0376095  0.505581E-06  0.475E-03    2.51       3.6  T
   4    -50.0376101 -0.600669E-06  0.194E-03    2.51       8.8  T
   5    -50.0376102 -0.921263E-07  0.773E-04    2.51      22.2  T
   6    -50.0376102 -0.647155E-09  0.415E-04    2.51      41.3  T
   7    -50.0376102 -0.352128E-08  0.805E-05    2.51     213.0  T
   8    -50.0376102 -0.515428E-10  0.400E-05    2.51     428.7  T
     SCC iter.                  ...        0 min,  0.012 sec
     gradient                   ...        0 min,  0.015 sec
 * total energy  :   -49.1105790 Eh     change       -0.1874862E-04 Eh
   gradient norm :     0.0056629 Eh/α   predicted    -0.2509476E-04 (  33.85%)
   displ. norm   :     0.0547043 α      lambda       -0.4558895E-04
   maximum displ.:     0.0321451 α      in ANC's #7, #10, #6, ...

........................................................................
.............................. CYCLE   29 ..............................
........................................................................

 iter      E             dE          RMSdq      gap      omega  full diag
   1    -50.0387649 -0.500388E+02  0.159E-02    2.51       0.0  T
   2    -50.0387652 -0.347756E-06  0.909E-03    2.51       1.9  T
   3    -50.0387652 -0.355370E-08  0.200E-03    2.51       8.6  T
   4    -50.0387653 -0.175626E-07  0.635E-04    2.51      27.0  T
   5    -50.0387653 -0.741160E-08  0.308E-04    2.51      55.7  T
   6    -50.0387653 -0.313591E-09  0.110E-04    2.51     155.6  T
   7    -50.0387653 -0.234330E-09  0.418E-05    2.51     410.1  T
     SCC iter.                  ...        0 min,  0.010 sec
     gradient                   ...        0 min,  0.016 sec
 * total energy  :   -49.1106075 Eh     change       -0.2847258E-04 Eh
   gradient norm :     0.0027075 Eh/α   predicted    -0.2287311E-04 ( -19.67%)
   displ. norm   :     0.0416107 α      lambda       -0.1864190E-04
   maximum displ.:     0.0230885 α      in ANC's #10, #4, #6, ...

........................................................................
.............................. CYCLE   30 ..............................
........................................................................

 iter      E             dE          RMSdq      gap      omega  full diag
   1    -50.0395393 -0.500395E+02  0.160E-02    2.51       0.0  T
   2    -50.0395394 -0.852475E-07  0.934E-03    2.51       1.8  T
   3    -50.0395394  0.554279E-08  0.899E-04    2.51      19.1  T
   4    -50.0395394 -0.135822E-07  0.356E-04    2.51      48.2  T
   5    -50.0395394 -0.258451E-08  0.169E-04    2.51     101.2  T
   6    -50.0395394  0.214655E-10  0.763E-05    2.51     224.8  T
     SCC iter.                  ...        0 min,  0.010 sec
     gradient                   ...        0 min,  0.015 sec
 * total energy  :   -49.1106218 Eh     change       -0.1427212E-04 Eh
   gradient norm :     0.0016168 Eh/α   predicted    -0.9337903E-05 ( -34.57%)
   displ. norm   :     0.1496234 α      lambda       -0.2271364E-04
   maximum displ.:     0.0996429 α      in ANC's #10, #4, #6, ...

........................................................................
.............................. CYCLE   31 ..............................
........................................................................

 iter      E             dE          RMSdq      gap      omega  full diag
   1    -50.0407564 -0.500408E+02  0.456E-02    2.51       0.0  T
   2    -50.0407566 -0.219847E-06  0.269E-02    2.51       1.0  T
   3    -50.0407563  0.293519E-06  0.337E-03    2.51       5.1  T
   4    -50.0407567 -0.376155E-06  0.702E-04    2.51      24.4  T
   5    -50.0407567 -0.270794E-08  0.358E-04    2.51      47.9  T
   6    -50.0407567 -0.207073E-09  0.175E-04    2.51      97.7  T
   7    -50.0407567 -0.709491E-09  0.448E-05    2.51     382.5  T
     SCC iter.                  ...        0 min,  0.009 sec
     gradient                   ...        0 min,  0.014 sec
 * total energy  :   -49.1106430 Eh     change       -0.2125280E-04 Eh
   gradient norm :     0.0008507 Eh/α   predicted    -0.1147342E-04 ( -46.01%)
   displ. norm   :     0.1365937 α      lambda       -0.1084840E-04
   maximum displ.:     0.0925113 α      in ANC's #10, #7, #6, ...

........................................................................
.............................. CYCLE   32 ..............................
........................................................................

 iter      E             dE          RMSdq      gap      omega  full diag
   1    -50.0401715 -0.500402E+02  0.353E-02    2.51       0.0  T
   2    -50.0401718 -0.271070E-06  0.208E-02    2.51       1.0  T
   3    -50.0401715  0.285513E-06  0.349E-03    2.51       4.9  T
   4    -50.0401718 -0.356744E-06  0.789E-04    2.51      21.7  T
   5    -50.0401718 -0.734914E-08  0.387E-04    2.51      44.3  T
   6    -50.0401718  0.443315E-09  0.210E-04    2.51      81.8  T
   7    -50.0401718 -0.119579E-08  0.453E-05    2.51     378.9  T
   8    -50.0401718 -0.260059E-10  0.217E-05    2.51     791.7  T
     SCC iter.                  ...        0 min,  0.012 sec
     gradient                   ...        0 min,  0.017 sec
 * total energy  :   -49.1106497 Eh     change       -0.6727073E-05 Eh
   gradient norm :     0.0018983 Eh/α   predicted    -0.5475408E-05 ( -18.61%)
   displ. norm   :     0.0217268 α      lambda       -0.6119963E-05
   maximum displ.:     0.0130214 α      in ANC's #6, #2, #7, ...

........................................................................
.............................. CYCLE   33 ..............................
........................................................................

 iter      E             dE          RMSdq      gap      omega  full diag
   1    -50.0406401 -0.500406E+02  0.809E-03    2.51       0.0  T
   2    -50.0406402 -0.711415E-07  0.467E-03    2.51       3.7  T
   3    -50.0406402  0.246162E-07  0.122E-03    2.51      14.1  T
   4    -50.0406402 -0.275102E-07  0.419E-04    2.51      40.9  T
   5    -50.0406402 -0.553121E-08  0.133E-04    2.51     129.3  T
   6    -50.0406402 -0.856559E-10  0.825E-05    2.51     207.9  T
     SCC iter.                  ...        0 min,  0.009 sec
     gradient                   ...        0 min,  0.015 sec
 * total energy  :   -49.1106559 Eh     change       -0.6181287E-05 Eh
   gradient norm :     0.0006871 Eh/α   predicted    -0.3060585E-05 ( -50.49%)
   displ. norm   :     0.0642310 α      lambda       -0.4092760E-05
   maximum displ.:     0.0337748 α      in ANC's #7, #10, #2, ...

........................................................................
.............................. CYCLE   34 ..............................
........................................................................

 iter      E             dE          RMSdq      gap      omega  full diag
   1    -50.0406075 -0.500406E+02  0.179E-02    2.51       0.0  T
   2    -50.0406075 -0.639873E-07  0.106E-02    2.51       1.6  T
   3    -50.0406074  0.145609E-06  0.227E-03    2.51       7.5  T
   4    -50.0406076 -0.170452E-06  0.367E-04    2.51      46.8  T
   5    -50.0406076 -0.143142E-08  0.219E-04    2.51      78.2  T
   6    -50.0406076 -0.655731E-09  0.996E-05    2.51     172.1  T
   7    -50.0406076 -0.136509E-09  0.251E-05    2.51     682.5  T
     SCC iter.                  ...        0 min,  0.011 sec
     gradient                   ...        0 min,  0.015 sec
 * total energy  :   -49.1106599 Eh     change       -0.4015449E-05 Eh
   gradient norm :     0.0005103 Eh/α   predicted    -0.2050154E-05 ( -48.94%)
   displ. norm   :     0.0435026 α      lambda       -0.1410432E-05
   maximum displ.:     0.0222758 α      in ANC's #7, #2, #10, ...

........................................................................
.............................. CYCLE   35 ..............................
........................................................................

 iter      E             dE          RMSdq      gap      omega  full diag
   1    -50.0405451 -0.500405E+02  0.118E-02    2.52       0.0  T
   2    -50.0405451 -0.177544E-07  0.698E-03    2.52       2.5  T
   3    -50.0405450  0.388774E-07  0.117E-03    2.52      14.7  T
   4    -50.0405451 -0.465895E-07  0.234E-04    2.52      73.3  T
   5    -50.0405451 -0.338105E-09  0.141E-04    2.52     121.4  T
   6    -50.0405451 -0.282903E-09  0.518E-05    2.52     331.1  T
     SCC iter.                  ...        0 min,  0.009 sec
     gradient                   ...        0 min,  0.015 sec
 * total energy  :   -49.1106615 Eh     change       -0.1517525E-05 Eh
   gradient norm :     0.0003329 Eh/α   predicted    -0.7075867E-06 ( -53.37%)
   displ. norm   :     0.0350091 α      lambda       -0.9436652E-06
   maximum displ.:     0.0196148 α      in ANC's #2, #7, #10, ...

........................................................................
.............................. CYCLE   36 ..............................
........................................................................

 iter      E             dE          RMSdq      gap      omega  full diag
   1    -50.0405465 -0.500405E+02  0.976E-03    2.52       0.0  T
   2    -50.0405465 -0.983234E-08  0.574E-03    2.52       3.0  T
   3    -50.0405465  0.105247E-07  0.647E-04    2.52      26.5  T
   4    -50.0405465 -0.145934E-07  0.197E-04    2.52      87.1  T
   5    -50.0405465 -0.119009E-09  0.111E-04    2.52     154.0  T
     SCC iter.                  ...        0 min,  0.007 sec
     gradient                   ...        0 min,  0.015 sec
 * total energy  :   -49.1106625 Eh     change       -0.1020083E-05 Eh
   gradient norm :     0.0002550 Eh/α   predicted    -0.4737582E-06 ( -53.56%)
   displ. norm   :     0.0273320 α      lambda       -0.7249620E-06
   maximum displ.:     0.0167971 α      in ANC's #2, #6, #3, ...

........................................................................
.............................. CYCLE   37 ..............................
........................................................................

 iter      E             dE          RMSdq      gap      omega  full diag
   1    -50.0406239 -0.500406E+02  0.829E-03    2.52       0.0  T
   2    -50.0406239 -0.589190E-08  0.486E-03    2.52       3.5  T
   3    -50.0406239  0.819249E-09  0.328E-04    2.52      52.3  T
   4    -50.0406239 -0.297268E-08  0.154E-04    2.52     111.2  T
   5    -50.0406239 -0.198945E-09  0.702E-05    2.52     244.3  T
     SCC iter.                  ...        0 min,  0.006 sec
     gradient                   ...        0 min,  0.015 sec
 * total energy  :   -49.1106633 Eh     change       -0.7975821E-06 Eh
   gradient norm :     0.0003084 Eh/α   predicted    -0.3646861E-06 ( -54.28%)
   displ. norm   :     0.0281210 α      lambda       -0.6279819E-06
   maximum displ.:     0.0173577 α      in ANC's #2, #6, #1, ...

........................................................................
.............................. CYCLE   38 ..............................
........................................................................

 iter      E             dE          RMSdq      gap      omega  full diag
   1    -50.0406835 -0.500407E+02  0.882E-03    2.51       0.0  T
   2    -50.0406835 -0.654134E-08  0.517E-03    2.51       3.3  T
   3    -50.0406835  0.115053E-08  0.383E-04    2.51      44.8  T
   4    -50.0406835 -0.376191E-08  0.146E-04    2.51     117.3  T
   5    -50.0406835 -0.101466E-10  0.755E-05    2.51     227.3  T
     SCC iter.                  ...        0 min,  0.007 sec
     gradient                   ...        0 min,  0.015 sec
 * total energy  :   -49.1106639 Eh     change       -0.6595973E-06 Eh
   gradient norm :     0.0002638 Eh/α   predicted    -0.3175666E-06 ( -51.85%)
   displ. norm   :     0.0181523 α      lambda       -0.3896017E-06
   maximum displ.:     0.0107090 α      in ANC's #2, #1, #4, ...

........................................................................
.............................. CYCLE   39 ..............................
........................................................................

 iter      E             dE          RMSdq      gap      omega  full diag
   1    -50.0407243 -0.500407E+02  0.586E-03    2.51       0.0  T
   2    -50.0407243 -0.354441E-08  0.344E-03    2.51       5.0  T
   3    -50.0407243  0.486728E-08  0.459E-04    2.51      37.4  T
   4    -50.0407243 -0.630238E-08  0.807E-05    2.51     212.6  T
   5    -50.0407243 -0.513225E-10  0.414E-05    2.51     413.9  T
     SCC iter.                  ...        0 min,  0.010 sec
     gradient                   ...        0 min,  0.017 sec
 * total energy  :   -49.1106644 Eh     change       -0.4449790E-06 Eh
   gradient norm :     0.0002095 Eh/α   predicted    -0.1977702E-06 ( -55.56%)
   displ. norm   :     0.0173703 α      lambda       -0.3029622E-06
   maximum displ.:     0.0102062 α      in ANC's #2, #1, #4, ...

........................................................................
.............................. CYCLE   40 ..............................
........................................................................

 iter      E             dE          RMSdq      gap      omega  full diag
   1    -50.0407286 -0.500407E+02  0.520E-03    2.51       0.0  T
   2    -50.0407286 -0.292881E-08  0.305E-03    2.51       5.6  T
   3    -50.0407286  0.560564E-08  0.468E-04    2.51      36.6  T
   4    -50.0407286 -0.682189E-08  0.583E-05    2.51     294.0  T
   5    -50.0407286 -0.417373E-10  0.292E-05    2.51     587.5  T
     SCC iter.                  ...        0 min,  0.008 sec
     gradient                   ...        0 min,  0.016 sec
 * total energy  :   -49.1106647 Eh     change       -0.3515184E-06 Eh
   gradient norm :     0.0001420 Eh/α   predicted    -0.1525165E-06 ( -56.61%)
   displ. norm   :     0.0169578 α      lambda       -0.2388918E-06
   maximum displ.:     0.0106032 α      in ANC's #1, #2, #4, ...

........................................................................
.............................. CYCLE   41 ..............................
........................................................................

 iter      E             dE          RMSdq      gap      omega  full diag
   1    -50.0406941 -0.500407E+02  0.473E-03    2.51       0.0  T
   2    -50.0406941 -0.357076E-08  0.277E-03    2.51       6.2  T
   3    -50.0406941  0.667359E-08  0.506E-04    2.51      33.9  T
   4    -50.0406941 -0.800662E-08  0.654E-05    2.51     262.3  T
   5    -50.0406941 -0.688161E-10  0.301E-05    2.51     569.9  T
     SCC iter.                  ...        0 min,  0.008 sec
     gradient                   ...        0 min,  0.016 sec
 * total energy  :   -49.1106650 Eh     change       -0.2890778E-06 Eh
   gradient norm :     0.0001488 Eh/α   predicted    -0.1216430E-06 ( -57.92%)
   displ. norm   :     0.0164532 α      lambda       -0.2158695E-06
   maximum displ.:     0.0107355 α      in ANC's #1, #2, #3, ...

........................................................................
.............................. CYCLE   42 ..............................
........................................................................

 iter      E             dE          RMSdq      gap      omega  full diag
   1    -50.0406858 -0.500407E+02  0.435E-03    2.51       0.0  T
   2    -50.0406858 -0.340385E-08  0.255E-03    2.51       6.7  T
   3    -50.0406858  0.559641E-08  0.463E-04    2.51      37.1  T
   4    -50.0406858 -0.682665E-08  0.773E-05    2.51     221.8  T
   5    -50.0406858 -0.900187E-10  0.397E-05    2.51     431.9  T
     SCC iter.                  ...        0 min,  0.008 sec
     gradient                   ...        0 min,  0.016 sec
 * total energy  :   -49.1106653 Eh     change       -0.2694858E-06 Eh
   gradient norm :     0.0001697 Eh/α   predicted    -0.1099056E-06 ( -59.22%)
   displ. norm   :     0.0186711 α      lambda       -0.2359704E-06
   maximum displ.:     0.0126659 α      in ANC's #1, #2, #6, ...
 * RMSD in coord.:     0.2009719 α      energy gain  -0.4207527E-03 Eh

generating ANC from exact Hessian ...
Using Lindh-Hessian (1995)
 Shifting diagonal of input Hessian by    9.5258858784731150E-003
 Lowest  eigenvalues of input Hessian
    0.000000    0.000000    0.000000    0.000000    0.000000    0.000000
    0.010000    0.010258    0.010513    0.012196    0.012724    0.014801
    0.015738    0.016652    0.019371    0.019906    0.022037    0.025223
 Highest eigenvalues
    1.968089    1.986940    2.012180    2.047735    2.104373    2.210537


........................................................................
.............................. CYCLE   43 ..............................
........................................................................

 iter      E             dE          RMSdq      gap      omega  full diag
   1    -50.0406903 -0.500407E+02  0.473E-03    2.51       0.0  T
   2    -50.0406903 -0.490045E-08  0.276E-03    2.51       6.2  T
   3    -50.0406903  0.844625E-08  0.561E-04    2.51      30.6  T
   4    -50.0406903 -0.102431E-07  0.104E-04    2.51     165.2  T
   5    -50.0406903 -0.187470E-09  0.532E-05    2.51     322.5  T
     SCC iter.                  ...        0 min,  0.008 sec
     gradient                   ...        0 min,  0.019 sec
 * total energy  :   -49.1106656 Eh     change       -0.2972369E-06 Eh
   gradient norm :     0.0001253 Eh/α   predicted     0.0000000E+00 (-100.00%)
   displ. norm   :     0.0001879 α      lambda        0.0000000E+00
   maximum displ.:     0.0000791 α      in ANC's #91, #90, #76, ...

........................................................................
.............................. CYCLE   44 ..............................
........................................................................

 iter      E             dE          RMSdq      gap      omega  full diag
   1    -50.0406900 -0.500407E+02  0.271E-04    2.51       0.0  T
   2    -50.0406900 -0.114348E-09  0.159E-04    2.51     107.5  T
   3    -50.0406900  0.854357E-10  0.677E-05    2.51     253.5  T
     SCC iter.                  ...        0 min,  0.005 sec
     gradient                   ...        0 min,  0.015 sec
 * total energy  :   -49.1106656 Eh     change       -0.1213473E-07 Eh
   gradient norm :     0.0000552 Eh/α   predicted    -0.4975479E-08 ( -59.00%)
   displ. norm   :     0.0037761 α      lambda       -0.7433910E-07
   maximum displ.:     0.0025129 α      in ANC's #1, #4, #8, ...

   *** GEOMETRY OPTIMIZATION CONVERGED AFTER 44 ITERATIONS ***

------------------------------------------------------------------------
 total energy gain   :        -0.0094002 Eh       -5.8987 kcal/mol
 total RMSD          :         0.7532803 a0        0.3986 Å
 total power (kW/mol):        -0.5609121 (step)  -15.8650 (real)
------------------------------------------------------------------------

 ANCopt (total)                0 d,  0 h,  0 min,  1.556 sec
 optimizer setup                ...        0 min,  0.000 sec (  0.029%)
 model hessian                  ...        0 min,  0.025 sec (  1.612%)
 ANC generation                 ...        0 min,  0.003 sec (  0.211%)
 coordinate transformation      ...        0 min,  0.001 sec (  0.038%)
 single point calculation       ...        0 min,  1.508 sec ( 96.937%)
 optimization log               ...        0 min,  0.010 sec (  0.622%)
 hessian update                 ...        0 min,  0.001 sec (  0.064%)
 rational function              ...        0 min,  0.005 sec (  0.331%)

================
 final structure:
================
34
 xtb: 6.7.1 (edcfbbe)
C           -0.62438832003296       -1.06134866030140       -2.96930353048476
C            0.12177365282705       -0.48391585754953       -1.80702712819619
N            1.37556268930768       -0.62785610485723       -1.74886463228131
C            2.18302430639350       -0.15492123281446       -0.72978036893547
C            3.26198832349339        0.66627635056018       -1.06128904727271
C            4.13595615812886        1.09518552853024       -0.08249800208031
C            3.96576388037750        0.69559400628114        1.23393680336518
C            2.90927011459028       -0.13653653521788        1.56518895071226
C            2.01846334527546       -0.55737918268679        0.59648563912647
C           -0.67751517640216        0.32105957271157       -0.84197513387087
C           -0.57994178381642        1.68996430101267       -0.87338858181337
C           -1.33417271065732        2.48510112052229        0.00077824655203
C           -2.17671926743173        1.90430921558038        0.90620629622128
C           -2.28584274375430        0.50009159726932        0.98948969929282
C           -3.12688010380409       -0.12392367637551        1.93565386612379
C           -3.19798815970228       -1.48592534298008        2.02089505814654
C           -2.42286294823109       -2.28704896080823        1.16797416755378
C           -1.60388013622178       -1.71460415467109        0.23474014295119
C           -1.52136634293929       -0.31019123150706        0.10854122635183
H           -0.94246481159817       -0.24789880834929       -3.62210897424172
H           -1.51907865372108       -1.58280728747137       -2.63530263550927
H            0.01840568867576       -1.73523509181527       -3.52908658611212
H            3.38913418984999        0.97166545153046       -2.08971316608487
H            4.96049283108238        1.74173416573599       -0.34827421641481
H            4.65549950751156        1.02792501673333        1.99605436880305
H            2.77229143473227       -0.45615176318886        2.58885566980835
H            1.19679068056502       -1.21015906493684        0.85564978783189
H            0.08058576881001        2.16193058378454       -1.58774222837470
H           -1.24256152334071        3.56017926870475       -0.05319252429002
H           -2.76574655491344        2.51136298366652        1.57924210485453
H           -3.70995165660948        0.49993203052987        2.59880584665696
H           -3.84271737646580       -1.95570265779568        2.74964530013382
H           -2.47537515082149       -3.36269811740038        1.25707449830401
H           -0.99554915105700       -2.33800746242345       -0.40567091672901

 Bond Distances (Angstroems)
 ---------------------------
C1-C2=1.4970         C1-H20=1.0904        C1-H21=1.0881        C1-H22=1.0866        C2-C1=1.4970         C2-N3=1.2634         
C2-C10=1.4894        N3-C2=1.2634         N3-C4=1.3835         C4-N3=1.3835         C4-C5=1.3959         C4-C9=1.3957         
C5-C4=1.3959         C5-C6=1.3805         C5-H23=1.0803        C6-C5=1.3805         C6-C7=1.3862         C6-H24=1.0810        
C7-C6=1.3862         C7-C8=1.3850         C7-H25=1.0803        C8-C7=1.3850         C8-C9=1.3817         C8-H26=1.0811        
C9-C4=1.3957         C9-C8=1.3817         C9-H27=1.0809        C10-C2=1.4894        C10-C11=1.3727       C10-C19=1.4192       
C11-C10=1.3727       C11-C12=1.4019       C11-H28=1.0814       C12-C11=1.4019       C12-C13=1.3664       C12-H29=1.0803       
C13-C12=1.3664       C13-C14=1.4109       C13-H30=1.0809       C14-C13=1.4109       C14-C15=1.4114       C14-C19=1.4202       
C15-C14=1.4114       C15-C16=1.3665       C15-H31=1.0812       C16-C15=1.3665       C16-C17=1.4036       C16-H32=1.0805       
C17-C16=1.4036       C17-C18=1.3672       C17-H33=1.0806       C18-C17=1.3672       C18-C19=1.4125       C18-H34=1.0811       
C19-C10=1.4192       C19-C14=1.4202       C19-C18=1.4125       H20-C1=1.0904        H21-C1=1.0881        H22-C1=1.0866        
H23-C5=1.0803        H24-C6=1.0810        H25-C7=1.0803        H26-C8=1.0811        H27-C9=1.0809        H28-C11=1.0814       
H29-C12=1.0803       H30-C13=1.0809       H31-C15=1.0812       H32-C16=1.0805       H33-C17=1.0806       H34-C18=1.0811       
 C  H  Rav=1.0823 sigma=0.0031  Rmin=1.0803  Rmax=1.0904    15
 C  C  Rav=1.4034 sigma=0.0353  Rmin=1.3664  Rmax=1.4970    19
 N  C  Rav=1.3235 sigma=0.0601  Rmin=1.2634  Rmax=1.3835     2

 selected bond angles (degree)
 --------------------
H20-C1-C2=108.81               H21-C1-C2=110.88               H21-C1-H20=107.54              H22-C1-C2=110.14               
H22-C1-H20=109.07              H22-C1-H21=110.32              N3-C2-C1=119.11                C10-C2-C1=116.36               
C10-C2-N3=124.36               C4-N3-C2=125.04                C5-C4-N3=118.51                C9-C4-N3=122.18                
C9-C4-C5=119.11                C6-C5-C4=120.25                H23-C5-C4=118.91               H23-C5-C6=120.84               
C7-C6-C5=120.40                H24-C6-C5=119.63               H24-C6-C7=119.97               C8-C7-C6=119.60                
H25-C7-C6=120.19               H25-C7-C8=120.21               C9-C8-C7=120.47                H26-C8-C7=120.05               
H26-C8-C9=119.48               C8-C9-C4=120.16                H27-C9-C4=119.44               H27-C9-C8=120.39               
C11-C10-C2=119.08              C19-C10-C2=120.84              C19-C10-C11=120.08             

 selected dihedral angles (degree)
 ---------------------------------
N3-C2-C1-H20=252.75           N3-C2-C1-H21=134.67           N3-C2-C1-H22= 12.27           C10-C2-C1-H20= 68.20          
C10-C2-C1-H21=310.11          C10-C2-C1-H22=187.71          C4-N3-C2-C1=180.50            C4-N3-C2-C10=  5.45           
C5-C4-N3-C2=234.76            C9-C4-N3-C2= 60.03            C6-C5-C4-N3=183.75            C6-C5-C4-C9=358.65            
H23-C5-C4-N3=  4.79           H23-C5-C4-C9=179.69           C7-C6-C5-C4=  1.19            C7-C6-C5-H23=180.13           
H24-C6-C5-C4=180.82           H24-C6-C5-H23=359.76          C8-C7-C6-C5=359.85            C8-C7-C6-H24=180.22           
H25-C7-C6-C5=179.59           H25-C7-C6-H24=359.96          C9-C8-C7-C6=359.29            C9-C8-C7-H25=179.55           
H26-C8-C7-C6=179.73           H26-C8-C7-H25=  0.00          C8-C9-C4-N3=175.20            C8-C9-C4-C5=  0.50            
H27-C9-C4-N3=355.98           H27-C9-C4-C5=181.28           C4-C9-C8-C7=  0.53            C4-C9-C8-H26=180.09           
H27-C9-C8-C7=179.74           H27-C9-C8-H26=359.31          C11-C10-C2-C1=256.22          C11-C10-C2-N3= 71.40          
C19-C10-C2-C1= 76.80          C19-C10-C2-N3=251.98          
           -------------------------------------------------
          |                Final Singlepoint                |
           -------------------------------------------------

          ...................................................
          :                      SETUP                      :
          :.................................................:
          :  # basis functions                  91          :
          :  # atomic orbitals                  91          :
          :  # shells                           53          :
          :  # electrons                        92          :
          :  max. iterations                   250          :
          :  Hamiltonian                  GFN2-xTB          :
          :  restarted?                      false          :
          :  GBSA solvation                   true          :
          :  PC potential                    false          :
          :  electronic temp.          300.0000000     K    :
          :  accuracy                    0.2000000          :
          :  -> integral cutoff          0.3198970E+02      :
          :  -> integral neglect         0.2000000E-08      :
          :  -> SCF convergence          0.2000000E-06 Eh   :
          :  -> wf. convergence          0.2000000E-04 e    :
          :  Broyden damping             0.4000000          :
          :  net charge                          0          :
          :  unpaired electrons                  0          :
          ...................................................

 iter      E             dE          RMSdq      gap      omega  full diag
   1    -50.0406900 -0.500407E+02  0.143E-05    2.51       0.0  T
   2    -50.0406900 -0.682121E-12  0.126E-05    2.51    1363.6  T
   3    -50.0406900 -0.585487E-11  0.247E-06    2.51    6932.9  T

   *** convergence criteria satisfied after 3 iterations ***

         #    Occupation            Energy/Eh            Energy/eV
      -------------------------------------------------------------
         1        2.0000           -0.6571355             -17.8816
       ...           ...                  ...                  ...
        40        2.0000           -0.4209664             -11.4551
        41        2.0000           -0.4128256             -11.2336
        42        2.0000           -0.4039373             -10.9917
        43        2.0000           -0.3983841             -10.8406
        44        2.0000           -0.3968471             -10.7988
        45        2.0000           -0.3807301             -10.3602
        46        2.0000           -0.3572300              -9.7207 (HOMO)
        47                         -0.2648439              -7.2068 (LUMO)
        48                         -0.2415312              -6.5724
        49                         -0.2320619              -6.3147
        50                         -0.2148066              -5.8452
        51                         -0.1996240              -5.4320
       ...                                ...                  ...
        91                          0.6948279              18.9072
      -------------------------------------------------------------
                  HL-Gap            0.0923860 Eh            2.5140 eV
             Fermi-level           -0.3110369 Eh           -8.4637 eV

 SCC (total)                   0 d,  0 h,  0 min,  0.030 sec
 SCC setup                      ...        0 min,  0.001 sec (  3.298%)
 Dispersion                     ...        0 min,  0.000 sec (  1.225%)
 classical contributions        ...        0 min,  0.000 sec (  0.337%)
 integral evaluation            ...        0 min,  0.006 sec ( 19.341%)
 iterations                     ...        0 min,  0.006 sec ( 19.168%)
 molecular gradient             ...        0 min,  0.016 sec ( 55.735%)
 printout                       ...        0 min,  0.000 sec (  0.784%)

         :::::::::::::::::::::::::::::::::::::::::::::::::::::
         ::                     SUMMARY                     ::
         :::::::::::::::::::::::::::::::::::::::::::::::::::::
         :: total energy             -49.110665603375 Eh    ::
         :: total w/o Gsasa/hb       -49.089476125875 Eh    ::
         :: gradient norm              0.000055831568 Eh/a0 ::
         :: HOMO-LUMO gap              2.513951861109 eV    ::
         ::.................................................::
         :: SCC energy               -50.039949177879 Eh    ::
         :: -> isotropic ES            0.010670931966 Eh    ::
         :: -> anisotropic ES          0.006111840720 Eh    ::
         :: -> anisotropic XC          0.035732329841 Eh    ::
         :: -> dispersion             -0.039206952554 Eh    ::
         :: -> Gsolv                  -0.021551682080 Eh    ::
         ::    -> Gelec               -0.000362204579 Eh    ::
         ::    -> Gsasa               -0.023397620639 Eh    ::
         ::    -> Ghb                  0.000000000000 Eh    ::
         ::    -> Gshift               0.002208143139 Eh    ::
         :: repulsion energy           0.929283574504 Eh    ::
         :: add. restraining           0.000000000000 Eh    ::
         :: total charge               0.000000000000 e     ::
         :::::::::::::::::::::::::::::::::::::::::::::::::::::

           -------------------------------------------------
          |                Property Printout                |
           -------------------------------------------------

    * Orbital Energies and Occupations

         #    Occupation            Energy/Eh            Energy/eV
      -------------------------------------------------------------
         1        2.0000           -0.6571355             -17.8816
       ...           ...                  ...                  ...
        34        2.0000           -0.4545622             -12.3693
        35        2.0000           -0.4492613             -12.2250
        36        2.0000           -0.4418392             -12.0231
        37        2.0000           -0.4327060             -11.7745
        38        2.0000           -0.4263294             -11.6010
        39        2.0000           -0.4220744             -11.4852
        40        2.0000           -0.4209664             -11.4551
        41        2.0000           -0.4128256             -11.2336
        42        2.0000           -0.4039373             -10.9917
        43        2.0000           -0.3983841             -10.8406
        44        2.0000           -0.3968471             -10.7988
        45        2.0000           -0.3807301             -10.3602
        46        2.0000           -0.3572300              -9.7207 (HOMO)
        47                         -0.2648439              -7.2068 (LUMO)
        48                         -0.2415312              -6.5724
        49                         -0.2320619              -6.3147
        50                         -0.2148066              -5.8452
        51                         -0.1996240              -5.4320
        52                         -0.1896278              -5.1600
        53                         -0.1481578              -4.0316
        54                         -0.0807232              -2.1966
        55                         -0.0614835              -1.6731
        56                          0.0801419               2.1808
        57                          0.0938099               2.5527
       ...                                ...                  ...
        91                          0.6948279              18.9072
      -------------------------------------------------------------
                  HL-Gap            0.0923860 Eh            2.5140 eV
             Fermi-level           -0.3110369 Eh           -8.4637 eV

     #   Z          covCN         q      C6AA      α(0)
     1   6 C        3.761    -0.117    22.790     6.805
     2   6 C        2.905     0.119    25.373     8.260
     3   7 N        1.842    -0.221    26.658     7.652
     4   6 C        2.932     0.083    26.145     8.386
     5   6 C        2.925    -0.046    29.143     8.853
     6   6 C        2.919    -0.031    28.782     8.798
     7   6 C        2.919    -0.040    28.996     8.830
     8   6 C        2.919    -0.031    28.780     8.797
     9   6 C        2.921    -0.049    29.223     8.865
    10   6 C        2.972    -0.008    28.219     8.714
    11   6 C        2.922    -0.031    28.769     8.796
    12   6 C        2.914    -0.030    28.754     8.793
    13   6 C        2.918    -0.036    28.907     8.817
    14   6 C        2.986     0.014    27.700     8.633
    15   6 C        2.919    -0.034    28.856     8.809
    16   6 C        2.915    -0.030    28.738     8.791
    17   6 C        2.916    -0.030    28.756     8.794
    18   6 C        2.917    -0.035    28.879     8.812
    19   6 C        2.987     0.012    27.728     8.638
    20   1 H        0.924     0.063     2.166     2.301
    21   1 H        0.925     0.060     2.197     2.318
    22   1 H        0.925     0.067     2.124     2.279
    23   1 H        0.926     0.032     2.551     2.498
    24   1 H        0.926     0.028     2.620     2.531
    25   1 H        0.926     0.025     2.660     2.550
    26   1 H        0.926     0.025     2.661     2.551
    27   1 H        0.926     0.022     2.703     2.571
    28   1 H        0.925     0.027     2.624     2.533
    29   1 H        0.926     0.033     2.549     2.497
    30   1 H        0.926     0.033     2.540     2.492
    31   1 H        0.926     0.033     2.548     2.496
    32   1 H        0.926     0.032     2.560     2.502
    33   1 H        0.926     0.031     2.568     2.506
    34   1 H        0.926     0.032     2.563     2.504

 Mol. C6AA /au·bohr⁶  :      15399.398375
 Mol. C8AA /au·bohr⁸  :     382874.355832
 Mol. α(0) /au        :        199.970702


Wiberg/Mayer (AO) data.
largest (>0.10) Wiberg bond orders for each atom

 ---------------------------------------------------------------------------
     #   Z sym  total        # sym  WBO       # sym  WBO       # sym  WBO
 ---------------------------------------------------------------------------
     1   6 C    3.992 --     2 C    1.017    22 H    0.981    21 H    0.968
                            20 H    0.958
     2   6 C    3.964 --     3 N    1.810     1 C    1.017    10 C    0.990
     3   7 N    3.192 --     2 C    1.810     4 C    1.114
     4   6 C    3.978 --     9 C    1.353     5 C    1.353     3 N    1.114
     5   6 C    3.989 --     6 C    1.462     4 C    1.353    23 H    0.970
                             8 C    0.106
     6   6 C    3.992 --     5 C    1.462     7 C    1.426    24 H    0.971
                             9 C    0.105
     7   6 C    3.990 --     8 C    1.433     6 C    1.426    25 H    0.972
     8   6 C    3.992 --     9 C    1.454     7 C    1.433    26 H    0.971
                             5 C    0.106
     9   6 C    3.990 --     8 C    1.454     4 C    1.353    27 H    0.969
                             6 C    0.105
    10   6 C    3.988 --    11 C    1.513    19 C    1.243     2 C    0.990
                            13 C    0.115
    11   6 C    3.992 --    10 C    1.513    12 C    1.324    28 H    0.970
    12   6 C    3.992 --    13 C    1.554    11 C    1.324    29 H    0.970
    13   6 C    3.991 --    12 C    1.554    14 C    1.278    30 H    0.968
                            10 C    0.115
    14   6 C    3.990 --    15 C    1.279    13 C    1.278    19 C    1.254
    15   6 C    3.991 --    16 C    1.558    14 C    1.279    31 H    0.968
                            18 C    0.118
    16   6 C    3.992 --    15 C    1.558    17 C    1.321    32 H    0.971
    17   6 C    3.992 --    18 C    1.555    16 C    1.321    33 H    0.971
    18   6 C    3.992 --    17 C    1.555    19 C    1.282    34 H    0.966
                            15 C    0.118
    19   6 C    3.989 --    18 C    1.282    14 C    1.254    10 C    1.243
    20   1 H    0.995 --     1 C    0.958
    21   1 H    0.995 --     1 C    0.968
    22   1 H    0.995 --     1 C    0.981
    23   1 H    0.999 --     5 C    0.970
    24   1 H    0.998 --     6 C    0.971
    25   1 H    0.999 --     7 C    0.972
    26   1 H    0.999 --     8 C    0.971
    27   1 H    1.000 --     9 C    0.969
    28   1 H    0.999 --    11 C    0.970
    29   1 H    0.998 --    12 C    0.970
    30   1 H    0.998 --    13 C    0.968
    31   1 H    0.998 --    15 C    0.968
    32   1 H    0.998 --    16 C    0.971
    33   1 H    0.999 --    17 C    0.971
    34   1 H    0.999 --    18 C    0.966
 ---------------------------------------------------------------------------

Topologies differ in total number of bonds
Writing topology from bond orders to xtbtopo.mol

molecular dipole:
                 x           y           z       tot (Debye)
 q only:       -0.780      -0.023      -0.251
   full:       -0.960       0.139      -0.022       2.465
molecular quadrupole (traceless):
                xx          xy          yy          xz          yz          zz
 q only:       -3.262       1.869       0.510       0.890       0.757       2.753
  q+dip:       -5.148       5.081       2.667      -1.809      -1.591       2.481
   full:       -4.139       3.491       1.992       1.184      -1.338       2.147

           -------------------------------------------------
          |                Geometry Summary                 |
           -------------------------------------------------

      molecular mass/u    :      245.3190607
   center of mass at/Å    :        0.0300403       0.0134568       0.0147340
  moments of inertia/u·Å² :        0.8103869E+03   0.1820937E+04   0.1905967E+04
rotational constants/cm⁻¹ :        0.2080196E-01   0.9257667E-02   0.8844660E-02

 * 33 selected distances

     #   Z          #   Z                                           value/Å
     2   6 C        3   7 N                                       1.2633641
     4   6 C        5   6 C                                       1.3958607
     5   6 C        6   6 C                                       1.3805126
     6   6 C        7   6 C                                       1.3862322
     7   6 C        8   6 C                                       1.3850446
     4   6 C        9   6 C                                       1.3957201
     8   6 C        9   6 C                                       1.3816771
    10   6 C       11   6 C                                       1.3727374
    11   6 C       12   6 C                                       1.4018826
    12   6 C       13   6 C                                       1.3663836
    13   6 C       14   6 C                                       1.4109116
    14   6 C       15   6 C                                       1.4113702
    15   6 C       16   6 C                                       1.3665179
    16   6 C       17   6 C                                       1.4035999
    17   6 C       18   6 C                                       1.3672425
    10   6 C       19   6 C                                       1.4191702
    14   6 C       19   6 C                                       1.4202299 (max)
    18   6 C       19   6 C                                       1.4124839
     1   6 C       20   1 H                                       1.0904258
     1   6 C       21   1 H                                       1.0880932
     1   6 C       22   1 H                                       1.0865838
     5   6 C       23   1 H                                       1.0803171
     6   6 C       24   1 H                                       1.0809825
     7   6 C       25   1 H                                       1.0802789 (min)
     8   6 C       26   1 H                                       1.0811155
     9   6 C       27   1 H                                       1.0809412
    11   6 C       28   1 H                                       1.0813650
    12   6 C       29   1 H                                       1.0803234
    13   6 C       30   1 H                                       1.0809463
    15   6 C       31   1 H                                       1.0811749
    16   6 C       32   1 H                                       1.0804830
    17   6 C       33   1 H                                       1.0806099
Note: The following floating-point exceptions are signalling: IEEE_DIVIDE_BY_ZERO IEEE_UNDERFLOW_FLAG IEEE_DENORMAL
normal termination of xtb
    18   6 C       34   1 H                                       1.0811220

 * 3 distinct bonds (by element types)

   Z      Z             #   av. dist./Å        max./Å        min./Å
   1 H    6 C          15     1.0823175     1.0904258     1.0802789
   6 C    6 C          17     1.3927987     1.4202299     1.3663836
   6 C    7 N           1     1.2633641     1.2633641     1.2633641


optimized geometry written to: xtbopt.xyz


           -------------------------------------------------
          | TOTAL ENERGY              -49.110665603375 Eh   |
          | GRADIENT NORM               0.000055831568 Eh/α |
          | HOMO-LUMO GAP               2.513951861109 eV   |
           -------------------------------------------------

------------------------------------------------------------------------
 * finished run on 2026/09/10 at 22:57:35.153     
------------------------------------------------------------------------
 total:
 * wall-time:     0 d,  0 h,  0 min,  1.666 sec
 *  cpu-time:     0 d,  0 h,  0 min,  0.141 sec
 * ratio c/w:     0.084 speedup
 SCF:
 * wall-time:     0 d,  0 h,  0 min,  0.041 sec
 *  cpu-time:     0 d,  0 h,  0 min,  0.000 sec
 * ratio c/w:     0.000 speedup
 ANC optimizer:
 * wall-time:     0 d,  0 h,  0 min,  1.591 sec
 *  cpu-time:     0 d,  0 h,  0 min,  0.141 sec
 * ratio c/w:     0.088 speedup

