34
 energy: -49.110665603375 gnorm: 0.000055831568 xtb: 6.7.1 (edcfbbe)
C           -0.62438832003296       -1.06134866030140       -2.96930353048476
C            0.12177365282705       -0.48391585754953       -1.80702712819619
N            1.37556268930768       -0.62785610485723       -1.74886463228131
C            2.18302430639350       -0.15492123281446       -0.72978036893547
C            3.26198832349339        0.66627635056018       -1.06128904727271
C            4.13595615812886        1.09518552853024       -0.08249800208031
C            3.96576388037750        0.69559400628114        1.23393680336518
C            2.90927011459028       -0.13653653521788        1.56518895071226
C            2.01846334527546       -0.55737918268679        0.59648563912647
C           -0.67751517640216        0.32105957271157       -0.84197513387087
C           -0.57994178381642        1.68996430101267       -0.87338858181337
C           -1.33417271065732        2.48510112052229        0.00077824655203
C           -2.17671926743173        1.90430921558038        0.90620629622128
C           -2.28584274375430        0.50009159726932        0.98948969929282
C           -3.12688010380409       -0.12392367637551        1.93565386612379
C           -3.19798815970228       -1.48592534298008        2.02089505814654
C           -2.42286294823109       -2.28704896080823        1.16797416755378
C           -1.60388013622178       -1.71460415467109        0.23474014295119
C           -1.52136634293929       -0.31019123150706        0.10854122635183
H           -0.94246481159817       -0.24789880834929       -3.62210897424172
H           -1.51907865372108       -1.58280728747137       -2.63530263550927
H            0.01840568867576       -1.73523509181527       -3.52908658611212
H            3.38913418984999        0.97166545153046       -2.08971316608487
H            4.96049283108238        1.74173416573599       -0.34827421641481
H            4.65549950751156        1.02792501673333        1.99605436880305
H            2.77229143473227       -0.45615176318886        2.58885566980835
H            1.19679068056502       -1.21015906493684        0.85564978783189
H            0.08058576881001        2.16193058378454       -1.58774222837470
H           -1.24256152334071        3.56017926870475       -0.05319252429002
H           -2.76574655491344        2.51136298366652        1.57924210485453
H           -3.70995165660948        0.49993203052987        2.59880584665696
H           -3.84271737646580       -1.95570265779568        2.74964530013382
H           -2.47537515082149       -3.36269811740038        1.25707449830401
H           -0.99554915105700       -2.33800746242345       -0.40567091672901
