 Entering Gaussian System
 *********************************************
 Gaussian 98:
 frequency output generated by the xtb code
 *********************************************
                         Standard orientation:
 --------------------------------------------------------------------
  Center     Atomic     Atomic              Coordinates (Angstroms)
  Number     Number      Type              X           Y           Z
 --------------------------------------------------------------------
    1          6             0       -0.555727   -1.373329   -1.626233
    2          6             0       -0.200124   -0.375669   -0.556010
    3          7             0       -1.054591    0.186129    0.194760
    4          6             0       -2.408625   -0.039906    0.248429
    5          6             0       -2.928979   -1.201640    0.826795
    6          6             0       -4.292762   -1.349778    0.988088
    7          6             0       -5.162446   -0.355092    0.571835
    8          6             0       -4.653581    0.800800    0.000181
    9          6             0       -3.291846    0.966436   -0.153269
   10          6             0        1.210074   -0.001898   -0.382372
   11          6             0        2.240502   -0.627079   -1.083697
   12          6             0        3.555328   -0.243442   -0.894729
   13          6             0        3.888055    0.772365   -0.007348
   14          6             0        5.312175    1.182777    0.205961
   15          6             0        2.859837    1.393654    0.697558
   16          6             0        1.547335    1.014730    0.515951
   17          1             0       -0.159112   -1.052468   -2.587886
   18          1             0       -1.637490   -1.469725   -1.702506
   19          1             0       -0.134175   -2.348198   -1.384223
   20          1             0       -2.248613   -1.974995    1.155968
   21          1             0       -4.680180   -2.253750    1.437468
   22          1             0       -6.228605   -0.478021    0.694510
   23          1             0       -5.325225    1.582552   -0.326391
   24          1             0       -2.891157    1.866105   -0.598179
   25          1             0        2.027643   -1.423077   -1.780429
   26          1             0        4.337388   -0.742966   -1.449704
   27          1             0        5.396590    2.267047    0.252344
   28          1             0        5.950733    0.812039   -0.592305
   29          1             0        5.677285    0.780110    1.151670
   30          1             0        3.097143    2.185541    1.394221
   31          1             0        0.753134    1.500743    1.061508
 --------------------------------------------------------------------
     1 basis functions        1 primitive gaussians
     1 alpha electrons        1 beta electrons

 Harmonic frequencies (cm**-1), IR intensities (km*mol⁻¹),
 Raman scattering activities (A**4/amu), Raman depolarization ratios,
 reduced masses (AMU), force constants (mDyne/A) and normal coordinates:
                      1                      2                      3
                        a                      a                      a 
 Frequencies --   -23.2059                23.1435                36.6718
 Red. masses --     1.2869                 9.4559                 9.7340
 Frc consts  --     0.0000                 0.0000                 0.0000
 IR Inten    --     0.6117                 0.1382                 0.7879
 Raman Activ --     0.0000                 0.0000                 0.0000
 Depolar     --     0.0000                 0.0000                 0.0000
 Atom AN      X      Y      Z        X      Y      Z        X      Y      Z
   1   6    -0.01   0.03  -0.03     0.01  -0.12   0.09    -0.08   0.40  -0.31
   2   6    -0.00   0.01  -0.01     0.01  -0.04   0.02    -0.03   0.16  -0.11
   3   7     0.00  -0.01   0.01    -0.00   0.00  -0.03     0.01  -0.03   0.08
   4   6     0.00  -0.00   0.01    -0.00   0.01  -0.02     0.01  -0.04   0.05
   5   6     0.00   0.00   0.01    -0.00   0.12   0.21     0.05   0.05   0.28
   6   6     0.00   0.00   0.01    -0.00   0.14   0.22     0.05   0.02   0.28
   7   6     0.00   0.00   0.00    -0.01   0.05  -0.01     0.01  -0.10   0.05
   8   6     0.00  -0.00  -0.00    -0.01  -0.07  -0.24    -0.03  -0.20  -0.18
   9   6     0.00  -0.00   0.00    -0.00  -0.09  -0.25    -0.03  -0.17  -0.19
  10   6     0.00  -0.00  -0.01     0.00  -0.02   0.00    -0.02   0.11  -0.08
  11   6    -0.01   0.04  -0.05    -0.02   0.22  -0.25    -0.02  -0.01   0.02
  12   6    -0.00   0.02  -0.04    -0.02   0.24  -0.25    -0.00  -0.11   0.09
  13   6     0.01  -0.04   0.01    -0.00   0.01   0.00     0.02  -0.08   0.06
  14   6    -0.01   0.04   0.00    -0.01   0.02   0.00     0.04  -0.21   0.15
  15   6     0.01  -0.07   0.05     0.02  -0.23   0.25     0.02   0.05  -0.06
  16   6     0.01  -0.05   0.05     0.03  -0.24   0.25     0.00   0.14  -0.12
  17   1    -0.01   0.02  -0.01    -0.06  -0.02   0.01     0.00   0.15  -0.07
  18   1    -0.00   0.01  -0.00     0.01  -0.09   0.07    -0.02   0.15  -0.11
  19   1     0.00   0.01  -0.02     0.07  -0.01   0.01    -0.06   0.09  -0.13
  20   1    -0.00   0.00   0.00    -0.00   0.06   0.11     0.02   0.04   0.13
  21   1    -0.00   0.00   0.00    -0.00   0.07   0.11     0.02   0.03   0.13
  22   1     0.00   0.00  -0.00    -0.00   0.02  -0.00     0.00  -0.04   0.02
  23   1     0.00  -0.00  -0.00    -0.00  -0.04  -0.12    -0.02  -0.09  -0.11
  24   1     0.00  -0.00  -0.00    -0.00  -0.05  -0.13    -0.02  -0.07  -0.11
  25   1    -0.01   0.02  -0.03    -0.01   0.12  -0.13    -0.01  -0.01   0.02
  26   1    -0.01   0.01  -0.02    -0.01   0.13  -0.13    -0.00  -0.06   0.05
  27   1     0.04   0.04  -0.57    -0.01   0.00   0.07     0.04  -0.06   0.05
  28   1     0.10  -0.44   0.29    -0.01   0.06  -0.03     0.02  -0.07   0.05
  29   1    -0.17   0.51   0.27     0.02  -0.05  -0.03    -0.01  -0.07   0.05
  30   1     0.01  -0.03   0.03     0.01  -0.12   0.13     0.01   0.02  -0.03
  31   1     0.01  -0.02   0.02     0.01  -0.12   0.13     0.00   0.07  -0.06
                      4                      5                      6
                        a                      a                      a 
 Frequencies --    46.9275                59.9025               108.9261
 Red. masses --    10.6923                10.5650                 9.9837
 Frc consts  --     0.0000                 0.0000                 0.0000
 IR Inten    --     1.8465                 0.4472                 0.4161
 Raman Activ --     0.0000                 0.0000                 0.0000
 Depolar     --     0.0000                 0.0000                 0.0000
 Atom AN      X      Y      Z        X      Y      Z        X      Y      Z
   1   6    -0.03   0.21  -0.12     0.10  -0.10  -0.29     0.02   0.18  -0.18
   2   6     0.02  -0.08   0.14     0.04  -0.17  -0.20    -0.00   0.04  -0.05
   3   7     0.06  -0.31   0.35     0.03  -0.27  -0.18    -0.05   0.14  -0.18
   4   6     0.02  -0.16   0.17     0.02  -0.14  -0.10    -0.04   0.12  -0.18
   5   6    -0.18  -0.09   0.11    -0.06  -0.05   0.00     0.09   0.09  -0.11
   6   6    -0.22   0.05  -0.09    -0.06   0.15   0.19     0.12   0.01   0.07
   7   6    -0.06   0.14  -0.22     0.02   0.26   0.29     0.01  -0.05   0.15
   8   6     0.15   0.08  -0.17     0.10   0.16   0.16    -0.12  -0.05   0.04
   9   6     0.19  -0.07   0.02     0.10  -0.04  -0.03    -0.15   0.04  -0.13
  10   6     0.02  -0.09   0.14     0.02  -0.10  -0.12     0.02  -0.14   0.16
  11   6     0.01  -0.07   0.09     0.11  -0.04  -0.04     0.03  -0.20   0.22
  12   6     0.00   0.01  -0.02     0.07   0.05   0.07     0.02  -0.15   0.16
  13   6     0.00   0.08  -0.10    -0.07   0.08   0.09     0.01  -0.03   0.03
  14   6    -0.01   0.22  -0.27    -0.12   0.18   0.22    -0.03   0.27  -0.31
  15   6     0.02   0.03  -0.02    -0.17   0.02   0.00     0.03  -0.15   0.16
  16   6     0.03  -0.06   0.09    -0.13  -0.07  -0.11     0.03  -0.20   0.23
  17   1     0.01   0.12  -0.01     0.04  -0.01  -0.07     0.07   0.06  -0.02
  18   1    -0.01   0.09  -0.05     0.03  -0.04  -0.09     0.01   0.10  -0.11
  19   1    -0.03   0.03  -0.10     0.04  -0.03  -0.10    -0.05   0.03  -0.06
  20   1    -0.09  -0.05   0.06    -0.04  -0.04  -0.02     0.05   0.04  -0.05
  21   1    -0.11   0.03  -0.04    -0.04   0.06   0.08     0.07  -0.00   0.04
  22   1    -0.03   0.07  -0.11     0.01   0.12   0.13     0.01  -0.03   0.09
  23   1     0.08   0.04  -0.08     0.05   0.07   0.07    -0.06  -0.03   0.02
  24   1     0.10  -0.04   0.02     0.05  -0.03  -0.03    -0.08   0.01  -0.06
  25   1     0.00  -0.03   0.04     0.06  -0.02  -0.01     0.01  -0.07   0.08
  26   1    -0.00   0.01  -0.02     0.04   0.03   0.04     0.01  -0.04   0.04
  27   1    -0.03   0.06  -0.08    -0.06   0.05   0.08    -0.08   0.08  -0.10
  28   1    -0.02   0.08  -0.10    -0.01   0.08   0.08    -0.04   0.12  -0.14
  29   1     0.04   0.07  -0.09    -0.05   0.05   0.07     0.09   0.11  -0.12
  30   1     0.01   0.02  -0.02    -0.08   0.01   0.00     0.01  -0.04   0.04
  31   1     0.01  -0.02   0.04    -0.06  -0.03  -0.05     0.01  -0.07   0.08
                      7                      8                      9
                        a                      a                      a 
 Frequencies --   155.5064               192.8922               237.7349
 Red. masses --    10.3369                 1.5307                10.2903
 Frc consts  --     0.0000                 0.0000                 0.0000
 IR Inten    --     2.0183                 0.8935                 0.8369
 Raman Activ --     0.0000                 0.0000                 0.0000
 Depolar     --     0.0000                 0.0000                 0.0000
 Atom AN      X      Y      Z        X      Y      Z        X      Y      Z
   1   6    -0.30  -0.01  -0.02    -0.04  -0.03   0.05     0.22  -0.11  -0.14
   2   6    -0.05  -0.05  -0.07     0.00   0.05  -0.03     0.00   0.03  -0.18
   3   7     0.15   0.10   0.04     0.00  -0.03   0.03    -0.07  -0.05  -0.20
   4   6     0.15   0.17   0.17     0.00  -0.06  -0.01    -0.09   0.05   0.14
   5   6     0.22   0.15   0.17    -0.03  -0.05  -0.03    -0.15   0.15   0.32
   6   6     0.22  -0.00  -0.04    -0.03   0.00   0.01    -0.18   0.03   0.06
   7   6     0.19  -0.11  -0.23    -0.00   0.03   0.04    -0.23  -0.14  -0.26
   8   6     0.14  -0.01  -0.06     0.02  -0.00  -0.01    -0.17  -0.01   0.07
   9   6     0.14   0.15   0.16     0.02  -0.05  -0.03    -0.14   0.10   0.33
  10   6    -0.03  -0.15  -0.13     0.00   0.05  -0.03     0.04   0.05  -0.15
  11   6     0.01  -0.13  -0.08    -0.00   0.06  -0.04     0.12   0.02  -0.04
  12   6    -0.02  -0.05   0.02    -0.00   0.07  -0.06     0.14  -0.05   0.07
  13   6    -0.15  -0.02   0.03     0.01   0.02  -0.01     0.14  -0.05   0.06
  14   6    -0.22   0.17   0.11     0.02  -0.01   0.01     0.12   0.12  -0.02
  15   6    -0.20  -0.09   0.00     0.02  -0.02   0.04     0.10  -0.10   0.04
  16   6    -0.15  -0.16  -0.08     0.02   0.01   0.02     0.08  -0.02  -0.08
  17   1    -0.06  -0.04  -0.01     0.44  -0.35   0.09     0.11  -0.07  -0.03
  18   1    -0.09   0.07  -0.00    -0.03   0.39  -0.33     0.07  -0.05  -0.09
  19   1    -0.15  -0.03   0.00    -0.48  -0.13   0.35     0.06  -0.02   0.03
  20   1     0.08   0.07   0.07    -0.01  -0.02  -0.01    -0.05   0.06   0.14
  21   1     0.07  -0.01  -0.03    -0.01   0.01   0.01    -0.04   0.01   0.02
  22   1     0.05  -0.07  -0.14    -0.00   0.02   0.02    -0.07  -0.09  -0.18
  23   1     0.03  -0.02  -0.04     0.01   0.00  -0.01    -0.04   0.00   0.01
  24   1     0.04   0.06   0.07     0.01  -0.02  -0.02    -0.05   0.05   0.14
  25   1     0.02  -0.04  -0.02    -0.00   0.01   0.00     0.05   0.01  -0.02
  26   1     0.01   0.00   0.02    -0.00   0.03  -0.03     0.04  -0.03   0.03
  27   1    -0.11   0.05   0.05     0.01  -0.00   0.00    -0.01   0.04  -0.01
  28   1    -0.03   0.09   0.04     0.01  -0.01   0.01     0.03   0.06  -0.02
  29   1    -0.06   0.05   0.03    -0.00  -0.01   0.01     0.07   0.05  -0.02
  30   1    -0.08  -0.02   0.01     0.01  -0.02   0.03     0.02  -0.04   0.03
  31   1    -0.06  -0.07  -0.04     0.01  -0.00   0.01     0.03   0.00  -0.03
                     10                     11                     12
                        a                      a                      a 
 Frequencies --   255.4831               269.7413               331.9952
 Red. masses --    10.0343                 9.6206                 9.0687
 Frc consts  --     0.0000                 0.0000                 0.0000
 IR Inten    --     0.0816                 0.4910                 0.2300
 Raman Activ --     0.0000                 0.0000                 0.0000
 Depolar     --     0.0000                 0.0000                 0.0000
 Atom AN      X      Y      Z        X      Y      Z        X      Y      Z
   1   6    -0.08   0.10  -0.03    -0.40   0.04   0.19    -0.41  -0.10  -0.07
   2   6     0.02  -0.18   0.19    -0.04   0.13  -0.03    -0.03  -0.15  -0.11
   3   7    -0.02   0.01   0.04     0.01   0.07   0.12    -0.00  -0.09  -0.14
   4   6    -0.07   0.13  -0.04    -0.03  -0.06   0.01    -0.00  -0.01  -0.05
   5   6    -0.05   0.12  -0.03    -0.11  -0.09  -0.11     0.00   0.02   0.03
   6   6    -0.03   0.01   0.01    -0.12  -0.03  -0.04     0.00   0.01   0.02
   7   6    -0.12  -0.06   0.02    -0.10   0.06   0.13    -0.00  -0.03  -0.04
   8   6    -0.18  -0.04   0.03    -0.06  -0.03  -0.01    -0.00   0.01   0.02
   9   6    -0.18   0.07  -0.01    -0.05  -0.12  -0.10    -0.00   0.02   0.02
  10   6     0.10  -0.34   0.17     0.06   0.05  -0.23    -0.00  -0.08   0.01
  11   6     0.15  -0.13   0.02     0.15   0.02  -0.11     0.13   0.07   0.08
  12   6     0.13   0.15  -0.23     0.20  -0.12   0.08     0.06   0.24   0.20
  13   6     0.11   0.16  -0.23     0.21  -0.12   0.09     0.07   0.26   0.18
  14   6     0.08   0.02   0.30     0.11   0.30   0.11     0.29  -0.21  -0.21
  15   6     0.05   0.10  -0.26     0.14  -0.15   0.01    -0.05   0.18   0.11
  16   6     0.10  -0.18  -0.01     0.13  -0.02  -0.17    -0.02  -0.05   0.02
  17   1     0.02   0.08   0.02    -0.21  -0.03   0.00    -0.18  -0.04  -0.05
  18   1    -0.03   0.09  -0.04    -0.13   0.01   0.17    -0.13   0.03   0.07
  19   1    -0.08  -0.01  -0.08    -0.09   0.02   0.04    -0.15  -0.06  -0.07
  20   1    -0.00   0.05  -0.01    -0.05  -0.05  -0.05     0.00   0.01   0.02
  21   1     0.02  -0.01   0.01    -0.04  -0.01  -0.02     0.00   0.00   0.01
  22   1    -0.03  -0.04   0.01    -0.03   0.05   0.08    -0.00  -0.02  -0.03
  23   1    -0.07  -0.02   0.01    -0.00   0.00  -0.01    -0.00   0.00   0.01
  24   1    -0.09   0.03  -0.01    -0.02  -0.05  -0.05    -0.00   0.01   0.01
  25   1     0.06  -0.06   0.02     0.05   0.02  -0.05     0.08   0.02   0.01
  26   1     0.04   0.07  -0.09     0.06  -0.05   0.04     0.04   0.09   0.07
  27   1     0.06   0.00   0.13    -0.09   0.10   0.04     0.24  -0.07  -0.11
  28   1     0.11   0.00   0.16     0.07   0.17   0.02    -0.05  -0.18  -0.11
  29   1    -0.11  -0.04   0.12     0.08   0.12   0.03     0.12  -0.08  -0.08
  30   1    -0.00   0.06  -0.10     0.03  -0.05   0.02    -0.07   0.07   0.04
  31   1     0.03  -0.07   0.02     0.04   0.01  -0.06    -0.02  -0.03   0.00
                     13                     14                     15
                        a                      a                      a 
 Frequencies --   368.2924               373.6630               392.8616
 Red. masses --     8.9206                 9.0728                 9.9536
 Frc consts  --     0.0000                 0.0000                 0.0000
 IR Inten    --     0.0960                 1.0650                 2.2462
 Raman Activ --     0.0000                 0.0000                 0.0000
 Depolar     --     0.0000                 0.0000                 0.0000
 Atom AN      X      Y      Z        X      Y      Z        X      Y      Z
   1   6    -0.00  -0.00   0.00     0.03   0.00   0.00     0.22   0.08   0.06
   2   6    -0.00   0.03  -0.03     0.01   0.01  -0.00     0.03  -0.05   0.19
   3   7    -0.02   0.02  -0.04     0.02  -0.02   0.03     0.13  -0.01   0.32
   4   6     0.00  -0.03  -0.00     0.01   0.02   0.00     0.02   0.19   0.11
   5   6    -0.00  -0.03  -0.01     0.02   0.20   0.38    -0.04   0.11  -0.13
   6   6    -0.00   0.01   0.03    -0.02  -0.18  -0.39    -0.02   0.01  -0.05
   7   6     0.01   0.00  -0.01    -0.01  -0.00   0.01    -0.10   0.01   0.14
   8   6     0.02  -0.00  -0.02     0.01   0.17   0.39    -0.12  -0.09  -0.07
   9   6     0.02  -0.00   0.03    -0.03  -0.17  -0.39    -0.10   0.04  -0.04
  10   6    -0.01   0.02   0.01     0.01  -0.01  -0.01     0.09  -0.17  -0.16
  11   6    -0.05   0.27  -0.28     0.01   0.01  -0.03     0.15   0.02  -0.29
  12   6     0.03  -0.29   0.29     0.00  -0.01   0.02     0.07   0.04   0.12
  13   6    -0.00   0.01  -0.04    -0.02   0.01   0.01    -0.09  -0.05   0.28
  14   6    -0.01   0.01   0.02    -0.01  -0.01  -0.01    -0.02  -0.10  -0.15
  15   6    -0.03   0.28  -0.32    -0.02   0.02  -0.01    -0.18   0.05   0.05
  16   6     0.05  -0.29   0.34    -0.01  -0.03   0.01    -0.09  -0.09  -0.23
  17   1     0.01  -0.03  -0.00     0.02  -0.01   0.00     0.14   0.06   0.06
  18   1    -0.00   0.01  -0.01     0.01   0.00  -0.01     0.07   0.00  -0.07
  19   1    -0.02  -0.00   0.03     0.00   0.00   0.01     0.07   0.02   0.02
  20   1    -0.00  -0.01  -0.00     0.02   0.11   0.22    -0.01   0.01  -0.08
  21   1    -0.01   0.01   0.02    -0.01  -0.12  -0.24     0.03  -0.02  -0.04
  22   1     0.00   0.00  -0.01    -0.00  -0.00   0.00    -0.03   0.00   0.08
  23   1     0.01  -0.00  -0.01     0.01   0.11   0.24    -0.05  -0.05  -0.06
  24   1     0.01   0.00   0.02    -0.02  -0.10  -0.23    -0.07   0.02  -0.04
  25   1    -0.03   0.18  -0.19     0.00   0.01  -0.02     0.09   0.05  -0.14
  26   1     0.02  -0.18   0.18     0.01  -0.01   0.01     0.06   0.06   0.06
  27   1    -0.01   0.00   0.01     0.00  -0.00  -0.01     0.02  -0.03  -0.10
  28   1     0.01   0.01   0.02    -0.01  -0.01  -0.01    -0.11  -0.07  -0.11
  29   1    -0.02  -0.00   0.01    -0.00  -0.00  -0.00     0.10  -0.00  -0.07
  30   1    -0.01   0.17  -0.19    -0.01   0.01  -0.01    -0.11   0.05  -0.00
  31   1     0.03  -0.18   0.21    -0.00  -0.02   0.01    -0.08  -0.04  -0.12
                     16                     17                     18
                        a                      a                      a 
 Frequencies --   421.7606               466.4388               492.4121
 Red. masses --     9.8807                10.1231                10.9683
 Frc consts  --     0.0000                 0.0000                 0.0000
 IR Inten    --     2.8928                 6.4183                 1.7917
 Raman Activ --     0.0000                 0.0000                 0.0000
 Depolar     --     0.0000                 0.0000                 0.0000
 Atom AN      X      Y      Z        X      Y      Z        X      Y      Z
   1   6     0.09   0.10   0.11    -0.02   0.20   0.19     0.07   0.03  -0.03
   2   6     0.01   0.35  -0.17     0.20   0.05   0.17    -0.21  -0.02   0.09
   3   7     0.05   0.27  -0.03    -0.02   0.22  -0.19    -0.24   0.41  -0.24
   4   6     0.06  -0.08   0.14     0.04  -0.28  -0.34    -0.09  -0.09   0.27
   5   6    -0.06  -0.11   0.02    -0.02  -0.09   0.04     0.06  -0.24   0.15
   6   6    -0.11   0.01  -0.04    -0.05   0.11   0.15     0.01  -0.07  -0.08
   7   6    -0.09   0.06   0.05    -0.08  -0.07  -0.24     0.15   0.14   0.06
   8   6     0.01  -0.03  -0.04     0.03   0.08   0.17     0.06   0.08  -0.13
   9   6     0.03  -0.15   0.06     0.03  -0.14   0.05     0.05  -0.10   0.05
  10   6     0.08   0.01  -0.23     0.20  -0.13   0.09    -0.14  -0.23   0.10
  11   6     0.14  -0.27   0.08     0.10  -0.06  -0.14    -0.04   0.02  -0.00
  12   6     0.05   0.04   0.02     0.05   0.00  -0.07    -0.04   0.12  -0.01
  13   6    -0.13   0.33  -0.23    -0.13  -0.14   0.15     0.14  -0.08   0.18
  14   6    -0.06  -0.11  -0.02    -0.17  -0.06  -0.05     0.18   0.05   0.03
  15   6    -0.10   0.01   0.07    -0.06   0.09   0.03    -0.03  -0.02  -0.12
  16   6    -0.01  -0.24   0.06    -0.01   0.05  -0.05    -0.02  -0.10  -0.12
  17   1    -0.00  -0.04  -0.00    -0.03   0.08   0.05     0.10   0.09   0.05
  18   1     0.03  -0.05   0.05    -0.02   0.13   0.09     0.03  -0.02  -0.12
  19   1     0.10   0.08   0.12    -0.06   0.02  -0.01     0.04   0.01  -0.04
  20   1    -0.05  -0.06   0.00    -0.03  -0.00   0.12     0.00  -0.09   0.01
  21   1    -0.05  -0.00  -0.03    -0.02   0.08   0.15    -0.07  -0.02  -0.09
  22   1    -0.03   0.04   0.02    -0.02  -0.02  -0.09     0.04   0.05   0.03
  23   1     0.03   0.00  -0.04     0.04   0.09   0.15     0.03   0.00  -0.09
  24   1     0.02  -0.05   0.00     0.03  -0.00   0.11     0.09  -0.08  -0.03
  25   1     0.08  -0.16   0.10     0.01   0.03  -0.08     0.03   0.04  -0.06
  26   1     0.06  -0.01   0.08     0.04   0.07  -0.04    -0.04   0.08  -0.07
  27   1     0.12  -0.04   0.02    -0.07  -0.01  -0.04     0.02   0.02  -0.02
  28   1    -0.01  -0.11   0.03    -0.08  -0.01  -0.04     0.03   0.02  -0.02
  29   1    -0.13  -0.10   0.01     0.01   0.01  -0.03     0.11   0.04  -0.00
  30   1    -0.05  -0.05   0.09    -0.01   0.06  -0.04    -0.06   0.05  -0.08
  31   1    -0.03  -0.17   0.07    -0.04   0.02  -0.09    -0.00   0.03  -0.08
                     19                     20                     21
                        a                      a                      a 
 Frequencies --   505.1338               549.3452               589.3626
 Red. masses --    10.5938                 9.0545                11.2438
 Frc consts  --     0.0000                 0.0000                 0.0000
 IR Inten    --     0.4500                 5.4870                 3.6233
 Raman Activ --     0.0000                 0.0000                 0.0000
 Depolar     --     0.0000                 0.0000                 0.0000
 Atom AN      X      Y      Z        X      Y      Z        X      Y      Z
   1   6     0.08   0.08   0.10     0.01   0.00   0.02    -0.00   0.06   0.07
   2   6    -0.22   0.13   0.09     0.06  -0.43   0.40     0.04   0.00   0.06
   3   7    -0.24  -0.14   0.28    -0.05   0.16  -0.15    -0.18   0.01  -0.20
   4   6    -0.24  -0.10  -0.29     0.00  -0.03   0.03    -0.15   0.11  -0.01
   5   6     0.05  -0.07  -0.02     0.04  -0.04   0.03    -0.31   0.12   0.05
   6   6     0.11  -0.04   0.18     0.02   0.03  -0.03    -0.25  -0.41   0.11
   7   6     0.24  -0.09  -0.20     0.00   0.03  -0.00     0.16  -0.08   0.14
   8   6     0.05   0.17   0.09    -0.04   0.04  -0.02     0.34  -0.18  -0.02
   9   6     0.00   0.17  -0.14    -0.03  -0.05   0.02     0.23   0.36  -0.09
  10   6    -0.15  -0.03  -0.18    -0.03   0.24  -0.25     0.09   0.01  -0.01
  11   6    -0.02  -0.03  -0.03    -0.00   0.09  -0.09     0.08  -0.03  -0.05
  12   6    -0.02   0.03   0.10     0.03  -0.13   0.14     0.07  -0.03  -0.02
  13   6     0.10   0.14  -0.04    -0.03   0.19  -0.21    -0.06  -0.00  -0.00
  14   6     0.18   0.04   0.02    -0.00   0.01  -0.02    -0.10  -0.03  -0.02
  15   6    -0.03  -0.10  -0.03     0.02  -0.12   0.13     0.02   0.05   0.05
  16   6    -0.02  -0.16  -0.14    -0.01   0.08  -0.08     0.05   0.03   0.00
  17   1     0.07   0.02   0.05     0.07   0.21   0.10    -0.01   0.03   0.02
  18   1     0.04  -0.07  -0.05    -0.00   0.12  -0.07    -0.01   0.06   0.04
  19   1     0.09   0.07   0.09    -0.09  -0.09  -0.23    -0.03  -0.00  -0.02
  20   1     0.08   0.06   0.05     0.00  -0.02   0.02    -0.03   0.06  -0.04
  21   1     0.01   0.05   0.15    -0.01   0.01  -0.02    -0.06  -0.14  -0.01
  22   1     0.07  -0.03  -0.06     0.00  -0.00   0.01     0.02   0.10  -0.03
  23   1    -0.03   0.06   0.15    -0.00   0.01  -0.01     0.03  -0.12  -0.02
  24   1     0.04   0.07   0.06     0.01  -0.02  -0.00     0.05   0.09  -0.06
  25   1     0.06  -0.05   0.01     0.01  -0.06   0.07     0.02  -0.01  -0.01
  26   1    -0.01  -0.03   0.06     0.02  -0.15   0.16     0.04   0.01   0.01
  27   1     0.09   0.01   0.01     0.05  -0.00   0.02    -0.02  -0.01  -0.01
  28   1     0.05  -0.01   0.01     0.02  -0.01   0.02    -0.03  -0.01  -0.01
  29   1     0.03  -0.01   0.01    -0.07  -0.03   0.01    -0.03  -0.01  -0.01
  30   1    -0.06  -0.05   0.04     0.02  -0.15   0.16     0.02   0.01   0.02
  31   1     0.00  -0.07  -0.00     0.01  -0.07   0.08    -0.00  -0.01  -0.01
                     22                     23                     24
                        a                      a                      a 
 Frequencies --   598.1273               608.9158               658.9963
 Red. masses --    11.2560                11.2921                10.1560
 Frc consts  --     0.0000                 0.0000                 0.0000
 IR Inten    --     8.1804                 0.3873                 0.2529
 Raman Activ --     0.0000                 0.0000                 0.0000
 Depolar     --     0.0000                 0.0000                 0.0000
 Atom AN      X      Y      Z        X      Y      Z        X      Y      Z
   1   6     0.03  -0.06  -0.07     0.00  -0.04  -0.04    -0.02  -0.07  -0.08
   2   6    -0.07  -0.07   0.00     0.02  -0.02  -0.00    -0.04  -0.03  -0.01
   3   7     0.24   0.30   0.07     0.00  -0.04  -0.03    -0.04   0.04  -0.02
   4   6     0.24   0.05  -0.07     0.00  -0.00  -0.00    -0.06   0.19   0.44
   5   6    -0.18   0.17  -0.20     0.01   0.00   0.01    -0.04  -0.19  -0.23
   6   6    -0.18   0.03   0.13     0.01   0.01  -0.02    -0.00   0.07   0.35
   7   6    -0.24  -0.16  -0.08    -0.00   0.01   0.01     0.07  -0.12  -0.28
   8   6     0.25  -0.22   0.22    -0.02   0.00  -0.01    -0.00   0.20   0.29
   9   6     0.20  -0.11  -0.10    -0.01  -0.00   0.02    -0.04  -0.06  -0.29
  10   6    -0.19  -0.03  -0.02     0.04  -0.08  -0.08     0.06   0.03  -0.01
  11   6    -0.19   0.03   0.06    -0.27  -0.29  -0.24     0.09  -0.01   0.01
  12   6    -0.18   0.06   0.06    -0.44   0.08   0.13     0.09  -0.01  -0.04
  13   6     0.12   0.02   0.02    -0.04   0.08   0.08    -0.05  -0.03   0.01
  14   6     0.21   0.06   0.04    -0.04   0.06   0.05    -0.12  -0.04  -0.02
  15   6    -0.04  -0.09  -0.09     0.29   0.30   0.24     0.06   0.08   0.04
  16   6    -0.07  -0.07  -0.04     0.45  -0.08  -0.13     0.08   0.03   0.04
  17   1     0.05   0.04   0.02    -0.01  -0.01  -0.01     0.00  -0.01  -0.01
  18   1     0.02  -0.04  -0.08    -0.00  -0.00  -0.00    -0.01  -0.02  -0.03
  19   1     0.03  -0.01  -0.04    -0.01  -0.02  -0.02    -0.01  -0.02  -0.03
  20   1    -0.08   0.05   0.01     0.00  -0.00  -0.00    -0.01  -0.11  -0.20
  21   1     0.03   0.01   0.11     0.00  -0.00  -0.01    -0.03  -0.01   0.01
  22   1    -0.08   0.04  -0.04     0.00  -0.00   0.00     0.01  -0.08  -0.19
  23   1     0.11  -0.00   0.11    -0.00  -0.00  -0.01    -0.03  -0.00   0.00
  24   1    -0.01   0.02   0.01    -0.00  -0.00  -0.00    -0.00  -0.09  -0.22
  25   1    -0.03   0.00   0.02    -0.03  -0.09  -0.08     0.02  -0.00  -0.00
  26   1    -0.09  -0.02  -0.01    -0.09   0.05   0.06     0.04   0.02  -0.00
  27   1     0.05   0.02   0.01    -0.04   0.02   0.03    -0.04  -0.01  -0.01
  28   1     0.06   0.02   0.01     0.02   0.04   0.03    -0.03  -0.01  -0.01
  29   1     0.06   0.02   0.01    -0.02   0.02   0.02    -0.03  -0.01  -0.01
  30   1    -0.05  -0.02  -0.02     0.04   0.09   0.08     0.04   0.02   0.00
  31   1     0.01   0.00   0.01     0.10  -0.05  -0.06     0.02   0.01   0.01
                     25                     26                     27
                        a                      a                      a 
 Frequencies --   674.0687               715.1632               769.1685
 Red. masses --    10.4015                 7.7646                 6.8386
 Frc consts  --     0.0000                 0.0000                 0.0000
 IR Inten    --     1.0860                28.9562                24.0035
 Raman Activ --     0.0000                 0.0000                 0.0000
 Depolar     --     0.0000                 0.0000                 0.0000
 Atom AN      X      Y      Z        X      Y      Z        X      Y      Z
   1   6    -0.01   0.01  -0.02    -0.11  -0.24  -0.25     0.09   0.08   0.07
   2   6    -0.02   0.10  -0.09    -0.24  -0.04  -0.00     0.22   0.00  -0.05
   3   7     0.00   0.02  -0.01     0.05   0.27   0.23     0.05  -0.11  -0.17
   4   6     0.01   0.01   0.03    -0.04  -0.01  -0.00    -0.00   0.16   0.34
   5   6    -0.01  -0.01  -0.01    -0.03  -0.05  -0.03    -0.04  -0.12  -0.10
   6   6    -0.01   0.01   0.02    -0.04  -0.10  -0.08    -0.04  -0.13  -0.04
   7   6    -0.01  -0.00  -0.01     0.04  -0.01  -0.04     0.07  -0.06  -0.15
   8   6     0.02  -0.01   0.02    -0.01  -0.02  -0.11    -0.09   0.05  -0.12
   9   6     0.02  -0.02  -0.00    -0.01  -0.02  -0.06    -0.07   0.01  -0.16
  10   6     0.04  -0.36   0.39     0.00  -0.00   0.01     0.08   0.02   0.02
  11   6    -0.03   0.20  -0.20     0.16   0.07   0.06    -0.09  -0.10  -0.08
  12   6     0.03  -0.22   0.24     0.19  -0.01  -0.03    -0.12  -0.03  -0.01
  13   6    -0.03   0.27  -0.30    -0.08  -0.03  -0.01     0.03   0.02  -0.01
  14   6    -0.00   0.04  -0.04    -0.26  -0.07  -0.05     0.20   0.06   0.03
  15   6     0.03  -0.23   0.23     0.14   0.11   0.09    -0.11  -0.04  -0.01
  16   6    -0.03   0.19  -0.21     0.17   0.05   0.02    -0.14   0.03   0.04
  17   1    -0.01  -0.06  -0.03     0.05  -0.01  -0.02    -0.06  -0.03  -0.03
  18   1     0.00  -0.03   0.01    -0.01  -0.16  -0.19     0.01   0.12   0.14
  19   1     0.02   0.03   0.07     0.03  -0.04  -0.06    -0.05  -0.02  -0.01
  20   1    -0.01  -0.01  -0.02     0.01   0.10   0.22     0.02   0.09   0.20
  21   1    -0.00  -0.00  -0.01    -0.02   0.08   0.20    -0.03   0.10   0.26
  22   1    -0.00  -0.00  -0.02     0.03   0.13   0.24     0.04   0.17   0.36
  23   1     0.01  -0.00  -0.01     0.00   0.09   0.20    -0.04   0.12   0.25
  24   1     0.00  -0.01  -0.01     0.03   0.10   0.23     0.00   0.11   0.18
  25   1    -0.02   0.14  -0.15     0.05   0.03  -0.00    -0.06  -0.02  -0.02
  26   1     0.00  -0.03   0.03     0.08   0.03  -0.00    -0.04  -0.01  -0.01
  27   1     0.10  -0.00   0.04    -0.07  -0.02  -0.01     0.06   0.02   0.01
  28   1     0.04  -0.03   0.04    -0.07  -0.02  -0.01     0.06   0.02   0.01
  29   1    -0.14  -0.07   0.01    -0.08  -0.02  -0.01     0.06   0.02   0.01
  30   1     0.00  -0.03   0.03     0.08   0.04   0.00    -0.04  -0.01  -0.00
  31   1    -0.02   0.14  -0.15     0.06   0.04   0.01    -0.07  -0.01  -0.01
                     28                     29                     30
                        a                      a                      a 
 Frequencies --   804.4358               814.7895               852.0084
 Red. masses --     4.3439                10.9528                10.7383
 Frc consts  --     0.0000                 0.0000                 0.0000
 IR Inten    --    16.2337                33.1999                 0.3667
 Raman Activ --     0.0000                 0.0000                 0.0000
 Depolar     --     0.0000                 0.0000                 0.0000
 Atom AN      X      Y      Z        X      Y      Z        X      Y      Z
   1   6     0.02  -0.02   0.04     0.01   0.17   0.17     0.09   0.08   0.07
   2   6     0.02  -0.06   0.05    -0.11  -0.01   0.02     0.17  -0.04  -0.08
   3   7     0.02  -0.01   0.01    -0.34  -0.27  -0.21     0.26   0.03  -0.03
   4   6    -0.00  -0.01  -0.02     0.01   0.09   0.19     0.07   0.00  -0.03
   5   6    -0.00   0.01   0.00     0.10   0.09  -0.11    -0.08  -0.05   0.03
   6   6    -0.00  -0.01   0.01     0.14   0.26  -0.16    -0.10  -0.19   0.09
   7   6     0.01   0.00   0.01    -0.23  -0.07  -0.05     0.15   0.02  -0.00
   8   6    -0.02   0.02  -0.00     0.20  -0.23   0.07    -0.16   0.16  -0.07
   9   6    -0.01   0.02  -0.00     0.12  -0.08  -0.01    -0.09   0.02  -0.01
  10   6    -0.03   0.21  -0.23    -0.13  -0.02  -0.03    -0.13  -0.05  -0.01
  11   6     0.02  -0.17   0.20     0.06   0.14   0.13    -0.02   0.29   0.25
  12   6     0.00  -0.12   0.15     0.06   0.08   0.07    -0.12   0.22   0.20
  13   6    -0.00   0.08  -0.09     0.01   0.00   0.01     0.08   0.01   0.02
  14   6    -0.01   0.04  -0.04    -0.22  -0.06  -0.04    -0.29  -0.08  -0.05
  15   6     0.01  -0.12   0.11     0.10  -0.04  -0.05     0.08  -0.21  -0.21
  16   6     0.02  -0.14   0.13     0.16  -0.12  -0.13     0.19  -0.21  -0.22
  17   1     0.02   0.06   0.04     0.03   0.04   0.06    -0.04  -0.02  -0.02
  18   1     0.00   0.04  -0.01     0.01   0.02   0.03     0.01   0.11   0.13
  19   1    -0.03  -0.04  -0.06     0.03   0.06   0.07    -0.04  -0.01  -0.01
  20   1     0.00   0.00  -0.00     0.02   0.05   0.04    -0.02  -0.02   0.00
  21   1    -0.00  -0.01  -0.01     0.13   0.08   0.05    -0.08  -0.04   0.01
  22   1     0.00  -0.01  -0.01    -0.05   0.06   0.18     0.04  -0.01  -0.03
  23   1    -0.01  -0.00  -0.01     0.13   0.02   0.08    -0.09   0.01  -0.00
  24   1    -0.00   0.00  -0.01     0.01  -0.01   0.01    -0.02   0.02   0.02
  25   1    -0.04   0.29  -0.32     0.07   0.04   0.02     0.07   0.05   0.09
  26   1    -0.05   0.30  -0.33     0.01   0.02   0.01    -0.08  -0.00   0.05
  27   1     0.09  -0.00   0.05    -0.06  -0.02  -0.01    -0.10  -0.02  -0.01
  28   1     0.04  -0.03   0.05    -0.06  -0.02  -0.01    -0.09  -0.03  -0.02
  29   1    -0.13  -0.07   0.01    -0.07  -0.02  -0.01    -0.09  -0.02  -0.01
  30   1    -0.04   0.25  -0.28     0.00  -0.01  -0.02    -0.05  -0.06  -0.04
  31   1    -0.03   0.21  -0.23     0.08  -0.00  -0.01     0.12  -0.00  -0.01
                     31                     32                     33
                        a                      a                      a 
 Frequencies --   868.5070               870.9921               880.3032
 Red. masses --     3.3009                 3.3639                 3.9260
 Frc consts  --     0.0000                 0.0000                 0.0000
 IR Inten    --     1.0766                 1.2310                 1.4823
 Raman Activ --     0.0000                 0.0000                 0.0000
 Depolar     --     0.0000                 0.0000                 0.0000
 Atom AN      X      Y      Z        X      Y      Z        X      Y      Z
   1   6    -0.00  -0.00  -0.01    -0.00  -0.00   0.01    -0.01  -0.02  -0.01
   2   6     0.00  -0.00  -0.00    -0.00  -0.01   0.01    -0.00   0.01   0.01
   3   7     0.01   0.00   0.01    -0.01  -0.00  -0.01     0.04   0.04   0.04
   4   6     0.01  -0.00  -0.02    -0.00   0.00   0.00     0.00  -0.05  -0.11
   5   6    -0.02  -0.11  -0.21     0.01   0.04   0.07    -0.00   0.11   0.23
   6   6    -0.02  -0.09  -0.16     0.01   0.03   0.05    -0.01  -0.03   0.00
   7   6     0.01   0.00  -0.00    -0.01  -0.00   0.00     0.01  -0.14  -0.31
   8   6     0.00   0.08   0.15     0.00  -0.03  -0.05    -0.02   0.02  -0.02
   9   6     0.01   0.11   0.23    -0.00  -0.03  -0.07     0.00   0.09   0.23
  10   6    -0.00   0.01  -0.01    -0.00   0.03  -0.03     0.00   0.00  -0.00
  11   6    -0.01   0.05  -0.05    -0.02   0.14  -0.17    -0.00   0.00   0.00
  12   6    -0.00   0.03  -0.04    -0.01   0.10  -0.13    -0.00   0.00   0.00
  13   6    -0.00   0.00  -0.00    -0.00   0.01  -0.01     0.00  -0.00  -0.00
  14   6     0.00   0.00  -0.00     0.01   0.00  -0.00    -0.00  -0.00  -0.00
  15   6     0.01  -0.05   0.05     0.02  -0.15   0.17    -0.00  -0.00  -0.00
  16   6     0.01  -0.05   0.06     0.02  -0.17   0.19    -0.00   0.00   0.00
  17   1    -0.00  -0.00  -0.00     0.00   0.01   0.01     0.01   0.00   0.00
  18   1    -0.00  -0.01   0.00    -0.00  -0.01   0.00    -0.00  -0.01  -0.02
  19   1    -0.00  -0.00  -0.00     0.00  -0.00  -0.01     0.01  -0.00  -0.01
  20   1     0.03   0.21   0.44    -0.01  -0.07  -0.14    -0.03  -0.20  -0.42
  21   1     0.01   0.15   0.31    -0.00  -0.05  -0.10    -0.01   0.03   0.09
  22   1     0.00  -0.00  -0.00    -0.00  -0.00  -0.00     0.04   0.23   0.49
  23   1    -0.02  -0.14  -0.31     0.01   0.05   0.10    -0.00   0.04   0.08
  24   1    -0.04  -0.21  -0.45     0.01   0.07   0.14    -0.03  -0.19  -0.40
  25   1     0.01  -0.09   0.10     0.03  -0.29   0.31     0.00  -0.00   0.00
  26   1     0.01  -0.07   0.08     0.04  -0.22   0.24    -0.00  -0.00   0.00
  27   1     0.00  -0.00   0.00     0.01   0.00   0.01    -0.00  -0.00   0.00
  28   1     0.00   0.00   0.00     0.01  -0.00   0.00     0.00   0.00   0.00
  29   1    -0.01  -0.00   0.00    -0.02  -0.00   0.00    -0.00   0.00   0.00
  30   1    -0.01   0.10  -0.11    -0.05   0.32  -0.34     0.00   0.00  -0.00
  31   1    -0.01   0.10  -0.11    -0.04   0.30  -0.33     0.00   0.00  -0.00
                     34                     35                     36
                        a                      a                      a 
 Frequencies --   917.0114               923.1201               925.0359
 Red. masses --     3.0692                 3.9686                 2.7449
 Frc consts  --     0.0000                 0.0000                 0.0000
 IR Inten    --     0.0198                 0.3068                 0.0173
 Raman Activ --     0.0000                 0.0000                 0.0000
 Depolar     --     0.0000                 0.0000                 0.0000
 Atom AN      X      Y      Z        X      Y      Z        X      Y      Z
   1   6    -0.01   0.01  -0.01     0.00   0.00   0.00     0.00   0.00   0.01
   2   6     0.00   0.00  -0.00     0.00  -0.00   0.00    -0.00   0.00  -0.00
   3   7     0.00   0.00  -0.00    -0.00  -0.00  -0.01    -0.00  -0.00  -0.01
   4   6     0.00   0.00   0.00    -0.01   0.00   0.01     0.00   0.03   0.07
   5   6    -0.00   0.00   0.00     0.02   0.09   0.19     0.00   0.03   0.06
   6   6    -0.00  -0.00  -0.00    -0.01  -0.12  -0.27    -0.01  -0.09  -0.20
   7   6     0.00  -0.00  -0.00    -0.01  -0.00  -0.00     0.01   0.10   0.20
   8   6    -0.00   0.00   0.00     0.02   0.12   0.28    -0.01  -0.10  -0.19
   9   6    -0.00  -0.00  -0.00    -0.00  -0.09  -0.20     0.00   0.03   0.05
  10   6     0.00   0.01  -0.01     0.00   0.00  -0.00    -0.00  -0.00   0.00
  11   6    -0.02   0.19  -0.21     0.00  -0.00   0.01    -0.00   0.00  -0.00
  12   6     0.03  -0.21   0.23    -0.00   0.01  -0.01     0.00  -0.00   0.00
  13   6     0.00  -0.02   0.02     0.00  -0.00   0.00    -0.00  -0.00   0.00
  14   6    -0.00  -0.00  -0.01     0.00   0.00  -0.00     0.00  -0.00  -0.00
  15   6     0.00  -0.02   0.03     0.00  -0.01   0.01     0.00   0.00  -0.00
  16   6    -0.01   0.05  -0.06    -0.00   0.00  -0.00     0.00  -0.00   0.00
  17   1    -0.00  -0.01  -0.01    -0.00  -0.00  -0.00     0.00   0.00   0.00
  18   1    -0.00  -0.02   0.01    -0.00   0.00   0.00     0.00   0.00  -0.00
  19   1     0.01   0.01   0.01     0.00   0.00   0.00     0.00   0.00   0.00
  20   1    -0.00  -0.00  -0.00    -0.02  -0.15  -0.30    -0.02  -0.11  -0.22
  21   1    -0.00   0.00   0.00     0.03   0.21   0.44     0.03   0.22   0.46
  22   1     0.00   0.00   0.00    -0.00  -0.00   0.01    -0.03  -0.20  -0.43
  23   1    -0.00  -0.00  -0.01    -0.03  -0.22  -0.46     0.03   0.21   0.45
  24   1     0.00   0.00   0.01     0.03   0.15   0.32    -0.02  -0.09  -0.21
  25   1     0.05  -0.38   0.42    -0.00   0.01  -0.01     0.00  -0.00   0.00
  26   1    -0.06   0.42  -0.47     0.00  -0.01   0.01    -0.00   0.00  -0.00
  27   1     0.00  -0.00   0.01     0.00   0.00   0.00    -0.00   0.00   0.00
  28   1     0.01  -0.00   0.01     0.00  -0.00   0.00     0.00   0.00   0.00
  29   1    -0.01  -0.01   0.00    -0.00  -0.00   0.00     0.00   0.00   0.00
  30   1    -0.02   0.12  -0.12    -0.00   0.01  -0.01     0.00  -0.00   0.00
  31   1     0.02  -0.18   0.19     0.00  -0.01   0.00    -0.00   0.00  -0.00
                     37                     38                     39
                        a                      a                      a 
 Frequencies --   932.5244               970.7681               991.3644
 Red. masses --     3.8155                 9.7364                 5.4863
 Frc consts  --     0.0000                 0.0000                 0.0000
 IR Inten    --     0.2026                 7.0264                 8.9835
 Raman Activ --     0.0000                 0.0000                 0.0000
 Depolar     --     0.0000                 0.0000                 0.0000
 Atom AN      X      Y      Z        X      Y      Z        X      Y      Z
   1   6    -0.00  -0.00   0.01     0.13  -0.21  -0.16    -0.06   0.30  -0.27
   2   6    -0.00  -0.00  -0.00     0.12   0.18   0.09     0.05  -0.32   0.26
   3   7    -0.00  -0.00   0.00    -0.04   0.12   0.15     0.03   0.09  -0.05
   4   6     0.00  -0.00  -0.00    -0.17  -0.03  -0.01     0.00   0.01  -0.01
   5   6    -0.00   0.00   0.00     0.20  -0.33   0.15     0.05  -0.12   0.06
   6   6     0.00  -0.00  -0.00     0.04   0.16  -0.07    -0.01   0.01   0.00
   7   6     0.00  -0.00  -0.00    -0.31  -0.04   0.03    -0.07  -0.00   0.01
   8   6     0.00   0.00   0.01     0.10  -0.15   0.07     0.01  -0.02   0.00
   9   6    -0.00  -0.00  -0.01     0.08   0.37  -0.16     0.02   0.10  -0.05
  10   6    -0.00   0.00  -0.00     0.09   0.03   0.03    -0.00   0.06  -0.07
  11   6    -0.01   0.08  -0.10     0.01  -0.01  -0.02     0.00  -0.01   0.02
  12   6     0.02  -0.10   0.12    -0.07   0.07   0.08    -0.01   0.01   0.02
  13   6    -0.00   0.01  -0.01     0.03   0.03   0.02     0.01  -0.00  -0.01
  14   6     0.00  -0.00  -0.00    -0.05   0.01   0.02     0.01  -0.01  -0.02
  15   6    -0.03   0.22  -0.24    -0.02  -0.13  -0.12     0.00  -0.00   0.01
  16   6     0.03  -0.22   0.24     0.00  -0.02  -0.02    -0.01   0.00   0.03
  17   1     0.00   0.01   0.01    -0.13  -0.08  -0.12    -0.07  -0.40  -0.24
  18   1    -0.00   0.00  -0.00    -0.00   0.14   0.13    -0.00  -0.19   0.09
  19   1    -0.00  -0.01  -0.01    -0.14  -0.16  -0.18     0.15   0.27   0.47
  20   1     0.00  -0.00  -0.01     0.03  -0.12   0.04    -0.01  -0.05   0.02
  21   1     0.00   0.00   0.01    -0.04   0.06  -0.03    -0.03   0.01  -0.01
  22   1     0.00   0.00   0.00    -0.08  -0.01   0.01    -0.02   0.01   0.00
  23   1    -0.00  -0.01  -0.01    -0.02  -0.07   0.03    -0.02  -0.01   0.01
  24   1    -0.00   0.01   0.01    -0.01   0.11  -0.07    -0.01   0.03  -0.02
  25   1     0.01  -0.09   0.10    -0.01  -0.01   0.01     0.01   0.02  -0.02
  26   1    -0.02   0.13  -0.14    -0.01   0.03   0.02    -0.01   0.01  -0.00
  27   1    -0.01  -0.00  -0.00     0.02  -0.00  -0.01    -0.02  -0.00   0.01
  28   1     0.01   0.00   0.00    -0.06  -0.03  -0.02     0.03   0.01   0.01
  29   1     0.00   0.00   0.00     0.00  -0.01  -0.01    -0.02   0.00   0.01
  30   1     0.06  -0.39   0.43    -0.02  -0.04  -0.03     0.01   0.00  -0.00
  31   1    -0.05   0.40  -0.43     0.02   0.00   0.01    -0.01   0.03  -0.02
                     40                     41                     42
                        a                      a                      a 
 Frequencies --  1000.9464              1009.2837              1011.3992
 Red. masses --     7.6460                 7.9996                 5.5889
 Frc consts  --     0.0000                 0.0000                 0.0000
 IR Inten    --     2.4938                13.5942                 9.9886
 Raman Activ --     0.0000                 0.0000                 0.0000
 Depolar     --     0.0000                 0.0000                 0.0000
 Atom AN      X      Y      Z        X      Y      Z        X      Y      Z
   1   6     0.09  -0.09  -0.22     0.13   0.03  -0.01    -0.19   0.09   0.17
   2   6     0.04   0.09   0.20    -0.02  -0.04  -0.01    -0.03  -0.10  -0.14
   3   7    -0.21   0.05   0.06     0.04   0.03   0.02     0.16  -0.07  -0.09
   4   6    -0.05   0.00   0.02     0.01  -0.00  -0.02     0.07   0.01  -0.01
   5   6    -0.13   0.26  -0.12     0.02  -0.04   0.02     0.08  -0.16   0.07
   6   6     0.04  -0.00  -0.00    -0.01  -0.00   0.00    -0.03  -0.02   0.01
   7   6     0.18   0.02  -0.02    -0.02  -0.00   0.00    -0.11  -0.01   0.01
   8   6     0.04   0.01  -0.01    -0.01   0.00   0.00    -0.05   0.01  -0.01
   9   6    -0.04  -0.29   0.13     0.01   0.04  -0.01     0.02   0.18  -0.08
  10   6     0.07   0.08   0.03    -0.19  -0.03  -0.00     0.03   0.02   0.03
  11   6     0.01  -0.12  -0.11    -0.08   0.19   0.18    -0.02  -0.10  -0.09
  12   6    -0.04   0.04   0.05     0.19  -0.30  -0.30    -0.04  -0.01  -0.00
  13   6     0.02   0.07   0.06    -0.13  -0.00   0.02     0.00   0.05   0.04
  14   6    -0.12   0.15   0.15     0.04   0.17   0.14    -0.12   0.20   0.20
  15   6     0.03  -0.20  -0.19    -0.02   0.24   0.22     0.09  -0.12  -0.13
  16   6     0.02   0.02   0.03     0.15  -0.21  -0.21     0.01   0.08   0.08
  17   1    -0.13  -0.18  -0.17    -0.07  -0.06  -0.07     0.16   0.17   0.18
  18   1    -0.00   0.06   0.12     0.01   0.11   0.14    -0.01  -0.16  -0.21
  19   1    -0.09  -0.06  -0.02    -0.06  -0.03  -0.01     0.13   0.11   0.08
  20   1     0.01   0.11  -0.05    -0.00  -0.02   0.00    -0.01  -0.07   0.04
  21   1     0.08  -0.02   0.01    -0.01   0.00  -0.00    -0.06   0.01  -0.00
  22   1     0.05   0.01  -0.01    -0.01   0.00   0.00    -0.03  -0.01   0.01
  23   1     0.07   0.04  -0.02    -0.01  -0.00   0.00    -0.06  -0.02   0.01
  24   1     0.05  -0.10   0.05    -0.01   0.01  -0.01    -0.03   0.07  -0.03
  25   1    -0.01  -0.03  -0.02    -0.21   0.07   0.09     0.01  -0.03  -0.03
  26   1     0.02   0.04   0.02    -0.06  -0.17  -0.15    -0.01   0.00  -0.00
  27   1     0.26   0.02  -0.05     0.27   0.02  -0.03     0.33   0.02  -0.06
  28   1    -0.31  -0.16  -0.10    -0.19  -0.11  -0.06    -0.37  -0.20  -0.11
  29   1     0.09  -0.06  -0.06     0.12  -0.04  -0.04     0.13  -0.08  -0.07
  30   1     0.05  -0.06  -0.06    -0.12   0.07   0.09     0.13  -0.05  -0.06
  31   1     0.08   0.08   0.05    -0.03  -0.12  -0.11     0.09   0.10   0.08
                     43                     44                     45
                        a                      a                      a 
 Frequencies --  1029.4229              1080.1212              1096.4375
 Red. masses --     4.7071                 6.6673                 7.4770
 Frc consts  --     0.0000                 0.0000                 0.0000
 IR Inten    --    15.6538                 0.4399                19.1104
 Raman Activ --     0.0000                 0.0000                 0.0000
 Depolar     --     0.0000                 0.0000                 0.0000
 Atom AN      X      Y      Z        X      Y      Z        X      Y      Z
   1   6     0.00   0.00  -0.00     0.01   0.00  -0.00    -0.28  -0.13  -0.11
   2   6    -0.00  -0.00   0.00    -0.01   0.00   0.01     0.27   0.21   0.19
   3   7     0.00  -0.00   0.00    -0.02  -0.00  -0.00    -0.08  -0.05  -0.04
   4   6    -0.00  -0.00  -0.00    -0.01  -0.01   0.01    -0.05  -0.00   0.04
   5   6    -0.00   0.00  -0.00     0.15   0.02  -0.02    -0.02   0.03  -0.02
   6   6     0.00   0.00  -0.00    -0.00  -0.32   0.15     0.02   0.01  -0.01
   7   6     0.00   0.00  -0.00    -0.45  -0.06   0.06     0.01  -0.01   0.00
   8   6     0.00   0.00   0.00    -0.11   0.32  -0.14     0.01  -0.00  -0.00
   9   6     0.00  -0.00   0.00     0.16   0.03  -0.02    -0.00  -0.02   0.00
  10   6     0.00   0.01  -0.01    -0.01  -0.00   0.00     0.40   0.13   0.07
  11   6     0.01  -0.01   0.03     0.00  -0.01  -0.01    -0.02   0.16   0.15
  12   6     0.01  -0.05   0.04     0.01   0.00   0.00    -0.14   0.00   0.02
  13   6    -0.04   0.25  -0.28     0.00   0.00   0.00     0.01  -0.01  -0.00
  14   6     0.02  -0.29   0.32    -0.00  -0.00  -0.00     0.01   0.01   0.00
  15   6     0.01  -0.04   0.05     0.00  -0.00  -0.00    -0.09  -0.07  -0.05
  16   6     0.02  -0.03   0.01    -0.00   0.00   0.00     0.09  -0.14  -0.13
  17   1    -0.00  -0.00  -0.00    -0.01  -0.01  -0.01     0.11   0.05   0.07
  18   1     0.00   0.00  -0.00     0.00   0.01   0.01    -0.03  -0.25  -0.29
  19   1    -0.00  -0.00   0.00    -0.01  -0.00  -0.00     0.10   0.05   0.02
  20   1     0.00   0.00  -0.00     0.27   0.16  -0.10     0.01   0.03  -0.00
  21   1     0.00  -0.00   0.00     0.27  -0.20   0.08     0.03  -0.01   0.00
  22   1     0.00  -0.00  -0.00    -0.13  -0.03   0.02     0.00  -0.01   0.01
  23   1     0.00   0.00  -0.00     0.18   0.25  -0.12     0.01   0.01  -0.00
  24   1     0.00  -0.00   0.00     0.34  -0.11   0.02     0.03  -0.01   0.01
  25   1    -0.01   0.04  -0.04     0.00  -0.00  -0.00    -0.19   0.07   0.08
  26   1    -0.01   0.04  -0.05     0.01   0.01   0.00    -0.17  -0.11  -0.07
  27   1    -0.39  -0.02  -0.21    -0.00  -0.00   0.00     0.01   0.00   0.01
  28   1    -0.19   0.12  -0.17     0.00   0.00   0.00    -0.00  -0.01  -0.00
  29   1     0.55   0.26  -0.00    -0.00   0.00   0.00    -0.00  -0.00   0.00
  30   1    -0.01   0.05  -0.05     0.00  -0.00  -0.00    -0.18  -0.01   0.02
  31   1    -0.00   0.03  -0.04     0.00   0.01   0.00    -0.17  -0.21  -0.18
                     46                     47                     48
                        a                      a                      a 
 Frequencies --  1115.6290              1144.1733              1181.4533
 Red. masses --     4.0637                 2.8614                 1.3970
 Frc consts  --     0.0000                 0.0000                 0.0000
 IR Inten    --     0.4467                11.5348                 0.9253
 Raman Activ --     0.0000                 0.0000                 0.0000
 Depolar     --     0.0000                 0.0000                 0.0000
 Atom AN      X      Y      Z        X      Y      Z        X      Y      Z
   1   6     0.00   0.00  -0.01     0.04   0.01   0.01     0.00   0.01   0.01
   2   6    -0.00  -0.00  -0.00    -0.04  -0.04  -0.04     0.00  -0.01  -0.01
   3   7     0.01   0.04  -0.01     0.01   0.03   0.03     0.02  -0.00   0.01
   4   6     0.02  -0.16   0.07    -0.07  -0.01   0.00    -0.02  -0.06   0.03
   5   6    -0.23   0.11  -0.04    -0.01   0.01  -0.01     0.10   0.02  -0.02
   6   6     0.08   0.17  -0.08     0.01   0.02  -0.01     0.02  -0.00   0.00
   7   6     0.05  -0.19   0.09     0.00  -0.00   0.00    -0.02   0.08  -0.04
   8   6    -0.12   0.11  -0.05     0.01  -0.02   0.01    -0.03  -0.05   0.02
   9   6     0.17   0.16  -0.08    -0.00  -0.01   0.01    -0.08  -0.02   0.01
  10   6    -0.01  -0.01   0.00     0.04  -0.11  -0.10     0.01   0.00   0.00
  11   6    -0.00  -0.00  -0.00     0.06   0.10   0.09    -0.00   0.00   0.00
  12   6     0.01  -0.00  -0.00    -0.13   0.06   0.07    -0.00   0.00   0.00
  13   6    -0.00   0.00   0.00     0.06  -0.09  -0.09    -0.00   0.00   0.00
  14   6     0.00  -0.00  -0.00    -0.04   0.04   0.05     0.00   0.00  -0.00
  15   6    -0.00   0.00   0.00     0.12   0.08   0.06    -0.00  -0.00  -0.00
  16   6    -0.00   0.00   0.00    -0.15   0.05   0.07     0.00   0.00   0.00
  17   1    -0.00  -0.00  -0.01    -0.02  -0.02  -0.02     0.00   0.00   0.00
  18   1     0.00   0.00   0.01     0.00   0.06   0.07     0.00   0.00   0.00
  19   1    -0.00   0.00   0.00    -0.02  -0.01  -0.02     0.00   0.00   0.00
  20   1    -0.38  -0.18   0.12     0.02   0.02  -0.01    -0.04  -0.04   0.02
  21   1     0.25  -0.04   0.00     0.01   0.00  -0.00     0.35  -0.13   0.04
  22   1     0.07  -0.39   0.18     0.00  -0.00   0.00    -0.11   0.65  -0.30
  23   1    -0.26  -0.12   0.07     0.01  -0.00   0.00    -0.39  -0.28   0.15
  24   1     0.42  -0.10   0.01     0.03  -0.02   0.00     0.20  -0.09   0.03
  25   1     0.00  -0.00  -0.00     0.34  -0.00  -0.04    -0.01   0.00   0.00
  26   1     0.01   0.00   0.00    -0.27  -0.18  -0.13     0.00   0.00   0.00
  27   1    -0.00  -0.00   0.00     0.05   0.01  -0.02    -0.00   0.00   0.00
  28   1     0.00   0.00   0.00    -0.07  -0.03  -0.02     0.00   0.00   0.00
  29   1     0.00   0.00   0.00     0.02  -0.02  -0.02    -0.00   0.00   0.00
  30   1    -0.00  -0.00   0.00     0.52  -0.02  -0.09    -0.01   0.00   0.00
  31   1     0.01   0.01   0.01    -0.40  -0.29  -0.22     0.00   0.00   0.00
                     49                     50                     51
                        a                      a                      a 
 Frequencies --  1189.7185              1200.7536              1235.1271
 Red. masses --     2.1972                 2.0941                 7.8912
 Frc consts  --     0.0000                 0.0000                 0.0000
 IR Inten    --    28.2542                51.6723                34.9960
 Raman Activ --     0.0000                 0.0000                 0.0000
 Depolar     --     0.0000                 0.0000                 0.0000
 Atom AN      X      Y      Z        X      Y      Z        X      Y      Z
   1   6    -0.01  -0.03  -0.03    -0.04  -0.03  -0.03     0.08   0.08   0.07
   2   6     0.00   0.07   0.07     0.10   0.07   0.06    -0.19  -0.21  -0.20
   3   7    -0.09  -0.03  -0.00    -0.03  -0.01  -0.00     0.12   0.07   0.05
   4   6     0.16  -0.00  -0.01     0.02   0.00   0.01    -0.22  -0.01  -0.00
   5   6    -0.05  -0.06   0.03     0.00   0.00  -0.00    -0.05  -0.01   0.01
   6   6     0.08  -0.11   0.05    -0.00   0.00  -0.00     0.04   0.04  -0.02
   7   6     0.01   0.01  -0.01    -0.00  -0.00   0.00     0.03   0.00  -0.00
   8   6     0.03   0.13  -0.06    -0.00  -0.00   0.00     0.05  -0.05   0.02
   9   6    -0.08   0.05  -0.02     0.00  -0.00  -0.00    -0.05  -0.01   0.01
  10   6    -0.04  -0.01  -0.00    -0.03  -0.06  -0.05     0.14   0.05   0.03
  11   6     0.01  -0.00  -0.00     0.11  -0.02  -0.03    -0.06  -0.12  -0.10
  12   6     0.00  -0.00  -0.00    -0.05  -0.06  -0.06     0.09   0.05   0.03
  13   6     0.00  -0.00  -0.00     0.11   0.01  -0.01     0.48   0.11   0.04
  14   6    -0.00  -0.00   0.00    -0.05  -0.01  -0.00    -0.22  -0.05  -0.03
  15   6     0.00   0.01   0.01    -0.08   0.08   0.08     0.10  -0.00  -0.02
  16   6    -0.01  -0.00  -0.00    -0.01   0.08   0.07    -0.06   0.11   0.11
  17   1    -0.01  -0.01  -0.01     0.01  -0.02  -0.00    -0.01   0.03   0.01
  18   1    -0.00  -0.01  -0.01    -0.01  -0.01  -0.01     0.01   0.06   0.07
  19   1    -0.01  -0.01  -0.02     0.01  -0.00  -0.02    -0.01   0.01   0.04
  20   1    -0.40  -0.29   0.17     0.02   0.02  -0.01    -0.02  -0.01   0.01
  21   1     0.46  -0.19   0.06    -0.02   0.01  -0.00     0.11  -0.02   0.00
  22   1    -0.01   0.09  -0.04    -0.00  -0.00   0.00     0.01   0.00  -0.00
  23   1     0.25   0.21  -0.11    -0.02  -0.01   0.01     0.12   0.06  -0.04
  24   1    -0.44   0.18  -0.05     0.01  -0.00   0.00     0.01  -0.02   0.00
  25   1     0.05  -0.01  -0.01     0.48  -0.05  -0.10    -0.27  -0.01   0.02
  26   1    -0.01  -0.01  -0.01    -0.41  -0.36  -0.27    -0.10  -0.11  -0.08
  27   1    -0.00   0.00  -0.00    -0.03  -0.00   0.01    -0.10  -0.01   0.01
  28   1    -0.00  -0.00  -0.00    -0.04  -0.03  -0.01    -0.12  -0.06  -0.03
  29   1     0.00   0.00  -0.00    -0.02  -0.00   0.00    -0.08  -0.02  -0.00
  30   1     0.03   0.00  -0.00    -0.35   0.06   0.10    -0.35   0.04   0.09
  31   1    -0.01  -0.01  -0.01     0.24   0.23   0.18    -0.20  -0.13  -0.09
                     52                     53                     54
                        a                      a                      a 
 Frequencies --  1248.8209              1277.3354              1278.1327
 Red. masses --     9.4800                 3.9786                 3.6794
 Frc consts  --     0.0000                 0.0000                 0.0000
 IR Inten    --   219.1641                 0.4025                20.1995
 Raman Activ --     0.0000                 0.0000                 0.0000
 Depolar     --     0.0000                 0.0000                 0.0000
 Atom AN      X      Y      Z        X      Y      Z        X      Y      Z
   1   6     0.01   0.06   0.06    -0.01  -0.02  -0.00     0.02  -0.00   0.00
   2   6     0.00  -0.19  -0.20    -0.01   0.01   0.00     0.02   0.06   0.05
   3   7     0.23   0.10   0.05    -0.01  -0.05   0.01    -0.06  -0.03   0.00
   4   6    -0.52  -0.03   0.03    -0.02   0.36  -0.16     0.06   0.12  -0.05
   5   6    -0.13  -0.03   0.02     0.11   0.00  -0.01     0.05   0.01  -0.01
   6   6     0.09   0.12  -0.06     0.13  -0.11   0.04     0.03  -0.05   0.02
   7   6     0.07   0.01  -0.01     0.01  -0.07   0.03    -0.01  -0.03   0.01
   8   6     0.11  -0.12   0.05    -0.11  -0.12   0.06    -0.04  -0.02   0.01
   9   6    -0.14  -0.01   0.02    -0.09  -0.02   0.01    -0.02  -0.01   0.00
  10   6     0.21  -0.01  -0.03    -0.02   0.08   0.06     0.06  -0.19  -0.19
  11   6     0.09   0.10   0.08    -0.02   0.01   0.01     0.08  -0.03  -0.04
  12   6    -0.14  -0.00   0.02    -0.04  -0.03  -0.02     0.10   0.09   0.07
  13   6    -0.32  -0.07  -0.02    -0.03  -0.05  -0.04     0.07   0.16   0.14
  14   6     0.15   0.04   0.02     0.01   0.02   0.01    -0.03  -0.06  -0.05
  15   6    -0.11  -0.04  -0.02     0.03  -0.02  -0.02    -0.08   0.05   0.06
  16   6     0.08  -0.04  -0.04     0.04   0.01   0.01    -0.13  -0.06  -0.04
  17   1     0.03   0.02   0.03     0.01   0.01   0.01    -0.03   0.01  -0.01
  18   1     0.00   0.03   0.03    -0.00   0.01   0.01     0.01  -0.03  -0.04
  19   1     0.03   0.03   0.03     0.00  -0.00  -0.01    -0.03  -0.02   0.01
  20   1     0.00   0.03  -0.01    -0.35  -0.27   0.15    -0.11  -0.09   0.05
  21   1     0.22  -0.04   0.00    -0.32   0.10  -0.03    -0.13   0.04  -0.01
  22   1     0.02   0.01  -0.01    -0.03   0.20  -0.09    -0.01   0.06  -0.03
  23   1     0.25   0.11  -0.07     0.25   0.16  -0.09     0.06   0.04  -0.02
  24   1     0.07  -0.06   0.01     0.40  -0.17   0.05     0.12  -0.05   0.02
  25   1     0.02   0.03   0.03     0.17  -0.01  -0.03    -0.50   0.04   0.10
  26   1    -0.06  -0.01  -0.00     0.08   0.07   0.05    -0.26  -0.22  -0.17
  27   1     0.06   0.01  -0.00     0.03   0.00  -0.01    -0.08  -0.01   0.02
  28   1     0.07   0.04   0.02    -0.00  -0.00  -0.00     0.02   0.02   0.00
  29   1     0.05   0.02   0.00     0.02  -0.00  -0.01    -0.05   0.02   0.02
  30   1     0.08  -0.02  -0.03    -0.12   0.01   0.02     0.40  -0.03  -0.08
  31   1     0.20   0.14   0.10    -0.07  -0.06  -0.05     0.20   0.19   0.15
                     55                     56                     57
                        a                      a                      a 
 Frequencies --  1303.7396              1315.9181              1332.3105
 Red. masses --    10.6038                11.3016                11.5601
 Frc consts  --     0.0000                 0.0000                 0.0000
 IR Inten    --    56.4234                 5.3170                12.4082
 Raman Activ --     0.0000                 0.0000                 0.0000
 Depolar     --     0.0000                 0.0000                 0.0000
 Atom AN      X      Y      Z        X      Y      Z        X      Y      Z
   1   6     0.11   0.04   0.03    -0.00  -0.01   0.00    -0.06  -0.02  -0.02
   2   6    -0.46  -0.17  -0.11     0.01   0.02   0.01     0.17   0.04   0.02
   3   7    -0.14   0.00   0.04     0.00  -0.01  -0.01     0.10   0.01  -0.01
   4   6     0.25   0.02  -0.04    -0.06   0.37  -0.17    -0.10  -0.01   0.01
   5   6     0.08   0.03  -0.01    -0.32  -0.26   0.14    -0.05  -0.02   0.01
   6   6    -0.03  -0.08   0.04     0.28  -0.11   0.04     0.01   0.04  -0.02
   7   6    -0.05   0.01  -0.00    -0.07   0.41  -0.19     0.03   0.00  -0.00
   8   6    -0.05   0.08  -0.03    -0.24  -0.18   0.09     0.02  -0.04   0.02
   9   6     0.12  -0.03   0.00     0.38  -0.17   0.06    -0.05   0.02  -0.00
  10   6     0.36   0.22   0.16    -0.01  -0.00  -0.01    -0.29   0.23   0.25
  11   6     0.30   0.02  -0.02    -0.01  -0.00  -0.00     0.28  -0.07  -0.10
  12   6    -0.23  -0.03  -0.00     0.01   0.00   0.00    -0.16  -0.22  -0.19
  13   6    -0.26   0.06   0.09     0.01   0.00   0.00    -0.01   0.32   0.29
  14   6     0.09   0.00  -0.01    -0.00  -0.00  -0.00    -0.04  -0.06  -0.06
  15   6     0.06  -0.11  -0.11    -0.00   0.00   0.00     0.37  -0.00  -0.05
  16   6     0.04  -0.06  -0.05    -0.00  -0.00  -0.00    -0.30  -0.21  -0.16
  17   1    -0.05   0.01  -0.02    -0.00   0.00   0.00     0.03   0.01   0.02
  18   1     0.01   0.09   0.11    -0.00   0.00  -0.01    -0.01  -0.02  -0.03
  19   1    -0.06  -0.02   0.02     0.00  -0.00  -0.01     0.03   0.02   0.01
  20   1    -0.05  -0.05   0.02     0.05   0.03  -0.01     0.03   0.03  -0.01
  21   1    -0.09   0.01   0.00     0.14  -0.06   0.02     0.05  -0.01  -0.00
  22   1    -0.01  -0.02   0.01     0.02  -0.11   0.05     0.01   0.00  -0.00
  23   1    -0.13  -0.06   0.03    -0.11  -0.08   0.05     0.05   0.02  -0.01
  24   1    -0.09   0.04  -0.01    -0.03   0.01   0.00     0.04  -0.02   0.01
  25   1    -0.04   0.02   0.02     0.00  -0.00  -0.00     0.04  -0.02  -0.02
  26   1    -0.16  -0.09  -0.06     0.00   0.00  -0.00     0.01  -0.02  -0.02
  27   1     0.01   0.00   0.02    -0.00  -0.00   0.00    -0.07  -0.01   0.04
  28   1     0.07   0.04   0.02    -0.00  -0.00  -0.00     0.04   0.03   0.01
  29   1     0.01   0.03   0.01    -0.00  -0.00   0.00    -0.05   0.05   0.03
  30   1    -0.08  -0.02  -0.01     0.01   0.00  -0.00     0.09   0.00  -0.01
  31   1     0.01  -0.02  -0.02     0.00   0.00   0.00    -0.03  -0.01  -0.01
                     58                     59                     60
                        a                      a                      a 
 Frequencies --  1375.0756              1400.7459              1407.3699
 Red. masses --     3.2798                 3.2107                 9.6807
 Frc consts  --     0.0000                 0.0000                 0.0000
 IR Inten    --    20.0072                 5.4315                 6.7772
 Raman Activ --     0.0000                 0.0000                 0.0000
 Depolar     --     0.0000                 0.0000                 0.0000
 Atom AN      X      Y      Z        X      Y      Z        X      Y      Z
   1   6     0.05   0.31   0.31     0.00  -0.00  -0.00     0.02  -0.04  -0.03
   2   6    -0.01  -0.03  -0.03     0.00   0.00   0.00     0.04   0.04   0.03
   3   7     0.01   0.01   0.00     0.00  -0.00  -0.00    -0.06   0.01   0.02
   4   6    -0.01  -0.00   0.00    -0.00  -0.00   0.00     0.02   0.01   0.00
   5   6    -0.00   0.00  -0.00    -0.00  -0.00   0.00     0.01   0.01  -0.00
   6   6     0.01  -0.00   0.00    -0.00   0.00  -0.00     0.01  -0.01   0.00
   7   6    -0.00  -0.00   0.00     0.00   0.00  -0.00    -0.01   0.00   0.00
   8   6    -0.00   0.00   0.00    -0.00  -0.00   0.00     0.00   0.01  -0.01
   9   6     0.00   0.00  -0.00    -0.00   0.00  -0.00     0.01  -0.01   0.00
  10   6     0.01  -0.01  -0.01    -0.01  -0.00  -0.00     0.07  -0.25  -0.24
  11   6     0.04   0.02   0.01    -0.03  -0.02  -0.01     0.30   0.17   0.11
  12   6    -0.05  -0.01  -0.01     0.04   0.02   0.02    -0.37  -0.05   0.00
  13   6     0.01  -0.02  -0.02     0.03   0.02   0.01     0.11  -0.23  -0.22
  14   6    -0.01   0.01   0.01    -0.41  -0.12  -0.12    -0.07   0.07   0.07
  15   6     0.05   0.01   0.00    -0.01  -0.02  -0.02     0.32   0.15   0.10
  16   6    -0.04   0.00   0.01     0.02   0.02   0.02    -0.34  -0.01   0.04
  17   1    -0.09  -0.49  -0.18    -0.00   0.00  -0.00    -0.02   0.07   0.01
  18   1     0.06  -0.34  -0.33     0.00  -0.00  -0.00    -0.00   0.03   0.01
  19   1    -0.12  -0.15  -0.49    -0.00  -0.00   0.00    -0.01   0.01   0.07
  20   1    -0.01  -0.00   0.00     0.00   0.00  -0.00    -0.01  -0.01   0.00
  21   1    -0.00   0.00  -0.00     0.00  -0.00   0.00    -0.01   0.00  -0.00
  22   1    -0.00   0.00  -0.00     0.00   0.00  -0.00    -0.00  -0.00   0.00
  23   1     0.00   0.00  -0.00     0.00   0.00  -0.00    -0.01  -0.01   0.00
  24   1    -0.00   0.00  -0.00     0.00  -0.00   0.00    -0.01   0.00  -0.00
  25   1    -0.00   0.01   0.01    -0.01  -0.00  -0.01    -0.16   0.07   0.09
  26   1     0.01   0.02   0.02    -0.03  -0.03  -0.02     0.10   0.16   0.14
  27   1     0.01   0.00  -0.00     0.47  -0.06   0.21     0.08   0.01  -0.06
  28   1    -0.00  -0.00   0.00     0.37   0.14   0.25    -0.01  -0.03   0.03
  29   1     0.01  -0.00  -0.00     0.46   0.30  -0.07     0.08  -0.07  -0.06
  30   1    -0.04   0.01   0.01    -0.01  -0.01  -0.00    -0.20   0.07   0.09
  31   1    -0.00   0.01   0.01    -0.02  -0.01  -0.01     0.04   0.12   0.10
                     61                     62                     63
                        a                      a                      a 
 Frequencies --  1432.6400              1464.8409              1473.3737
 Red. masses --     9.0185                 8.4024                 2.4327
 Frc consts  --     0.0000                 0.0000                 0.0000
 IR Inten    --     7.8525                17.2086                21.0005
 Raman Activ --     0.0000                 0.0000                 0.0000
 Depolar     --     0.0000                 0.0000                 0.0000
 Atom AN      X      Y      Z        X      Y      Z        X      Y      Z
   1   6     0.00  -0.00  -0.00    -0.07  -0.01   0.01    -0.18  -0.07   0.03
   2   6    -0.02  -0.01   0.00     0.08  -0.04  -0.05    -0.06  -0.02  -0.00
   3   7     0.00   0.05  -0.02     0.05   0.04   0.02    -0.08   0.01   0.03
   4   6     0.05  -0.33   0.14    -0.40  -0.04   0.05     0.15   0.02  -0.02
   5   6    -0.31   0.08  -0.02     0.15   0.24  -0.12    -0.04  -0.06   0.03
   6   6     0.40   0.05  -0.05     0.24  -0.19   0.08    -0.07   0.05  -0.02
   7   6     0.03  -0.22   0.10    -0.24  -0.02   0.02     0.07   0.00  -0.00
   8   6    -0.40  -0.03   0.04     0.17   0.23  -0.12    -0.05  -0.06   0.03
   9   6     0.28   0.15  -0.08     0.23  -0.20   0.08    -0.06   0.05  -0.02
  10   6     0.00  -0.00   0.01     0.05   0.01   0.00     0.08   0.01  -0.00
  11   6     0.01  -0.00  -0.00    -0.08   0.02   0.03    -0.02   0.01   0.01
  12   6    -0.00   0.00   0.00    -0.01  -0.05  -0.05    -0.02  -0.02  -0.01
  13   6    -0.01  -0.00   0.00     0.09   0.04   0.02     0.06   0.01  -0.01
  14   6     0.00   0.00   0.00    -0.02  -0.01  -0.02    -0.02   0.05  -0.02
  15   6     0.00  -0.00  -0.00    -0.03   0.03   0.03    -0.03   0.02   0.03
  16   6     0.00   0.00   0.00    -0.05  -0.05  -0.04    -0.03  -0.04  -0.03
  17   1    -0.02   0.00  -0.01     0.10  -0.09   0.02     0.29  -0.34   0.02
  18   1    -0.00   0.02  -0.01    -0.02   0.10   0.04    -0.06   0.41   0.12
  19   1     0.01   0.01   0.02     0.15   0.05  -0.08     0.53   0.15  -0.31
  20   1     0.05   0.13  -0.06    -0.22  -0.11   0.08     0.06   0.03  -0.02
  21   1    -0.18   0.13  -0.05    -0.23   0.06  -0.01     0.06  -0.01   0.00
  22   1    -0.06   0.32  -0.15    -0.07  -0.01   0.01     0.02   0.00  -0.00
  23   1     0.12   0.16  -0.08    -0.21  -0.11   0.06     0.05   0.03  -0.02
  24   1    -0.09   0.11  -0.05    -0.24   0.06  -0.01     0.07  -0.01   0.00
  25   1    -0.00  -0.00   0.00     0.04  -0.00  -0.01    -0.04   0.01   0.01
  26   1    -0.00  -0.00  -0.00     0.05   0.03   0.02     0.02   0.02   0.01
  27   1     0.00   0.00  -0.00    -0.01  -0.00   0.05    -0.10   0.01   0.03
  28   1     0.00   0.00  -0.00    -0.02  -0.02  -0.00     0.04  -0.14   0.10
  29   1    -0.00   0.00   0.00    -0.00   0.03   0.01     0.09  -0.08  -0.07
  30   1    -0.00  -0.00   0.00     0.05   0.00  -0.00     0.04   0.00  -0.00
  31   1    -0.00  -0.00  -0.00     0.04   0.03   0.03     0.03   0.02   0.02
                     64                     65                     66
                        a                      a                      a 
 Frequencies --  1474.0350              1474.9190              1478.2579
 Red. masses --     1.7337                 1.7474                 1.9198
 Frc consts  --     0.0000                 0.0000                 0.0000
 IR Inten    --     6.2125                 4.2586                 7.5472
 Raman Activ --     0.0000                 0.0000                 0.0000
 Depolar     --     0.0000                 0.0000                 0.0000
 Atom AN      X      Y      Z        X      Y      Z        X      Y      Z
   1   6    -0.05   0.14  -0.16    -0.07   0.04  -0.06    -0.02  -0.00  -0.00
   2   6    -0.01   0.02  -0.02    -0.00   0.01  -0.01     0.02   0.00  -0.00
   3   7    -0.02   0.01   0.01    -0.04   0.01   0.02     0.02   0.00  -0.00
   4   6     0.01  -0.01   0.00     0.05   0.00  -0.00    -0.04  -0.00   0.00
   5   6    -0.02  -0.00   0.00    -0.02  -0.02   0.01     0.01   0.02  -0.01
   6   6     0.01   0.00  -0.00    -0.01   0.01  -0.01     0.02  -0.01   0.01
   7   6     0.00  -0.01   0.00     0.02  -0.00  -0.00    -0.02  -0.00   0.00
   8   6    -0.02  -0.00   0.00    -0.02  -0.01   0.01     0.01   0.02  -0.01
   9   6     0.01   0.00  -0.00    -0.01   0.01  -0.01     0.01  -0.01   0.01
  10   6     0.04   0.02   0.03     0.03  -0.06  -0.06    -0.07   0.05   0.06
  11   6    -0.02   0.00   0.01    -0.00   0.02   0.02     0.02  -0.05  -0.05
  12   6    -0.00  -0.01  -0.01    -0.03  -0.01  -0.01     0.07   0.06   0.04
  13   6     0.04   0.02  -0.01     0.01  -0.03   0.01    -0.02  -0.00   0.03
  14   6    -0.03   0.08  -0.02     0.03  -0.18   0.03    -0.12   0.00   0.19
  15   6    -0.04   0.02   0.02     0.04   0.00  -0.01     0.01  -0.01  -0.01
  16   6    -0.02  -0.04  -0.03    -0.02   0.03   0.03     0.00  -0.01  -0.01
  17   1     0.47  -0.00   0.17     0.29  -0.10   0.08     0.04  -0.03   0.01
  18   1    -0.00  -0.42   0.51    -0.02  -0.06   0.26    -0.00   0.01   0.02
  19   1    -0.29  -0.13  -0.10     0.04  -0.01  -0.14     0.03   0.01  -0.03
  20   1     0.01   0.00  -0.01     0.02   0.01  -0.01    -0.02  -0.01   0.01
  21   1    -0.00   0.00  -0.00     0.01  -0.00   0.00    -0.02   0.00  -0.00
  22   1    -0.00   0.01  -0.01     0.00   0.00  -0.00    -0.01  -0.00   0.00
  23   1     0.00   0.01  -0.00     0.01   0.01  -0.00    -0.01  -0.01   0.00
  24   1    -0.00   0.00  -0.00     0.01  -0.00   0.00    -0.02   0.00  -0.00
  25   1     0.01   0.01  -0.01    -0.03   0.01   0.01    -0.03  -0.01  -0.01
  26   1     0.02   0.01   0.01     0.01   0.01   0.01    -0.06  -0.05  -0.04
  27   1    -0.14   0.01   0.03     0.33  -0.04  -0.04     0.13   0.02  -0.67
  28   1     0.06  -0.20   0.15    -0.17   0.45  -0.35     0.27   0.37   0.07
  29   1     0.13  -0.13  -0.11    -0.31   0.32   0.26    -0.02  -0.44  -0.17
  30   1     0.04   0.00  -0.00    -0.03   0.00   0.01    -0.02  -0.00   0.00
  31   1     0.02   0.02   0.01    -0.01   0.00   0.01    -0.01  -0.01  -0.01
                     67                     68                     69
                        a                      a                      a 
 Frequencies --  1491.4067              1567.1741              1570.7029
 Red. masses --     9.2586                11.4174                11.4164
 Frc consts  --     0.0000                 0.0000                 0.0000
 IR Inten    --     1.3490                 2.7259                 2.7377
 Raman Activ --     0.0000                 0.0000                 0.0000
 Depolar     --     0.0000                 0.0000                 0.0000
 Atom AN      X      Y      Z        X      Y      Z        X      Y      Z
   1   6    -0.05   0.00  -0.01    -0.00   0.00  -0.00     0.02  -0.00  -0.00
   2   6     0.15   0.03   0.01    -0.00  -0.00  -0.00    -0.00   0.00   0.00
   3   7     0.01   0.01   0.01    -0.00   0.02  -0.01    -0.05   0.01   0.02
   4   6    -0.07  -0.00   0.01     0.06  -0.39   0.17     0.03   0.00  -0.00
   5   6     0.01   0.03  -0.02     0.15   0.26  -0.14     0.01  -0.00   0.00
   6   6     0.05  -0.03   0.01     0.12  -0.27   0.12    -0.02   0.00  -0.00
   7   6    -0.04   0.00   0.00    -0.07   0.53  -0.24     0.01  -0.00  -0.00
   8   6     0.04   0.04  -0.02    -0.09  -0.31   0.15    -0.01  -0.01   0.00
   9   6     0.02  -0.03   0.01    -0.17   0.22  -0.09     0.01   0.00  -0.00
  10   6    -0.37  -0.15  -0.09     0.00  -0.00   0.00     0.20  -0.32  -0.32
  11   6     0.26  -0.08  -0.10    -0.00   0.00   0.00    -0.27   0.16   0.18
  12   6     0.08   0.16   0.14    -0.00  -0.00  -0.00    -0.04  -0.25  -0.23
  13   6    -0.39  -0.05  -0.01     0.00   0.00   0.00    -0.12   0.37   0.36
  14   6     0.12   0.05  -0.02    -0.00  -0.00   0.00    -0.00  -0.02  -0.02
  15   6     0.21  -0.14  -0.15    -0.00   0.00  -0.00     0.19  -0.15  -0.16
  16   6     0.19   0.25   0.21     0.00   0.00  -0.00     0.05   0.21   0.19
  17   1     0.12  -0.06   0.03     0.00  -0.00  -0.00    -0.01   0.01  -0.00
  18   1    -0.01   0.01   0.06    -0.00   0.00   0.01     0.00   0.00   0.01
  19   1     0.08   0.02  -0.06     0.00   0.00   0.00    -0.01  -0.00   0.01
  20   1    -0.03  -0.01   0.01    -0.09  -0.03   0.02     0.00  -0.00  -0.00
  21   1    -0.04   0.01  -0.00    -0.06  -0.04   0.02     0.00  -0.00   0.00
  22   1    -0.01  -0.00   0.00     0.03  -0.14   0.06     0.00   0.00  -0.00
  23   1    -0.03  -0.02   0.01     0.08  -0.01  -0.00     0.00   0.00  -0.00
  24   1    -0.03   0.00   0.00     0.09   0.00  -0.01     0.00   0.00  -0.00
  25   1    -0.24   0.01   0.03     0.00  -0.00   0.00     0.11   0.02   0.01
  26   1    -0.16  -0.10  -0.07     0.00   0.00   0.00     0.09   0.02   0.01
  27   1    -0.04   0.01   0.09    -0.00  -0.00  -0.00    -0.07   0.00  -0.06
  28   1     0.01  -0.09   0.03     0.00   0.00  -0.00     0.09   0.03   0.05
  29   1     0.05   0.02  -0.00    -0.00  -0.00   0.00    -0.00  -0.06  -0.03
  30   1    -0.21  -0.01   0.01     0.00  -0.00   0.00    -0.06  -0.03  -0.02
  31   1    -0.17  -0.12  -0.09     0.00   0.00   0.00    -0.06  -0.01  -0.00
                     70                     71                     72
                        a                      a                      a 
 Frequencies --  1593.1959              1599.3725              1699.5393
 Red. masses --    11.4737                11.4868                12.7859
 Frc consts  --     0.0000                 0.0000                 0.0000
 IR Inten    --   241.7809                11.1944               317.5869
 Raman Activ --     0.0000                 0.0000                 0.0000
 Depolar     --     0.0000                 0.0000                 0.0000
 Atom AN      X      Y      Z        X      Y      Z        X      Y      Z
   1   6    -0.00  -0.01  -0.01     0.01  -0.01  -0.01    -0.01   0.03   0.04
   2   6    -0.05   0.05   0.07    -0.06   0.02   0.03     0.46  -0.32  -0.43
   3   7     0.08  -0.03  -0.06     0.03  -0.01  -0.02    -0.52   0.23   0.35
   4   6    -0.21  -0.00   0.02     0.13  -0.00  -0.01     0.11   0.02  -0.01
   5   6     0.33   0.10  -0.07    -0.23  -0.07   0.05     0.04   0.01  -0.00
   6   6    -0.39   0.08  -0.01     0.26  -0.05   0.01    -0.05   0.01   0.00
   7   6     0.18  -0.01  -0.01    -0.12   0.00   0.01     0.02   0.00  -0.00
   8   6    -0.35  -0.13   0.08     0.24   0.09  -0.06    -0.05  -0.01   0.01
   9   6     0.37  -0.05   0.00    -0.26   0.03  -0.00     0.06  -0.01  -0.00
  10   6     0.09   0.02   0.01     0.18   0.04   0.01     0.01   0.04   0.04
  11   6    -0.21  -0.03   0.00    -0.34  -0.03   0.01    -0.08  -0.01   0.00
  12   6     0.21   0.13   0.09     0.31   0.18   0.13     0.06   0.04   0.03
  13   6    -0.17  -0.06  -0.04    -0.24  -0.08  -0.04    -0.03  -0.02  -0.01
  14   6     0.03   0.01  -0.00     0.04   0.01  -0.00     0.01   0.00   0.00
  15   6     0.27   0.02  -0.02     0.40   0.03  -0.02     0.05   0.01   0.00
  16   6    -0.21  -0.10  -0.06    -0.31  -0.15  -0.10    -0.04  -0.04  -0.04
  17   1     0.01  -0.01  -0.00    -0.01  -0.01  -0.00    -0.01   0.06   0.01
  18   1    -0.00   0.01   0.01    -0.00   0.00   0.00     0.01  -0.03  -0.04
  19   1     0.00  -0.00  -0.01    -0.00  -0.00  -0.00    -0.01   0.01   0.05
  20   1    -0.04  -0.06   0.03     0.03   0.04  -0.02    -0.00  -0.01  -0.00
  21   1     0.08  -0.05   0.02    -0.05   0.03  -0.01     0.01  -0.01   0.00
  22   1     0.04   0.01  -0.01    -0.03  -0.01   0.01     0.00   0.00  -0.00
  23   1     0.06   0.07  -0.04    -0.04  -0.04   0.02     0.00   0.01  -0.00
  24   1    -0.07   0.05  -0.02     0.05  -0.04   0.01    -0.00   0.01  -0.00
  25   1     0.03  -0.01  -0.02     0.06  -0.02  -0.03     0.01  -0.01  -0.01
  26   1    -0.04  -0.04  -0.03    -0.05  -0.06  -0.05    -0.01  -0.01  -0.01
  27   1     0.00   0.00   0.02     0.00   0.00   0.03     0.00  -0.00   0.00
  28   1    -0.00  -0.01  -0.00    -0.00  -0.02   0.00    -0.00  -0.00  -0.00
  29   1     0.01   0.02   0.00     0.01   0.02   0.00     0.00   0.00  -0.00
  30   1    -0.07   0.02   0.03    -0.09   0.03   0.04    -0.00   0.00   0.00
  31   1     0.02   0.04   0.03     0.02   0.05   0.05     0.02   0.01   0.01
                     73                     74                     75
                        a                      a                      a 
 Frequencies --  2994.1158              3009.1599              3020.1278
 Red. masses --     1.8175                 1.8724                 1.6729
 Frc consts  --     0.0000                 0.0000                 0.0000
 IR Inten    --    27.4261                16.0595                21.7863
 Raman Activ --     0.0000                 0.0000                 0.0000
 Depolar     --     0.0000                 0.0000                 0.0000
 Atom AN      X      Y      Z        X      Y      Z        X      Y      Z
   1   6     0.00   0.00   0.00    -0.09   0.24  -0.12    -0.15  -0.01   0.19
   2   6    -0.00  -0.00   0.00    -0.00   0.01  -0.00    -0.01   0.00   0.01
   3   7     0.00   0.00  -0.00     0.00  -0.00  -0.00     0.00  -0.00  -0.00
   4   6    -0.00  -0.00   0.00     0.00   0.00  -0.00     0.00   0.00   0.00
   5   6    -0.00   0.00  -0.00     0.00  -0.00   0.00    -0.00   0.00  -0.00
   6   6     0.00   0.00  -0.00    -0.00  -0.00   0.00    -0.00  -0.00   0.00
   7   6     0.00   0.00  -0.00    -0.00  -0.00   0.00    -0.00  -0.00   0.00
   8   6     0.00  -0.00   0.00     0.00   0.00  -0.00    -0.00   0.00  -0.00
   9   6    -0.00  -0.00   0.00    -0.00  -0.00   0.00     0.00   0.00  -0.00
  10   6    -0.00  -0.00  -0.00    -0.00  -0.00   0.00    -0.00   0.00  -0.00
  11   6     0.00   0.00  -0.00    -0.00  -0.00  -0.00    -0.00  -0.00  -0.00
  12   6    -0.00  -0.00  -0.00    -0.00   0.00   0.00    -0.00   0.00   0.00
  13   6     0.01  -0.00   0.01    -0.00  -0.00  -0.00    -0.00  -0.00  -0.00
  14   6     0.06  -0.14   0.23     0.00   0.00  -0.00     0.00   0.00  -0.00
  15   6    -0.00  -0.00  -0.00    -0.00  -0.00  -0.00    -0.00  -0.00  -0.00
  16   6     0.00   0.00   0.00     0.00  -0.00  -0.00     0.00   0.00   0.00
  17   1     0.00   0.00  -0.00    -0.12  -0.06   0.24     0.33   0.29  -0.81
  18   1    -0.00  -0.00  -0.00     0.07   0.04  -0.01     0.12   0.01   0.03
  19   1     0.00  -0.00   0.00     0.36  -0.81   0.20     0.09  -0.25   0.09
  20   1     0.00  -0.00   0.00    -0.01   0.01  -0.00     0.00  -0.01   0.00
  21   1    -0.00  -0.00   0.00     0.00   0.00  -0.00     0.00   0.00  -0.00
  22   1    -0.00  -0.00   0.00     0.00  -0.00   0.00     0.00   0.00  -0.00
  23   1    -0.00   0.00  -0.00     0.00  -0.00   0.00     0.00  -0.00   0.00
  24   1     0.00   0.00  -0.00     0.00   0.00  -0.00    -0.00  -0.00   0.00
  25   1    -0.00   0.00   0.00     0.00   0.01   0.01     0.01   0.02   0.01
  26   1     0.00  -0.00  -0.00     0.00  -0.00  -0.00     0.00  -0.00  -0.00
  27   1     0.02   0.17   0.04    -0.00  -0.00  -0.00    -0.00  -0.01  -0.00
  28   1     0.05  -0.05  -0.02    -0.00   0.00   0.00    -0.00   0.00   0.00
  29   1    -0.31   0.35  -0.82     0.00   0.00   0.00     0.00   0.00   0.00
  30   1     0.00   0.01   0.01    -0.00   0.00   0.00    -0.00   0.00   0.00
  31   1     0.00  -0.00  -0.00    -0.00   0.00   0.00    -0.00   0.00   0.00
                     76                     77                     78
                        a                      a                      a 
 Frequencies --  3025.5555              3031.7679              3039.7147
 Red. masses --     1.6694                 1.5985                 1.6550
 Frc consts  --     0.0000                 0.0000                 0.0000
 IR Inten    --    28.5615                25.3494                28.0829
 Raman Activ --     0.0000                 0.0000                 0.0000
 Depolar     --     0.0000                 0.0000                 0.0000
 Atom AN      X      Y      Z        X      Y      Z        X      Y      Z
   1   6    -0.01  -0.00   0.00     0.23   0.04   0.03    -0.00  -0.00  -0.00
   2   6    -0.00   0.00   0.00     0.01   0.00   0.00    -0.00  -0.00  -0.00
   3   7    -0.00  -0.00   0.00    -0.00  -0.00  -0.00     0.00   0.00   0.00
   4   6     0.00   0.00  -0.00    -0.00   0.00   0.00    -0.00  -0.00   0.00
   5   6     0.00  -0.00   0.00     0.00  -0.00   0.00    -0.00   0.00  -0.00
   6   6    -0.00  -0.00   0.00     0.00   0.00  -0.00     0.00   0.00  -0.00
   7   6    -0.00  -0.00   0.00     0.00   0.00  -0.00     0.00   0.00  -0.00
   8   6    -0.00   0.00  -0.00     0.00  -0.00   0.00     0.00  -0.00   0.00
   9   6     0.00   0.00  -0.00     0.00   0.00  -0.00    -0.00  -0.00   0.00
  10   6     0.00   0.00   0.00    -0.00  -0.00   0.00    -0.00  -0.00  -0.00
  11   6     0.00  -0.00  -0.00     0.00   0.00   0.00     0.00  -0.00  -0.00
  12   6    -0.00   0.00   0.00     0.00  -0.00  -0.00    -0.02   0.01   0.01
  13   6    -0.00  -0.01  -0.00    -0.00  -0.00  -0.00     0.01  -0.00  -0.00
  14   6    -0.02  -0.24  -0.06     0.00  -0.01  -0.00     0.15  -0.08  -0.17
  15   6     0.00   0.01   0.01     0.00   0.00   0.00     0.00   0.00   0.00
  16   6    -0.00  -0.00  -0.00    -0.00   0.00   0.00     0.00  -0.00  -0.00
  17   1     0.00   0.00  -0.00     0.07   0.04  -0.09    -0.00  -0.00   0.00
  18   1     0.02   0.00   0.00    -0.95  -0.08  -0.06     0.01   0.00   0.00
  19   1    -0.00  -0.00   0.00     0.08  -0.11   0.03    -0.00   0.00  -0.00
  20   1    -0.00   0.00  -0.00    -0.01   0.01  -0.01     0.00  -0.00   0.00
  21   1     0.00   0.00  -0.00    -0.00  -0.00   0.00    -0.00  -0.00   0.00
  22   1     0.00   0.00  -0.00    -0.00  -0.00   0.00    -0.00  -0.00   0.00
  23   1     0.00  -0.00   0.00    -0.00   0.00  -0.00    -0.00   0.00  -0.00
  24   1    -0.00  -0.00   0.00    -0.00  -0.01   0.00     0.00   0.00  -0.00
  25   1     0.00   0.00   0.00    -0.00  -0.00  -0.00     0.00   0.00   0.00
  26   1     0.01  -0.01  -0.01    -0.00   0.00   0.00     0.06  -0.03  -0.04
  27   1     0.06   0.94   0.03     0.00   0.02   0.00     0.01  -0.06  -0.03
  28   1    -0.04  -0.01   0.04    -0.01   0.00   0.01    -0.55   0.33   0.71
  29   1     0.06  -0.10   0.15     0.00  -0.00   0.00    -0.01   0.02  -0.09
  30   1    -0.01  -0.03  -0.02    -0.00  -0.00  -0.00    -0.00  -0.01  -0.01
  31   1    -0.00   0.00   0.00     0.00  -0.00  -0.00    -0.00   0.00   0.00
                     79                     80                     81
                        a                      a                      a 
 Frequencies --  3059.9657              3062.7392              3067.2635
 Red. masses --     1.7584                 1.7680                 1.8059
 Frc consts  --     0.0000                 0.0000                 0.0000
 IR Inten    --    18.3342                15.3195                60.9285
 Raman Activ --     0.0000                 0.0000                 0.0000
 Depolar     --     0.0000                 0.0000                 0.0000
 Atom AN      X      Y      Z        X      Y      Z        X      Y      Z
   1   6     0.00   0.00  -0.00     0.00  -0.00   0.00     0.00  -0.00  -0.00
   2   6     0.00   0.00  -0.00     0.00  -0.00  -0.00     0.00   0.00   0.00
   3   7    -0.00  -0.00   0.00    -0.00   0.00  -0.00    -0.00  -0.00   0.00
   4   6    -0.01   0.00  -0.00    -0.00  -0.00   0.00     0.00   0.00  -0.00
   5   6    -0.09   0.10  -0.04     0.02  -0.03   0.01     0.00  -0.00   0.00
   6   6    -0.07  -0.17   0.09     0.01   0.01  -0.00    -0.00  -0.00   0.00
   7   6     0.06   0.00  -0.01     0.08   0.01  -0.01    -0.00  -0.00   0.00
   8   6    -0.00   0.01  -0.00    -0.14   0.17  -0.07     0.00  -0.00   0.00
   9   6     0.00   0.01  -0.00    -0.04  -0.08   0.04     0.00   0.00  -0.00
  10   6    -0.00  -0.00  -0.00    -0.00  -0.00   0.00    -0.00  -0.00  -0.00
  11   6     0.00  -0.00  -0.00     0.00  -0.00  -0.00    -0.01  -0.03  -0.03
  12   6    -0.00   0.00   0.00    -0.00   0.00   0.00    -0.18   0.12   0.13
  13   6    -0.00  -0.00   0.00    -0.00  -0.00   0.00    -0.01   0.00   0.00
  14   6    -0.00   0.00   0.00     0.00   0.00  -0.00    -0.01   0.01   0.01
  15   6    -0.00  -0.00  -0.00    -0.00  -0.00  -0.00     0.02   0.05   0.05
  16   6    -0.00   0.00   0.00     0.00   0.00  -0.00     0.01  -0.00  -0.00
  17   1    -0.00  -0.00   0.01     0.00   0.00  -0.00    -0.00  -0.00   0.01
  18   1    -0.02  -0.00  -0.00    -0.00  -0.00   0.00    -0.00  -0.00  -0.00
  19   1     0.00  -0.01   0.00    -0.00   0.00  -0.00    -0.00   0.01  -0.00
  20   1     0.34  -0.39   0.17    -0.08   0.10  -0.04    -0.01   0.01  -0.00
  21   1     0.27   0.63  -0.32    -0.01  -0.03   0.01     0.00   0.00  -0.00
  22   1    -0.23  -0.03   0.03    -0.30  -0.04   0.04     0.00   0.00  -0.00
  23   1     0.03  -0.03   0.01     0.52  -0.60   0.25    -0.00   0.00  -0.00
  24   1    -0.01  -0.02   0.01     0.13   0.30  -0.15    -0.00  -0.00   0.00
  25   1     0.00   0.00   0.00     0.00   0.00   0.00     0.04   0.14   0.12
  26   1     0.00  -0.00  -0.00     0.00  -0.00  -0.00     0.65  -0.42  -0.46
  27   1     0.00   0.00   0.00    -0.00  -0.00  -0.00    -0.00  -0.02   0.00
  28   1     0.00  -0.00  -0.00    -0.00   0.00   0.00     0.05  -0.03  -0.06
  29   1    -0.00   0.00   0.00    -0.00   0.00  -0.00    -0.00   0.00   0.00
  30   1     0.00   0.00   0.00     0.00   0.00   0.00    -0.06  -0.19  -0.16
  31   1     0.00  -0.00  -0.00     0.00   0.00   0.00    -0.03   0.02   0.02
                     82                     83                     84
                        a                      a                      a 
 Frequencies --  3071.0928              3071.4283              3076.6736
 Red. masses --     1.8478                 1.8088                 1.8542
 Frc consts  --     0.0000                 0.0000                 0.0000
 IR Inten    --    99.7006                51.0948               135.5915
 Raman Activ --     0.0000                 0.0000                 0.0000
 Depolar     --     0.0000                 0.0000                 0.0000
 Atom AN      X      Y      Z        X      Y      Z        X      Y      Z
   1   6     0.00   0.00  -0.00     0.00   0.00  -0.00    -0.00   0.00  -0.00
   2   6     0.00   0.00   0.00     0.00   0.00  -0.00    -0.00   0.00  -0.00
   3   7     0.00  -0.00  -0.00    -0.00  -0.00  -0.00    -0.00  -0.00   0.00
   4   6    -0.01  -0.00   0.00    -0.00  -0.00   0.00     0.01   0.00  -0.00
   5   6    -0.13   0.15  -0.06    -0.02   0.02  -0.01    -0.03   0.03  -0.01
   6   6     0.04   0.10  -0.05     0.01   0.02  -0.01     0.03   0.07  -0.03
   7   6    -0.11  -0.01   0.01    -0.02  -0.00   0.00     0.12   0.01  -0.01
   8   6    -0.04   0.04  -0.02    -0.01   0.01  -0.00    -0.04   0.04  -0.02
   9   6    -0.01  -0.03   0.01    -0.00  -0.00   0.00     0.08   0.19  -0.09
  10   6     0.00  -0.00  -0.00    -0.00   0.00   0.00     0.00  -0.00   0.00
  11   6     0.00   0.00   0.00    -0.00  -0.01  -0.01     0.00   0.00   0.00
  12   6     0.01  -0.00  -0.00    -0.05   0.03   0.04     0.00  -0.00  -0.00
  13   6     0.00   0.00   0.00    -0.01  -0.01  -0.00     0.00  -0.00  -0.00
  14   6    -0.00   0.00   0.00    -0.00  -0.01  -0.00     0.00   0.00  -0.00
  15   6     0.01   0.03   0.03    -0.05  -0.19  -0.16     0.00   0.00   0.00
  16   6     0.00  -0.00  -0.00    -0.03   0.02   0.02    -0.00   0.00   0.00
  17   1    -0.00  -0.00   0.01    -0.00  -0.00   0.00    -0.00  -0.00   0.00
  18   1    -0.01  -0.00  -0.00    -0.01  -0.00  -0.00     0.00   0.00  -0.00
  19   1     0.00  -0.01   0.00     0.00  -0.00   0.00     0.00  -0.00   0.00
  20   1     0.45  -0.52   0.22     0.07  -0.08   0.03     0.10  -0.11   0.05
  21   1    -0.15  -0.34   0.17    -0.02  -0.05   0.03    -0.10  -0.23   0.11
  22   1     0.38   0.05  -0.04     0.07   0.01  -0.01    -0.41  -0.05   0.05
  23   1     0.12  -0.14   0.06     0.02  -0.02   0.01     0.12  -0.14   0.06
  24   1     0.05   0.11  -0.05     0.00   0.01  -0.00    -0.29  -0.65   0.32
  25   1    -0.00  -0.00  -0.00     0.01   0.05   0.04    -0.00  -0.00  -0.00
  26   1    -0.02   0.01   0.02     0.18  -0.12  -0.13    -0.00   0.00   0.00
  27   1    -0.00  -0.00  -0.00     0.00   0.03   0.00    -0.00  -0.00  -0.00
  28   1     0.00  -0.00  -0.00     0.00  -0.00   0.00    -0.00   0.00   0.00
  29   1    -0.00   0.00  -0.00     0.01  -0.01   0.01    -0.00   0.00  -0.00
  30   1    -0.03  -0.10  -0.09     0.20   0.66   0.58    -0.00  -0.00  -0.00
  31   1    -0.02   0.01   0.01     0.13  -0.08  -0.09     0.00  -0.00  -0.00
                     85                     86                     87
                        a                      a                      a 
 Frequencies --  3085.5542              3096.6197              3100.1426
 Red. masses --     1.9151                 1.8444                 1.8493
 Frc consts  --     0.0000                 0.0000                 0.0000
 IR Inten    --    88.4798                61.0836                13.8811
 Raman Activ --     0.0000                 0.0000                 0.0000
 Depolar     --     0.0000                 0.0000                 0.0000
 Atom AN      X      Y      Z        X      Y      Z        X      Y      Z
   1   6     0.00   0.00   0.00    -0.00   0.00   0.00     0.00   0.00   0.00
   2   6    -0.00   0.00   0.00     0.00   0.00   0.00     0.00  -0.00  -0.00
   3   7     0.00  -0.00  -0.00    -0.00  -0.00  -0.00    -0.00   0.00   0.00
   4   6    -0.01  -0.00   0.00     0.00   0.00  -0.00    -0.00  -0.00   0.00
   5   6    -0.04   0.04  -0.02    -0.00   0.00  -0.00    -0.00   0.00  -0.00
   6   6     0.03   0.08  -0.04     0.00   0.00  -0.00     0.00   0.00  -0.00
   7   6     0.19   0.02  -0.02     0.00   0.00  -0.00     0.00   0.00  -0.00
   8   6     0.08  -0.09   0.04     0.00  -0.00   0.00     0.00  -0.00   0.00
   9   6    -0.05  -0.10   0.05    -0.00  -0.00   0.00    -0.00  -0.00   0.00
  10   6    -0.00  -0.00  -0.00     0.01   0.00   0.00     0.01   0.00   0.00
  11   6    -0.00  -0.00  -0.00     0.05   0.19   0.17     0.01   0.04   0.03
  12   6    -0.00   0.00   0.00    -0.04   0.03   0.03    -0.01   0.01   0.01
  13   6    -0.00  -0.00  -0.00    -0.00  -0.00  -0.00    -0.00   0.00   0.00
  14   6    -0.00  -0.00   0.00    -0.00   0.00   0.00    -0.00  -0.00  -0.00
  15   6    -0.00  -0.00  -0.00     0.00   0.01   0.00    -0.01  -0.04  -0.04
  16   6    -0.00   0.00   0.00    -0.04   0.02   0.03     0.19  -0.12  -0.13
  17   1     0.00   0.00  -0.00     0.01   0.00  -0.01     0.00   0.00  -0.00
  18   1    -0.00  -0.00   0.00     0.01   0.00   0.00    -0.00  -0.00  -0.00
  19   1     0.00  -0.00   0.00     0.01  -0.01   0.00     0.00  -0.00   0.00
  20   1     0.13  -0.15   0.06     0.00  -0.00   0.00     0.01  -0.01   0.00
  21   1    -0.11  -0.27   0.13    -0.00  -0.00   0.00    -0.00  -0.01   0.00
  22   1    -0.66  -0.08   0.08    -0.01  -0.00   0.00    -0.01  -0.00   0.00
  23   1    -0.25   0.29  -0.12    -0.00   0.00  -0.00    -0.00   0.00  -0.00
  24   1     0.15   0.34  -0.17     0.00   0.01  -0.00     0.00   0.00  -0.00
  25   1     0.00   0.01   0.01    -0.19  -0.68  -0.59    -0.04  -0.14  -0.12
  26   1     0.00  -0.00  -0.00     0.14  -0.09  -0.10     0.03  -0.02  -0.02
  27   1     0.00   0.00   0.00     0.00  -0.00   0.00     0.00   0.00   0.00
  28   1     0.00  -0.00  -0.00     0.01  -0.00  -0.01     0.00  -0.00  -0.00
  29   1     0.00  -0.00   0.00     0.00  -0.00   0.00     0.00  -0.00   0.00
  30   1     0.00   0.01   0.01    -0.00  -0.02  -0.01     0.04   0.13   0.11
  31   1     0.01  -0.01  -0.01     0.14  -0.08  -0.09    -0.68   0.42   0.47
