      -----------------------------------------------------------      
     |                   =====================                   |     
     |                           x T B                           |     
     |                   =====================                   |     
     |                         S. Grimme                         |     
     |          Mulliken Center for Theoretical Chemistry        |     
     |                    University of Bonn                     |     
      -----------------------------------------------------------      

   * xtb version 6.7.1 (edcfbbe) compiled by 'VssAdministrator@runnervm171ch' on 2026-06-10

   xtb is free software: you can redistribute it and/or modify it under
   the terms of the GNU Lesser General Public License as published by
   the Free Software Foundation, either version 3 of the License, or
   (at your option) any later version.
   
   xtb is distributed in the hope that it will be useful,
   but WITHOUT ANY WARRANTY; without even the implied warranty of
   MERCHANTABILITY or FITNESS FOR A PARTICULAR PURPOSE.  See the
   GNU Lesser General Public License for more details.
   
   Cite this work as:
   * C. Bannwarth, E. Caldeweyher, S. Ehlert, A. Hansen, P. Pracht,
     J. Seibert, S. Spicher, S. Grimme, WIREs Comput. Mol. Sci., 2020, 11,
     e01493. DOI: 10.1002/wcms.1493
   
   for GFN2-xTB:
   * C. Bannwarth, S. Ehlert and S. Grimme., J. Chem. Theory Comput., 2019,
     15, 1652-1671. DOI: 10.1021/acs.jctc.8b01176
   for GFN1-xTB:
   * S. Grimme, C. Bannwarth, P. Shushkov, J. Chem. Theory Comput., 2017,
     13, 1989-2009. DOI: 10.1021/acs.jctc.7b00118
   for GFN0-xTB:
   * P. Pracht, E. Caldeweyher, S. Ehlert, S. Grimme, ChemRxiv, 2019, preprint.
     DOI: 10.26434/chemrxiv.8326202.v1
   for GFN-FF:
   * S. Spicher and S. Grimme, Angew. Chem. Int. Ed., 2020, 59, 15665-15673.
     DOI: 10.1002/anie.202004239
   
   for ALPB and GBSA implicit solvation:
   * S. Ehlert, M. Stahn, S. Spicher, S. Grimme, J. Chem. Theory Comput.,
     2021, 17, 4250-4261. DOI: 10.1021/acs.jctc.1c00471
   
   for ddCOSMO and CPCM-X implicit solvation:
   * M. Stahn, S. Ehlert, S. Grimme, J. Phys. Chem. A,
     2023, XX, XXXX-XXXX. DOI: 10.1021/acs.jpca.3c04382
   
   for DFT-D4:
   * E. Caldeweyher, C. Bannwarth and S. Grimme, J. Chem. Phys., 2017,
     147, 034112. DOI: 10.1063/1.4993215
   * E. Caldeweyher, S. Ehlert, A. Hansen, H. Neugebauer, S. Spicher,
     C. Bannwarth and S. Grimme, J. Chem. Phys., 2019, 150, 154122.
     DOI: 10.1063/1.5090222
   * E. Caldeweyher, J.-M. Mewes, S. Ehlert and S. Grimme, Phys. Chem. Chem. Phys.
     2020, 22, 8499-8512. DOI: 10.1039/D0CP00502A
   
   for sTDA-xTB:
   * S. Grimme and C. Bannwarth, J. Chem. Phys., 2016, 145, 054103.
     DOI: 10.1063/1.4959605
   
   in the mass-spec context:
   * V. Asgeirsson, C. Bauer and S. Grimme, Chem. Sci., 2017, 8, 4879.
     DOI: 10.1039/c7sc00601b
   * J. Koopman and S. Grimme, ACS Omega 2019, 4, 12, 15120-15133.
     DOI: 10.1021/acsomega.9b02011
   
   for metadynamics refer to:
   * S. Grimme, J. Chem. Theory Comput., 2019, 155, 2847-2862
     DOI: 10.1021/acs.jctc.9b00143
   
   for SPH calculations refer to:
   * S. Spicher and S. Grimme, J. Chem. Theory Comput., 2021, 17, 1701-1714
     DOI: 10.1021/acs.jctc.0c01306
   
   for ONIOM refer to:
   * C. Plett, A. Katbashev, S. Ehlert, S. Grimme, M. Bursch,
     Phys. Chem. Chem. Phys., 2023, 25, 17860-17868. DOI: 10.1039/D3CP02178E
   
   for DIPRO refer to:
   * J. Kohn, N. Gildemeister, S. Grimme, D. Fazzi, A. Hansen,
     J. Chem. Phys., 2023, just accepted.
   
   for PTB refer to:
   * S. Grimme, M. Mueller, A. Hansen, J. Chem. Phys., 2023, 158, 124111.
     DOI: 10.1063/5.0137838
   
   with help from (in alphabetical order)
   P. Atkinson, C. Bannwarth, F. Bohle, G. Brandenburg, E. Caldeweyher
   M. Checinski, S. Dohm, S. Ehlert, S. Ehrlich, I. Gerasimov, C. Hölzer
   A. Katbashev, J. Kohn, J. Koopman, C. Lavigne, S. Lehtola, F. März, M. Müller,
   F. Musil, H. Neugebauer, J. Pisarek, C. Plett, P. Pracht, F. Pultar,
   J. Seibert, P. Shushkov, S. Spicher, M. Stahn, M. Steiner, T. Strunk,
   J. Stückrath, T. Rose, and J. Unsleber
   
 * started run on 2026/09/10 at 23:03:25.440     
   ID    Z sym.   atoms
    1    6 C      1, 2, 4-16
    2    7 N      3
    3    1 H      17-31

           -------------------------------------------------
          |                Calculation Setup                |
           -------------------------------------------------

          program call               : C:\Users\HUIWEI\miniconda3\envs\phase2ff\Library\bin\xtb.exe xtbopt.xyz --gfn 2 --chrg 0 --uhf 0 --alpb ch2cl2 --acc 0.2 --hess --strict
          coordinate file            : xtbopt.xyz
          omp threads                :                     1


           -------------------------------------------------
          |                 G F N 2 - x T B                 |
           -------------------------------------------------

        Reference                      10.1021/acs.jctc.8b01176
      * Hamiltonian:
        H0-scaling (s, p, d)           1.850000    2.230000    2.230000
        zeta-weighting                 0.500000
      * Dispersion:
        s8                             2.700000
        a1                             0.520000
        a2                             5.000000
        s9                             5.000000
      * Repulsion:
        kExp                           1.500000    1.000000
        rExp                           1.000000
      * Coulomb:
        alpha                          2.000000
        third order                    shell-resolved
        anisotropic                    true
        a3                             3.000000
        a5                             4.000000
        cn-shift                       1.200000
        cn-exp                         4.000000
        max-rad                        5.000000

      * Solvation model:               ALPB
        Solvent                        ch2cl2
        Parameter file                 internal GFN2-xTB/ALPB
        Dielectric constant                8.9300E+00
        Reference state                gsolv [1 M gas/solution]
        Free energy shift                  4.1487E-03 Eh       2.6033E+00 kcal/mol
        Temperature                        2.9815E+02 K
        Density                            1.3300E+00 kg/L
        Solvent mass                       8.4930E+01 g/mol
        Interaction kernel             P16
        Born radius scaling (c1)           1.5691E+00
        Born radii integrator          GBOBC
        Born offset                        0.0000E+00 a0       0.0000E+00 AA
        H-bond correction              false
        Ion screening                  false
        Surface tension                    1.0000E-05 Eh       1.5569E+01 dyn/cm
        Grid points                               230 per atom
q/qsh data taken from xtbrestart
CAMM data taken from xtbrestart

          ...................................................
          :                      SETUP                      :
          :.................................................:
          :  # basis functions                  79          :
          :  # atomic orbitals                  79          :
          :  # shells                           47          :
          :  # electrons                        80          :
          :  max. iterations                   250          :
          :  Hamiltonian                  GFN2-xTB          :
          :  restarted?                       true          :
          :  GBSA solvation                   true          :
          :  PC potential                    false          :
          :  electronic temp.          300.0000000     K    :
          :  accuracy                    0.2000000          :
          :  -> integral cutoff          0.3198970E+02      :
          :  -> integral neglect         0.2000000E-08      :
          :  -> SCF convergence          0.2000000E-06 Eh   :
          :  -> wf. convergence          0.2000000E-04 e    :
          :  Broyden damping             0.4000000          :
          :  net charge                          0          :
          :  unpaired electrons                  0          :
          ...................................................

 iter      E             dE          RMSdq      gap      omega  full diag
   1    -43.4744884 -0.434745E+02  0.240E-06    2.46       0.0  T
   2    -43.4744884 -0.234479E-12  0.158E-06    2.46   11401.0  T
   3    -43.4744884 -0.113687E-12  0.717E-07    2.46   25038.2  T

   *** convergence criteria satisfied after 3 iterations ***

         #    Occupation            Energy/Eh            Energy/eV
      -------------------------------------------------------------
         1        2.0000           -0.6515035             -17.7283
       ...           ...                  ...                  ...
        34        2.0000           -0.4181455             -11.3783
        35        2.0000           -0.4147911             -11.2870
        36        2.0000           -0.4086096             -11.1188
        37        2.0000           -0.4047272             -11.0132
        38        2.0000           -0.3973217             -10.8117
        39        2.0000           -0.3874983             -10.5444
        40        2.0000           -0.3546633              -9.6509 (HOMO)
        41                         -0.2643305              -7.1928 (LUMO)
        42                         -0.2217269              -6.0335
        43                         -0.2150278              -5.8512
        44                         -0.2075118              -5.6467
        45                         -0.1814200              -4.9367
       ...                                ...                  ...
        79                          0.7006861              19.0666
      -------------------------------------------------------------
                  HL-Gap            0.0903328 Eh            2.4581 eV
             Fermi-level           -0.3094969 Eh           -8.4218 eV

 SCC (total)                   0 d,  0 h,  0 min,  0.022 sec
 SCC setup                      ...        0 min,  0.001 sec (  3.818%)
 Dispersion                     ...        0 min,  0.000 sec (  1.453%)
 classical contributions        ...        0 min,  0.000 sec (  0.288%)
 integral evaluation            ...        0 min,  0.004 sec ( 18.247%)
 iterations                     ...        0 min,  0.004 sec ( 20.217%)
 molecular gradient             ...        0 min,  0.012 sec ( 54.641%)
 printout                       ...        0 min,  0.000 sec (  1.266%)

         :::::::::::::::::::::::::::::::::::::::::::::::::::::
         ::                     SUMMARY                     ::
         :::::::::::::::::::::::::::::::::::::::::::::::::::::
         :: total energy             -42.687814825454 Eh    ::
         :: total w/o Gsasa/hb       -42.668342939266 Eh    ::
         :: gradient norm              0.000126702567 Eh/a0 ::
         :: HOMO-LUMO gap              2.458080855245 eV    ::
         ::.................................................::
         :: SCC energy               -43.474640674033 Eh    ::
         :: -> isotropic ES            0.012050793296 Eh    ::
         :: -> anisotropic ES          0.006349869788 Eh    ::
         :: -> anisotropic XC          0.030983310853 Eh    ::
         :: -> dispersion             -0.029848936051 Eh    ::
         :: -> Gsolv                  -0.020503308549 Eh    ::
         ::    -> Gelec               -0.001031422361 Eh    ::
         ::    -> Gsasa               -0.023620583549 Eh    ::
         ::    -> Ghb                  0.000000000000 Eh    ::
         ::    -> Gshift               0.004148697361 Eh    ::
         :: repulsion energy           0.786825848580 Eh    ::
         :: add. restraining           0.000000000000 Eh    ::
         :: total charge              -0.000000000000 e     ::
         :::::::::::::::::::::::::::::::::::::::::::::::::::::

           ------------------------------------------------- 
          |                Numerical Hessian                |
           ------------------------------------------------- 
step length          :   0.00500
SCC accuracy         :   0.30000
Hessian scale factor :   1.00000
frozen atoms in %    :   0.00000    0
RMS gradient         :   0.00013
estimated CPU  time      0.01 min
estimated wall time      0.07 min

writing file <hessian>.

 projected vibrational frequencies (cm⁻¹)
eigval :       -0.00    -0.00     0.00     0.00     0.00     0.00
eigval :      -23.21    23.14    36.67    46.93    59.90   108.93
eigval :      155.51   192.89   237.73   255.48   269.74   332.00
eigval :      368.29   373.66   392.86   421.76   466.44   492.41
eigval :      505.13   549.35   589.36   598.13   608.92   659.00
eigval :      674.07   715.16   769.17   804.44   814.79   852.01
eigval :      868.51   870.99   880.30   917.01   923.12   925.04
eigval :      932.52   970.77   991.36  1000.95  1009.28  1011.40
eigval :     1029.42  1080.12  1096.44  1115.63  1144.17  1181.45
eigval :     1189.72  1200.75  1235.13  1248.82  1277.34  1278.13
eigval :     1303.74  1315.92  1332.31  1375.08  1400.75  1407.37
eigval :     1432.64  1464.84  1473.37  1474.04  1474.92  1478.26
eigval :     1491.41  1567.17  1570.70  1593.20  1599.37  1699.54
eigval :     2994.12  3009.16  3020.13  3025.56  3031.77  3039.71
eigval :     3059.97  3062.74  3067.26  3071.09  3071.43  3076.67
eigval :     3085.55  3096.62  3100.14
           -------------------------------------------------
          |                Property Printout                |
           -------------------------------------------------

    * Orbital Energies and Occupations

         #    Occupation            Energy/Eh            Energy/eV
      -------------------------------------------------------------
         1        2.0000           -0.6515035             -17.7283
       ...           ...                  ...                  ...
        28        2.0000           -0.4653886             -12.6639
        29        2.0000           -0.4604134             -12.5285
        30        2.0000           -0.4573273             -12.4445
        31        2.0000           -0.4411633             -12.0047
        32        2.0000           -0.4315399             -11.7428
        33        2.0000           -0.4302605             -11.7080
        34        2.0000           -0.4181455             -11.3783
        35        2.0000           -0.4147911             -11.2870
        36        2.0000           -0.4086096             -11.1188
        37        2.0000           -0.4047272             -11.0132
        38        2.0000           -0.3973217             -10.8117
        39        2.0000           -0.3874983             -10.5444
        40        2.0000           -0.3546633              -9.6509 (HOMO)
        41                         -0.2643305              -7.1928 (LUMO)
        42                         -0.2217269              -6.0335
        43                         -0.2150278              -5.8512
        44                         -0.2075118              -5.6467
        45                         -0.1814200              -4.9367
        46                         -0.0842069              -2.2914
        47                         -0.0802743              -2.1844
        48                          0.0765595               2.0833
        49                          0.1054037               2.8682
        50                          0.1117464               3.0408
        51                          0.1304880               3.5508
       ...                                ...                  ...
        79                          0.7006861              19.0666
      -------------------------------------------------------------
                  HL-Gap            0.0903328 Eh            2.4581 eV
             Fermi-level           -0.3094969 Eh           -8.4218 eV

     #   Z          covCN         q      C6AA      α(0)
     1   6 C        3.755    -0.116    22.781     6.806
     2   6 C        2.898     0.112    25.521     8.283
     3   7 N        1.848    -0.224    26.726     7.662
     4   6 C        2.922     0.084    26.138     8.384
     5   6 C        2.922    -0.052    29.301     8.877
     6   6 C        2.919    -0.033    28.822     8.804
     7   6 C        2.919    -0.044    29.099     8.846
     8   6 C        2.919    -0.033    28.812     8.802
     9   6 C        2.924    -0.050    29.250     8.869
    10   6 C        2.982    -0.003    28.102     8.696
    11   6 C        2.921    -0.034    28.854     8.809
    12   6 C        2.923    -0.041    29.012     8.833
    13   6 C        2.966     0.023    27.488     8.600
    14   6 C        3.757    -0.112    22.691     6.791
    15   6 C        2.923    -0.039    28.958     8.825
    16   6 C        2.924    -0.028    28.703     8.786
    17   1 H        0.925     0.055     2.261     2.351
    18   1 H        0.925     0.042     2.417     2.431
    19   1 H        0.925     0.056     2.241     2.341
    20   1 H        0.925     0.022     2.702     2.571
    21   1 H        0.925     0.025     2.661     2.551
    22   1 H        0.926     0.023     2.690     2.565
    23   1 H        0.926     0.026     2.647     2.544
    24   1 H        0.926     0.027     2.633     2.537
    25   1 H        0.926     0.040     2.449     2.447
    26   1 H        0.925     0.035     2.515     2.480
    27   1 H        0.925     0.050     2.316     2.380
    28   1 H        0.925     0.047     2.363     2.404
    29   1 H        0.924     0.054     2.270     2.356
    30   1 H        0.926     0.037     2.486     2.466
    31   1 H        0.926     0.051     2.308     2.376

 Mol. C6AA /au·bohr⁶  :      11515.573000
 Mol. C8AA /au·bohr⁸  :     279736.379150
 Mol. α(0) /au        :        171.472100


Wiberg/Mayer (AO) data.
largest (>0.10) Wiberg bond orders for each atom

 ---------------------------------------------------------------------------
     #   Z sym  total        # sym  WBO       # sym  WBO       # sym  WBO
 ---------------------------------------------------------------------------
     1   6 C    3.996 --     2 C    1.008    18 H    0.982    17 H    0.968
                            19 H    0.964
     2   6 C    3.964 --     3 N    1.760    10 C    1.063     1 C    1.008
     3   7 N    3.226 --     2 C    1.760     4 C    1.137
     4   6 C    3.976 --     9 C    1.341     5 C    1.340     3 N    1.137
     5   6 C    3.985 --     6 C    1.457     4 C    1.340    20 H    0.971
                             8 C    0.104
     6   6 C    3.992 --     5 C    1.457     7 C    1.431    21 H    0.970
                             9 C    0.105
     7   6 C    3.990 --     6 C    1.431     8 C    1.425    22 H    0.972
     8   6 C    3.992 --     9 C    1.464     7 C    1.425    23 H    0.971
                             5 C    0.104
     9   6 C    3.986 --     8 C    1.464     4 C    1.341    24 H    0.971
                             6 C    0.105
    10   6 C    3.988 --    11 C    1.382    16 C    1.363     2 C    1.063
    11   6 C    3.986 --    12 C    1.456    10 C    1.382    25 H    0.967
                            15 C    0.102
    12   6 C    3.991 --    11 C    1.456    13 C    1.407    26 H    0.969
                            16 C    0.102
    13   6 C    3.984 --    12 C    1.407    15 C    1.390    14 C    1.029
    14   6 C    3.995 --    13 C    1.029    28 H    0.984    27 H    0.976
                            29 H    0.965
    15   6 C    3.992 --    16 C    1.477    13 C    1.390    30 H    0.969
                            11 C    0.102
    16   6 C    3.989 --    15 C    1.477    10 C    1.363    31 H    0.966
                            12 C    0.102
    17   1 H    0.997 --     1 C    0.968
    18   1 H    0.998 --     1 C    0.982
    19   1 H    0.996 --     1 C    0.964
    20   1 H    0.999 --     5 C    0.971
    21   1 H    0.999 --     6 C    0.970
    22   1 H    0.999 --     7 C    0.972
    23   1 H    0.998 --     8 C    0.971
    24   1 H    0.999 --     9 C    0.971
    25   1 H    0.998 --    11 C    0.967
    26   1 H    0.998 --    12 C    0.969
    27   1 H    0.996 --    14 C    0.976
    28   1 H    0.997 --    14 C    0.984
    29   1 H    0.995 --    14 C    0.965
    30   1 H    0.998 --    15 C    0.969
    31   1 H    0.997 --    16 C    0.966
 ---------------------------------------------------------------------------

Topologies differ in total number of bonds
Writing topology from bond orders to xtbtopo.mol

molecular dipole:
                 x           y           z       tot (Debye)
 q only:        1.261      -0.090      -0.355
   full:        1.164      -0.312      -0.532       3.348
molecular quadrupole (traceless):
                xx          xy          yy          xz          yz          zz
 q only:        2.678       2.171      -0.772       1.504       2.152      -1.905
  q+dip:        5.513       2.213      -0.196       0.951       2.679      -5.318
   full:        3.125       2.225      -0.300       1.633       1.677      -2.825

           -------------------------------------------------
          |               Frequency Printout                |
           -------------------------------------------------
 projected vibrational frequencies (cm⁻¹)
eigval :       -0.00    -0.00     0.00     0.00     0.00     0.00
eigval :      -23.21    23.14    36.67    46.93    59.90   108.93
eigval :      155.51   192.89   237.73   255.48   269.74   332.00
eigval :      368.29   373.66   392.86   421.76   466.44   492.41
eigval :      505.13   549.35   589.36   598.13   608.92   659.00
eigval :      674.07   715.16   769.17   804.44   814.79   852.01
eigval :      868.51   870.99   880.30   917.01   923.12   925.04
eigval :      932.52   970.77   991.36  1000.95  1009.28  1011.40
eigval :     1029.42  1080.12  1096.44  1115.63  1144.17  1181.45
eigval :     1189.72  1200.75  1235.13  1248.82  1277.34  1278.13
eigval :     1303.74  1315.92  1332.31  1375.08  1400.75  1407.37
eigval :     1432.64  1464.84  1473.37  1474.04  1474.92  1478.26
eigval :     1491.41  1567.17  1570.70  1593.20  1599.37  1699.54
eigval :     2994.12  3009.16  3020.13  3025.56  3031.77  3039.71
eigval :     3059.97  3062.74  3067.26  3071.09  3071.43  3076.67
eigval :     3085.55  3096.62  3100.14
 reduced masses (amu)
   1: 10.94   2: 10.55   3: 11.02   4: 11.13   5: 11.14   6: 10.31   7:  1.29   8:  9.46
   9:  9.73  10: 10.69  11: 10.57  12:  9.98  13: 10.34  14:  1.53  15: 10.29  16: 10.03
  17:  9.62  18:  9.07  19:  8.92  20:  9.07  21:  9.95  22:  9.88  23: 10.12  24: 10.97
  25: 10.59  26:  9.05  27: 11.24  28: 11.26  29: 11.29  30: 10.16  31: 10.40  32:  7.76
  33:  6.84  34:  4.34  35: 10.95  36: 10.74  37:  3.30  38:  3.36  39:  3.93  40:  3.07
  41:  3.97  42:  2.74  43:  3.82  44:  9.74  45:  5.49  46:  7.65  47:  8.00  48:  5.59
  49:  4.71  50:  6.67  51:  7.48  52:  4.06  53:  2.86  54:  1.40  55:  2.20  56:  2.09
  57:  7.89  58:  9.48  59:  3.98  60:  3.68  61: 10.60  62: 11.30  63: 11.56  64:  3.28
  65:  3.21  66:  9.68  67:  9.02  68:  8.40  69:  2.43  70:  1.73  71:  1.75  72:  1.92
  73:  9.26  74: 11.42  75: 11.42  76: 11.47  77: 11.49  78: 12.79  79:  1.82  80:  1.87
  81:  1.67  82:  1.67  83:  1.60  84:  1.66  85:  1.76  86:  1.77  87:  1.81  88:  1.85
  89:  1.81  90:  1.85  91:  1.92  92:  1.84  93:  1.85
 IR intensities (km·mol⁻¹)
   1:  0.14   2:  0.14   3:  0.13   4:  0.05   5:  0.12   6:  0.22   7:  0.61   8:  0.14
   9:  0.79  10:  1.85  11:  0.45  12:  0.42  13:  2.02  14:  0.89  15:  0.84  16:  0.08
  17:  0.49  18:  0.23  19:  0.10  20:  1.06  21:  2.25  22:  2.89  23:  6.42  24:  1.79
  25:  0.45  26:  5.49  27:  3.62  28:  8.18  29:  0.39  30:  0.25  31:  1.09  32: 28.96
  33: 24.00  34: 16.23  35: 33.20  36:  0.37  37:  1.08  38:  1.23  39:  1.48  40:  0.02
  41:  0.31  42:  0.02  43:  0.20  44:  7.03  45:  8.98  46:  2.49  47: 13.59  48:  9.99
  49: 15.65  50:  0.44  51: 19.11  52:  0.45  53: 11.53  54:  0.93  55: 28.25  56: 51.67
Molecule has no symmetry elements
It seems to be the C1 point group
  57: 35.00  58:219.16  59:  0.40  60: 20.20  61: 56.42  62:  5.32  63: 12.41  64: 20.01
  65:  5.43  66:  6.78  67:  7.85  68: 17.21  69: 21.00  70:  6.21  71:  4.26  72:  7.55
  73:  1.35  74:  2.73  75:  2.74  76:241.78  77: 11.19  78:317.59  79: 27.43  80: 16.06
  81: 21.79  82: 28.56  83: 25.35  84: 28.08  85: 18.33  86: 15.32  87: 60.93  88: 99.70
  89: 51.09  90:135.59  91: 88.48  92: 61.08  93: 13.88
 Raman intensities (Ä⁴*amu⁻¹)
   1:  0.00   2:  0.00   3:  0.00   4:  0.00   5:  0.00   6:  0.00   7:  0.00   8:  0.00
   9:  0.00  10:  0.00  11:  0.00  12:  0.00  13:  0.00  14:  0.00  15:  0.00  16:  0.00
  17:  0.00  18:  0.00  19:  0.00  20:  0.00  21:  0.00  22:  0.00  23:  0.00  24:  0.00
  25:  0.00  26:  0.00  27:  0.00  28:  0.00  29:  0.00  30:  0.00  31:  0.00  32:  0.00
  33:  0.00  34:  0.00  35:  0.00  36:  0.00  37:  0.00  38:  0.00  39:  0.00  40:  0.00
  41:  0.00  42:  0.00  43:  0.00  44:  0.00  45:  0.00  46:  0.00  47:  0.00  48:  0.00
  49:  0.00  50:  0.00  51:  0.00  52:  0.00  53:  0.00  54:  0.00  55:  0.00  56:  0.00
  57:  0.00  58:  0.00  59:  0.00  60:  0.00  61:  0.00  62:  0.00  63:  0.00  64:  0.00
  65:  0.00  66:  0.00  67:  0.00  68:  0.00  69:  0.00  70:  0.00  71:  0.00  72:  0.00
  73:  0.00  74:  0.00  75:  0.00  76:  0.00  77:  0.00  78:  0.00  79:  0.00  80:  0.00
  81:  0.00  82:  0.00  83:  0.00  84:  0.00  85:  0.00  86:  0.00  87:  0.00  88:  0.00
  89:  0.00  90:  0.00  91:  0.00  92:  0.00  93:  0.00
 output can be read by thermo (or use thermo option).
 writing <g98.out> molden fake output.
 recommended (thermochemical) frequency scaling factor: 1.0
           -------------------------------------------------
          |             Thermodynamic Functions             |
           -------------------------------------------------

c1  symmetry found (for desy threshold:  0.10E+00) used in thermo

          ...................................................
          :                      SETUP                      :
          :.................................................:
          :  # frequencies                          86      :
          :  # imaginary freq.                       1      :
          :  linear?                             false      :
          :  only rotor calc.                    false      :
          :  symmetry                               c1      :
          :  rotational number                       1      :
          :  scaling factor                  1.0000000      :
          :  rotor cutoff                   50.0000000 cm⁻¹ :
          :  imag. cutoff                  -20.0000000 cm⁻¹ :
          :.................................................:

    mode    ω/cm⁻¹     T·S(HO)/kcal·mol⁻¹    T·S(FR)/kcal·mol⁻¹   T·S(vib)
   ------------------------------------------------------------------------
       1     23.14    -1.89157 (  4.39%)    -1.28462 ( 95.61%)    -1.31126
       2     36.67    -1.61932 ( 22.44%)    -1.14831 ( 77.56%)    -1.25402
       3     46.93    -1.47371 ( 43.69%)    -1.07528 ( 56.31%)    -1.24936
       4     59.90    -1.32987 ( 67.32%)    -1.00297 ( 32.68%)    -1.22304
       5    108.93    -0.98030 ( 95.75%)    -0.82586 (  4.25%)    -0.97374
       6    155.51    -0.77631 ( 98.94%)    -0.72040 (  1.06%)    -0.77571
       7    192.89    -0.65589 ( 99.55%)    -0.65658 (  0.45%)    -0.65589
       8    237.73    -0.54256 ( 99.80%)    -0.59466 (  0.20%)    -0.54266
       9    255.48    -0.50460 ( 99.85%)    -0.57333 (  0.15%)    -0.50470
      10    269.74    -0.47640 ( 99.88%)    -0.55724 (  0.12%)    -0.47650
   ------------------------------------------------------------------------

   temp. (K)  partition function   enthalpy   heat capacity  entropy
                                   cal/mol     cal/K/mol   cal/K/mol   J/K/mol
 298.15  VIB  0.155E+06             7144.032     46.742     43.408
         ROT  0.304E+07              888.752      2.981     32.644
         INT  0.471E+12             8032.785     49.723     76.052
Note: The following floating-point exceptions are signalling: IEEE_DIVIDE_BY_ZERO IEEE_UNDERFLOW_FLAG IEEE_DENORMAL
normal termination of xtb
         TR   0.293E+28             1481.254      4.968     41.900
         TOT                        9514.0386    54.6915   117.9523   493.5124

       T/K    H(0)-H(T)+PV         H(T)/Eh          T*S/Eh         G(T)/Eh
   ------------------------------------------------------------------------
    298.15    0.151616E-01    0.265803E+00    0.560429E-01    0.209760E+00
   ------------------------------------------------------------------------

         :::::::::::::::::::::::::::::::::::::::::::::::::::::
         ::                  THERMODYNAMIC                  ::
         :::::::::::::::::::::::::::::::::::::::::::::::::::::
         :: total free energy         -42.478054932680 Eh   ::
         ::.................................................::
         :: total energy              -42.687814824517 Eh   ::
         :: zero point energy           0.250641241875 Eh   ::
         :: G(RRHO) w/o ZPVE           -0.040881350039 Eh   ::
         :: G(RRHO) contrib.            0.209759891836 Eh   ::
         :::::::::::::::::::::::::::::::::::::::::::::::::::::
imag cut-off (cm-1) :    5.00
 found            1  significant imaginary frequency
 writing imag mode distorted coords to xtbhess.xyz
 for further optimization.

           -------------------------------------------------
          | TOTAL ENERGY              -42.687814824517 Eh   |
          | TOTAL ENTHALPY            -42.422011997085 Eh   |
          | TOTAL FREE ENERGY         -42.478054932680 Eh   |
          | GRADIENT NORM               0.000126703931 Eh/α |
          | HOMO-LUMO GAP               2.458080541805 eV   |
           -------------------------------------------------

------------------------------------------------------------------------
 * finished run on 2026/09/10 at 23:03:30.244     
------------------------------------------------------------------------
 total:
 * wall-time:     0 d,  0 h,  0 min,  4.804 sec
 *  cpu-time:     0 d,  0 h,  0 min,  0.641 sec
 * ratio c/w:     0.133 speedup
 SCF:
 * wall-time:     0 d,  0 h,  0 min,  0.022 sec
 *  cpu-time:     0 d,  0 h,  0 min,  0.000 sec
 * ratio c/w:     0.000 speedup
 analytical hessian:
 * wall-time:     0 d,  0 h,  0 min,  4.741 sec
 *  cpu-time:     0 d,  0 h,  0 min,  0.641 sec
 * ratio c/w:     0.135 speedup

