      -----------------------------------------------------------      
     |                   =====================                   |     
     |                           x T B                           |     
     |                   =====================                   |     
     |                         S. Grimme                         |     
     |          Mulliken Center for Theoretical Chemistry        |     
     |                    University of Bonn                     |     
      -----------------------------------------------------------      

   * xtb version 6.7.1 (edcfbbe) compiled by 'VssAdministrator@runnervm171ch' on 2026-06-10

   xtb is free software: you can redistribute it and/or modify it under
   the terms of the GNU Lesser General Public License as published by
   the Free Software Foundation, either version 3 of the License, or
   (at your option) any later version.
   
   xtb is distributed in the hope that it will be useful,
   but WITHOUT ANY WARRANTY; without even the implied warranty of
   MERCHANTABILITY or FITNESS FOR A PARTICULAR PURPOSE.  See the
   GNU Lesser General Public License for more details.
   
   Cite this work as:
   * C. Bannwarth, E. Caldeweyher, S. Ehlert, A. Hansen, P. Pracht,
     J. Seibert, S. Spicher, S. Grimme, WIREs Comput. Mol. Sci., 2020, 11,
     e01493. DOI: 10.1002/wcms.1493
   
   for GFN2-xTB:
   * C. Bannwarth, S. Ehlert and S. Grimme., J. Chem. Theory Comput., 2019,
     15, 1652-1671. DOI: 10.1021/acs.jctc.8b01176
   for GFN1-xTB:
   * S. Grimme, C. Bannwarth, P. Shushkov, J. Chem. Theory Comput., 2017,
     13, 1989-2009. DOI: 10.1021/acs.jctc.7b00118
   for GFN0-xTB:
   * P. Pracht, E. Caldeweyher, S. Ehlert, S. Grimme, ChemRxiv, 2019, preprint.
     DOI: 10.26434/chemrxiv.8326202.v1
   for GFN-FF:
   * S. Spicher and S. Grimme, Angew. Chem. Int. Ed., 2020, 59, 15665-15673.
     DOI: 10.1002/anie.202004239
   
   for ALPB and GBSA implicit solvation:
   * S. Ehlert, M. Stahn, S. Spicher, S. Grimme, J. Chem. Theory Comput.,
     2021, 17, 4250-4261. DOI: 10.1021/acs.jctc.1c00471
   
   for ddCOSMO and CPCM-X implicit solvation:
   * M. Stahn, S. Ehlert, S. Grimme, J. Phys. Chem. A,
     2023, XX, XXXX-XXXX. DOI: 10.1021/acs.jpca.3c04382
   
   for DFT-D4:
   * E. Caldeweyher, C. Bannwarth and S. Grimme, J. Chem. Phys., 2017,
     147, 034112. DOI: 10.1063/1.4993215
   * E. Caldeweyher, S. Ehlert, A. Hansen, H. Neugebauer, S. Spicher,
     C. Bannwarth and S. Grimme, J. Chem. Phys., 2019, 150, 154122.
     DOI: 10.1063/1.5090222
   * E. Caldeweyher, J.-M. Mewes, S. Ehlert and S. Grimme, Phys. Chem. Chem. Phys.
     2020, 22, 8499-8512. DOI: 10.1039/D0CP00502A
   
   for sTDA-xTB:
   * S. Grimme and C. Bannwarth, J. Chem. Phys., 2016, 145, 054103.
     DOI: 10.1063/1.4959605
   
   in the mass-spec context:
   * V. Asgeirsson, C. Bauer and S. Grimme, Chem. Sci., 2017, 8, 4879.
     DOI: 10.1039/c7sc00601b
   * J. Koopman and S. Grimme, ACS Omega 2019, 4, 12, 15120-15133.
     DOI: 10.1021/acsomega.9b02011
   
   for metadynamics refer to:
   * S. Grimme, J. Chem. Theory Comput., 2019, 155, 2847-2862
     DOI: 10.1021/acs.jctc.9b00143
   
   for SPH calculations refer to:
   * S. Spicher and S. Grimme, J. Chem. Theory Comput., 2021, 17, 1701-1714
     DOI: 10.1021/acs.jctc.0c01306
   
   for ONIOM refer to:
   * C. Plett, A. Katbashev, S. Ehlert, S. Grimme, M. Bursch,
     Phys. Chem. Chem. Phys., 2023, 25, 17860-17868. DOI: 10.1039/D3CP02178E
   
   for DIPRO refer to:
   * J. Kohn, N. Gildemeister, S. Grimme, D. Fazzi, A. Hansen,
     J. Chem. Phys., 2023, just accepted.
   
   for PTB refer to:
   * S. Grimme, M. Mueller, A. Hansen, J. Chem. Phys., 2023, 158, 124111.
     DOI: 10.1063/5.0137838
   
   with help from (in alphabetical order)
   P. Atkinson, C. Bannwarth, F. Bohle, G. Brandenburg, E. Caldeweyher
   M. Checinski, S. Dohm, S. Ehlert, S. Ehrlich, I. Gerasimov, C. Hölzer
   A. Katbashev, J. Kohn, J. Koopman, C. Lavigne, S. Lehtola, F. März, M. Müller,
   F. Musil, H. Neugebauer, J. Pisarek, C. Plett, P. Pracht, F. Pultar,
   J. Seibert, P. Shushkov, S. Spicher, M. Stahn, M. Steiner, T. Strunk,
   J. Stückrath, T. Rose, and J. Unsleber
   
 * started run on 2026/09/10 at 23:03:23.984     
   ID    Z sym.   atoms
    1    6 C      1, 2, 4-16
    2    7 N      3
    3    1 H      17-31

           -------------------------------------------------
          |                Calculation Setup                |
           -------------------------------------------------

          program call               : C:\Users\HUIWEI\miniconda3\envs\phase2ff\Library\bin\xtb.exe input.xyz --gfn 2 --chrg 0 --uhf 0 --alpb ch2cl2 --acc 0.2 --opt vtight
          coordinate file            : input.xyz
          omp threads                :                     1


           -------------------------------------------------
          |                 G F N 2 - x T B                 |
           -------------------------------------------------

        Reference                      10.1021/acs.jctc.8b01176
      * Hamiltonian:
        H0-scaling (s, p, d)           1.850000    2.230000    2.230000
        zeta-weighting                 0.500000
      * Dispersion:
        s8                             2.700000
        a1                             0.520000
        a2                             5.000000
        s9                             5.000000
      * Repulsion:
        kExp                           1.500000    1.000000
        rExp                           1.000000
      * Coulomb:
        alpha                          2.000000
        third order                    shell-resolved
        anisotropic                    true
        a3                             3.000000
        a5                             4.000000
        cn-shift                       1.200000
        cn-exp                         4.000000
        max-rad                        5.000000

      * Solvation model:               ALPB
        Solvent                        ch2cl2
        Parameter file                 internal GFN2-xTB/ALPB
        Dielectric constant                8.9300E+00
        Reference state                gsolv [1 M gas/solution]
        Free energy shift                  4.1487E-03 Eh       2.6033E+00 kcal/mol
        Temperature                        2.9815E+02 K
        Density                            1.3300E+00 kg/L
        Solvent mass                       8.4930E+01 g/mol
        Interaction kernel             P16
        Born radius scaling (c1)           1.5691E+00
        Born radii integrator          GBOBC
        Born offset                        0.0000E+00 a0       0.0000E+00 AA
        H-bond correction              false
        Ion screening                  false
        Surface tension                    1.0000E-05 Eh       1.5569E+01 dyn/cm
        Grid points                               230 per atom

          ...................................................
          :                      SETUP                      :
          :.................................................:
          :  # basis functions                  79          :
          :  # atomic orbitals                  79          :
          :  # shells                           47          :
          :  # electrons                        80          :
          :  max. iterations                   250          :
          :  Hamiltonian                  GFN2-xTB          :
          :  restarted?                      false          :
          :  GBSA solvation                   true          :
          :  PC potential                    false          :
          :  electronic temp.          300.0000000     K    :
          :  accuracy                    0.2000000          :
          :  -> integral cutoff          0.3198970E+02      :
          :  -> integral neglect         0.2000000E-08      :
          :  -> SCF convergence          0.2000000E-06 Eh   :
          :  -> wf. convergence          0.2000000E-04 e    :
          :  Broyden damping             0.4000000          :
          :  net charge                          0          :
          :  unpaired electrons                  0          :
          ...................................................

 iter      E             dE          RMSdq      gap      omega  full diag
   1    -43.3862319 -0.433862E+02  0.395E+00    3.02       0.0  T
   2    -43.4105895 -0.243576E-01  0.234E+00    2.83       1.0  T
   3    -43.3998577  0.107318E-01  0.871E-01    2.64       1.0  T
   4    -43.4150601 -0.152024E-01  0.234E-01    2.61       1.0  T
   5    -43.4158817 -0.821596E-03  0.552E-02    2.62       1.0  T
   6    -43.4159048 -0.231653E-04  0.319E-02    2.62       1.0  T
   7    -43.4159142 -0.937792E-05  0.134E-02    2.62       1.3  T
   8    -43.4159152 -0.937577E-06  0.368E-03    2.62       4.9  T
   9    -43.4159154 -0.280162E-06  0.136E-03    2.62      13.2  T
  10    -43.4159154 -0.750215E-08  0.563E-04    2.62      31.9  T
  11    -43.4159154 -0.338012E-08  0.237E-04    2.62      75.9  T
  12    -43.4159154 -0.698400E-09  0.997E-05    2.62     180.1  T
  13    -43.4159154 -0.177494E-10  0.492E-05    2.62     365.3  T

   *** convergence criteria satisfied after 13 iterations ***

         #    Occupation            Energy/Eh            Energy/eV
      -------------------------------------------------------------
         1        2.0000           -0.6471581             -17.6101
       ...           ...                  ...                  ...
        34        2.0000           -0.4215414             -11.4707
        35        2.0000           -0.4147388             -11.2856
        36        2.0000           -0.4075614             -11.0903
        37        2.0000           -0.4028780             -10.9629
        38        2.0000           -0.3970941             -10.8055
        39        2.0000           -0.3887003             -10.5771
        40        2.0000           -0.3603275              -9.8050 (HOMO)
        41                         -0.2640291              -7.1846 (LUMO)
        42                         -0.2266900              -6.1685
        43                         -0.2208359              -6.0093
        44                         -0.2122320              -5.7751
        45                         -0.1946319              -5.2962
       ...                                ...                  ...
        79                          0.6483999              17.6439
      -------------------------------------------------------------
                  HL-Gap            0.0962983 Eh            2.6204 eV
             Fermi-level           -0.3121783 Eh           -8.4948 eV

 SCC (total)                   0 d,  0 h,  0 min,  0.041 sec
 SCC setup                      ...        0 min,  0.001 sec (  2.548%)
 Dispersion                     ...        0 min,  0.000 sec (  0.787%)
 classical contributions        ...        0 min,  0.000 sec (  0.200%)
 integral evaluation            ...        0 min,  0.004 sec ( 10.730%)
 iterations                     ...        0 min,  0.015 sec ( 36.641%)
 molecular gradient             ...        0 min,  0.020 sec ( 48.285%)
 printout                       ...        0 min,  0.000 sec (  0.756%)

         :::::::::::::::::::::::::::::::::::::::::::::::::::::
         ::                     SUMMARY                     ::
         :::::::::::::::::::::::::::::::::::::::::::::::::::::
         :: total energy             -42.681281119271 Eh    ::
         :: total w/o Gsasa/hb       -42.661452191019 Eh    ::
         :: gradient norm              0.062359000372 Eh/a0 ::
         :: HOMO-LUMO gap              2.620411283225 eV    ::
         ::.................................................::
         :: SCC energy               -43.416051307691 Eh    ::
         :: -> isotropic ES            0.012507776685 Eh    ::
         :: -> anisotropic ES          0.007144880780 Eh    ::
         :: -> anisotropic XC          0.033211972021 Eh    ::
         :: -> dispersion             -0.029844275672 Eh    ::
         :: -> Gsolv                  -0.020929996081 Eh    ::
         ::    -> Gelec               -0.001101067829 Eh    ::
         ::    -> Gsasa               -0.023977625613 Eh    ::
         ::    -> Ghb                  0.000000000000 Eh    ::
         ::    -> Gshift               0.004148697361 Eh    ::
         :: repulsion energy           0.734770188420 Eh    ::
         :: add. restraining           0.000000000000 Eh    ::
         :: total charge              -0.000000000000 e     ::
         :::::::::::::::::::::::::::::::::::::::::::::::::::::

      ----------------------------------------------------------- 
     |                   =====================                   |
     |                        A N C O P T                        |
     |                   =====================                   |
     |               Approximate Normal Coordinate               |
     |                Rational Function Optimizer                |
      ----------------------------------------------------------- 
      ----------------------------------------------------------- 
     |                   =====================                   |
     |                        A N C O P T                        |
     |                   =====================                   |
     |               Approximate Normal Coordinate               |
     |                Rational Function Optimizer                |
      ----------------------------------------------------------- 

          ...................................................
          :                      SETUP                      :
          :.................................................:
          :   optimization level         verytight          :
          :   max. optcycles                   620          :
          :   ANC micro-cycles                  20          :
          :   degrees of freedom                87          :
          :.................................................:
          :   RF solver                   davidson          :
          :   write xtbopt.log                true          :
          :   linear?                        false          :
          :   energy convergence         0.1000000E-06 Eh   :
          :   grad. convergence          0.2000000E-03 Eh/α :
          :   maxmium RF displ.          1.0000000          :
          :   Hlow (freq-cutoff)         0.1000000E-01      :
          :   Hmax (freq-cutoff)         5.0000000          :
          :   S6 in model hess.         20.0000000          :
          ...................................................

generating ANC from exact Hessian ...
Using Lindh-Hessian (1995)
 Shifting diagonal of input Hessian by    9.4760607908350274E-003
 Lowest  eigenvalues of input Hessian
    0.000000    0.000000    0.000000    0.000000    0.000000    0.000000
    0.010000    0.010421    0.010570    0.011359    0.012670    0.014321
    0.017168    0.017747    0.018456    0.021632    0.022405    0.023883
 Highest eigenvalues
    1.843989    1.855294    1.925155    1.947567    1.953044    2.065837


........................................................................
.............................. CYCLE    1 ..............................
........................................................................

 iter      E             dE          RMSdq      gap      omega  full diag
   1    -43.4159154 -0.434159E+02  0.132E-05    2.62       0.0  T
   2    -43.4159154 -0.124345E-11  0.884E-06    2.62    2032.0  T
   3    -43.4159154 -0.130740E-11  0.488E-06    2.62    3682.7  T
     SCC iter.                  ...        0 min,  0.007 sec
     gradient                   ...        0 min,  0.015 sec
 * total energy  :   -42.6812811 Eh     change       -0.2977174E-10 Eh
   gradient norm :     0.0623589 Eh/α   predicted     0.0000000E+00 (-100.00%)
   displ. norm   :     0.2067226 α      lambda       -0.6674065E-02
   maximum displ.:     0.0894457 α      in ANC's #11, #47, #16, ...

........................................................................
.............................. CYCLE    2 ..............................
........................................................................

 iter      E             dE          RMSdq      gap      omega  full diag
   1    -43.4580619 -0.434581E+02  0.155E-01    2.68       0.0  T
   2    -43.4581094 -0.474768E-04  0.950E-02    2.67       1.0  T
   3    -43.4580916  0.177879E-04  0.390E-02    2.68       1.0  T
   4    -43.4581169 -0.252980E-04  0.843E-03    2.68       2.1  T
   5    -43.4581180 -0.111062E-05  0.244E-03    2.68       7.4  T
   6    -43.4581180  0.340479E-08  0.137E-03    2.68      13.1  T
   7    -43.4581181 -0.325067E-07  0.386E-04    2.68      46.6  T
   8    -43.4581181 -0.843499E-09  0.165E-04    2.68     108.6  T
   9    -43.4581181 -0.281055E-09  0.720E-05    2.68     249.6  T
     SCC iter.                  ...        0 min,  0.011 sec
     gradient                   ...        0 min,  0.014 sec
 * total energy  :   -42.6855266 Eh     change       -0.4245490E-02 Eh
   gradient norm :     0.0206534 Eh/α   predicted    -0.3480376E-02 ( -18.02%)
   displ. norm   :     0.1448825 α      lambda       -0.1006452E-02
   maximum displ.:     0.0736026 α      in ANC's #11, #2, #7, ...

........................................................................
.............................. CYCLE    3 ..............................
........................................................................

 iter      E             dE          RMSdq      gap      omega  full diag
   1    -43.4733161 -0.434733E+02  0.727E-02    2.67       0.0  T
   2    -43.4733296 -0.135385E-04  0.440E-02    2.67       1.0  T
   3    -43.4733268  0.279205E-05  0.226E-02    2.67       1.0  T
   4    -43.4733327 -0.582851E-05  0.369E-03    2.67       4.9  T
   5    -43.4733329 -0.245624E-06  0.112E-03    2.67      16.0  T
   6    -43.4733329 -0.699880E-08  0.587E-04    2.67      30.6  T
   7    -43.4733329 -0.278575E-08  0.200E-04    2.67      89.7  T
   8    -43.4733329 -0.185594E-09  0.739E-05    2.67     243.1  T
   9    -43.4733329 -0.101970E-09  0.321E-05    2.67     559.8  T
     SCC iter.                  ...        0 min,  0.012 sec
     gradient                   ...        0 min,  0.013 sec
 * total energy  :   -42.6861164 Eh     change       -0.5897652E-03 Eh
   gradient norm :     0.0081091 Eh/α   predicted    -0.5142607E-03 ( -12.80%)
   displ. norm   :     0.1261549 α      lambda       -0.2174812E-03
   maximum displ.:     0.0830944 α      in ANC's #2, #4, #7, ...

........................................................................
.............................. CYCLE    4 ..............................
........................................................................

 iter      E             dE          RMSdq      gap      omega  full diag
   1    -43.4750260 -0.434750E+02  0.412E-02    2.65       0.0  T
   2    -43.4750290 -0.305815E-05  0.251E-02    2.65       1.0  T
   3    -43.4750280  0.107319E-05  0.140E-02    2.64       1.3  T
   4    -43.4750307 -0.269581E-05  0.153E-03    2.65      11.7  T
   5    -43.4750307 -0.496433E-07  0.527E-04    2.65      34.1  T
   6    -43.4750307 -0.334869E-08  0.258E-04    2.65      69.6  T
   7    -43.4750307 -0.344826E-09  0.891E-05    2.65     201.5  T
   8    -43.4750307 -0.416875E-10  0.334E-05    2.65     538.2  T
     SCC iter.                  ...        0 min,  0.010 sec
     gradient                   ...        0 min,  0.012 sec
 * total energy  :   -42.6862937 Eh     change       -0.1772781E-03 Eh
   gradient norm :     0.0047714 Eh/α   predicted    -0.1104723E-03 ( -37.68%)
   displ. norm   :     0.2724178 α      lambda       -0.3327147E-03
   maximum displ.:     0.1767427 α      in ANC's #2, #7, #4, ...

........................................................................
.............................. CYCLE    5 ..............................
........................................................................

 iter      E             dE          RMSdq      gap      omega  full diag
   1    -43.4740043 -0.434740E+02  0.795E-02    2.60       0.0  T
   2    -43.4740122 -0.782852E-05  0.479E-02    2.61       1.0  T
   3    -43.4740057  0.641730E-05  0.257E-02    2.60       1.0  T
   4    -43.4740167 -0.109967E-04  0.258E-03    2.60       7.0  T
   5    -43.4740169 -0.129485E-06  0.943E-04    2.60      19.0  T
   6    -43.4740169 -0.859214E-08  0.501E-04    2.60      35.9  T
   7    -43.4740169 -0.137816E-08  0.145E-04    2.60     123.7  T
   8    -43.4740169 -0.152497E-09  0.571E-05    2.60     314.8  T
     SCC iter.                  ...        0 min,  0.014 sec
     gradient                   ...        0 min,  0.012 sec
 * total energy  :   -42.6865378 Eh     change       -0.2441622E-03 Eh
   gradient norm :     0.0058431 Eh/α   predicted    -0.1787051E-03 ( -26.81%)
   displ. norm   :     0.2719245 α      lambda       -0.2215988E-03
   maximum displ.:     0.1805167 α      in ANC's #2, #7, #4, ...

........................................................................
.............................. CYCLE    6 ..............................
........................................................................

 iter      E             dE          RMSdq      gap      omega  full diag
   1    -43.4722274 -0.434722E+02  0.739E-02    2.58       0.0  T
   2    -43.4722309 -0.347513E-05  0.438E-02    2.58       1.0  T
   3    -43.4722249  0.596294E-05  0.192E-02    2.58       1.0  T
   4    -43.4722325 -0.762502E-05  0.202E-03    2.58       8.9  T
   5    -43.4722326 -0.775591E-07  0.734E-04    2.58      24.5  T
   6    -43.4722326 -0.195696E-08  0.415E-04    2.58      43.3  T
   7    -43.4722326 -0.170708E-08  0.104E-04    2.58     173.5  T
   8    -43.4722326 -0.883063E-10  0.470E-05    2.58     381.8  T
     SCC iter.                  ...        0 min,  0.014 sec
     gradient                   ...        0 min,  0.011 sec
 * total energy  :   -42.6867142 Eh     change       -0.1764041E-03 Eh
   gradient norm :     0.0087025 Eh/α   predicted    -0.1189969E-03 ( -32.54%)
   displ. norm   :     0.2769879 α      lambda       -0.2281549E-03
   maximum displ.:     0.1884124 α      in ANC's #2, #7, #4, ...

........................................................................
.............................. CYCLE    7 ..............................
........................................................................

 iter      E             dE          RMSdq      gap      omega  full diag
   1    -43.4710119 -0.434710E+02  0.719E-02    2.57       0.0  T
   2    -43.4710131 -0.115918E-05  0.423E-02    2.57       1.0  T
   3    -43.4710113  0.177072E-05  0.959E-03    2.57       1.9  T
   4    -43.4710134 -0.212371E-05  0.155E-03    2.57      11.6  T
   5    -43.4710134 -0.395188E-07  0.626E-04    2.57      28.7  T
   6    -43.4710134 -0.512443E-10  0.282E-04    2.57      63.8  T
   7    -43.4710134 -0.157089E-08  0.708E-05    2.57     253.9  T
   8    -43.4710134 -0.243574E-10  0.404E-05    2.57     444.5  T
     SCC iter.                  ...        0 min,  0.009 sec
     gradient                   ...        0 min,  0.011 sec
 * total energy  :   -42.6869016 Eh     change       -0.1873522E-03 Eh
   gradient norm :     0.0080305 Eh/α   predicted    -0.1228341E-03 ( -34.44%)
   displ. norm   :     0.2963693 α      lambda       -0.2514100E-03
   maximum displ.:     0.2147619 α      in ANC's #2, #7, #3, ...

........................................................................
.............................. CYCLE    8 ..............................
........................................................................

 iter      E             dE          RMSdq      gap      omega  full diag
   1    -43.4711831 -0.434712E+02  0.766E-02    2.58       0.0  T
   2    -43.4711838 -0.673649E-06  0.451E-02    2.58       1.0  T
   3    -43.4711833  0.483385E-06  0.507E-03    2.58       3.5  T
   4    -43.4711840 -0.706300E-06  0.118E-03    2.58      15.2  T
   5    -43.4711840 -0.861678E-08  0.610E-04    2.58      29.4  T
   6    -43.4711840 -0.944034E-09  0.215E-04    2.58      83.7  T
   7    -43.4711840 -0.722721E-09  0.685E-05    2.58     262.3  T
   8    -43.4711840 -0.151559E-10  0.360E-05    2.58     498.4  T
     SCC iter.                  ...        0 min,  0.009 sec
     gradient                   ...        0 min,  0.012 sec
 * total energy  :   -42.6870941 Eh     change       -0.1924985E-03 Eh
   gradient norm :     0.0044984 Eh/α   predicted    -0.1367469E-03 ( -28.96%)
   displ. norm   :     0.2686605 α      lambda       -0.1688228E-03
   maximum displ.:     0.2058664 α      in ANC's #2, #7, #3, ...

........................................................................
.............................. CYCLE    9 ..............................
........................................................................

 iter      E             dE          RMSdq      gap      omega  full diag
   1    -43.4722336 -0.434722E+02  0.700E-02    2.59       0.0  T
   2    -43.4722341 -0.469798E-06  0.412E-02    2.59       1.0  T
   3    -43.4722337  0.367329E-06  0.456E-03    2.59       3.9  T
   4    -43.4722343 -0.541070E-06  0.108E-03    2.59      16.6  T
   5    -43.4722343 -0.611105E-08  0.542E-04    2.59      33.1  T
   6    -43.4722343 -0.105027E-08  0.181E-04    2.59      99.0  T
   7    -43.4722343 -0.430724E-09  0.563E-05    2.59     318.8  T
     SCC iter.                  ...        0 min,  0.008 sec
     gradient                   ...        0 min,  0.011 sec
 * total energy  :   -42.6872223 Eh     change       -0.1282275E-03 Eh
   gradient norm :     0.0033605 Eh/α   predicted    -0.9051349E-04 ( -29.41%)
   displ. norm   :     0.2367525 α      lambda       -0.1222178E-03
   maximum displ.:     0.1886681 α      in ANC's #2, #3, #7, ...

........................................................................
.............................. CYCLE   10 ..............................
........................................................................

 iter      E             dE          RMSdq      gap      omega  full diag
   1    -43.4737938 -0.434738E+02  0.639E-02    2.59       0.0  T
   2    -43.4737941 -0.310603E-06  0.375E-02    2.59       1.0  T
   3    -43.4737940  0.148643E-06  0.348E-03    2.59       5.2  T
   4    -43.4737942 -0.276138E-06  0.942E-04    2.59      19.1  T
   5    -43.4737942 -0.178831E-08  0.426E-04    2.59      42.2  T
   6    -43.4737942 -0.146678E-08  0.117E-04    2.59     153.6  T
   7    -43.4737942 -0.209333E-09  0.484E-05    2.59     371.0  T
     SCC iter.                  ...        0 min,  0.010 sec
     gradient                   ...        0 min,  0.015 sec
 * total energy  :   -42.6873182 Eh     change       -0.9590104E-04 Eh
   gradient norm :     0.0037843 Eh/α   predicted    -0.6453503E-04 ( -32.71%)
   displ. norm   :     0.3105308 α      lambda       -0.1230152E-03
   maximum displ.:     0.2387883 α      in ANC's #2, #7, #3, ...

........................................................................
.............................. CYCLE   11 ..............................
........................................................................

 iter      E             dE          RMSdq      gap      omega  full diag
   1    -43.4736951 -0.434737E+02  0.843E-02    2.58       0.0  T
   2    -43.4736961 -0.982153E-06  0.495E-02    2.59       1.0  T
   3    -43.4736948  0.124730E-05  0.763E-03    2.58       2.4  T
   4    -43.4736964 -0.156259E-05  0.156E-03    2.59      11.5  T
   5    -43.4736964 -0.304371E-07  0.697E-04    2.59      25.8  T
   6    -43.4736964 -0.460119E-09  0.209E-04    2.59      86.0  T
   7    -43.4736964 -0.100070E-08  0.726E-05    2.59     247.4  T
   8    -43.4736964 -0.183817E-10  0.252E-05    2.59     711.6  T
     SCC iter.                  ...        0 min,  0.009 sec
     gradient                   ...        0 min,  0.012 sec
 * total energy  :   -42.6874043 Eh     change       -0.8614651E-04 Eh
   gradient norm :     0.0053978 Eh/α   predicted    -0.6744048E-04 ( -21.71%)
   displ. norm   :     0.3578418 α      lambda       -0.1740305E-03
   maximum displ.:     0.2812926 α      in ANC's #2, #3, #4, ...

........................................................................
.............................. CYCLE   12 ..............................
........................................................................

 iter      E             dE          RMSdq      gap      omega  full diag
   1    -43.4755882 -0.434756E+02  0.104E-01    2.57       0.0  T
   2    -43.4755897 -0.149697E-05  0.609E-02    2.57       1.0  T
   3    -43.4755871  0.263427E-05  0.108E-02    2.57       1.7  T
   4    -43.4755903 -0.327101E-05  0.185E-03    2.57       9.7  T
   5    -43.4755904 -0.156061E-07  0.912E-04    2.57      19.7  T
   6    -43.4755904 -0.148786E-08  0.292E-04    2.57      61.5  T
   7    -43.4755904 -0.199968E-08  0.101E-04    2.57     177.4  T
   8    -43.4755904 -0.329763E-10  0.420E-05    2.57     428.1  T
     SCC iter.                  ...        0 min,  0.009 sec
     gradient                   ...        0 min,  0.013 sec
 * total energy  :   -42.6875055 Eh     change       -0.1011713E-03 Eh
   gradient norm :     0.0037604 Eh/α   predicted    -0.9816370E-04 (  -2.97%)
   displ. norm   :     0.2803688 α      lambda       -0.7441088E-04
   maximum displ.:     0.2081372 α      in ANC's #2, #3, #7, ...

........................................................................
.............................. CYCLE   13 ..............................
........................................................................

 iter      E             dE          RMSdq      gap      omega  full diag
   1    -43.4740380 -0.434740E+02  0.812E-02    2.55       0.0  T
   2    -43.4740395 -0.150148E-05  0.476E-02    2.55       1.0  T
   3    -43.4740365  0.304939E-05  0.117E-02    2.55       1.5  T
   4    -43.4740401 -0.365115E-05  0.177E-03    2.55      10.2  T
   5    -43.4740401 -0.346308E-07  0.781E-04    2.55      23.0  T
   6    -43.4740401 -0.128203E-09  0.307E-04    2.55      58.5  T
   7    -43.4740401 -0.189588E-08  0.849E-05    2.55     211.5  T
   8    -43.4740401 -0.197531E-10  0.346E-05    2.55     519.4  T
     SCC iter.                  ...        0 min,  0.008 sec
     gradient                   ...        0 min,  0.013 sec
 * total energy  :   -42.6875415 Eh     change       -0.3601998E-04 Eh
   gradient norm :     0.0038642 Eh/α   predicted    -0.4014183E-04 (  11.44%)
   displ. norm   :     0.0613554 α      lambda       -0.5622471E-04
   maximum displ.:     0.0488586 α      in ANC's #4, #6, #1, ...

........................................................................
.............................. CYCLE   14 ..............................
........................................................................

 iter      E             dE          RMSdq      gap      omega  full diag
   1    -43.4759360 -0.434759E+02  0.266E-02    2.54       0.0  T
   2    -43.4759365 -0.500880E-06  0.156E-02    2.54       1.2  T
   3    -43.4759358  0.681975E-06  0.612E-03    2.54       2.9  T
   4    -43.4759366 -0.859831E-06  0.876E-04    2.54      20.5  T
   5    -43.4759367 -0.106480E-07  0.357E-04    2.54      50.2  T
   6    -43.4759367  0.119186E-09  0.168E-04    2.54     106.9  T
   7    -43.4759367 -0.494417E-09  0.365E-05    2.54     492.5  T
     SCC iter.                  ...        0 min,  0.010 sec
     gradient                   ...        0 min,  0.011 sec
 * total energy  :   -42.6875780 Eh     change       -0.3643449E-04 Eh
   gradient norm :     0.0017209 Eh/α   predicted    -0.2821837E-04 ( -22.55%)
   displ. norm   :     0.1358688 α      lambda       -0.2586871E-04
   maximum displ.:     0.0930850 α      in ANC's #4, #3, #2, ...

........................................................................
.............................. CYCLE   15 ..............................
........................................................................

 iter      E             dE          RMSdq      gap      omega  full diag
   1    -43.4756670 -0.434757E+02  0.545E-02    2.52       0.0  T
   2    -43.4756676 -0.593129E-06  0.319E-02    2.52       1.0  T
   3    -43.4756658  0.174516E-05  0.851E-03    2.52       2.1  T
   4    -43.4756679 -0.209387E-05  0.116E-03    2.52      15.5  T
   5    -43.4756679 -0.550169E-08  0.512E-04    2.52      35.1  T
   6    -43.4756679 -0.162691E-08  0.157E-04    2.52     114.2  T
   7    -43.4756679 -0.406203E-09  0.524E-05    2.52     343.0  T
     SCC iter.                  ...        0 min,  0.008 sec
     gradient                   ...        0 min,  0.012 sec
 * total energy  :   -42.6876016 Eh     change       -0.2367571E-04 Eh
   gradient norm :     0.0020310 Eh/α   predicted    -0.1305192E-04 ( -44.87%)
   displ. norm   :     0.0530385 α      lambda       -0.1706007E-04
   maximum displ.:     0.0402648 α      in ANC's #4, #1, #5, ...

........................................................................
.............................. CYCLE   16 ..............................
........................................................................

 iter      E             dE          RMSdq      gap      omega  full diag
   1    -43.4755240 -0.434755E+02  0.222E-02    2.52       0.0  T
   2    -43.4755241 -0.750154E-07  0.129E-02    2.52       1.4  T
   3    -43.4755241  0.405871E-07  0.177E-03    2.52      10.2  T
   4    -43.4755241 -0.640534E-07  0.464E-04    2.52      38.7  T
   5    -43.4755241 -0.112701E-08  0.180E-04    2.52      99.6  T
   6    -43.4755241 -0.165308E-09  0.507E-05    2.52     354.4  T
     SCC iter.                  ...        0 min,  0.008 sec
     gradient                   ...        0 min,  0.012 sec
 * total energy  :   -42.6876172 Eh     change       -0.1559768E-04 Eh
   gradient norm :     0.0017712 Eh/α   predicted    -0.8554975E-05 ( -45.15%)
   displ. norm   :     0.2187511 α      lambda       -0.4734048E-04
   maximum displ.:     0.1475892 α      in ANC's #4, #5, #1, ...

........................................................................
.............................. CYCLE   17 ..............................
........................................................................

 iter      E             dE          RMSdq      gap      omega  full diag
   1    -43.4740065 -0.434740E+02  0.916E-02    2.52       0.0  T
   2    -43.4740083 -0.176655E-05  0.531E-02    2.52       1.0  T
   3    -43.4740062  0.206389E-05  0.110E-02    2.52       1.6  T
   4    -43.4740089 -0.270337E-05  0.212E-03    2.52       8.5  T
   5    -43.4740089 -0.269956E-07  0.851E-04    2.52      21.1  T
   6    -43.4740089 -0.249683E-08  0.278E-04    2.52      64.5  T
   7    -43.4740089 -0.177512E-08  0.831E-05    2.52     216.1  T
   8    -43.4740089 -0.329905E-10  0.390E-05    2.52     460.0  T
     SCC iter.                  ...        0 min,  0.010 sec
     gradient                   ...        0 min,  0.013 sec
 * total energy  :   -42.6876658 Eh     change       -0.4859332E-04 Eh
   gradient norm :     0.0022402 Eh/α   predicted    -0.2417514E-04 ( -50.25%)
   displ. norm   :     0.1384797 α      lambda       -0.2876038E-04
   maximum displ.:     0.0956336 α      in ANC's #4, #1, #5, ...

........................................................................
.............................. CYCLE   18 ..............................
........................................................................

 iter      E             dE          RMSdq      gap      omega  full diag
   1    -43.4740532 -0.434741E+02  0.578E-02    2.51       0.0  T
   2    -43.4740540 -0.766603E-06  0.335E-02    2.51       1.0  T
   3    -43.4740532  0.810700E-06  0.665E-03    2.52       2.7  T
   4    -43.4740543 -0.107088E-05  0.140E-03    2.51      12.9  T
   5    -43.4740543 -0.124100E-07  0.550E-04    2.51      32.7  T
   6    -43.4740543 -0.942762E-09  0.173E-04    2.51     103.7  T
   7    -43.4740543 -0.661743E-09  0.530E-05    2.51     338.7  T
     SCC iter.                  ...        0 min,  0.008 sec
     gradient                   ...        0 min,  0.012 sec
 * total energy  :   -42.6876898 Eh     change       -0.2393357E-04 Eh
   gradient norm :     0.0022478 Eh/α   predicted    -0.1465984E-04 ( -38.75%)
   displ. norm   :     0.2606388 α      lambda       -0.4538387E-04
   maximum displ.:     0.1806660 α      in ANC's #4, #1, #5, ...

........................................................................
.............................. CYCLE   19 ..............................
........................................................................

 iter      E             dE          RMSdq      gap      omega  full diag
   1    -43.4735855 -0.434736E+02  0.112E-01    2.50       0.0  T
   2    -43.4735883 -0.281275E-05  0.650E-02    2.50       1.0  T
   3    -43.4735856  0.265450E-05  0.122E-02    2.50       1.5  T
   4    -43.4735892 -0.362232E-05  0.276E-03    2.50       6.5  T
   5    -43.4735893 -0.415235E-07  0.103E-03    2.50      17.4  T
   6    -43.4735893 -0.315798E-08  0.312E-04    2.50      57.6  T
   7    -43.4735893 -0.215470E-08  0.986E-05    2.50     182.1  T
   8    -43.4735893 -0.392006E-10  0.464E-05    2.50     387.0  T
     SCC iter.                  ...        0 min,  0.009 sec
     gradient                   ...        0 min,  0.012 sec
 * total energy  :   -42.6877237 Eh     change       -0.3388860E-04 Eh
   gradient norm :     0.0020305 Eh/α   predicted    -0.2423441E-04 ( -28.49%)
   displ. norm   :     0.2173808 α      lambda       -0.2855779E-04
   maximum displ.:     0.1454381 α      in ANC's #4, #1, #5, ...

........................................................................
.............................. CYCLE   20 ..............................
........................................................................

 iter      E             dE          RMSdq      gap      omega  full diag
   1    -43.4733734 -0.434734E+02  0.953E-02    2.49       0.0  T
   2    -43.4733754 -0.196193E-05  0.550E-02    2.49       1.0  T
   3    -43.4733736  0.171608E-05  0.981E-03    2.49       1.8  T
   4    -43.4733760 -0.239235E-05  0.235E-03    2.49       7.6  T
   5    -43.4733761 -0.282626E-07  0.845E-04    2.49      21.2  T
   6    -43.4733761 -0.223968E-08  0.259E-04    2.49      69.4  T
   7    -43.4733761 -0.147632E-08  0.800E-05    2.49     224.4  T
   8    -43.4733761 -0.220908E-10  0.373E-05    2.49     481.9  T
     SCC iter.                  ...        0 min,  0.009 sec
     gradient                   ...        0 min,  0.011 sec
 * total energy  :   -42.6877437 Eh     change       -0.2007793E-04 Eh
   gradient norm :     0.0019310 Eh/α   predicted    -0.1495982E-04 ( -25.49%)
   displ. norm   :     0.1931531 α      lambda       -0.1755465E-04
   maximum displ.:     0.1147032 α      in ANC's #4, #1, #5, ...
 * RMSD in coord.:     0.5230620 α      energy gain  -0.6462618E-02 Eh

generating ANC from exact Hessian ...
Using Lindh-Hessian (1995)
 Shifting diagonal of input Hessian by    9.3986444467698341E-003
 Lowest  eigenvalues of input Hessian
    0.000000    0.000000    0.000000    0.000000    0.000000    0.000000
    0.010000    0.010501    0.010595    0.011397    0.013265    0.014570
    0.018055    0.018276    0.019227    0.022994    0.024206    0.024943
 Highest eigenvalues
    1.892626    1.948788    2.000315    2.014572    2.045294    2.231597


........................................................................
.............................. CYCLE   21 ..............................
........................................................................

 iter      E             dE          RMSdq      gap      omega  full diag
   1    -43.4741429 -0.434741E+02  0.872E-02    2.49       0.0  T
   2    -43.4741443 -0.138664E-05  0.503E-02    2.49       1.0  T
   3    -43.4741434  0.902956E-06  0.743E-03    2.49       2.4  T
   4    -43.4741448 -0.140276E-05  0.214E-03    2.49       8.4  T
   5    -43.4741449 -0.202587E-07  0.636E-04    2.49      28.2  T
   6    -43.4741449 -0.189244E-08  0.209E-04    2.49      85.8  T
   7    -43.4741449 -0.922931E-09  0.697E-05    2.49     257.9  T
   8    -43.4741449 -0.854072E-11  0.295E-05    2.49     609.6  T
     SCC iter.                  ...        0 min,  0.010 sec
     gradient                   ...        0 min,  0.010 sec
 * total energy  :   -42.6877605 Eh     change       -0.1679890E-04 Eh
   gradient norm :     0.0014457 Eh/α   predicted     0.0000000E+00 (-100.00%)
   displ. norm   :     0.0216038 α      lambda       -0.4336310E-05
   maximum displ.:     0.0092405 α      in ANC's #5, #7, #2, ...

........................................................................
.............................. CYCLE   22 ..............................
........................................................................

 iter      E             dE          RMSdq      gap      omega  full diag
   1    -43.4746680 -0.434747E+02  0.775E-03    2.49       0.0  T
   2    -43.4746681 -0.380405E-07  0.451E-03    2.49       4.0  T
   3    -43.4746680  0.297319E-07  0.132E-03    2.49      13.6  T
   4    -43.4746681 -0.379182E-07  0.255E-04    2.49      70.5  T
   5    -43.4746681 -0.102123E-08  0.103E-04    2.49     175.0  T
   6    -43.4746681  0.132516E-10  0.420E-05    2.49     427.8  T
     SCC iter.                  ...        0 min,  0.006 sec
     gradient                   ...        0 min,  0.011 sec
 * total energy  :   -42.6877660 Eh     change       -0.5479075E-05 Eh
   gradient norm :     0.0004260 Eh/α   predicted    -0.2627424E-05 ( -52.05%)
   displ. norm   :     0.0407286 α      lambda       -0.4523340E-05
   maximum displ.:     0.0178681 α      in ANC's #2, #1, #7, ...

........................................................................
.............................. CYCLE   23 ..............................
........................................................................

 iter      E             dE          RMSdq      gap      omega  full diag
   1    -43.4747415 -0.434747E+02  0.119E-02    2.49       0.0  T
   2    -43.4747416 -0.357438E-07  0.698E-03    2.49       2.6  T
   3    -43.4747415  0.673455E-07  0.178E-03    2.49      10.1  T
   4    -43.4747416 -0.809533E-07  0.235E-04    2.49      76.5  T
   5    -43.4747416 -0.712014E-09  0.106E-04    2.49     169.8  T
   6    -43.4747416  0.145235E-10  0.479E-05    2.49     375.1  T
     SCC iter.                  ...        0 min,  0.007 sec
     gradient                   ...        0 min,  0.011 sec
 * total energy  :   -42.6877710 Eh     change       -0.4990232E-05 Eh
   gradient norm :     0.0007512 Eh/α   predicted    -0.2264099E-05 ( -54.63%)
   displ. norm   :     0.0555413 α      lambda       -0.4103653E-05
   maximum displ.:     0.0264442 α      in ANC's #2, #1, #7, ...

........................................................................
.............................. CYCLE   24 ..............................
........................................................................

 iter      E             dE          RMSdq      gap      omega  full diag
   1    -43.4746691 -0.434747E+02  0.151E-02    2.49       0.0  T
   2    -43.4746692 -0.476797E-07  0.886E-03    2.49       2.0  T
   3    -43.4746691  0.972631E-07  0.215E-03    2.49       8.4  T
   4    -43.4746692 -0.116566E-06  0.283E-04    2.49      63.5  T
   5    -43.4746692 -0.995421E-09  0.128E-04    2.49     139.8  T
   6    -43.4746692  0.243716E-11  0.579E-05    2.49     310.5  T
     SCC iter.                  ...        0 min,  0.007 sec
     gradient                   ...        0 min,  0.012 sec
 * total energy  :   -42.6877755 Eh     change       -0.4542658E-05 Eh
   gradient norm :     0.0008952 Eh/α   predicted    -0.2055301E-05 ( -54.76%)
   displ. norm   :     0.0548925 α      lambda       -0.3183714E-05
   maximum displ.:     0.0290273 α      in ANC's #1, #2, #7, ...

........................................................................
.............................. CYCLE   25 ..............................
........................................................................

 iter      E             dE          RMSdq      gap      omega  full diag
   1    -43.4746049 -0.434746E+02  0.145E-02    2.49       0.0  T
   2    -43.4746049 -0.340366E-07  0.854E-03    2.49       2.1  T
   3    -43.4746049  0.651753E-07  0.176E-03    2.48      10.2  T
   4    -43.4746050 -0.795728E-07  0.260E-04    2.49      69.0  T
   5    -43.4746050 -0.610456E-09  0.125E-04    2.49     144.1  T
   6    -43.4746050 -0.202078E-10  0.519E-05    2.49     346.2  T
     SCC iter.                  ...        0 min,  0.007 sec
     gradient                   ...        0 min,  0.013 sec
 * total energy  :   -42.6877791 Eh     change       -0.3512571E-05 Eh
   gradient norm :     0.0005544 Eh/α   predicted    -0.1596945E-05 ( -54.54%)
   displ. norm   :     0.0441483 α      lambda       -0.2161803E-05
   maximum displ.:     0.0257541 α      in ANC's #1, #2, #3, ...

........................................................................
.............................. CYCLE   26 ..............................
........................................................................

 iter      E             dE          RMSdq      gap      omega  full diag
   1    -43.4745722 -0.434746E+02  0.122E-02    2.48       0.0  T
   2    -43.4745722 -0.140289E-07  0.720E-03    2.48       2.5  T
   3    -43.4745722  0.323514E-07  0.117E-03    2.48      15.4  T
   4    -43.4745722 -0.399842E-07  0.182E-04    2.48      98.8  T
   5    -43.4745722 -0.107015E-09  0.893E-05    2.48     201.2  T
     SCC iter.                  ...        0 min,  0.006 sec
     gradient                   ...        0 min,  0.014 sec
 * total energy  :   -42.6877815 Eh     change       -0.2410945E-05 Eh
   gradient norm :     0.0002441 Eh/α   predicted    -0.1084634E-05 ( -55.01%)
   displ. norm   :     0.0408304 α      lambda       -0.1692111E-05
   maximum displ.:     0.0246748 α      in ANC's #1, #2, #3, ...

........................................................................
.............................. CYCLE   27 ..............................
........................................................................

 iter      E             dE          RMSdq      gap      omega  full diag
   1    -43.4745968 -0.434746E+02  0.120E-02    2.48       0.0  T
   2    -43.4745968 -0.941839E-08  0.707E-03    2.48       2.5  T
   3    -43.4745968  0.188851E-07  0.861E-04    2.48      20.9  T
   4    -43.4745968 -0.244001E-07  0.159E-04    2.48     113.0  T
   5    -43.4745968  0.265601E-10  0.748E-05    2.48     240.0  T
     SCC iter.                  ...        0 min,  0.005 sec
     gradient                   ...        0 min,  0.011 sec
 * total energy  :   -42.6877834 Eh     change       -0.1906514E-05 Eh
   gradient norm :     0.0003948 Eh/α   predicted    -0.8486842E-06 ( -55.49%)
   displ. norm   :     0.0434163 α      lambda       -0.1495878E-05
   maximum displ.:     0.0261821 α      in ANC's #1, #2, #3, ...

........................................................................
.............................. CYCLE   28 ..............................
........................................................................

 iter      E             dE          RMSdq      gap      omega  full diag
   1    -43.4746221 -0.434746E+02  0.140E-02    2.48       0.0  T
   2    -43.4746221 -0.120245E-07  0.823E-03    2.48       2.2  T
   3    -43.4746221  0.196309E-07  0.905E-04    2.48      19.8  T
   4    -43.4746221 -0.258663E-07  0.167E-04    2.48     107.6  T
   5    -43.4746221 -0.319744E-12  0.833E-05    2.48     215.7  T
     SCC iter.                  ...        0 min,  0.007 sec
     gradient                   ...        0 min,  0.012 sec
 * total energy  :   -42.6877851 Eh     change       -0.1708728E-05 Eh
   gradient norm :     0.0004471 Eh/α   predicted    -0.7504727E-06 ( -56.08%)
   displ. norm   :     0.0377687 α      lambda       -0.1161483E-05
   maximum displ.:     0.0234771 α      in ANC's #1, #4, #3, ...

........................................................................
.............................. CYCLE   29 ..............................
........................................................................

 iter      E             dE          RMSdq      gap      omega  full diag
   1    -43.4746555 -0.434747E+02  0.135E-02    2.48       0.0  T
   2    -43.4746555 -0.125369E-07  0.790E-03    2.48       2.3  T
   3    -43.4746555  0.175770E-07  0.897E-04    2.48      20.0  T
   4    -43.4746555 -0.233245E-07  0.159E-04    2.48     112.7  T
   5    -43.4746555 -0.287983E-10  0.753E-05    2.48     238.5  T
     SCC iter.                  ...        0 min,  0.005 sec
     gradient                   ...        0 min,  0.012 sec
 * total energy  :   -42.6877865 Eh     change       -0.1446256E-05 Eh
   gradient norm :     0.0002924 Eh/α   predicted    -0.5852598E-06 ( -59.53%)
   displ. norm   :     0.0403869 α      lambda       -0.1231294E-05
   maximum displ.:     0.0255802 α      in ANC's #1, #4, #3, ...

........................................................................
.............................. CYCLE   30 ..............................
........................................................................

 iter      E             dE          RMSdq      gap      omega  full diag
   1    -43.4746927 -0.434747E+02  0.159E-02    2.48       0.0  T
   2    -43.4746928 -0.175030E-07  0.931E-03    2.48       1.9  T
   3    -43.4746927  0.205682E-07  0.101E-03    2.48      17.9  T
   4    -43.4746928 -0.280974E-07  0.190E-04    2.48      94.3  T
   5    -43.4746928 -0.572555E-10  0.834E-05    2.48     215.4  T
     SCC iter.                  ...        0 min,  0.007 sec
     gradient                   ...        0 min,  0.011 sec
 * total energy  :   -42.6877881 Eh     change       -0.1582076E-05 Eh
   gradient norm :     0.0001570 Eh/α   predicted    -0.6189244E-06 ( -60.88%)
   displ. norm   :     0.0571675 α      lambda       -0.1618283E-05
   maximum displ.:     0.0359127 α      in ANC's #1, #4, #3, ...

........................................................................
.............................. CYCLE   31 ..............................
........................................................................

 iter      E             dE          RMSdq      gap      omega  full diag
   1    -43.4746853 -0.434747E+02  0.238E-02    2.48       0.0  T
   2    -43.4746853 -0.399949E-07  0.139E-02    2.48       1.3  T
   3    -43.4746853  0.406496E-07  0.144E-03    2.48      12.5  T
   4    -43.4746853 -0.572263E-07  0.307E-04    2.48      58.6  T
   5    -43.4746853 -0.202384E-09  0.126E-04    2.48     142.2  T
   6    -43.4746853 -0.948575E-10  0.434E-05    2.48     414.1  T
     SCC iter.                  ...        0 min,  0.006 sec
     gradient                   ...        0 min,  0.013 sec
 * total energy  :   -42.6877901 Eh     change       -0.2019486E-05 Eh
   gradient norm :     0.0003352 Eh/α   predicted    -0.8149674E-06 ( -59.64%)
   displ. norm   :     0.1013349 α      lambda       -0.2455814E-05
   maximum displ.:     0.0623504 α      in ANC's #1, #4, #3, ...

........................................................................
.............................. CYCLE   32 ..............................
........................................................................

 iter      E             dE          RMSdq      gap      omega  full diag
   1    -43.4746100 -0.434746E+02  0.436E-02    2.47       0.0  T
   2    -43.4746102 -0.140300E-06  0.255E-02    2.47       1.0  T
   3    -43.4746101  0.119335E-06  0.256E-03    2.47       7.0  T
   4    -43.4746102 -0.175034E-06  0.609E-04    2.47      29.5  T
   5    -43.4746102 -0.109322E-08  0.236E-04    2.47      76.1  T
   6    -43.4746102 -0.289788E-09  0.790E-05    2.47     227.3  T
   7    -43.4746102 -0.102517E-09  0.297E-05    2.47     604.3  T
     SCC iter.                  ...        0 min,  0.008 sec
     gradient                   ...        0 min,  0.011 sec
 * total energy  :   -42.6877929 Eh     change       -0.2794618E-05 Eh
   gradient norm :     0.0005290 Eh/α   predicted    -0.1235807E-05 ( -55.78%)
   displ. norm   :     0.1387050 α      lambda       -0.2628174E-05
   maximum displ.:     0.0844014 α      in ANC's #1, #4, #3, ...

........................................................................
.............................. CYCLE   33 ..............................
........................................................................

 iter      E             dE          RMSdq      gap      omega  full diag
   1    -43.4744211 -0.434744E+02  0.609E-02    2.47       0.0  T
   2    -43.4744214 -0.282839E-06  0.356E-02    2.47       1.0  T
   3    -43.4744212  0.216394E-06  0.352E-03    2.47       5.1  T
   4    -43.4744215 -0.327162E-06  0.897E-04    2.47      20.0  T
   5    -43.4744215 -0.268471E-08  0.331E-04    2.47      54.3  T
   6    -43.4744215 -0.529255E-09  0.106E-04    2.47     168.9  T
   7    -43.4744215 -0.195577E-09  0.415E-05    2.47     433.2  T
     SCC iter.                  ...        0 min,  0.007 sec
     gradient                   ...        0 min,  0.012 sec
 * total energy  :   -42.6877952 Eh     change       -0.2254232E-05 Eh
   gradient norm :     0.0005633 Eh/α   predicted    -0.1327390E-05 ( -41.12%)
   displ. norm   :     0.0384976 α      lambda       -0.1378998E-05
   maximum displ.:     0.0213224 α      in ANC's #1, #3, #5, ...

........................................................................
.............................. CYCLE   34 ..............................
........................................................................

 iter      E             dE          RMSdq      gap      omega  full diag
   1    -43.4745819 -0.434746E+02  0.177E-02    2.47       0.0  T
   2    -43.4745820 -0.295189E-07  0.103E-02    2.47       1.7  T
   3    -43.4745820  0.145811E-07  0.999E-04    2.47      18.0  T
   4    -43.4745820 -0.259461E-07  0.316E-04    2.47      56.8  T
   5    -43.4745820 -0.446960E-09  0.893E-05    2.47     201.2  T
   6    -43.4745820 -0.381064E-10  0.282E-05    2.47     637.2  T
     SCC iter.                  ...        0 min,  0.007 sec
     gradient                   ...        0 min,  0.012 sec
 * total energy  :   -42.6877970 Eh     change       -0.1778426E-05 Eh
   gradient norm :     0.0003752 Eh/α   predicted    -0.6902653E-06 ( -61.19%)
   displ. norm   :     0.0724572 α      lambda       -0.3465438E-05
   maximum displ.:     0.0338831 α      in ANC's #5, #1, #7, ...

........................................................................
.............................. CYCLE   35 ..............................
........................................................................

 iter      E             dE          RMSdq      gap      omega  full diag
   1    -43.4746084 -0.434746E+02  0.324E-02    2.46       0.0  T
   2    -43.4746086 -0.110871E-06  0.188E-02    2.46       1.0  T
   3    -43.4746085  0.369802E-07  0.177E-03    2.46      10.1  T
   4    -43.4746086 -0.813535E-07  0.619E-04    2.46      29.0  T
   5    -43.4746086 -0.141700E-08  0.153E-04    2.46     117.1  T
   6    -43.4746086 -0.225135E-09  0.521E-05    2.46     344.9  T
     SCC iter.                  ...        0 min,  0.009 sec
     gradient                   ...        0 min,  0.013 sec
 * total energy  :   -42.6878005 Eh     change       -0.3542933E-05 Eh
   gradient norm :     0.0002795 Eh/α   predicted    -0.1741607E-05 ( -50.84%)
   displ. norm   :     0.0694509 α      lambda       -0.1384289E-05
   maximum displ.:     0.0333721 α      in ANC's #1, #3, #7, ...

........................................................................
.............................. CYCLE   36 ..............................
........................................................................

 iter      E             dE          RMSdq      gap      omega  full diag
   1    -43.4744138 -0.434744E+02  0.316E-02    2.46       0.0  T
   2    -43.4744139 -0.981607E-07  0.184E-02    2.46       1.0  T
   3    -43.4744139  0.365302E-07  0.174E-03    2.46      10.3  T
   4    -43.4744140 -0.724601E-07  0.574E-04    2.46      31.3  T
   5    -43.4744140 -0.145630E-08  0.177E-04    2.46     101.2  T
   6    -43.4744140 -0.151424E-09  0.510E-05    2.46     352.4  T
     SCC iter.                  ...        0 min,  0.007 sec
     gradient                   ...        0 min,  0.012 sec
 * total energy  :   -42.6878019 Eh     change       -0.1355085E-05 Eh
   gradient norm :     0.0004654 Eh/α   predicted    -0.6965350E-06 ( -48.60%)
   displ. norm   :     0.0363111 α      lambda       -0.6771547E-06
   maximum displ.:     0.0174601 α      in ANC's #7, #3, #1, ...

........................................................................
.............................. CYCLE   37 ..............................
........................................................................

 iter      E             dE          RMSdq      gap      omega  full diag
   1    -43.4744438 -0.434744E+02  0.165E-02    2.46       0.0  T
   2    -43.4744438 -0.236428E-07  0.961E-03    2.46       1.9  T
   3    -43.4744438  0.110585E-07  0.949E-04    2.46      18.9  T
   4    -43.4744438 -0.198692E-07  0.284E-04    2.46      63.2  T
   5    -43.4744438 -0.307736E-09  0.864E-05    2.46     207.8  T
   6    -43.4744438 -0.385469E-10  0.277E-05    2.46     649.1  T
     SCC iter.                  ...        0 min,  0.007 sec
     gradient                   ...        0 min,  0.011 sec
 * total energy  :   -42.6878027 Eh     change       -0.7950034E-06 Eh
   gradient norm :     0.0003316 Eh/α   predicted    -0.3410593E-06 ( -57.10%)
   displ. norm   :     0.0375583 α      lambda       -0.8653553E-06
   maximum displ.:     0.0202560 α      in ANC's #7, #3, #2, ...

........................................................................
.............................. CYCLE   38 ..............................
........................................................................

 iter      E             dE          RMSdq      gap      omega  full diag
   1    -43.4744832 -0.434745E+02  0.172E-02    2.46       0.0  T
   2    -43.4744832 -0.246144E-07  0.100E-02    2.46       1.8  T
   3    -43.4744832  0.171287E-07  0.108E-03    2.46      16.6  T
   4    -43.4744833 -0.257864E-07  0.273E-04    2.46      65.8  T
   5    -43.4744833 -0.348493E-09  0.986E-05    2.46     182.1  T
   6    -43.4744833 -0.354632E-10  0.318E-05    2.46     564.5  T
     SCC iter.                  ...        0 min,  0.008 sec
     gradient                   ...        0 min,  0.011 sec
 * total energy  :   -42.6878037 Eh     change       -0.1041651E-05 Eh
   gradient norm :     0.0001066 Eh/α   predicted    -0.4379147E-06 ( -57.96%)
   displ. norm   :     0.0471726 α      lambda       -0.1002120E-05
   maximum displ.:     0.0262766 α      in ANC's #7, #3, #2, ...

........................................................................
.............................. CYCLE   39 ..............................
........................................................................

 iter      E             dE          RMSdq      gap      omega  full diag
   1    -43.4744706 -0.434745E+02  0.215E-02    2.46       0.0  T
   2    -43.4744706 -0.304906E-07  0.126E-02    2.46       1.4  T
   3    -43.4744706  0.213191E-07  0.120E-03    2.46      15.0  T
   4    -43.4744706 -0.323520E-07  0.300E-04    2.46      59.9  T
   5    -43.4744706 -0.434106E-09  0.115E-04    2.46     155.6  T
   6    -43.4744706 -0.464695E-10  0.369E-05    2.46     486.4  T
     SCC iter.                  ...        0 min,  0.007 sec
     gradient                   ...        0 min,  0.011 sec
 * total energy  :   -42.6878049 Eh     change       -0.1209660E-05 Eh
   gradient norm :     0.0003393 Eh/α   predicted    -0.5045384E-06 ( -58.29%)
   displ. norm   :     0.0557997 α      lambda       -0.1140649E-05
   maximum displ.:     0.0318959 α      in ANC's #7, #3, #2, ...

........................................................................
.............................. CYCLE   40 ..............................
........................................................................

 iter      E             dE          RMSdq      gap      omega  full diag
   1    -43.4744469 -0.434744E+02  0.251E-02    2.46       0.0  T
   2    -43.4744469 -0.284737E-07  0.147E-02    2.46       1.2  T
   3    -43.4744469  0.103573E-07  0.986E-04    2.46      18.2  T
   4    -43.4744469 -0.217570E-07  0.309E-04    2.46      58.1  T
   5    -43.4744469 -0.414985E-09  0.106E-04    2.46     170.1  T
   6    -43.4744469 -0.545768E-10  0.326E-05    2.46     550.8  T
     SCC iter.                  ...        0 min,  0.006 sec
     gradient                   ...        0 min,  0.016 sec
 * total energy  :   -42.6878064 Eh     change       -0.1460559E-05 Eh
   gradient norm :     0.0005169 Eh/α   predicted    -0.5741705E-06 ( -60.69%)
   displ. norm   :     0.0962209 α      lambda       -0.1941434E-05
   maximum displ.:     0.0534683 α      in ANC's #7, #3, #2, ...

........................................................................
.............................. CYCLE   41 ..............................
........................................................................

 iter      E             dE          RMSdq      gap      omega  full diag
   1    -43.4743334 -0.434743E+02  0.431E-02    2.46       0.0  T
   2    -43.4743335 -0.666463E-07  0.253E-02    2.46       1.0  T
   3    -43.4743335  0.941704E-09  0.120E-03    2.46      14.9  T
   4    -43.4743335 -0.290698E-07  0.480E-04    2.46      37.4  T
   5    -43.4743335 -0.100314E-08  0.148E-04    2.46     121.4  T
   6    -43.4743335 -0.133205E-09  0.446E-05    2.46     402.4  T
     SCC iter.                  ...        0 min,  0.007 sec
     gradient                   ...        0 min,  0.012 sec
 * total energy  :   -42.6878085 Eh     change       -0.2157556E-05 Eh
   gradient norm :     0.0005590 Eh/α   predicted    -0.9771274E-06 ( -54.71%)
   displ. norm   :     0.0749353 α      lambda       -0.1425282E-05
   maximum displ.:     0.0396251 α      in ANC's #7, #3, #2, ...

........................................................................
.............................. CYCLE   42 ..............................
........................................................................

 iter      E             dE          RMSdq      gap      omega  full diag
   1    -43.4743559 -0.434744E+02  0.333E-02    2.46       0.0  T
   2    -43.4743559 -0.331510E-07  0.195E-02    2.46       1.0  T
   3    -43.4743559 -0.154257E-08  0.835E-04    2.46      21.5  T
   4    -43.4743559 -0.143008E-07  0.322E-04    2.46      55.7  T
   5    -43.4743559 -0.164455E-09  0.845E-05    2.46     212.7  T
   6    -43.4743559 -0.745146E-10  0.294E-05    2.46     610.1  T
     SCC iter.                  ...        0 min,  0.006 sec
     gradient                   ...        0 min,  0.010 sec
 * total energy  :   -42.6878101 Eh     change       -0.1607424E-05 Eh
   gradient norm :     0.0003788 Eh/α   predicted    -0.7166822E-06 ( -55.41%)
   displ. norm   :     0.0472041 α      lambda       -0.9986677E-06
   maximum displ.:     0.0263024 α      in ANC's #3, #2, #7, ...
 * RMSD in coord.:     0.1713468 α      energy gain  -0.6639458E-04 Eh

generating ANC from exact Hessian ...
Using Lindh-Hessian (1995)
 Shifting diagonal of input Hessian by    9.3937236222142190E-003
 Lowest  eigenvalues of input Hessian
    0.000000    0.000000    0.000000    0.000000    0.000000    0.000000
    0.010000    0.010520    0.010582    0.011355    0.013361    0.014463
    0.018074    0.018280    0.019313    0.023006    0.024316    0.024958
 Highest eigenvalues
    1.893678    1.948983    2.000032    2.016345    2.045077    2.235763


........................................................................
.............................. CYCLE   43 ..............................
........................................................................

 iter      E             dE          RMSdq      gap      omega  full diag
   1    -43.4744548 -0.434745E+02  0.210E-02    2.46       0.0  T
   2    -43.4744549 -0.202755E-07  0.123E-02    2.46       1.5  T
   3    -43.4744548  0.259424E-07  0.120E-03    2.46      15.0  T
   4    -43.4744549 -0.350592E-07  0.191E-04    2.46      93.9  T
   5    -43.4744549 -0.139728E-09  0.999E-05    2.46     179.8  T
     SCC iter.                  ...        0 min,  0.005 sec
     gradient                   ...        0 min,  0.011 sec
 * total energy  :   -42.6878113 Eh     change       -0.1151379E-05 Eh
   gradient norm :     0.0001612 Eh/α   predicted     0.0000000E+00 (-100.00%)
   displ. norm   :     0.0086037 α      lambda       -0.2997857E-07
   maximum displ.:     0.0062868 α      in ANC's #3, #4, #1, ...

........................................................................
.............................. CYCLE   44 ..............................
........................................................................

 iter      E             dE          RMSdq      gap      omega  full diag
   1    -43.4744021 -0.434744E+02  0.323E-03    2.46       0.0  T
   2    -43.4744022 -0.270172E-08  0.189E-03    2.46       9.5  T
   3    -43.4744021  0.424411E-08  0.462E-04    2.46      38.9  T
   4    -43.4744022 -0.506098E-08  0.618E-05    2.46     290.6  T
   5    -43.4744022 -0.565166E-10  0.240E-05    2.46     748.6  T
     SCC iter.                  ...        0 min,  0.006 sec
     gradient                   ...        0 min,  0.012 sec
 * total energy  :   -42.6878118 Eh     change       -0.5574314E-06 Eh
   gradient norm :     0.0001130 Eh/α   predicted    -0.2111472E-06 ( -62.12%)
   displ. norm   :     0.0250656 α      lambda       -0.1022882E-05
   maximum displ.:     0.0160653 α      in ANC's #3, #4, #1, ...

........................................................................
.............................. CYCLE   45 ..............................
........................................................................

 iter      E             dE          RMSdq      gap      omega  full diag
   1    -43.4743625 -0.434744E+02  0.873E-03    2.46       0.0  T
   2    -43.4743626 -0.201999E-07  0.510E-03    2.46       3.5  T
   3    -43.4743625  0.366512E-07  0.137E-03    2.46      13.1  T
   4    -43.4743626 -0.437606E-07  0.165E-04    2.46     109.0  T
   5    -43.4743626 -0.388027E-09  0.651E-05    2.46     275.7  T
     SCC iter.                  ...        0 min,  0.006 sec
     gradient                   ...        0 min,  0.011 sec
 * total energy  :   -42.6878131 Eh     change       -0.1265256E-05 Eh
   gradient norm :     0.0002108 Eh/α   predicted    -0.5118146E-06 ( -59.55%)
   displ. norm   :     0.0372540 α      lambda       -0.1120366E-05
   maximum displ.:     0.0235500 α      in ANC's #3, #4, #1, ...

........................................................................
.............................. CYCLE   46 ..............................
........................................................................

 iter      E             dE          RMSdq      gap      omega  full diag
   1    -43.4744430 -0.434744E+02  0.132E-02    2.46       0.0  T
   2    -43.4744430 -0.443432E-07  0.773E-03    2.46       2.3  T
   3    -43.4744430  0.752189E-07  0.197E-03    2.46       9.1  T
   4    -43.4744431 -0.904041E-07  0.252E-04    2.46      71.2  T
   5    -43.4744431 -0.802217E-09  0.105E-04    2.46     171.6  T
   6    -43.4744431 -0.825651E-11  0.506E-05    2.46     355.3  T
     SCC iter.                  ...        0 min,  0.006 sec
     gradient                   ...        0 min,  0.011 sec
 * total energy  :   -42.6878143 Eh     change       -0.1191806E-05 Eh
   gradient norm :     0.0001572 Eh/α   predicted    -0.5630500E-06 ( -52.76%)
   displ. norm   :     0.0255979 α      lambda       -0.4382058E-06
   maximum displ.:     0.0164355 α      in ANC's #3, #1, #4, ...

........................................................................
.............................. CYCLE   47 ..............................
........................................................................

 iter      E             dE          RMSdq      gap      omega  full diag
   1    -43.4744708 -0.434745E+02  0.959E-03    2.46       0.0  T
   2    -43.4744708 -0.202957E-07  0.559E-03    2.46       3.2  T
   3    -43.4744708  0.330185E-07  0.130E-03    2.46      13.8  T
   4    -43.4744708 -0.400168E-07  0.188E-04    2.46      95.3  T
   5    -43.4744708 -0.377291E-09  0.786E-05    2.46     228.5  T
     SCC iter.                  ...        0 min,  0.007 sec
     gradient                   ...        0 min,  0.015 sec
 * total energy  :   -42.6878148 Eh     change       -0.4661678E-06 Eh
   gradient norm :     0.0001080 Eh/α   predicted    -0.2232095E-06 ( -52.12%)
   displ. norm   :     0.0255979 α      lambda        0.0000000E+00
   maximum displ.:     0.0164355 α      in ANC's #3, #1, #4, ...

........................................................................
.............................. CYCLE   48 ..............................
........................................................................

 iter      E             dE          RMSdq      gap      omega  full diag
   1    -43.4744884 -0.434745E+02  0.959E-03    2.46       0.0  T
   2    -43.4744884 -0.203786E-07  0.559E-03    2.46       3.2  T
   3    -43.4744884  0.325739E-07  0.129E-03    2.46      13.9  T
   4    -43.4744884 -0.395393E-07  0.187E-04    2.46      96.2  T
   5    -43.4744884 -0.359506E-09  0.784E-05    2.46     229.1  T
     SCC iter.                  ...        0 min,  0.006 sec
     gradient                   ...        0 min,  0.016 sec
 * total energy  :   -42.6878148 Eh     change       -0.6135549E-07 Eh
   gradient norm :     0.0001240 Eh/α   predicted     0.1620194E-08 (-102.64%)
   displ. norm   :     0.0056536 α      lambda       -0.2012437E-06
   maximum displ.:     0.0030476 α      in ANC's #5, #4, #2, ...

   *** GEOMETRY OPTIMIZATION CONVERGED AFTER 48 ITERATIONS ***

------------------------------------------------------------------------
 total energy gain   :        -0.0065337 Eh       -4.1000 kcal/mol
 total RMSD          :         0.6540019 a0        0.3461 Å
 total power (kW/mol):        -0.3573801 (step)  -13.4597 (real)
------------------------------------------------------------------------

 ANCopt (total)                0 d,  0 h,  0 min,  1.275 sec
 optimizer setup                ...        0 min,  0.001 sec (  0.042%)
 model hessian                  ...        0 min,  0.017 sec (  1.304%)
 ANC generation                 ...        0 min,  0.003 sec (  0.250%)
 coordinate transformation      ...        0 min,  0.001 sec (  0.039%)
 single point calculation       ...        0 min,  1.236 sec ( 96.990%)
 optimization log               ...        0 min,  0.009 sec (  0.743%)
 hessian update                 ...        0 min,  0.001 sec (  0.069%)
 rational function              ...        0 min,  0.005 sec (  0.386%)

================
 final structure:
================
31
 xtb: 6.7.1 (edcfbbe)
C           -0.55571374739967       -1.37332884056050       -1.62623697459486
C           -0.20011985132895       -0.37566938592167       -0.55601113802642
N           -1.05459243925385        0.18612265127451        0.19475652025625
C           -2.40862531663647       -0.03991897454989        0.24842091669423
C           -2.92897493494746       -1.20165637059949        0.82678295774102
C           -4.29275769494546       -1.34980179281116        0.98807049225500
C           -5.16244578391870       -0.35512037602696        0.57181655080257
C           -4.65358432556788        0.80077518589054        0.00016571506775
C           -3.29185039912987        0.96641873850422       -0.15327895492805
C            1.21007523545965       -0.00189130346284       -0.38236796865573
C            2.24050911233664       -0.62706572853936       -1.08369025261491
C            3.55533167760369       -0.24342191050001       -0.89471656049716
C            3.88805015109081        0.77238526768261       -0.00733300771760
C            5.31216749347763        1.18280477547744        0.20598149116784
C            2.85982701719892        1.39366783699427        0.69757052877247
C            1.54732796656325        1.01473716882529        0.51595776496822
H           -0.15909720401958       -1.05246465050301       -2.58788854973145
H           -1.63747573936733       -1.46973048000209       -1.70251382481798
H           -0.13415743369291       -2.34819573470361       -1.38422709032499
H           -2.24860682765358       -1.97500900423448        1.15595681914736
H           -4.68017312262773       -2.25377704227956        1.43744721924759
H           -6.22860420815064       -0.47805500979174        0.69448752506592
H           -5.32523141346670        1.58252425171471       -0.32640648447937
H           -2.89116419887666        1.86609056179842       -0.59818606923377
H            2.02765644216666       -1.42306280562021       -1.78042421193183
H            4.33739675913484       -0.74294067843356       -1.44968990532420
H            5.39657701452839        2.26707497961610        0.25236663273332
H            5.95073053735728        0.81207073251766       -0.59228243496036
H            5.67727651620695        0.78013813359013        1.15169124146048
H            3.09712655249171        2.18555454181108        1.39423567279022
H            0.75312216546675        1.50074526284548        1.06151306586871

 Bond Distances (Angstroems)
 ---------------------------
C1-C2=1.5057         C1-H17=1.0886        C1-H18=1.0887        C1-H19=1.0893        C2-C1=1.5057         C2-N3=1.2686         
C2-C10=1.4692        N3-C2=1.2686         N3-C4=1.3738         C4-N3=1.3738         C4-C5=1.3982         C4-C9=1.3979         
C5-C4=1.3982         C5-C6=1.3813         C5-H20=1.0814        C6-C5=1.3813         C6-C7=1.3853         C6-H21=1.0813        
C7-C6=1.3853         C7-C8=1.3863         C7-H22=1.0802        C8-C7=1.3863         C8-C9=1.3803         C8-H23=1.0812        
C9-C4=1.3979         C9-C8=1.3803         C9-H24=1.0807        C10-C2=1.4692        C10-C11=1.3944       C10-C16=1.3979       
C11-C10=1.3944       C11-C12=1.3826       C11-H25=1.0791       C12-C11=1.3826       C12-C13=1.3893       C12-H26=1.0813       
C13-C12=1.3893       C13-C14=1.4974       C13-C15=1.3929       C14-C13=1.4974       C14-H27=1.0885       C14-H28=1.0874       
C14-H29=1.0908       C15-C13=1.3929       C15-C16=1.3781       C15-H30=1.0811       C16-C10=1.3979       C16-C15=1.3781       
C16-H31=1.0792       H17-C1=1.0886        H18-C1=1.0887        H19-C1=1.0893        H20-C5=1.0814        H21-C6=1.0813        
H22-C7=1.0802        H23-C8=1.0812        H24-C9=1.0807        H25-C11=1.0791       H26-C12=1.0813       H27-C14=1.0885       
H28-C14=1.0874       H29-C14=1.0908       H30-C15=1.0811       H31-C16=1.0792       
 C  H  Rav=1.0839 sigma=0.0042  Rmin=1.0791  Rmax=1.0908    15
 C  C  Rav=1.4091 sigma=0.0419  Rmin=1.3781  Rmax=1.5057    15
 N  C  Rav=1.3212 sigma=0.0526  Rmin=1.2686  Rmax=1.3738     2

 selected bond angles (degree)
 --------------------
H17-C1-C2=110.28               H18-C1-C2=110.07               H18-C1-H17=109.04              H19-C1-C2=110.10               
H19-C1-H17=108.61              H19-C1-H18=108.71              N3-C2-C1=123.71                C10-C2-C1=118.64               
C10-C2-N3=117.64               C4-N3-C2=127.89                C5-C4-N3=121.31                C9-C4-N3=119.54                
C9-C4-C5=118.81                C6-C5-C4=120.32                H20-C5-C4=119.08               H20-C5-C6=120.60               
C7-C6-C5=120.51                H21-C6-C5=119.47               H21-C6-C7=120.02               C8-C7-C6=119.48                
H22-C7-C6=120.25               H22-C7-C8=120.27               C9-C8-C7=120.53                H23-C8-C7=119.96               
H23-C8-C9=119.51               C8-C9-C4=120.33                H24-C9-C4=118.90               H24-C9-C8=120.76               
C11-C10-C2=122.40              C16-C10-C2=119.51              C16-C10-C11=118.10             

 selected dihedral angles (degree)
 ---------------------------------
N3-C2-C1-H17=124.80           N3-C2-C1-H18=  4.45           N3-C2-C1-H19=244.63           C10-C2-C1-H17=306.21          
C10-C2-C1-H18=185.87          C10-C2-C1-H19= 66.04          C4-N3-C2-C1=  4.11            C4-N3-C2-C10=182.71           
C5-C4-N3-C2= 73.49            C9-C4-N3-C2=246.71            C6-C5-C4-N3=173.66            C6-C5-C4-C9=  0.39            
H20-C5-C4-N3=354.39           H20-C5-C4-C9=181.13           C7-C6-C5-C4=  0.43            C7-C6-C5-H20=179.68           
H21-C6-C5-C4=180.03           H21-C6-C5-H20=359.28          C8-C7-C6-C5=359.44            C8-C7-C6-H21=179.84           
H22-C7-C6-C5=179.62           H22-C7-C6-H21=  0.00          C9-C8-C7-C6=359.87            C9-C8-C7-H22=179.68           
H23-C8-C7-C6=180.07           H23-C8-C7-H22=359.89          C8-C9-C4-N3=185.53            C8-C9-C4-C5=358.92            
H24-C9-C4-N3=  6.46           H24-C9-C4-C5=179.85           C4-C9-C8-C7=  0.96            C4-C9-C8-H23=180.76           
H24-C9-C8-C7=180.02           H24-C9-C8-H23=359.81          C11-C10-C2-C1=353.84          C11-C10-C2-N3=175.17          
C16-C10-C2-C1=173.91          C16-C10-C2-N3=355.24          
           -------------------------------------------------
          |                Final Singlepoint                |
           -------------------------------------------------

          ...................................................
          :                      SETUP                      :
          :.................................................:
          :  # basis functions                  79          :
          :  # atomic orbitals                  79          :
          :  # shells                           47          :
          :  # electrons                        80          :
          :  max. iterations                   250          :
          :  Hamiltonian                  GFN2-xTB          :
          :  restarted?                      false          :
          :  GBSA solvation                   true          :
          :  PC potential                    false          :
          :  electronic temp.          300.0000000     K    :
          :  accuracy                    0.2000000          :
          :  -> integral cutoff          0.3198970E+02      :
          :  -> integral neglect         0.2000000E-08      :
          :  -> SCF convergence          0.2000000E-06 Eh   :
          :  -> wf. convergence          0.2000000E-04 e    :
          :  Broyden damping             0.4000000          :
          :  net charge                          0          :
          :  unpaired electrons                  0          :
          ...................................................

 iter      E             dE          RMSdq      gap      omega  full diag
   1    -43.4744884 -0.434745E+02  0.347E-05    2.46       0.0  T
   2    -43.4744884 -0.123350E-10  0.220E-05    2.46     814.6  T
   3    -43.4744884 -0.101466E-10  0.968E-06    2.46    1855.2  T

   *** convergence criteria satisfied after 3 iterations ***

         #    Occupation            Energy/Eh            Energy/eV
      -------------------------------------------------------------
         1        2.0000           -0.6515035             -17.7283
       ...           ...                  ...                  ...
        34        2.0000           -0.4181455             -11.3783
        35        2.0000           -0.4147911             -11.2870
        36        2.0000           -0.4086096             -11.1188
        37        2.0000           -0.4047272             -11.0132
        38        2.0000           -0.3973217             -10.8117
        39        2.0000           -0.3874983             -10.5444
        40        2.0000           -0.3546634              -9.6509 (HOMO)
        41                         -0.2643305              -7.1928 (LUMO)
        42                         -0.2217269              -6.0335
        43                         -0.2150277              -5.8512
        44                         -0.2075118              -5.6467
        45                         -0.1814200              -4.9367
       ...                                ...                  ...
        79                          0.7006861              19.0666
      -------------------------------------------------------------
                  HL-Gap            0.0903328 Eh            2.4581 eV
             Fermi-level           -0.3094969 Eh           -8.4218 eV

 SCC (total)                   0 d,  0 h,  0 min,  0.022 sec
 SCC setup                      ...        0 min,  0.001 sec (  5.665%)
 Dispersion                     ...        0 min,  0.000 sec (  1.871%)
 classical contributions        ...        0 min,  0.000 sec (  0.502%)
 integral evaluation            ...        0 min,  0.004 sec ( 19.470%)
 iterations                     ...        0 min,  0.004 sec ( 18.171%)
 molecular gradient             ...        0 min,  0.012 sec ( 53.072%)
 printout                       ...        0 min,  0.000 sec (  1.060%)

         :::::::::::::::::::::::::::::::::::::::::::::::::::::
         ::                     SUMMARY                     ::
         :::::::::::::::::::::::::::::::::::::::::::::::::::::
         :: total energy             -42.687814825454 Eh    ::
         :: total w/o Gsasa/hb       -42.668342939266 Eh    ::
         :: gradient norm              0.000126698427 Eh/a0 ::
         :: HOMO-LUMO gap              2.458081553495 eV    ::
         ::.................................................::
         :: SCC energy               -43.474640674033 Eh    ::
         :: -> isotropic ES            0.012050830145 Eh    ::
         :: -> anisotropic ES          0.006349871800 Eh    ::
         :: -> anisotropic XC          0.030983307448 Eh    ::
         :: -> dispersion             -0.029848936486 Eh    ::
         :: -> Gsolv                  -0.020503307730 Eh    ::
         ::    -> Gelec               -0.001031421542 Eh    ::
         ::    -> Gsasa               -0.023620583549 Eh    ::
         ::    -> Ghb                  0.000000000000 Eh    ::
         ::    -> Gshift               0.004148697361 Eh    ::
         :: repulsion energy           0.786825848580 Eh    ::
         :: add. restraining           0.000000000000 Eh    ::
         :: total charge               0.000000000000 e     ::
         :::::::::::::::::::::::::::::::::::::::::::::::::::::

           -------------------------------------------------
          |                Property Printout                |
           -------------------------------------------------

    * Orbital Energies and Occupations

         #    Occupation            Energy/Eh            Energy/eV
      -------------------------------------------------------------
         1        2.0000           -0.6515035             -17.7283
       ...           ...                  ...                  ...
        28        2.0000           -0.4653886             -12.6639
        29        2.0000           -0.4604134             -12.5285
        30        2.0000           -0.4573273             -12.4445
        31        2.0000           -0.4411633             -12.0047
        32        2.0000           -0.4315399             -11.7428
        33        2.0000           -0.4302605             -11.7080
        34        2.0000           -0.4181455             -11.3783
        35        2.0000           -0.4147911             -11.2870
        36        2.0000           -0.4086096             -11.1188
        37        2.0000           -0.4047272             -11.0132
        38        2.0000           -0.3973217             -10.8117
        39        2.0000           -0.3874983             -10.5444
        40        2.0000           -0.3546634              -9.6509 (HOMO)
        41                         -0.2643305              -7.1928 (LUMO)
        42                         -0.2217269              -6.0335
        43                         -0.2150277              -5.8512
        44                         -0.2075118              -5.6467
        45                         -0.1814200              -4.9367
        46                         -0.0842069              -2.2914
        47                         -0.0802743              -2.1844
        48                          0.0765595               2.0833
        49                          0.1054037               2.8682
        50                          0.1117464               3.0408
        51                          0.1304880               3.5508
       ...                                ...                  ...
        79                          0.7006861              19.0666
      -------------------------------------------------------------
                  HL-Gap            0.0903328 Eh            2.4581 eV
             Fermi-level           -0.3094969 Eh           -8.4218 eV

     #   Z          covCN         q      C6AA      α(0)
     1   6 C        3.755    -0.116    22.781     6.806
     2   6 C        2.898     0.112    25.521     8.283
     3   7 N        1.848    -0.224    26.726     7.662
     4   6 C        2.922     0.084    26.138     8.384
     5   6 C        2.922    -0.052    29.301     8.877
     6   6 C        2.919    -0.033    28.822     8.804
     7   6 C        2.919    -0.044    29.099     8.846
     8   6 C        2.919    -0.033    28.812     8.802
     9   6 C        2.924    -0.050    29.250     8.869
    10   6 C        2.982    -0.003    28.102     8.696
    11   6 C        2.921    -0.034    28.854     8.809
    12   6 C        2.923    -0.041    29.012     8.833
    13   6 C        2.966     0.023    27.488     8.600
    14   6 C        3.757    -0.112    22.691     6.791
    15   6 C        2.923    -0.039    28.958     8.825
    16   6 C        2.924    -0.028    28.703     8.786
    17   1 H        0.925     0.055     2.261     2.351
    18   1 H        0.925     0.042     2.417     2.431
    19   1 H        0.925     0.056     2.241     2.341
    20   1 H        0.925     0.022     2.702     2.571
    21   1 H        0.925     0.025     2.661     2.551
    22   1 H        0.926     0.023     2.690     2.565
    23   1 H        0.926     0.026     2.647     2.544
    24   1 H        0.926     0.027     2.633     2.537
    25   1 H        0.926     0.040     2.449     2.447
    26   1 H        0.925     0.035     2.515     2.480
    27   1 H        0.925     0.050     2.316     2.380
    28   1 H        0.925     0.047     2.363     2.404
    29   1 H        0.924     0.054     2.270     2.356
    30   1 H        0.926     0.037     2.486     2.466
    31   1 H        0.926     0.051     2.308     2.376

 Mol. C6AA /au·bohr⁶  :      11515.573077
 Mol. C8AA /au·bohr⁸  :     279736.379558
 Mol. α(0) /au        :        171.472100


Wiberg/Mayer (AO) data.
largest (>0.10) Wiberg bond orders for each atom

 ---------------------------------------------------------------------------
     #   Z sym  total        # sym  WBO       # sym  WBO       # sym  WBO
 ---------------------------------------------------------------------------
     1   6 C    3.996 --     2 C    1.008    18 H    0.982    17 H    0.968
                            19 H    0.964
     2   6 C    3.964 --     3 N    1.760    10 C    1.063     1 C    1.008
     3   7 N    3.226 --     2 C    1.760     4 C    1.137
     4   6 C    3.976 --     9 C    1.341     5 C    1.340     3 N    1.137
     5   6 C    3.985 --     6 C    1.457     4 C    1.340    20 H    0.971
                             8 C    0.104
     6   6 C    3.992 --     5 C    1.457     7 C    1.431    21 H    0.970
                             9 C    0.105
     7   6 C    3.990 --     6 C    1.431     8 C    1.425    22 H    0.972
     8   6 C    3.992 --     9 C    1.464     7 C    1.425    23 H    0.971
                             5 C    0.104
     9   6 C    3.986 --     8 C    1.464     4 C    1.341    24 H    0.971
                             6 C    0.105
    10   6 C    3.988 --    11 C    1.382    16 C    1.363     2 C    1.063
    11   6 C    3.986 --    12 C    1.456    10 C    1.382    25 H    0.967
                            15 C    0.102
    12   6 C    3.991 --    11 C    1.456    13 C    1.407    26 H    0.969
                            16 C    0.102
    13   6 C    3.984 --    12 C    1.407    15 C    1.390    14 C    1.029
    14   6 C    3.995 --    13 C    1.029    28 H    0.984    27 H    0.976
                            29 H    0.965
    15   6 C    3.992 --    16 C    1.477    13 C    1.390    30 H    0.969
                            11 C    0.102
    16   6 C    3.989 --    15 C    1.477    10 C    1.363    31 H    0.966
                            12 C    0.102
    17   1 H    0.997 --     1 C    0.968
    18   1 H    0.998 --     1 C    0.982
    19   1 H    0.996 --     1 C    0.964
    20   1 H    0.999 --     5 C    0.971
    21   1 H    0.999 --     6 C    0.970
    22   1 H    0.999 --     7 C    0.972
    23   1 H    0.998 --     8 C    0.971
    24   1 H    0.999 --     9 C    0.971
    25   1 H    0.998 --    11 C    0.967
    26   1 H    0.998 --    12 C    0.969
    27   1 H    0.996 --    14 C    0.976
    28   1 H    0.997 --    14 C    0.984
    29   1 H    0.995 --    14 C    0.965
    30   1 H    0.998 --    15 C    0.969
    31   1 H    0.997 --    16 C    0.966
 ---------------------------------------------------------------------------

Topologies differ in total number of bonds
Writing topology from bond orders to xtbtopo.mol

molecular dipole:
                 x           y           z       tot (Debye)
 q only:        1.261      -0.090      -0.355
   full:        1.164      -0.312      -0.532       3.348
molecular quadrupole (traceless):
                xx          xy          yy          xz          yz          zz
 q only:        2.678       2.171      -0.772       1.504       2.152      -1.905
  q+dip:        5.513       2.213      -0.196       0.951       2.679      -5.318
   full:        3.125       2.225      -0.300       1.633       1.677      -2.825

           -------------------------------------------------
          |                Geometry Summary                 |
           -------------------------------------------------

      molecular mass/u    :      209.2868530
   center of mass at/Å    :       -0.2169514       0.0411540      -0.0399710
  moments of inertia/u·Å² :        0.2739872E+03   0.2341684E+04   0.2463772E+04
rotational constants/cm⁻¹ :        0.6152708E-01   0.7198936E-02   0.6842205E-02

 * 29 selected distances

     #   Z          #   Z                                           value/Å
     2   6 C        3   7 N                                       1.2686158
     3   7 N        4   6 C                                       1.3738195
     4   6 C        5   6 C                                       1.3981776 (max)
     5   6 C        6   6 C                                       1.3812547
     6   6 C        7   6 C                                       1.3852856
     7   6 C        8   6 C                                       1.3862971
     4   6 C        9   6 C                                       1.3979146
     8   6 C        9   6 C                                       1.3803270
    10   6 C       11   6 C                                       1.3944498
    11   6 C       12   6 C                                       1.3826252
    12   6 C       13   6 C                                       1.3892501
    13   6 C       15   6 C                                       1.3928834
    10   6 C       16   6 C                                       1.3979493
    15   6 C       16   6 C                                       1.3781240
     1   6 C       17   1 H                                       1.0885920
     1   6 C       18   1 H                                       1.0887243
     1   6 C       19   1 H                                       1.0893320
     5   6 C       20   1 H                                       1.0813560
     6   6 C       21   1 H                                       1.0812963
     7   6 C       22   1 H                                       1.0802107
     8   6 C       23   1 H                                       1.0811526
     9   6 C       24   1 H                                       1.0806949
    11   6 C       25   1 H                                       1.0790533 (min)
    12   6 C       26   1 H                                       1.0812680
    14   6 C       27   1 H                                       1.0885397
    14   6 C       28   1 H                                       1.0873969
    14   6 C       29   1 H                                       1.0907851
    15   6 C       30   1 H                                       1.0810819
    16   6 C       31   1 H                                       1.0791652

 * 3 distinct bonds (by element types)

   Z      Z             #   av. dist./Å        max./Å        min./Å
   1 H    6 C          15     1.0839099     1.0907851     1.0790533
   6 C    6 C          12     1.3887115     1.3981776     1.3781240
   6 C    7 N           2     1.3212177     1.3738195     1.2686158


optimized geometry written to: xtbopt.xyz


           -------------------------------------------------
          | TOTAL ENERGY              -42.687814825454 Eh   |
          | GRADIENT NORM               0.000126698427 Eh/α |
          | HOMO-LUMO GAP               2.458081553495 eV   |
           -------------------------------------------------

------------------------------------------------------------------------
 * finished run on 2026/09/10 at 23:03:25.364     
Note: The following floating-point exceptions are signalling: IEEE_DIVIDE_BY_ZERO IEEE_UNDERFLOW_FLAG IEEE_DENORMAL
normal termination of xtb
------------------------------------------------------------------------
 total:
 * wall-time:     0 d,  0 h,  0 min,  1.381 sec
 *  cpu-time:     0 d,  0 h,  0 min,  0.219 sec
 * ratio c/w:     0.158 speedup
 SCF:
 * wall-time:     0 d,  0 h,  0 min,  0.042 sec
 *  cpu-time:     0 d,  0 h,  0 min,  0.000 sec
 * ratio c/w:     0.000 speedup
 ANC optimizer:
 * wall-time:     0 d,  0 h,  0 min,  1.302 sec
 *  cpu-time:     0 d,  0 h,  0 min,  0.219 sec
 * ratio c/w:     0.168 speedup

