31
 xtb: 6.7.1 (edcfbbe)
C           -0.55890378778485       -1.36477224694214       -1.63369019502263
C           -0.20072142400768       -0.37361381796664       -0.55822578406068
N           -1.05369121131699        0.18444625458736        0.19702066255521
C           -2.40804415263690       -0.04048701379486        0.25006521631565
C           -2.92882697612723       -1.20162938417749        0.82921768949397
C           -4.29271678102290       -1.34949746800485        0.98976660319390
C           -5.16206395575522       -0.35506582859171        0.57215357972065
C           -4.65272560032196        0.80028262155174       -0.00015422590353
C           -3.29086366337498        0.96558490262844       -0.15307039125354
C            1.21010202291392       -0.00236742997050       -0.38449801588166
C            2.23745325877364       -0.61764847386015       -1.09729127269315
C            3.55451814582064       -0.23845415011354       -0.90609173837783
C            3.89068514867793        0.76129985745362       -0.00426471192162
C            5.30850136679167        1.19452433461926        0.20724819336392
C            2.86344471458206        1.37536935584102        0.71180703094936
C            1.55094120447377        1.00202419880814        0.52785987245088
H           -0.16220999551294       -1.04731863285624       -2.59007227537029
H           -1.63843432289435       -1.46831870533363       -1.70295081295943
H           -0.13346800816217       -2.34574678378440       -1.38937334633646
H           -2.24864314705153       -1.97495442035170        1.15691278734920
H           -4.68026954854015       -2.25355024345059        1.43810719344379
H           -6.22852021472130       -0.47795746647170        0.69442478974115
H           -5.32489422383862        1.58232842213976       -0.32683022972091
H           -2.89076590336465        1.86572556002503       -0.59830484362894
H            2.02617775854798       -1.41743655764255       -1.78750286635116
H            4.33592390846297       -0.73976055517875       -1.45624014571309
H            5.40785945271694        2.27651958489477        0.10281428209435
H            5.97604216154711        0.69640978402565       -0.51539804197458
H            5.63338771472216        0.91483836313836        1.22398470223358
H            3.09974093839175        2.17704158512740        1.40147582228092
H            0.75468770061327        1.49485925538884        1.06765835636449
