31
 energy: -42.687814825454 gnorm: 0.000126698427 xtb: 6.7.1 (edcfbbe)
C           -0.55571374739967       -1.37332884056050       -1.62623697459486
C           -0.20011985132895       -0.37566938592167       -0.55601113802642
N           -1.05459243925385        0.18612265127451        0.19475652025625
C           -2.40862531663647       -0.03991897454989        0.24842091669423
C           -2.92897493494746       -1.20165637059949        0.82678295774102
C           -4.29275769494546       -1.34980179281116        0.98807049225500
C           -5.16244578391870       -0.35512037602696        0.57181655080257
C           -4.65358432556788        0.80077518589054        0.00016571506775
C           -3.29185039912987        0.96641873850422       -0.15327895492805
C            1.21007523545965       -0.00189130346284       -0.38236796865573
C            2.24050911233664       -0.62706572853936       -1.08369025261491
C            3.55533167760369       -0.24342191050001       -0.89471656049716
C            3.88805015109081        0.77238526768261       -0.00733300771760
C            5.31216749347763        1.18280477547744        0.20598149116784
C            2.85982701719892        1.39366783699427        0.69757052877247
C            1.54732796656325        1.01473716882529        0.51595776496822
H           -0.15909720401958       -1.05246465050301       -2.58788854973145
H           -1.63747573936733       -1.46973048000209       -1.70251382481798
H           -0.13415743369291       -2.34819573470361       -1.38422709032499
H           -2.24860682765358       -1.97500900423448        1.15595681914736
H           -4.68017312262773       -2.25377704227956        1.43744721924759
H           -6.22860420815064       -0.47805500979174        0.69448752506592
H           -5.32523141346670        1.58252425171471       -0.32640648447937
H           -2.89116419887666        1.86609056179842       -0.59818606923377
H            2.02765644216666       -1.42306280562021       -1.78042421193183
H            4.33739675913484       -0.74294067843356       -1.44968990532420
H            5.39657701452839        2.26707497961610        0.25236663273332
H            5.95073053735728        0.81207073251766       -0.59228243496036
H            5.67727651620695        0.78013813359013        1.15169124146048
H            3.09712655249171        2.18555454181108        1.39423567279022
H            0.75312216546675        1.50074526284548        1.06151306586871
