 Entering Gaussian System
 *********************************************
 Gaussian 98:
 frequency output generated by the xtb code
 *********************************************
                         Standard orientation:
 --------------------------------------------------------------------
  Center     Atomic     Atomic              Coordinates (Angstroms)
  Number     Number      Type              X           Y           Z
 --------------------------------------------------------------------
    1          6             0       -0.213980   -0.412000   -1.862035
    2          6             0       -0.461044   -0.059436   -0.418889
    3          7             0        0.458514    0.201022    0.413991
    4          6             0        1.816266    0.123614    0.222318
    5          6             0        2.458381   -1.106441    0.050472
    6          6             0        3.836911   -1.170548   -0.008335
    7          6             0        4.598624   -0.017458    0.087957
    8          6             0        3.968340    1.205659    0.258519
    9          6             0        2.592350    1.280310    0.337218
   10          6             0       -1.851062    0.021868    0.058626
   11          6             0       -2.930140   -0.400263   -0.718013
   12          6             0       -4.222058   -0.313934   -0.230349
   13          6             0       -4.461356    0.195677    1.034865
   14          6             0       -3.396814    0.617205    1.817035
   15          6             0       -2.106166    0.529863    1.335008
   16          1             0       -0.502919   -1.445560   -2.049889
   17          1             0       -0.798305    0.235027   -2.514007
   18          1             0        0.842071   -0.297490   -2.100248
   19          1             0        1.861226   -2.005271   -0.017498
   20          1             0        4.320319   -2.128897   -0.138358
   21          1             0        5.676117   -0.071235    0.033931
   22          1             0        4.556496    2.109414    0.335592
   23          1             0        2.096313    2.230752    0.470782
   24          1             0       -2.772172   -0.807891   -1.704707
   25          1             0       -5.047692   -0.647235   -0.842871
   26          1             0       -5.472208    0.263342    1.410037
   27          1             0       -3.576872    1.015109    2.805304
   28          1             0       -1.269138    0.854794    1.933544
 --------------------------------------------------------------------
     1 basis functions        1 primitive gaussians
     1 alpha electrons        1 beta electrons

 Harmonic frequencies (cm**-1), IR intensities (km*mol⁻¹),
 Raman scattering activities (A**4/amu), Raman depolarization ratios,
 reduced masses (AMU), force constants (mDyne/A) and normal coordinates:
                      1                      2                      3
                        a                      a                      a 
 Frequencies --    20.7275                44.7654                54.5613
 Red. masses --     9.5765                 9.8504                10.9617
 Frc consts  --     0.0000                 0.0000                 0.0000
 IR Inten    --     0.1539                 0.6197                 1.1846
 Raman Activ --     0.0000                 0.0000                 0.0000
 Depolar     --     0.0000                 0.0000                 0.0000
 Atom AN      X      Y      Z        X      Y      Z        X      Y      Z
   1   6    -0.01   0.13  -0.03     0.04   0.49  -0.06    -0.08  -0.22  -0.10
   2   6     0.00   0.04  -0.00     0.01   0.24  -0.00    -0.03   0.10  -0.17
   3   7     0.00  -0.01   0.01     0.00   0.06   0.06    -0.01   0.39  -0.29
   4   6    -0.00  -0.01   0.01     0.00   0.01   0.03    -0.02   0.21  -0.16
   5   6    -0.03   0.01  -0.25    -0.07  -0.05   0.25    -0.16   0.13  -0.10
   6   6    -0.03  -0.01  -0.25    -0.08  -0.14   0.23    -0.16  -0.07   0.12
   7   6    -0.00  -0.05  -0.00    -0.01  -0.16  -0.02    -0.01  -0.18   0.28
   8   6     0.02  -0.07   0.26     0.06  -0.10  -0.25     0.13  -0.09   0.19
   9   6     0.03  -0.05   0.27     0.06  -0.01  -0.23     0.13   0.10  -0.02
  10   6     0.00   0.02   0.00     0.00   0.12  -0.01    -0.00   0.08  -0.09
  11   6     0.04  -0.31   0.13     0.06  -0.06   0.01    -0.05   0.05  -0.02
  12   6     0.04  -0.33   0.13     0.05  -0.25   0.03    -0.01  -0.08   0.11
  13   6     0.00  -0.02  -0.00    -0.01  -0.26   0.02     0.07  -0.19   0.17
  14   6    -0.03   0.31  -0.13    -0.07  -0.06  -0.01     0.12  -0.14   0.09
  15   6    -0.03   0.33  -0.13    -0.06   0.13  -0.02     0.07  -0.00  -0.05
  16   1     0.06   0.02  -0.01     0.05   0.14  -0.06    -0.04  -0.07   0.03
  17   1    -0.06   0.00   0.01    -0.01   0.15   0.01    -0.02  -0.09  -0.06
  18   1    -0.01   0.10  -0.03     0.01   0.19  -0.01    -0.02  -0.09  -0.04
  19   1    -0.01   0.01  -0.13    -0.04  -0.01   0.12    -0.08   0.06  -0.06
  20   1    -0.01   0.00  -0.13    -0.04  -0.06   0.11    -0.08  -0.04   0.05
  21   1    -0.00  -0.02  -0.00    -0.00  -0.07  -0.01    -0.00  -0.10   0.13
  22   1     0.01  -0.03   0.13     0.03  -0.03  -0.13     0.07  -0.05   0.09
  23   1     0.01  -0.02   0.13     0.03   0.01  -0.12     0.07   0.05  -0.02
  24   1     0.02  -0.16   0.07     0.03  -0.02   0.01    -0.03   0.04  -0.02
  25   1     0.02  -0.17   0.07     0.03  -0.12   0.02    -0.01  -0.03   0.05
  26   1    -0.00  -0.01  -0.00    -0.00  -0.12   0.01     0.03  -0.09   0.08
  27   1    -0.02   0.16  -0.07    -0.03  -0.02  -0.01     0.05  -0.06   0.04
  28   1    -0.02   0.17  -0.07    -0.03   0.08  -0.01     0.03   0.01  -0.03
                      4                      5                      6
                        a                      a                      a 
 Frequencies --    66.7357               148.0601               174.2174
 Red. masses --    10.5178                10.0039                10.0965
 Frc consts  --     0.0000                 0.0000                 0.0000
 IR Inten    --     1.5177                 0.8113                 1.1110
 Raman Activ --     0.0000                 0.0000                 0.0000
 Depolar     --     0.0000                 0.0000                 0.0000
 Atom AN      X      Y      Z        X      Y      Z        X      Y      Z
   1   6     0.16  -0.20   0.28     0.15  -0.19  -0.00    -0.24  -0.11   0.11
   2   6     0.06   0.06   0.20     0.02   0.07  -0.09    -0.04   0.07   0.11
   3   7     0.02   0.31   0.20    -0.07  -0.09   0.05     0.13  -0.07  -0.03
   4   6     0.01   0.17   0.13    -0.06  -0.15   0.17     0.12  -0.11  -0.16
   5   6    -0.15   0.10  -0.01     0.01  -0.11   0.15     0.22  -0.06  -0.19
   6   6    -0.17  -0.05  -0.23     0.01   0.02  -0.05     0.25   0.01  -0.02
   7   6    -0.03  -0.13  -0.30    -0.08   0.09  -0.18     0.20   0.03   0.15
   8   6     0.13  -0.08  -0.12    -0.15   0.03  -0.00     0.11  -0.00   0.02
   9   6     0.15   0.07   0.10    -0.14  -0.10   0.19     0.09  -0.08  -0.16
  10   6     0.02   0.04   0.08    -0.00   0.30  -0.20    -0.05   0.22   0.12
  11   6     0.11   0.03  -0.04    -0.03   0.28  -0.14     0.01   0.19   0.03
  12   6     0.06  -0.03  -0.16     0.03  -0.04   0.06    -0.03  -0.04  -0.06
  13   6    -0.09  -0.09  -0.16     0.11  -0.29   0.18    -0.19  -0.21  -0.03
  14   6    -0.17  -0.09  -0.04     0.12  -0.02   0.02    -0.29  -0.01   0.01
  15   6    -0.12  -0.03   0.08     0.06   0.29  -0.18    -0.23   0.21   0.09
  16   1     0.05  -0.07   0.13    -0.02  -0.05   0.04    -0.19  -0.00   0.05
  17   1     0.05  -0.10   0.04     0.11  -0.05  -0.06     0.00   0.03   0.03
  18   1     0.05  -0.06   0.09     0.06  -0.14   0.04    -0.06  -0.16   0.02
  19   1    -0.07   0.05   0.01     0.02  -0.05   0.06     0.09  -0.03  -0.08
  20   1    -0.08  -0.03  -0.10     0.02   0.02  -0.03     0.09   0.01   0.00
  21   1    -0.01  -0.07  -0.14    -0.03   0.05  -0.11     0.06   0.02   0.10
  22   1     0.07  -0.04  -0.04    -0.06   0.02  -0.01     0.01   0.01   0.03
  23   1     0.08   0.03   0.07    -0.06  -0.04   0.08     0.01  -0.03  -0.06
  24   1     0.06   0.02  -0.01    -0.02   0.12  -0.06     0.03   0.08   0.00
  25   1     0.04  -0.01  -0.08     0.00  -0.04   0.04     0.02  -0.04  -0.04
  26   1    -0.04  -0.04  -0.07     0.05  -0.19   0.11    -0.06  -0.13  -0.01
  27   1    -0.08  -0.04  -0.01     0.05  -0.03   0.02    -0.12  -0.02   0.00
  28   1    -0.06  -0.01   0.05     0.02   0.12  -0.08    -0.09   0.09   0.05
                      7                      8                      9
                        a                      a                      a 
 Frequencies --   201.0982               246.0037               295.9331
 Red. masses --     2.0244                 9.9942                10.1265
 Frc consts  --     0.0000                 0.0000                 0.0000
 IR Inten    --     0.7394                 0.9814                 0.1525
 Raman Activ --     0.0000                 0.0000                 0.0000
 Depolar     --     0.0000                 0.0000                 0.0000
 Atom AN      X      Y      Z        X      Y      Z        X      Y      Z
   1   6    -0.07   0.05  -0.05    -0.31  -0.02  -0.17     0.44   0.05   0.07
   2   6     0.02  -0.07  -0.00    -0.05   0.04  -0.13     0.00  -0.07   0.02
   3   7    -0.00   0.05  -0.02     0.04   0.08  -0.23    -0.02  -0.02   0.08
   4   6     0.00   0.07   0.05     0.09   0.03   0.12     0.04   0.06   0.01
   5   6    -0.03   0.04   0.08     0.15   0.02   0.35     0.10   0.08  -0.05
   6   6    -0.04   0.00  -0.01     0.15   0.01   0.08     0.11   0.03  -0.05
   7   6    -0.01  -0.01  -0.08     0.19   0.02  -0.32     0.19  -0.03   0.04
   8   6     0.04  -0.00   0.01     0.19  -0.02   0.04     0.17  -0.04  -0.01
   9   6     0.04   0.04   0.08     0.20  -0.04   0.33     0.15   0.01  -0.08
  10   6     0.01  -0.10   0.00    -0.07  -0.02  -0.05    -0.17  -0.12  -0.18
  11   6     0.00  -0.10   0.01    -0.12  -0.04   0.01    -0.35  -0.00  -0.04
  12   6     0.01  -0.07   0.02    -0.13   0.00   0.02    -0.32   0.04   0.16
  13   6     0.02   0.03  -0.02    -0.12   0.04   0.01    -0.21   0.01   0.20
  14   6     0.03   0.06  -0.04    -0.08  -0.03  -0.01    -0.08   0.03  -0.01
  15   6     0.03  -0.04  -0.02    -0.08  -0.06  -0.03    -0.15  -0.05  -0.20
  16   1    -0.53   0.20  -0.20    -0.02  -0.04   0.01     0.14   0.02  -0.04
  17   1     0.36   0.41   0.03    -0.19  -0.07  -0.03     0.19   0.03  -0.02
  18   1     0.05  -0.47   0.09    -0.12   0.07  -0.13     0.15   0.02   0.12
  19   1    -0.02   0.02   0.04     0.05  -0.00   0.15     0.04   0.02  -0.02
  20   1    -0.02  -0.00  -0.01     0.03  -0.00   0.03     0.01  -0.00  -0.02
  21   1    -0.00  -0.01  -0.05     0.05   0.01  -0.22     0.05  -0.02   0.03
  22   1     0.02  -0.01   0.00     0.05  -0.01   0.00     0.05  -0.01  -0.00
  23   1     0.02   0.02   0.03     0.08  -0.01   0.15     0.07   0.02  -0.04
  24   1    -0.01  -0.02  -0.00    -0.05  -0.02   0.01    -0.15   0.01  -0.03
  25   1    -0.00  -0.02   0.01    -0.04   0.00   0.01    -0.11   0.02   0.07
  26   1     0.01   0.03  -0.01    -0.03   0.03   0.00    -0.05  -0.00   0.10
  27   1     0.01   0.04  -0.02    -0.01  -0.01   0.00     0.04   0.03   0.00
  28   1     0.01  -0.01  -0.01    -0.02  -0.02  -0.01    -0.03  -0.01  -0.08
                     10                     11                     12
                        a                      a                      a 
 Frequencies --   352.8911               366.6730               370.4332
 Red. masses --     9.8177                 8.8705                 9.0679
 Frc consts  --     0.0000                 0.0000                 0.0000
 IR Inten    --     0.6638                 0.0159                 1.3742
 Raman Activ --     0.0000                 0.0000                 0.0000
 Depolar     --     0.0000                 0.0000                 0.0000
 Atom AN      X      Y      Z        X      Y      Z        X      Y      Z
   1   6    -0.30   0.04   0.06     0.09  -0.01  -0.02     0.05   0.00  -0.00
   2   6     0.02  -0.34   0.19    -0.00   0.09  -0.05     0.01  -0.01  -0.00
   3   7    -0.01  -0.19   0.20    -0.00   0.04  -0.05     0.02   0.03  -0.02
   4   6     0.01   0.16   0.10    -0.00  -0.04  -0.03     0.00  -0.01  -0.02
   5   6    -0.04   0.16  -0.02     0.01  -0.04   0.05    -0.01   0.03  -0.43
   6   6    -0.06   0.01  -0.01     0.01   0.00  -0.04     0.02  -0.05   0.42
   7   6     0.03  -0.06   0.05    -0.00   0.01  -0.01    -0.01   0.00  -0.00
   8   6     0.10  -0.01  -0.05    -0.02  -0.01   0.06    -0.03   0.05  -0.42
   9   6     0.09   0.13  -0.01    -0.02  -0.03  -0.04     0.01  -0.06   0.42
  10   6    -0.01  -0.25  -0.01    -0.00   0.07  -0.01     0.00   0.00   0.00
  11   6    -0.03   0.03  -0.13     0.04  -0.41   0.20    -0.00  -0.04   0.03
  12   6    -0.02   0.23  -0.14    -0.04   0.33  -0.12    -0.01   0.04  -0.01
  13   6     0.12  -0.25   0.08    -0.04   0.07  -0.02    -0.02   0.00   0.01
  14   6     0.11   0.01  -0.06     0.00  -0.41   0.18    -0.01  -0.04   0.02
  15   6     0.05   0.23  -0.21    -0.05   0.34  -0.12    -0.02   0.04  -0.01
  16   1    -0.05   0.01  -0.04    -0.01   0.01  -0.00     0.00   0.01  -0.02
  17   1    -0.19   0.04   0.14     0.07   0.01  -0.03     0.03   0.01  -0.00
  18   1    -0.12   0.09  -0.09     0.04  -0.05   0.03     0.02  -0.01   0.01
  19   1    -0.04   0.06  -0.02     0.01  -0.02   0.03    -0.01   0.02  -0.24
  20   1    -0.05  -0.01  -0.01     0.01   0.01  -0.03     0.02  -0.03   0.27
  21   1     0.01  -0.04   0.03    -0.00   0.01  -0.01    -0.00   0.00   0.00
  22   1     0.05  -0.01  -0.04    -0.01  -0.00   0.04    -0.02   0.03  -0.26
  23   1     0.06   0.06  -0.02    -0.01  -0.01  -0.02     0.00  -0.04   0.25
  24   1    -0.03   0.02  -0.04     0.03  -0.27   0.12     0.00  -0.03   0.01
  25   1    -0.03   0.15  -0.06    -0.02   0.20  -0.09    -0.00   0.02  -0.01
  26   1     0.05  -0.16   0.08    -0.01   0.05  -0.02    -0.01   0.00   0.00
  27   1     0.04   0.01  -0.02     0.01  -0.25   0.11    -0.00  -0.02   0.01
  28   1     0.02   0.15  -0.12    -0.03   0.22  -0.08    -0.01   0.03  -0.01
                     13                     14                     15
                        a                      a                      a 
 Frequencies --   401.7214               463.4246               498.8210
 Red. masses --    10.0950                10.7702                10.6539
 Frc consts  --     0.0000                 0.0000                 0.0000
 IR Inten    --     0.9944                 3.9624                 2.0167
 Raman Activ --     0.0000                 0.0000                 0.0000
 Depolar     --     0.0000                 0.0000                 0.0000
 Atom AN      X      Y      Z        X      Y      Z        X      Y      Z
   1   6    -0.26   0.01   0.20    -0.03   0.11   0.30    -0.01   0.00  -0.12
   2   6    -0.01   0.33   0.10    -0.07   0.04   0.22     0.09  -0.03  -0.06
   3   7    -0.07   0.06   0.30     0.06   0.44  -0.03     0.02   0.48  -0.13
   4   6    -0.02  -0.07   0.21    -0.02  -0.15  -0.37     0.03  -0.21   0.40
   5   6     0.05   0.01  -0.08     0.02  -0.21  -0.02    -0.00  -0.20   0.05
   6   6     0.07   0.04  -0.07     0.06   0.00   0.14     0.02   0.05  -0.21
   7   6     0.11  -0.01   0.15    -0.02   0.10  -0.20    -0.00   0.04   0.28
   8   6     0.03  -0.01  -0.11    -0.06   0.02   0.16    -0.04   0.07  -0.19
   9   6     0.03  -0.07  -0.05    -0.05  -0.19  -0.04    -0.01  -0.16   0.03
  10   6    -0.11   0.16  -0.28    -0.09  -0.21  -0.00     0.09  -0.20   0.07
  11   6    -0.10  -0.15  -0.16    -0.07  -0.07  -0.14     0.02  -0.01   0.07
  12   6    -0.04  -0.13   0.02    -0.03   0.06  -0.08    -0.01   0.12  -0.00
  13   6     0.11   0.20  -0.07     0.13  -0.10   0.03    -0.07  -0.13   0.08
  14   6     0.18  -0.13  -0.01     0.10   0.08  -0.04    -0.05   0.08  -0.06
  15   6     0.08  -0.14  -0.17     0.05  -0.02  -0.08    -0.03  -0.04  -0.01
  16   1    -0.15  -0.00   0.19     0.00   0.04   0.05     0.00   0.01  -0.07
  17   1    -0.10  -0.04   0.04    -0.01   0.05   0.11    -0.04   0.03   0.02
  18   1    -0.09  -0.08  -0.04    -0.01   0.06   0.09    -0.01   0.03  -0.07
  19   1     0.03  -0.01  -0.07     0.05  -0.09   0.08     0.03  -0.06  -0.10
  20   1     0.02   0.01  -0.06     0.06   0.01   0.14     0.04   0.05  -0.20
  21   1     0.03  -0.00   0.08    -0.01   0.04  -0.07     0.00   0.01   0.09
  22   1    -0.01   0.01  -0.08    -0.04   0.01   0.15    -0.05   0.05  -0.19
  23   1     0.01  -0.01  -0.05    -0.06  -0.09   0.08    -0.05  -0.05  -0.12
  24   1    -0.06  -0.10  -0.03    -0.03   0.01  -0.05    -0.01   0.04   0.00
  25   1    -0.04  -0.08   0.07    -0.04   0.07  -0.01     0.00   0.09  -0.04
  26   1     0.04   0.12  -0.02     0.04  -0.05   0.03    -0.02  -0.05   0.03
  27   1     0.08  -0.09   0.02     0.03   0.07  -0.03    -0.01   0.09  -0.04
  28   1     0.06  -0.10  -0.07     0.04   0.02  -0.07    -0.03   0.04  -0.00
                     16                     17                     18
                        a                      a                      a 
 Frequencies --   520.6194               550.4380               588.0742
 Red. masses --    11.2794                 9.2839                11.1784
 Frc consts  --     0.0000                 0.0000                 0.0000
 IR Inten    --     1.0811                 4.5349                 0.2006
 Raman Activ --     0.0000                 0.0000                 0.0000
 Depolar     --     0.0000                 0.0000                 0.0000
 Atom AN      X      Y      Z        X      Y      Z        X      Y      Z
   1   6    -0.04   0.01   0.03     0.01   0.01  -0.02    -0.01  -0.02  -0.07
   2   6     0.34   0.07   0.06    -0.02   0.58  -0.17     0.02  -0.03  -0.02
   3   7     0.39  -0.05   0.06    -0.01  -0.23   0.06    -0.04  -0.02   0.03
   4   6     0.31  -0.00  -0.07     0.00   0.05  -0.01    -0.03  -0.02  -0.01
   5   6    -0.05  -0.19  -0.02     0.04   0.06  -0.01    -0.06  -0.02  -0.02
   6   6    -0.09  -0.17   0.01     0.03  -0.05   0.01    -0.05   0.07   0.03
   7   6    -0.35   0.02  -0.02    -0.00  -0.03  -0.02     0.03   0.03  -0.02
   8   6    -0.06   0.18   0.06    -0.04  -0.05   0.00     0.06   0.03   0.02
   9   6    -0.02   0.21   0.00    -0.04   0.06   0.01     0.04  -0.07  -0.03
  10   6     0.18  -0.00  -0.16     0.02  -0.32   0.12    -0.02  -0.06  -0.14
  11   6    -0.04   0.04   0.06     0.02  -0.14   0.04     0.22  -0.11  -0.34
  12   6    -0.05   0.03   0.14    -0.00   0.19  -0.07     0.45   0.11   0.18
  13   6    -0.24   0.05   0.10     0.03  -0.23   0.11     0.03   0.08   0.16
  14   6    -0.07  -0.07  -0.10    -0.02   0.19  -0.06    -0.22   0.14   0.39
  15   6    -0.08  -0.08  -0.20    -0.00  -0.13   0.04    -0.40  -0.09  -0.14
  16   1    -0.07   0.01   0.08    -0.06  -0.03   0.26    -0.00  -0.00  -0.02
  17   1    -0.09  -0.00   0.07     0.06  -0.14  -0.19    -0.01   0.00  -0.01
  18   1    -0.04  -0.04  -0.13     0.02  -0.14  -0.00    -0.01  -0.00  -0.03
  19   1    -0.08  -0.01   0.03    -0.00   0.03  -0.00    -0.00  -0.01   0.00
  20   1     0.04  -0.02   0.03    -0.00  -0.02   0.01    -0.01   0.02   0.02
  21   1    -0.10   0.00  -0.00     0.00   0.01  -0.00     0.01  -0.02  -0.01
  22   1     0.05   0.01   0.04     0.00  -0.02   0.00     0.00   0.02   0.02
  23   1    -0.08   0.02   0.03     0.01   0.02   0.01     0.01  -0.02  -0.00
  24   1    -0.09  -0.01   0.01    -0.01   0.06  -0.03    -0.01  -0.04  -0.10
  25   1     0.01  -0.02   0.02    -0.02   0.20  -0.08     0.09   0.04   0.09
  26   1    -0.06   0.02   0.04     0.00  -0.05   0.02    -0.05  -0.04  -0.09
  27   1     0.05  -0.02  -0.01    -0.01   0.19  -0.08     0.00   0.04   0.12
  28   1    -0.05  -0.02  -0.02    -0.01   0.07  -0.04    -0.08  -0.04  -0.08
                     19                     20                     21
                        a                      a                      a 
 Frequencies --   589.4968               616.2364               661.8543
 Red. masses --    11.2327                11.1299                 9.4931
 Frc consts  --     0.0000                 0.0000                 0.0000
 IR Inten    --     1.2466                15.0480                 2.3313
 Raman Activ --     0.0000                 0.0000                 0.0000
 Depolar     --     0.0000                 0.0000                 0.0000
 Atom AN      X      Y      Z        X      Y      Z        X      Y      Z
   1   6     0.01  -0.02  -0.07     0.01   0.04   0.16     0.00  -0.01  -0.00
   2   6     0.03   0.05  -0.05    -0.20   0.04   0.06    -0.04  -0.07   0.02
   3   7    -0.05  -0.16   0.12     0.19  -0.20  -0.31     0.04  -0.00  -0.08
   4   6    -0.05  -0.13  -0.02     0.20   0.00  -0.07     0.10  -0.04   0.33
   5   6    -0.34  -0.19  -0.06    -0.05  -0.17   0.17     0.01  -0.04  -0.19
   6   6    -0.32   0.36   0.11    -0.10  -0.04  -0.18     0.02  -0.09   0.22
   7   6     0.05   0.17  -0.04    -0.18   0.01   0.22    -0.09   0.02  -0.18
   8   6     0.36   0.27   0.06     0.12   0.23  -0.16     0.05   0.05   0.24
   9   6     0.29  -0.28  -0.10     0.13   0.11   0.20     0.03   0.10  -0.17
  10   6     0.05  -0.00   0.03    -0.25  -0.01   0.06    -0.12   0.31  -0.10
  11   6    -0.01   0.03   0.10    -0.11  -0.07  -0.19    -0.04  -0.22   0.01
  12   6    -0.06  -0.00  -0.01    -0.06  -0.08  -0.12    -0.07   0.20  -0.16
  13   6    -0.05  -0.02  -0.01     0.22   0.02  -0.07     0.11  -0.18   0.04
  14   6     0.02  -0.03  -0.09     0.03   0.05   0.18    -0.02   0.26  -0.01
  15   6     0.07   0.00   0.02    -0.02   0.07   0.10     0.01  -0.16   0.14
  16   1    -0.02  -0.01   0.03     0.05   0.00   0.03     0.02   0.00  -0.06
  17   1     0.00  -0.03  -0.04     0.08  -0.01  -0.04     0.01   0.02   0.01
  18   1     0.00  -0.03  -0.04     0.03   0.02   0.17     0.01   0.02   0.03
  19   1    -0.04  -0.09  -0.01    -0.06  -0.02  -0.00    -0.02   0.01  -0.18
  20   1    -0.05   0.11   0.06     0.02   0.02  -0.13     0.03  -0.00  -0.03
  21   1     0.00  -0.11  -0.03    -0.05  -0.04   0.04    -0.03   0.01  -0.16
  22   1     0.05   0.11   0.05     0.08   0.04  -0.12     0.04   0.01  -0.03
  23   1     0.05  -0.10  -0.01    -0.01   0.01   0.01    -0.01   0.04  -0.18
  24   1     0.00   0.02   0.03     0.02  -0.01  -0.05     0.03  -0.19   0.06
  25   1    -0.00   0.00  -0.02    -0.07  -0.01   0.03    -0.03  -0.02   0.02
  26   1    -0.00   0.01   0.02     0.06   0.01  -0.03     0.04  -0.18   0.06
  27   1     0.00   0.00  -0.03    -0.04   0.00   0.05    -0.02  -0.02   0.03
  28   1     0.00   0.02   0.02     0.04  -0.00  -0.03     0.03  -0.19   0.07
                     22                     23                     24
                        a                      a                      a 
 Frequencies --   663.0241               735.1935               758.6792
 Red. masses --     9.2458                 6.7117                 4.6076
 Frc consts  --     0.0000                 0.0000                 0.0000
 IR Inten    --     4.6949                23.8441                23.9504
 Raman Activ --     0.0000                 0.0000                 0.0000
 Depolar     --     0.0000                 0.0000                 0.0000
 Atom AN      X      Y      Z        X      Y      Z        X      Y      Z
   1   6     0.00  -0.00   0.02     0.05  -0.08  -0.29    -0.02  -0.03   0.07
   2   6     0.03  -0.07   0.02     0.10  -0.01  -0.03    -0.02  -0.12   0.04
   3   7    -0.03  -0.02   0.07    -0.06   0.11   0.22     0.00  -0.03  -0.02
   4   6    -0.07   0.05  -0.33     0.08  -0.03   0.16    -0.00   0.01  -0.03
   5   6    -0.01   0.03   0.19     0.05  -0.07  -0.12    -0.00   0.01   0.02
   6   6    -0.03   0.08  -0.22     0.07  -0.11  -0.12    -0.01   0.00   0.01
   7   6     0.07  -0.02   0.18    -0.11   0.02  -0.10    -0.00  -0.00   0.01
   8   6    -0.02  -0.02  -0.24     0.04   0.11  -0.09     0.01   0.01   0.01
   9   6    -0.00  -0.07   0.17     0.04   0.08  -0.12     0.01   0.01   0.02
  10   6     0.04   0.31  -0.16    -0.12   0.02   0.04    -0.02   0.36  -0.16
  11   6     0.06  -0.16   0.12    -0.11  -0.06  -0.06     0.03  -0.19   0.09
  12   6     0.01   0.26  -0.05    -0.14  -0.08  -0.12     0.03  -0.07   0.05
  13   6    -0.05  -0.17   0.10     0.18  -0.03  -0.06    -0.01  -0.20   0.09
  14   6    -0.02   0.21  -0.16    -0.02   0.07   0.20     0.01  -0.08  -0.00
  15   6     0.02  -0.21   0.03    -0.03   0.04   0.16     0.02  -0.19   0.05
  16   1    -0.01   0.01  -0.02    -0.01  -0.01  -0.09     0.02   0.00  -0.08
  17   1    -0.02   0.02   0.04    -0.02  -0.00  -0.03    -0.02   0.04   0.08
  18   1    -0.01   0.00  -0.02    -0.00  -0.02  -0.15    -0.01   0.05   0.03
  19   1     0.01  -0.01   0.19     0.01  -0.04   0.26    -0.00   0.01  -0.02
  20   1    -0.02   0.00   0.04     0.07  -0.05   0.27    -0.01   0.00  -0.03
  21   1     0.02  -0.02   0.17    -0.01  -0.03   0.35    -0.00  -0.00  -0.04
  22   1    -0.02  -0.01   0.04     0.06  -0.03   0.27     0.01   0.00  -0.03
  23   1     0.02  -0.03   0.19     0.00  -0.03   0.27     0.00   0.01  -0.02
  24   1     0.01  -0.20   0.10     0.00   0.04  -0.04    -0.03   0.27  -0.12
  25   1     0.03  -0.03   0.01    -0.09   0.05  -0.01    -0.02   0.36  -0.15
  26   1    -0.00  -0.19   0.09     0.04   0.05  -0.04    -0.04   0.42  -0.17
  27   1     0.03  -0.04  -0.00    -0.08   0.06   0.03    -0.02   0.34  -0.15
  28   1     0.01  -0.20   0.08     0.01   0.04   0.00    -0.02   0.23  -0.10
                     25                     26                     27
                        a                      a                      a 
 Frequencies --   783.7325               829.6088               866.7900
 Red. masses --     8.4267                11.1407                 3.3002
 Frc consts  --     0.0000                 0.0000                 0.0000
 IR Inten    --    29.2692                14.7549                 2.4614
 Raman Activ --     0.0000                 0.0000                 0.0000
 Depolar     --     0.0000                 0.0000                 0.0000
 Atom AN      X      Y      Z        X      Y      Z        X      Y      Z
   1   6     0.10  -0.08  -0.29     0.07   0.03   0.07     0.00  -0.00   0.01
   2   6     0.23   0.01   0.03     0.24   0.01   0.04     0.01  -0.00   0.00
   3   7    -0.01   0.09   0.36     0.41  -0.08  -0.23     0.01   0.00  -0.02
   4   6    -0.00   0.04  -0.37     0.06  -0.02   0.12     0.02  -0.00   0.01
   5   6     0.01  -0.01   0.13    -0.14   0.12  -0.01     0.00  -0.02   0.27
   6   6     0.03  -0.02   0.07    -0.21   0.35   0.03    -0.00  -0.00   0.18
   7   6    -0.00  -0.01   0.14     0.27  -0.01  -0.07     0.02  -0.00  -0.02
   8   6    -0.02  -0.02   0.07    -0.23  -0.31  -0.04    -0.02   0.00  -0.18
   9   6    -0.01  -0.05   0.11    -0.15  -0.09  -0.00    -0.02   0.03  -0.26
  10   6    -0.04   0.01   0.01     0.02   0.03  -0.02    -0.00   0.00   0.00
  11   6    -0.11  -0.03  -0.05    -0.10  -0.04  -0.04     0.00  -0.02   0.01
  12   6    -0.17  -0.07  -0.12    -0.16  -0.06  -0.10     0.00  -0.01   0.00
  13   6     0.16  -0.02  -0.06     0.12  -0.02  -0.03     0.00   0.00  -0.00
  14   6    -0.04   0.08   0.20    -0.04   0.06   0.16    -0.00   0.01  -0.01
  15   6    -0.04   0.05   0.13    -0.05   0.02   0.05    -0.00   0.02  -0.01
  16   1    -0.05  -0.01  -0.04    -0.05   0.01   0.08    -0.00   0.00   0.00
  17   1    -0.06  -0.00   0.02    -0.05   0.01   0.08    -0.00   0.00   0.01
  18   1    -0.01  -0.05  -0.26    -0.01  -0.03  -0.11    -0.00   0.00   0.00
  19   1    -0.00   0.02  -0.16    -0.02   0.03   0.04    -0.02   0.06  -0.53
  20   1    -0.00   0.02  -0.22    -0.15   0.04   0.06    -0.03   0.04  -0.35
  21   1    -0.02   0.05  -0.33     0.07  -0.02   0.11     0.01  -0.00   0.03
  22   1    -0.02   0.03  -0.21    -0.15  -0.04   0.04     0.01  -0.04   0.36
  23   1    -0.02   0.00  -0.14    -0.02  -0.02  -0.03     0.01  -0.06   0.49
  24   1    -0.01   0.00  -0.02    -0.03  -0.00  -0.02    -0.00   0.04  -0.02
  25   1    -0.09   0.01   0.01    -0.08   0.01   0.01    -0.00   0.03  -0.01
  26   1     0.04   0.01  -0.02     0.03   0.02  -0.01     0.00  -0.00   0.00
  27   1    -0.08   0.02   0.04    -0.05   0.02   0.04     0.00  -0.03   0.01
  28   1     0.00   0.01   0.02    -0.00  -0.00   0.00     0.00  -0.03   0.01
                     28                     29                     30
                        a                      a                      a 
 Frequencies --   875.1643               880.4142               907.3870
 Red. masses --     3.3523                 3.8735                 3.7322
 Frc consts  --     0.0000                 0.0000                 0.0000
 IR Inten    --     0.8227                 1.4699                 0.4226
 Raman Activ --     0.0000                 0.0000                 0.0000
 Depolar     --     0.0000                 0.0000                 0.0000
 Atom AN      X      Y      Z        X      Y      Z        X      Y      Z
   1   6     0.01  -0.00   0.00     0.01  -0.01  -0.02     0.00   0.02  -0.01
   2   6     0.00  -0.00  -0.00     0.00   0.00   0.01    -0.00   0.01  -0.00
   3   7     0.00   0.00  -0.00    -0.04   0.01   0.06    -0.01   0.01  -0.00
   4   6     0.00  -0.00  -0.00    -0.02   0.01  -0.11    -0.00   0.00   0.00
   5   6     0.00  -0.00   0.03     0.02  -0.02   0.24     0.00  -0.00   0.00
   6   6    -0.00   0.00   0.01     0.01  -0.02  -0.04     0.00  -0.00  -0.00
   7   6     0.00   0.00  -0.01    -0.04   0.04  -0.33    -0.00   0.00  -0.00
   8   6    -0.00   0.00  -0.02     0.02   0.02  -0.01     0.00   0.00   0.01
   9   6    -0.00   0.00  -0.01     0.02  -0.04   0.25     0.00  -0.00  -0.00
  10   6     0.00   0.01  -0.00    -0.00   0.00  -0.00     0.00  -0.08   0.03
  11   6    -0.03   0.25  -0.11     0.00  -0.00   0.00    -0.02   0.24  -0.10
  12   6    -0.02   0.17  -0.08     0.00  -0.00   0.00     0.01  -0.09   0.04
  13   6     0.01  -0.04   0.02    -0.00   0.00  -0.00     0.02  -0.30   0.13
  14   6     0.02  -0.18   0.08    -0.00   0.00  -0.00    -0.00   0.03  -0.02
  15   6     0.02  -0.22   0.09     0.00   0.01   0.00    -0.02   0.22  -0.09
  16   1    -0.00   0.00  -0.00    -0.01  -0.00  -0.01    -0.01   0.00   0.03
  17   1     0.00   0.00   0.00    -0.01  -0.00   0.00     0.01  -0.01  -0.03
  18   1     0.00  -0.01   0.00    -0.00  -0.00  -0.03     0.01  -0.02   0.00
  19   1    -0.00   0.01  -0.05    -0.02   0.05  -0.44     0.00  -0.00  -0.00
  20   1    -0.00   0.00  -0.02     0.02  -0.02   0.13     0.00  -0.00   0.01
  21   1     0.00  -0.00   0.01     0.02  -0.06   0.54    -0.00   0.00   0.00
  22   1     0.00  -0.00   0.03     0.01  -0.01   0.09    -0.00   0.00  -0.01
  23   1     0.00  -0.00   0.03    -0.02   0.05  -0.47    -0.00  -0.00   0.01
  24   1     0.05  -0.47   0.20    -0.00   0.01  -0.00     0.05  -0.43   0.19
  25   1     0.03  -0.35   0.15     0.00   0.01  -0.00    -0.02   0.22  -0.09
  26   1    -0.00   0.08  -0.03    -0.00  -0.00  -0.00    -0.04   0.47  -0.20
  27   1    -0.04   0.39  -0.16     0.00  -0.01   0.00     0.00  -0.00   0.00
  28   1    -0.04   0.40  -0.16     0.00  -0.01   0.01     0.04  -0.42   0.17
                     31                     32                     33
                        a                      a                      a 
 Frequencies --   921.3717               924.3627               930.0349
 Red. masses --     3.9577                 2.7940                 3.8479
 Frc consts  --     0.0000                 0.0000                 0.0000
 IR Inten    --     0.3767                 0.0387                 0.1738
 Raman Activ --     0.0000                 0.0000                 0.0000
 Depolar     --     0.0000                 0.0000                 0.0000
 Atom AN      X      Y      Z        X      Y      Z        X      Y      Z
   1   6    -0.00   0.00   0.01    -0.00   0.00  -0.01    -0.00   0.00  -0.01
   2   6    -0.00  -0.00  -0.00    -0.00  -0.00   0.00     0.00  -0.00   0.00
   3   7     0.00   0.00  -0.01    -0.00   0.00   0.01    -0.00   0.00   0.00
   4   6     0.02   0.00  -0.00    -0.01   0.01  -0.08     0.00   0.00   0.00
   5   6     0.00  -0.02   0.20    -0.00   0.01  -0.07    -0.00  -0.00  -0.00
   6   6    -0.02   0.04  -0.27     0.01  -0.03   0.25     0.00  -0.00   0.00
   7   6     0.01   0.00  -0.02    -0.01   0.03  -0.23     0.00   0.00   0.00
   8   6     0.01  -0.05   0.32     0.01  -0.01   0.18    -0.00  -0.00  -0.00
   9   6    -0.02   0.03  -0.22     0.00  -0.00  -0.03    -0.00  -0.00   0.00
  10   6    -0.00   0.00  -0.00    -0.00   0.00  -0.00     0.00  -0.05   0.02
  11   6     0.00  -0.01   0.00     0.00  -0.00   0.00     0.02  -0.18   0.08
  12   6     0.00   0.01  -0.00     0.00   0.00   0.00    -0.02   0.33  -0.13
  13   6    -0.00   0.00  -0.00    -0.00   0.00  -0.00     0.01  -0.18   0.07
  14   6     0.00  -0.01   0.00     0.00  -0.00  -0.00     0.01  -0.10   0.03
  15   6     0.00  -0.00  -0.00     0.00  -0.00   0.00    -0.01   0.19  -0.08
  16   1    -0.00  -0.00   0.00     0.00  -0.00  -0.00     0.00  -0.00   0.01
  17   1     0.00  -0.00  -0.00     0.00  -0.00  -0.00     0.00  -0.00  -0.01
  18   1     0.00   0.00   0.00     0.00  -0.00  -0.00    -0.00   0.01  -0.00
  19   1    -0.01   0.03  -0.31     0.01  -0.02   0.26     0.00  -0.00   0.01
  20   1     0.01  -0.05   0.44    -0.02   0.06  -0.54     0.00   0.00  -0.00
  21   1     0.01  -0.01   0.05     0.02  -0.06   0.48     0.00   0.00   0.00
  22   1    -0.03   0.06  -0.55    -0.02   0.05  -0.44    -0.00  -0.00   0.01
  23   1     0.01  -0.05   0.37     0.01  -0.03   0.19    -0.00   0.00  -0.01
  24   1    -0.00   0.01  -0.00     0.00   0.00  -0.00    -0.04   0.34  -0.15
  25   1     0.00  -0.01   0.00     0.00  -0.00   0.00     0.05  -0.58   0.24
  26   1     0.00  -0.00   0.00     0.00  -0.00   0.00    -0.03   0.33  -0.14
  27   1    -0.00   0.01  -0.00     0.00   0.00  -0.00    -0.01   0.09  -0.04
  28   1     0.00   0.00  -0.00    -0.00   0.00  -0.00     0.02  -0.23   0.10
                     34                     35                     36
                        a                      a                      a 
 Frequencies --   935.8291               965.1809               982.6312
 Red. masses --     3.3217                10.5693                10.0259
 Frc consts  --     0.0000                 0.0000                 0.0000
 IR Inten    --     0.1600                 6.0127                10.3891
 Raman Activ --     0.0000                 0.0000                 0.0000
 Depolar     --     0.0000                 0.0000                 0.0000
 Atom AN      X      Y      Z        X      Y      Z        X      Y      Z
   1   6    -0.00  -0.00   0.00    -0.08  -0.13  -0.24     0.13   0.08   0.01
   2   6     0.00  -0.00   0.00    -0.10   0.11   0.19     0.06  -0.08   0.01
   3   7     0.00  -0.00   0.00     0.10   0.03   0.15     0.07  -0.01  -0.09
   4   6    -0.00   0.00  -0.00     0.16  -0.01  -0.03    -0.06  -0.00   0.03
   5   6     0.00   0.00   0.00    -0.13  -0.27  -0.02     0.12   0.31   0.03
   6   6    -0.00  -0.00  -0.00    -0.06   0.16   0.03     0.01  -0.08  -0.01
   7   6    -0.00   0.00  -0.00     0.24  -0.01  -0.01    -0.22   0.01   0.01
   8   6    -0.00  -0.00   0.00    -0.08  -0.15  -0.01     0.02   0.08   0.01
   9   6     0.00  -0.00  -0.00    -0.09   0.28   0.05     0.08  -0.31  -0.05
  10   6     0.01  -0.04   0.02    -0.18   0.01   0.08    -0.12   0.03   0.04
  11   6    -0.01   0.07  -0.03     0.01  -0.12  -0.30    -0.01  -0.16  -0.38
  12   6    -0.01   0.02  -0.01     0.12   0.06   0.12     0.09   0.05   0.10
  13   6     0.02  -0.17   0.07    -0.24   0.02   0.10    -0.27   0.02   0.09
  14   6    -0.03   0.32  -0.13     0.04  -0.08  -0.20    -0.01  -0.05  -0.12
  15   6     0.01  -0.19   0.08     0.20   0.09   0.18     0.27   0.14   0.30
  16   1     0.00  -0.00  -0.00     0.09  -0.03  -0.22    -0.08   0.02   0.18
  17   1     0.00   0.00   0.00     0.08   0.01  -0.12    -0.07  -0.03   0.05
  18   1    -0.00   0.00   0.00     0.01   0.05   0.08    -0.00  -0.08  -0.19
  19   1    -0.00   0.00  -0.00    -0.02  -0.08  -0.01    -0.00   0.11   0.02
  20   1     0.00  -0.00   0.00     0.01   0.05  -0.00    -0.05  -0.04   0.00
  21   1    -0.00   0.00   0.00     0.07   0.00  -0.00    -0.06   0.00  -0.00
  22   1    -0.00   0.00  -0.01     0.00  -0.05  -0.01    -0.04   0.05   0.01
  23   1     0.00   0.00   0.00    -0.01   0.09  -0.00    -0.01  -0.11   0.00
  24   1     0.00   0.00   0.00    -0.00  -0.04  -0.08    -0.07  -0.05  -0.12
  25   1     0.01  -0.13   0.05     0.01   0.03   0.06    -0.02   0.03   0.07
  26   1    -0.03   0.34  -0.14    -0.06   0.01   0.04    -0.08   0.00   0.02
  27   1     0.06  -0.61   0.26    -0.00  -0.02  -0.05    -0.08  -0.02  -0.04
  28   1    -0.04   0.40  -0.16     0.05   0.03   0.05     0.05   0.06   0.11
                     37                     38                     39
                        a                      a                      a 
 Frequencies --   992.0953              1007.4639              1079.1817
 Red. masses --     5.7664                 7.6041                 6.7027
 Frc consts  --     0.0000                 0.0000                 0.0000
 IR Inten    --     8.7601                 9.0099                 0.3129
 Raman Activ --     0.0000                 0.0000                 0.0000
 Depolar     --     0.0000                 0.0000                 0.0000
 Atom AN      X      Y      Z        X      Y      Z        X      Y      Z
   1   6     0.01   0.38  -0.10    -0.25   0.01  -0.28     0.02  -0.00  -0.00
   2   6     0.00  -0.40   0.07    -0.02  -0.02   0.28    -0.02   0.00   0.00
   3   7    -0.06   0.10   0.00     0.25   0.06   0.12    -0.01   0.00   0.00
   4   6    -0.00   0.01  -0.01     0.09  -0.00   0.01    -0.00   0.00  -0.00
   5   6    -0.06  -0.19  -0.02     0.10   0.29   0.03     0.16  -0.01  -0.01
   6   6     0.02   0.02   0.00    -0.05   0.02   0.00    -0.04   0.35   0.04
   7   6     0.11   0.00  -0.01    -0.18   0.01   0.01    -0.45   0.03   0.03
   8   6    -0.00  -0.03  -0.01    -0.06  -0.02   0.00    -0.08  -0.35  -0.04
   9   6    -0.04   0.16   0.02     0.07  -0.31  -0.04     0.16  -0.02  -0.01
  10   6    -0.01   0.08  -0.04     0.00   0.04   0.02    -0.02   0.00   0.01
  11   6     0.00  -0.01   0.03     0.00   0.02   0.06    -0.01   0.01   0.02
  12   6     0.02  -0.01   0.01    -0.03  -0.02  -0.02     0.02   0.01   0.02
  13   6     0.01   0.00  -0.01     0.05   0.01   0.01     0.03  -0.00  -0.01
  14   6    -0.00  -0.01   0.01     0.04  -0.01  -0.03    -0.00  -0.01  -0.03
  15   6     0.00  -0.01   0.02    -0.09  -0.06  -0.12    -0.02  -0.00  -0.01
  16   1    -0.09   0.01   0.55     0.15  -0.06  -0.10    -0.01   0.00   0.00
  17   1     0.05  -0.23  -0.38     0.20  -0.10  -0.41    -0.01   0.00   0.02
  18   1     0.03  -0.21  -0.03     0.03   0.02   0.31    -0.00  -0.00  -0.03
  19   1     0.02  -0.07  -0.02    -0.03   0.12   0.01     0.28  -0.15  -0.03
  20   1     0.04   0.02  -0.00    -0.08  -0.03   0.00     0.25   0.23   0.01
  21   1     0.03   0.01   0.00    -0.05   0.01  -0.00    -0.13   0.02   0.01
  22   1     0.03  -0.02   0.00    -0.09   0.03   0.01     0.22  -0.26  -0.04
  23   1     0.01   0.06   0.00    -0.04  -0.12  -0.02     0.33   0.13   0.01
  24   1    -0.01   0.03  -0.01     0.07   0.02   0.02    -0.01   0.00   0.00
  25   1     0.01   0.01  -0.01    -0.01   0.00  -0.01     0.00   0.01   0.01
  26   1    -0.00  -0.00  -0.01     0.03   0.02   0.04     0.01  -0.00  -0.01
  27   1    -0.01   0.01  -0.00     0.07   0.01  -0.00    -0.02  -0.01  -0.01
  28   1    -0.00   0.03  -0.01    -0.02  -0.01  -0.05    -0.01  -0.00   0.01
                     40                     41                     42
                        a                      a                      a 
 Frequencies --  1081.2874              1095.2015              1114.6751
 Red. masses --     8.5308                 6.6244                 4.0373
 Frc consts  --     0.0000                 0.0000                 0.0000
 IR Inten    --     4.5424                13.4426                 0.5103
 Raman Activ --     0.0000                 0.0000                 0.0000
 Depolar     --     0.0000                 0.0000                 0.0000
 Atom AN      X      Y      Z        X      Y      Z        X      Y      Z
   1   6    -0.12   0.02   0.08    -0.25   0.03   0.17     0.00  -0.01   0.01
   2   6     0.09  -0.03  -0.11     0.23  -0.06  -0.27    -0.00   0.00  -0.00
   3   7    -0.04   0.01   0.03    -0.07   0.01   0.06     0.01  -0.04  -0.01
   4   6    -0.03   0.01  -0.01    -0.06   0.02  -0.03     0.01   0.17   0.02
   5   6     0.00  -0.02   0.00    -0.02  -0.04   0.00    -0.21  -0.14  -0.01
   6   6     0.01   0.02   0.00     0.02  -0.01   0.00     0.09  -0.17  -0.02
   7   6    -0.03   0.01   0.00     0.00   0.01  -0.00     0.02   0.21   0.02
   8   6     0.00  -0.02  -0.00     0.01   0.00   0.00    -0.11  -0.13  -0.01
   9   6     0.01   0.01   0.00    -0.00   0.02   0.01     0.19  -0.16  -0.03
  10   6     0.16  -0.02  -0.08     0.38  -0.03  -0.14    -0.01   0.01  -0.00
  11   6     0.13  -0.04  -0.13    -0.04  -0.08  -0.18    -0.01   0.01   0.02
  12   6    -0.21  -0.14  -0.28    -0.11   0.00   0.04     0.01   0.01   0.01
  13   6    -0.43   0.02   0.13     0.10   0.00  -0.01     0.00  -0.00  -0.01
  14   6     0.03   0.16   0.38    -0.09  -0.00   0.02    -0.00  -0.00  -0.00
  15   6     0.22   0.04   0.04     0.05   0.07   0.15     0.01  -0.00  -0.00
  16   1     0.04  -0.01  -0.01     0.09  -0.02  -0.05    -0.00   0.00  -0.01
  17   1     0.04   0.00  -0.04     0.09  -0.00  -0.10    -0.00  -0.00   0.00
  18   1    -0.00   0.03   0.14     0.00   0.08   0.36     0.00   0.00  -0.00
  19   1     0.03  -0.02  -0.01     0.02  -0.03  -0.01    -0.39   0.17   0.03
  20   1     0.03   0.02  -0.00     0.03   0.01  -0.00     0.25   0.06  -0.00
  21   1    -0.01   0.01   0.00     0.00   0.01   0.00     0.03   0.43   0.05
  22   1     0.02  -0.02  -0.00     0.02  -0.01  -0.00    -0.28   0.12   0.03
  23   1     0.04   0.02  -0.00     0.02   0.02  -0.00     0.42   0.14   0.01
  24   1     0.18   0.01  -0.03    -0.20  -0.06  -0.07    -0.02  -0.00   0.00
  25   1     0.09  -0.10  -0.26    -0.19   0.06   0.19     0.01   0.00  -0.00
  26   1    -0.14  -0.01   0.02     0.04   0.02   0.03    -0.01  -0.01  -0.02
  27   1     0.20   0.08   0.14    -0.21  -0.03  -0.02    -0.02  -0.00  -0.00
  28   1     0.22  -0.05  -0.17    -0.21   0.10   0.31     0.02  -0.01  -0.02
                     43                     44                     45
                        a                      a                      a 
 Frequencies --  1123.2916              1178.5661              1180.0190
 Red. masses --     4.1309                 1.4164                 1.3828
 Frc consts  --     0.0000                 0.0000                 0.0000
 IR Inten    --     6.1764                 0.7892                 1.8534
 Raman Activ --     0.0000                 0.0000                 0.0000
 Depolar     --     0.0000                 0.0000                 0.0000
 Atom AN      X      Y      Z        X      Y      Z        X      Y      Z
   1   6     0.06   0.00  -0.01    -0.00  -0.00  -0.01     0.01  -0.00  -0.01
   2   6    -0.03   0.00   0.04     0.00   0.01   0.02    -0.02   0.01   0.03
   3   7    -0.01  -0.02  -0.05     0.02   0.01  -0.00     0.01  -0.00  -0.00
   4   6    -0.07   0.01   0.01    -0.03   0.06   0.01    -0.01  -0.00   0.00
   5   6    -0.02  -0.03  -0.00     0.11  -0.02  -0.01     0.00  -0.00  -0.00
   6   6     0.02  -0.03  -0.01     0.02   0.00  -0.00    -0.00  -0.00  -0.00
   7   6     0.00   0.01   0.00    -0.01  -0.09  -0.01     0.00  -0.00   0.00
   8   6     0.01   0.01   0.00    -0.04   0.05   0.01    -0.00   0.00   0.00
   9   6     0.00   0.01  -0.00    -0.08   0.02   0.00     0.00   0.00  -0.00
  10   6     0.04   0.06   0.14     0.01   0.00  -0.00     0.01   0.02   0.05
  11   6     0.17  -0.07  -0.19    -0.00  -0.00  -0.00    -0.11   0.00   0.02
  12   6    -0.16  -0.08  -0.15    -0.00   0.00   0.00    -0.01   0.00   0.00
  13   6     0.01   0.08   0.19    -0.00  -0.00  -0.00    -0.03  -0.03  -0.07
  14   6     0.07  -0.04  -0.11    -0.00   0.00   0.00     0.07   0.02   0.03
  15   6    -0.23  -0.04  -0.05     0.00   0.00  -0.00     0.07   0.00  -0.02
  16   1    -0.02   0.00   0.04     0.00  -0.00  -0.00    -0.00   0.00  -0.00
  17   1    -0.03   0.01   0.05     0.00  -0.00  -0.00    -0.00   0.00   0.00
  18   1    -0.01  -0.03  -0.10     0.00  -0.00  -0.00    -0.00  -0.00  -0.02
  19   1     0.00  -0.01  -0.00    -0.02   0.03   0.00     0.00  -0.00   0.00
  20   1     0.03   0.00   0.00     0.32   0.16   0.00    -0.00  -0.00   0.00
  21   1     0.00   0.02   0.00    -0.04  -0.71  -0.08    -0.00  -0.00   0.00
  22   1     0.00   0.00   0.00    -0.43   0.29   0.05    -0.00   0.00   0.00
  23   1     0.05   0.03   0.01     0.20   0.12   0.01     0.01   0.00   0.00
  24   1     0.38   0.03  -0.02    -0.01  -0.00  -0.00     0.05   0.01   0.02
  25   1    -0.14   0.01   0.06    -0.00  -0.00   0.00    -0.20   0.08   0.22
  26   1     0.15   0.18   0.41    -0.00  -0.00  -0.00    -0.24  -0.27  -0.60
  27   1     0.35   0.04   0.01    -0.01  -0.00  -0.00     0.54   0.08   0.07
  28   1    -0.31   0.08   0.28     0.00  -0.00  -0.00    -0.17   0.07   0.21
                     46                     47                     48
                        a                      a                      a 
 Frequencies --  1188.4363              1199.3494              1245.3305
 Red. masses --     2.1161                 1.9581                 9.6799
 Frc consts  --     0.0000                 0.0000                 0.0000
 IR Inten    --    17.6542                22.0837               186.1309
 Raman Activ --     0.0000                 0.0000                 0.0000
 Depolar     --     0.0000                 0.0000                 0.0000
 Atom AN      X      Y      Z        X      Y      Z        X      Y      Z
   1   6     0.00  -0.01  -0.04     0.04  -0.01  -0.05     0.05  -0.04  -0.13
   2   6     0.00   0.03   0.09    -0.10   0.03   0.10    -0.11   0.11   0.40
   3   7     0.08  -0.01  -0.02     0.03  -0.01  -0.01     0.24  -0.05  -0.14
   4   6    -0.14  -0.02   0.01    -0.01  -0.01   0.01    -0.53  -0.03   0.05
   5   6     0.06  -0.07  -0.01    -0.00   0.00  -0.00    -0.12   0.02   0.01
   6   6    -0.08  -0.12  -0.01     0.00   0.00  -0.00     0.11  -0.11  -0.02
   7   6    -0.02   0.01   0.00     0.00  -0.00   0.00     0.07  -0.00  -0.00
   8   6    -0.04   0.13   0.02     0.00  -0.00  -0.00     0.10   0.14   0.01
   9   6     0.08   0.07  -0.00     0.00   0.00  -0.00    -0.15   0.00  -0.00
  10   6     0.03   0.00  -0.01     0.02  -0.03  -0.07     0.27   0.01  -0.05
  11   6    -0.01  -0.00  -0.00    -0.13  -0.01   0.01     0.06  -0.01  -0.02
  12   6    -0.01  -0.00  -0.00     0.07  -0.03  -0.08    -0.08  -0.02  -0.04
  13   6    -0.00  -0.00  -0.00     0.04  -0.00  -0.01    -0.03  -0.00  -0.00
  14   6    -0.00   0.00   0.01     0.10   0.04   0.07    -0.03   0.02   0.06
  15   6     0.01  -0.00  -0.00    -0.03   0.03   0.08     0.06  -0.01  -0.05
  16   1     0.01  -0.00  -0.02    -0.02   0.01  -0.02     0.00  -0.00  -0.05
  17   1     0.01   0.00  -0.01    -0.01  -0.02  -0.01     0.01  -0.02  -0.04
  18   1     0.00  -0.00  -0.01     0.01   0.00  -0.01    -0.00  -0.02  -0.10
  19   1     0.44  -0.29  -0.05    -0.02   0.01   0.00    -0.02  -0.01  -0.01
  20   1    -0.46  -0.26  -0.01     0.01   0.01   0.00     0.21   0.06  -0.00
  21   1     0.00   0.12   0.01     0.00  -0.00   0.00     0.02  -0.02  -0.00
  22   1    -0.26   0.20   0.03     0.01  -0.01  -0.00     0.28  -0.12  -0.02
  23   1     0.41   0.22   0.02    -0.01  -0.00   0.00     0.08   0.07   0.02
  24   1    -0.04  -0.01  -0.00    -0.52  -0.08  -0.05    -0.13  -0.02  -0.03
  25   1     0.00  -0.00  -0.00     0.39  -0.15  -0.45    -0.11   0.03   0.09
  26   1    -0.00  -0.00  -0.01     0.04   0.04   0.08    -0.02  -0.01  -0.02
  27   1    -0.02  -0.00  -0.00     0.25   0.04   0.05    -0.12  -0.01   0.00
  28   1     0.01  -0.01  -0.01    -0.26   0.10   0.32     0.05  -0.02  -0.05
                     49                     50                     51
                        a                      a                      a 
 Frequencies --  1277.1947              1279.0806              1295.5291
 Red. masses --     4.0386                 3.7824                 9.7688
 Frc consts  --     0.0000                 0.0000                 0.0000
 IR Inten    --     3.0678                11.0926                11.6874
 Raman Activ --     0.0000                 0.0000                 0.0000
 Depolar     --     0.0000                 0.0000                 0.0000
 Atom AN      X      Y      Z        X      Y      Z        X      Y      Z
   1   6    -0.00   0.01   0.01    -0.01   0.01   0.01     0.13  -0.01  -0.06
   2   6    -0.03  -0.01  -0.02     0.10  -0.03  -0.11    -0.47   0.03   0.20
   3   7    -0.04   0.05   0.02    -0.04   0.01   0.02    -0.17   0.00  -0.01
   4   6     0.07  -0.39  -0.05     0.00  -0.08  -0.02     0.32  -0.02  -0.00
   5   6     0.13  -0.00  -0.01     0.02  -0.00  -0.00     0.10  -0.02  -0.01
   6   6     0.12   0.15   0.01     0.03   0.02   0.00    -0.05   0.10   0.01
   7   6    -0.00   0.08   0.01     0.00   0.02   0.00    -0.06  -0.02   0.00
   8   6    -0.13   0.12   0.02    -0.02   0.03   0.00    -0.05  -0.11  -0.01
   9   6    -0.09   0.01   0.01    -0.03  -0.00   0.00     0.14   0.04  -0.00
  10   6    -0.01  -0.04  -0.07     0.03   0.12   0.28     0.34  -0.06  -0.20
  11   6    -0.01   0.00   0.01     0.12   0.00  -0.02     0.28   0.03   0.02
  12   6    -0.01   0.01   0.02     0.05  -0.03  -0.09    -0.16  -0.03  -0.03
  13   6     0.00   0.01   0.02    -0.02  -0.06  -0.14    -0.11  -0.05  -0.10
  14   6     0.03   0.01   0.02    -0.10  -0.05  -0.10     0.07   0.06   0.12
  15   6     0.03  -0.00  -0.02    -0.18   0.04   0.13     0.01   0.01   0.03
  16   1    -0.00   0.00   0.01    -0.02   0.01   0.01    -0.07   0.02   0.01
  17   1     0.00  -0.00  -0.01    -0.01  -0.01   0.00    -0.05  -0.03   0.03
  18   1    -0.00  -0.01  -0.01     0.01   0.02   0.08    -0.00  -0.02  -0.13
  19   1    -0.39   0.28   0.04    -0.08   0.05   0.01    -0.05   0.05   0.02
  20   1    -0.33  -0.14  -0.00    -0.07  -0.03  -0.00    -0.11  -0.02   0.00
  21   1    -0.02  -0.23  -0.03    -0.00  -0.05  -0.01    -0.02   0.03   0.01
  22   1     0.25  -0.15  -0.03     0.07  -0.04  -0.01    -0.16   0.06   0.02
  23   1     0.38   0.21   0.01     0.09   0.05   0.00    -0.10  -0.07  -0.01
  24   1     0.11   0.02   0.02    -0.47  -0.07  -0.06    -0.18  -0.03  -0.03
  25   1     0.03  -0.01  -0.04    -0.17   0.06   0.19    -0.20   0.05   0.16
  26   1    -0.02  -0.02  -0.04     0.09   0.09   0.19    -0.00   0.02   0.05
  27   1    -0.09  -0.01  -0.01     0.42   0.05   0.03    -0.10  -0.00   0.02
  28   1    -0.06   0.02   0.08     0.25  -0.11  -0.32    -0.01   0.01   0.03
                     52                     53                     54
                        a                      a                      a 
 Frequencies --  1316.0306              1325.0560              1376.9043
 Red. masses --    11.3651                11.7861                 3.2051
 Frc consts  --     0.0000                 0.0000                 0.0000
 IR Inten    --     4.0276                 0.9394                19.4813
 Raman Activ --     0.0000                 0.0000                 0.0000
 Depolar     --     0.0000                 0.0000                 0.0000
 Atom AN      X      Y      Z        X      Y      Z        X      Y      Z
   1   6    -0.00   0.01   0.00     0.05  -0.00  -0.02    -0.02   0.13   0.42
   2   6     0.01  -0.01  -0.02    -0.13  -0.00   0.02     0.01  -0.01  -0.04
   3   7     0.00   0.00   0.01    -0.09   0.01   0.01    -0.01   0.00   0.01
   4   6    -0.03  -0.41  -0.05     0.10  -0.01  -0.00     0.01  -0.00   0.00
   5   6    -0.35   0.26   0.05     0.04  -0.02  -0.01     0.00   0.00   0.00
   6   6     0.28   0.15   0.00    -0.01   0.04   0.00    -0.01  -0.00   0.00
   7   6    -0.03  -0.45  -0.05    -0.02   0.00   0.00     0.00  -0.00  -0.00
   8   6    -0.26   0.18   0.03    -0.01  -0.04  -0.00     0.01  -0.00  -0.00
   9   6     0.36   0.21   0.01     0.04   0.02   0.00    -0.00   0.00   0.00
  10   6    -0.01  -0.00   0.01     0.25   0.15   0.32    -0.01  -0.01  -0.00
  11   6    -0.01  -0.00  -0.00    -0.33  -0.05  -0.05    -0.01   0.00   0.01
  12   6     0.01   0.00  -0.00     0.21  -0.11  -0.31     0.03  -0.00  -0.01
  13   6     0.00   0.00   0.00     0.11   0.15   0.35    -0.00  -0.00  -0.01
  14   6    -0.01  -0.00  -0.01    -0.37  -0.04  -0.01    -0.03  -0.00   0.00
  15   6    -0.00   0.00   0.00     0.28  -0.10  -0.30     0.01   0.01   0.01
  16   1     0.01  -0.00   0.00    -0.03   0.01   0.01     0.06   0.10  -0.52
  17   1    -0.00  -0.00  -0.00    -0.03  -0.01   0.02     0.10  -0.34  -0.40
  18   1     0.00  -0.01   0.01     0.01  -0.00  -0.03    -0.09  -0.17  -0.44
  19   1     0.05  -0.02  -0.01    -0.03   0.02   0.01     0.01  -0.00   0.00
  20   1     0.13   0.07   0.00    -0.05  -0.01   0.00     0.00   0.00  -0.00
  21   1     0.01   0.12   0.01    -0.01   0.00   0.00     0.00   0.01   0.00
  22   1    -0.11   0.08   0.01    -0.05   0.02   0.00    -0.01   0.00   0.00
  23   1    -0.03  -0.01  -0.00    -0.03  -0.02  -0.00     0.00   0.00   0.00
  24   1     0.00  -0.00   0.00    -0.06  -0.01  -0.01    -0.01   0.00   0.00
  25   1     0.00  -0.00  -0.00    -0.03   0.00   0.01    -0.01   0.01   0.01
  26   1     0.00   0.00   0.00    -0.02  -0.01  -0.01     0.01   0.01   0.03
  27   1     0.01   0.00  -0.00    -0.07  -0.01   0.00     0.03   0.00   0.01
  28   1     0.00  -0.00  -0.01     0.01  -0.00   0.00     0.01  -0.00  -0.00
                     55                     56                     57
                        a                      a                      a 
 Frequencies --  1429.6743              1432.6264              1460.3780
 Red. masses --     8.8525                 9.0160                 8.3892
 Frc consts  --     0.0000                 0.0000                 0.0000
 IR Inten    --     4.6420                 5.4138                25.1888
 Raman Activ --     0.0000                 0.0000                 0.0000
 Depolar     --     0.0000                 0.0000                 0.0000
 Atom AN      X      Y      Z        X      Y      Z        X      Y      Z
   1   6     0.02   0.02   0.02    -0.01  -0.00  -0.00     0.05   0.00  -0.00
   2   6     0.03  -0.02  -0.04     0.02  -0.00  -0.00     0.01  -0.02  -0.07
   3   7    -0.06  -0.00  -0.01    -0.01   0.05   0.01    -0.03   0.02   0.04
   4   6     0.01  -0.01  -0.01    -0.02  -0.36  -0.05     0.31  -0.01  -0.01
   5   6     0.02  -0.01  -0.00     0.30   0.12   0.00    -0.15   0.20   0.03
   6   6     0.00   0.02   0.00    -0.40   0.03   0.02    -0.17  -0.18  -0.01
   7   6    -0.01  -0.00   0.00    -0.01  -0.25  -0.03     0.19  -0.01  -0.01
   8   6     0.01  -0.02  -0.00     0.40  -0.00  -0.02    -0.14   0.19   0.03
   9   6     0.01   0.02   0.00    -0.29   0.14   0.03    -0.18  -0.19  -0.01
  10   6     0.11   0.15   0.36     0.00  -0.01  -0.00    -0.24   0.01   0.09
  11   6     0.22  -0.07  -0.21    -0.01  -0.00  -0.00     0.18   0.06   0.10
  12   6    -0.35  -0.00   0.07     0.00   0.00   0.01     0.08  -0.07  -0.19
  13   6     0.10   0.13   0.28     0.01  -0.00  -0.01    -0.16   0.00   0.04
  14   6     0.32  -0.04  -0.16    -0.01  -0.00  -0.00     0.18   0.06   0.10
  15   6    -0.27  -0.05  -0.06    -0.00   0.00   0.01     0.08  -0.07  -0.19
  16   1    -0.03   0.02  -0.04    -0.01  -0.00   0.02    -0.13   0.05  -0.04
  17   1    -0.03  -0.05  -0.02     0.02   0.01  -0.01    -0.08  -0.09  -0.01
  18   1     0.01  -0.01   0.00    -0.00   0.02  -0.00     0.02   0.05   0.09
  19   1    -0.01   0.01   0.00    -0.07   0.13   0.02     0.19  -0.09  -0.01
  20   1    -0.01  -0.00   0.00     0.17   0.15   0.01     0.18   0.06  -0.00
  21   1    -0.00   0.01   0.00     0.02   0.35   0.04     0.06  -0.00  -0.00
  22   1    -0.02   0.01   0.00    -0.13   0.16   0.02     0.17  -0.08  -0.02
  23   1    -0.01  -0.00  -0.00     0.08   0.13   0.01     0.19   0.07  -0.00
  24   1    -0.14  -0.05  -0.08     0.01   0.00   0.00    -0.17  -0.01   0.01
  25   1     0.08  -0.07  -0.19     0.01  -0.00  -0.00    -0.13   0.04   0.11
  26   1    -0.13  -0.14  -0.31     0.00   0.00   0.00    -0.04   0.01   0.03
  27   1    -0.21  -0.06  -0.09     0.01   0.00   0.00    -0.16  -0.01   0.00
  28   1     0.00  -0.05  -0.12     0.00  -0.00  -0.00    -0.13   0.04   0.12
                     58                     59                     60
                        a                      a                      a 
 Frequencies --  1470.8258              1474.6564              1478.6903
 Red. masses --     8.4848                 1.7187                 2.6996
 Frc consts  --     0.0000                 0.0000                 0.0000
 IR Inten    --     5.1510                 7.7502                11.6548
 Raman Activ --     0.0000                 0.0000                 0.0000
 Depolar     --     0.0000                 0.0000                 0.0000
 Atom AN      X      Y      Z        X      Y      Z        X      Y      Z
   1   6     0.03   0.04  -0.03    -0.10   0.19  -0.06     0.18   0.08  -0.07
   2   6     0.17   0.01  -0.02    -0.03   0.03   0.00    -0.07   0.01   0.00
   3   7     0.09  -0.01  -0.01    -0.03  -0.00  -0.00     0.05   0.01   0.04
   4   6    -0.32   0.00   0.01     0.06  -0.01  -0.00     0.01   0.00   0.00
   5   6     0.12  -0.16  -0.02    -0.01   0.03   0.00    -0.00   0.02   0.00
   6   6     0.15   0.16   0.01    -0.04  -0.03  -0.00    -0.03  -0.02  -0.00
   7   6    -0.16  -0.01   0.01     0.03  -0.00  -0.00     0.02  -0.00  -0.00
   8   6     0.15  -0.16  -0.02    -0.01   0.03   0.00    -0.02   0.02   0.00
   9   6     0.12   0.16   0.01    -0.03  -0.02  -0.00    -0.02  -0.02  -0.00
  10   6    -0.31   0.01   0.09     0.01  -0.00   0.01     0.13  -0.03  -0.09
  11   6     0.14   0.06   0.11     0.01   0.00   0.00    -0.10  -0.03  -0.05
  12   6     0.12  -0.07  -0.18    -0.00  -0.00  -0.01    -0.04   0.04   0.10
  13   6    -0.18  -0.02  -0.00    -0.00  -0.00  -0.00     0.09   0.00  -0.01
  14   6     0.20   0.07   0.11     0.01   0.00   0.01    -0.12  -0.03  -0.06
  15   6     0.08  -0.07  -0.19     0.00  -0.00  -0.01    -0.02   0.05   0.11
  16   1    -0.07   0.04  -0.10     0.56  -0.13  -0.08    -0.36   0.15  -0.23
  17   1    -0.18  -0.14   0.01    -0.23   0.07   0.24    -0.50  -0.41   0.04
  18   1     0.05  -0.07   0.17     0.09  -0.69   0.07     0.12  -0.09   0.39
  19   1    -0.16   0.07   0.01     0.02  -0.01  -0.01     0.02  -0.01  -0.00
  20   1    -0.15  -0.05   0.00     0.03   0.01   0.00     0.02   0.01   0.00
  21   1    -0.05   0.01   0.00     0.01   0.01   0.00     0.01   0.00  -0.00
  22   1    -0.14   0.07   0.01     0.02  -0.01  -0.00     0.02  -0.01  -0.00
  23   1    -0.15  -0.05   0.00     0.03   0.01  -0.00     0.02   0.01   0.00
  24   1    -0.15  -0.01   0.01    -0.03   0.01  -0.01     0.17   0.03   0.00
  25   1    -0.12   0.04   0.12    -0.00  -0.00   0.00     0.06  -0.02  -0.06
  26   1    -0.03   0.02   0.05    -0.00  -0.00   0.00     0.03  -0.00  -0.01
  27   1    -0.15  -0.01   0.01    -0.01  -0.00   0.00     0.09   0.01  -0.00
  28   1    -0.12   0.04   0.11    -0.00  -0.00   0.00     0.06  -0.02  -0.05
                     61                     62                     63
                        a                      a                      a 
 Frequencies --  1567.2927              1578.7565              1589.7294
 Red. masses --    11.4213                11.4707                11.4747
 Frc consts  --     0.0000                 0.0000                 0.0000
 IR Inten    --     2.6954                 1.7125                62.1545
 Raman Activ --     0.0000                 0.0000                 0.0000
 Depolar     --     0.0000                 0.0000                 0.0000
 Atom AN      X      Y      Z        X      Y      Z        X      Y      Z
   1   6     0.00   0.00  -0.00    -0.01  -0.00   0.00    -0.00  -0.00  -0.01
   2   6     0.00  -0.00  -0.00    -0.01   0.00  -0.00     0.07   0.02   0.07
   3   7     0.00   0.02   0.00     0.06   0.00   0.01    -0.07  -0.01  -0.05
   4   6    -0.01  -0.43  -0.05    -0.02  -0.00   0.00     0.13   0.01  -0.00
   5   6    -0.18   0.28   0.04    -0.01  -0.00   0.00    -0.21   0.05   0.01
   6   6    -0.09  -0.30  -0.03     0.01   0.00  -0.00     0.24   0.07  -0.00
   7   6     0.02   0.58   0.07    -0.01   0.00   0.00    -0.11  -0.01   0.00
   8   6     0.12  -0.33  -0.04     0.01  -0.01  -0.00     0.22  -0.07  -0.02
   9   6     0.15   0.25   0.03    -0.00   0.00   0.00    -0.23  -0.05   0.01
  10   6    -0.00  -0.00   0.00    -0.18  -0.18  -0.39    -0.20  -0.00   0.04
  11   6    -0.00  -0.00  -0.00     0.24   0.10   0.19     0.37   0.02  -0.04
  12   6     0.00   0.00  -0.00     0.02  -0.14  -0.33    -0.31   0.06   0.22
  13   6    -0.00  -0.00  -0.00     0.17   0.22   0.48     0.18  -0.01  -0.05
  14   6     0.00   0.00   0.00    -0.16  -0.11  -0.22    -0.41  -0.02   0.03
  15   6    -0.00   0.00  -0.00    -0.08   0.11   0.29     0.33  -0.05  -0.20
  16   1    -0.00   0.00   0.00     0.01  -0.01   0.00    -0.00   0.00  -0.01
  17   1    -0.00  -0.00  -0.00     0.01   0.01   0.00    -0.00  -0.01  -0.01
  18   1     0.00  -0.00   0.01    -0.00  -0.00   0.01     0.00   0.00   0.01
  19   1     0.09  -0.03  -0.00    -0.00  -0.00  -0.00     0.03  -0.04  -0.00
  20   1     0.06  -0.04  -0.01    -0.00  -0.00  -0.00    -0.05  -0.04  -0.00
  21   1    -0.01  -0.16  -0.02    -0.00  -0.00   0.00    -0.03   0.01   0.00
  22   1    -0.08  -0.01   0.00    -0.00   0.00   0.00    -0.04   0.04   0.01
  23   1    -0.08  -0.00   0.00    -0.00   0.00   0.00     0.04   0.04   0.00
  24   1     0.00  -0.00   0.00    -0.10   0.00   0.03    -0.08  -0.02  -0.03
  25   1    -0.00   0.00   0.00    -0.08  -0.00   0.02     0.04  -0.03  -0.08
  26   1    -0.00   0.00   0.00    -0.06  -0.06  -0.12     0.04  -0.00  -0.02
  27   1    -0.00  -0.00   0.00     0.04  -0.02  -0.05     0.09   0.02   0.03
  28   1    -0.00  -0.00   0.00     0.06  -0.01  -0.03    -0.02   0.03   0.08
                     64                     65                     66
                        a                      a                      a 
 Frequencies --  1595.3837              1702.1040              3007.2885
 Red. masses --    11.4744                12.7882                 1.8549
 Frc consts  --     0.0000                 0.0000                 0.0000
 IR Inten    --    42.7020               234.8311                14.1558
 Raman Activ --     0.0000                 0.0000                 0.0000
 Depolar     --     0.0000                 0.0000                 0.0000
 Atom AN      X      Y      Z        X      Y      Z        X      Y      Z
   1   6     0.01   0.00   0.00     0.01   0.01   0.05    -0.05  -0.27   0.00
   2   6    -0.03   0.00   0.01    -0.50  -0.14  -0.49    -0.00  -0.01  -0.00
   3   7    -0.02  -0.00  -0.01     0.55   0.10   0.37     0.00   0.00   0.00
   4   6     0.21   0.02  -0.00    -0.11   0.02   0.01     0.00  -0.00  -0.00
   5   6    -0.35   0.09   0.02    -0.04   0.01   0.01     0.00   0.00   0.00
   6   6     0.39   0.12  -0.00     0.05   0.01  -0.00    -0.00   0.00   0.00
   7   6    -0.18  -0.03   0.00    -0.02  -0.00   0.00    -0.00   0.00  -0.00
   8   6     0.37  -0.12  -0.03     0.05  -0.01  -0.00     0.00  -0.00  -0.00
   9   6    -0.39  -0.09   0.01    -0.06  -0.01  -0.00    -0.00   0.00   0.00
  10   6     0.14  -0.00  -0.03    -0.00   0.02   0.05    -0.00   0.00  -0.00
  11   6    -0.24  -0.01   0.02     0.07   0.00  -0.01    -0.00   0.00   0.00
  12   6     0.18  -0.04  -0.13    -0.05   0.01   0.04    -0.00  -0.00  -0.00
  13   6    -0.10   0.00   0.03     0.02  -0.01  -0.02    -0.00   0.00   0.00
  14   6     0.24   0.01  -0.02    -0.03   0.00   0.01    -0.00   0.00   0.00
  15   6    -0.19   0.03   0.12     0.03  -0.02  -0.05     0.00   0.00   0.00
  16   1    -0.01   0.00   0.00     0.01  -0.01   0.05     0.25   0.88   0.16
  17   1    -0.01  -0.00   0.00     0.01   0.05   0.04    -0.14   0.11  -0.15
  18   1     0.00  -0.00   0.00    -0.01  -0.00  -0.05     0.08  -0.03  -0.02
  19   1     0.05  -0.07  -0.01     0.00  -0.01  -0.01    -0.01  -0.01  -0.00
  20   1    -0.08  -0.06  -0.00    -0.00  -0.01  -0.00     0.00  -0.00   0.00
  21   1    -0.05   0.01   0.00    -0.01   0.00  -0.00     0.00   0.00  -0.00
  22   1    -0.06   0.07   0.01    -0.00   0.01   0.00     0.00   0.00   0.00
  23   1     0.07   0.06   0.00     0.00   0.01   0.00     0.00  -0.00  -0.00
  24   1     0.05   0.01   0.02    -0.01  -0.00  -0.01     0.00  -0.00  -0.01
  25   1    -0.02   0.02   0.04     0.00  -0.00  -0.01     0.00   0.00   0.00
  26   1    -0.03   0.00   0.01     0.01  -0.00  -0.00     0.00  -0.00  -0.00
  27   1    -0.05  -0.01  -0.02    -0.00   0.00   0.00    -0.00  -0.00  -0.00
  28   1     0.01  -0.02  -0.04    -0.01   0.00   0.01    -0.00  -0.00  -0.00
                     67                     68                     69
                        a                      a                      a 
 Frequencies --  3021.0676              3033.4596              3060.8388
 Red. masses --     1.6682                 1.6198                 1.7575
 Frc consts  --     0.0000                 0.0000                 0.0000
 IR Inten    --    18.7500                21.0146                16.5589
 Raman Activ --     0.0000                 0.0000                 0.0000
 Depolar     --     0.0000                 0.0000                 0.0000
 Atom AN      X      Y      Z        X      Y      Z        X      Y      Z
   1   6    -0.17   0.09  -0.15     0.22   0.01  -0.07     0.01  -0.00  -0.00
   2   6    -0.01   0.00  -0.01     0.01  -0.00  -0.01     0.00  -0.00   0.00
   3   7     0.00   0.00   0.00    -0.00   0.00   0.00    -0.00   0.00   0.00
   4   6     0.00  -0.00  -0.00    -0.00   0.00  -0.00    -0.00  -0.00  -0.00
   5   6    -0.00  -0.00  -0.00     0.00   0.01   0.00    -0.08  -0.11  -0.01
   6   6    -0.00   0.00   0.00     0.00  -0.00  -0.00    -0.09   0.19   0.03
   7   6    -0.00   0.00   0.00     0.00  -0.00  -0.00     0.07  -0.00  -0.00
   8   6    -0.00  -0.00  -0.00     0.00   0.00   0.00    -0.01  -0.02  -0.00
   9   6     0.00  -0.00  -0.00     0.00  -0.00  -0.00     0.00  -0.00  -0.00
  10   6    -0.00  -0.00   0.00    -0.00   0.00   0.00    -0.00  -0.00   0.00
  11   6    -0.00   0.00   0.01     0.00  -0.00  -0.00     0.00   0.00   0.00
  12   6    -0.00  -0.00  -0.00     0.00   0.00   0.00    -0.00  -0.00  -0.00
  13   6    -0.00   0.00   0.00     0.00  -0.00  -0.00    -0.00   0.00   0.00
  14   6    -0.00   0.00   0.00     0.00  -0.00  -0.00    -0.00   0.00   0.00
  15   6     0.00   0.00  -0.00    -0.00  -0.00  -0.00    -0.00  -0.00  -0.00
  16   1     0.04   0.24   0.02     0.06   0.11   0.01     0.00   0.01   0.00
  17   1     0.50  -0.57   0.55     0.07  -0.05   0.04    -0.00   0.00  -0.00
  18   1     0.08   0.02  -0.04    -0.93  -0.11   0.20    -0.02  -0.00   0.00
  19   1     0.01   0.01   0.00    -0.01  -0.02  -0.00     0.27   0.42   0.03
  20   1     0.00  -0.00  -0.00    -0.00   0.01   0.00     0.35  -0.69  -0.09
  21   1     0.00  -0.00  -0.00    -0.00   0.00  -0.00    -0.27   0.01   0.01
  22   1     0.00   0.00   0.00    -0.00  -0.00  -0.00     0.04   0.07   0.01
  23   1    -0.00   0.00   0.00    -0.00   0.00   0.00    -0.00   0.00   0.00
  24   1     0.01  -0.01  -0.02    -0.00   0.00   0.01     0.00  -0.00  -0.00
  25   1     0.00   0.00   0.00    -0.00  -0.00  -0.00     0.00   0.00   0.00
  26   1     0.00   0.00  -0.00    -0.00   0.00   0.00     0.00  -0.00  -0.00
  27   1    -0.00  -0.00  -0.00    -0.00   0.00   0.00     0.00  -0.00  -0.00
  28   1    -0.00  -0.00  -0.00     0.00   0.00   0.00     0.00   0.00   0.00
                     70                     71                     72
                        a                      a                      a 
 Frequencies --  3064.5460              3070.6856              3072.4824
 Red. masses --     1.7721                 1.7564                 1.8493
 Frc consts  --     0.0000                 0.0000                 0.0000
 IR Inten    --    13.4442                 3.8562                93.4729
 Raman Activ --     0.0000                 0.0000                 0.0000
 Depolar     --     0.0000                 0.0000                 0.0000
 Atom AN      X      Y      Z        X      Y      Z        X      Y      Z
   1   6    -0.00   0.00  -0.00    -0.00  -0.00  -0.00    -0.00   0.00  -0.00
   2   6     0.00   0.00   0.00    -0.00   0.00   0.00    -0.00   0.00   0.00
   3   7    -0.00  -0.00  -0.00     0.00  -0.00  -0.00    -0.00  -0.00  -0.00
   4   6    -0.00   0.00   0.00    -0.00   0.00  -0.00     0.01  -0.00  -0.00
   5   6     0.03   0.04   0.00    -0.00  -0.00  -0.00     0.12   0.18   0.01
   6   6     0.01  -0.02  -0.00     0.00  -0.00  -0.00    -0.05   0.10   0.01
   7   6     0.09  -0.01  -0.00     0.00  -0.00  -0.00     0.10  -0.01  -0.01
   8   6    -0.12  -0.19  -0.02    -0.00  -0.00  -0.00     0.04   0.05   0.00
   9   6    -0.04   0.07   0.01    -0.00   0.00   0.00     0.01  -0.03  -0.00
  10   6    -0.00   0.00  -0.00     0.00  -0.00  -0.00     0.00  -0.00  -0.00
  11   6     0.00  -0.00  -0.00     0.01  -0.01  -0.03     0.00  -0.00  -0.00
  12   6    -0.00  -0.00  -0.00     0.14   0.06   0.11    -0.00  -0.00  -0.00
  13   6    -0.00   0.00   0.00    -0.14   0.01   0.05    -0.00   0.00   0.00
  14   6    -0.00   0.00   0.00     0.01  -0.03  -0.08     0.00  -0.00  -0.00
  15   6     0.00  -0.00   0.00     0.01   0.00   0.00     0.00   0.00   0.00
  16   1    -0.00  -0.00  -0.00     0.00   0.00   0.00    -0.00  -0.01  -0.00
  17   1     0.00  -0.00   0.00     0.00  -0.00   0.00     0.01  -0.01   0.01
  18   1     0.00   0.00  -0.00     0.00   0.00  -0.00     0.02   0.00  -0.00
  19   1    -0.10  -0.15  -0.01     0.00   0.00   0.00    -0.41  -0.63  -0.05
  20   1    -0.04   0.07   0.01    -0.00   0.00   0.00     0.17  -0.34  -0.05
  21   1    -0.33   0.02   0.02    -0.01   0.00   0.00    -0.37   0.02   0.02
  22   1     0.45   0.69   0.06     0.00   0.00   0.00    -0.12  -0.19  -0.02
  23   1     0.14  -0.27  -0.04     0.00  -0.00  -0.00    -0.05   0.11   0.02
  24   1    -0.00   0.00   0.00    -0.02   0.06   0.14    -0.00   0.00   0.00
  25   1     0.00   0.00   0.00    -0.53  -0.21  -0.39     0.00   0.00   0.00
  26   1     0.00  -0.00  -0.00     0.53  -0.04  -0.20     0.00  -0.00  -0.00
  27   1     0.00  -0.00  -0.00    -0.05   0.12   0.30    -0.00   0.00   0.00
  28   1     0.00  -0.00  -0.00    -0.03  -0.01  -0.02    -0.00  -0.00  -0.00
                     73                     74                     75
                        a                      a                      a 
 Frequencies --  3075.4944              3079.4773              3086.3122
 Red. masses --     1.8073                 1.8546                 1.8861
 Frc consts  --     0.0000                 0.0000                 0.0000
 IR Inten    --    37.9257               120.6738               141.5559
 Raman Activ --     0.0000                 0.0000                 0.0000
 Depolar     --     0.0000                 0.0000                 0.0000
 Atom AN      X      Y      Z        X      Y      Z        X      Y      Z
   1   6     0.00   0.00   0.00    -0.00  -0.00   0.00    -0.00  -0.00  -0.00
   2   6    -0.00  -0.00  -0.00    -0.00  -0.00  -0.00    -0.00  -0.00  -0.00
   3   7    -0.00  -0.00  -0.00    -0.00   0.00   0.00     0.00  -0.00  -0.00
   4   6    -0.00   0.00  -0.00     0.01  -0.00  -0.00    -0.00   0.00   0.00
   5   6    -0.00  -0.00  -0.00    -0.03  -0.04  -0.00    -0.02  -0.02  -0.00
   6   6     0.00  -0.00  -0.00     0.04  -0.08  -0.01     0.02  -0.04  -0.00
   7   6     0.00   0.00  -0.00     0.15  -0.00  -0.01     0.09  -0.00  -0.00
   8   6    -0.00  -0.00  -0.00    -0.01  -0.02  -0.00     0.03   0.05   0.00
   9   6     0.00   0.00   0.00     0.09  -0.18  -0.03    -0.04   0.07   0.01
  10   6     0.00   0.00   0.00     0.00   0.00  -0.00     0.00  -0.00  -0.00
  11   6    -0.01   0.02   0.04    -0.00  -0.00  -0.00     0.01  -0.02  -0.05
  12   6    -0.12  -0.05  -0.08     0.00   0.00   0.00     0.06   0.02   0.05
  13   6    -0.06   0.00   0.02     0.00  -0.00  -0.00     0.17  -0.01  -0.06
  14   6     0.04  -0.08  -0.19     0.00  -0.00  -0.00     0.02  -0.04  -0.11
  15   6     0.03   0.01   0.02    -0.00  -0.00  -0.00     0.03   0.01   0.02
  16   1    -0.00  -0.00  -0.00     0.00   0.01   0.00     0.00   0.01   0.00
  17   1    -0.00   0.00  -0.00    -0.00   0.00  -0.00     0.00  -0.00   0.00
  18   1    -0.00  -0.00   0.00     0.00  -0.00  -0.00     0.00   0.00  -0.00
  19   1     0.00   0.00   0.00     0.10   0.15   0.01     0.05   0.08   0.01
  20   1    -0.00   0.00   0.00    -0.14   0.27   0.04    -0.06   0.12   0.02
  21   1    -0.00   0.00   0.00    -0.51   0.02   0.03    -0.29   0.01   0.01
  22   1     0.00   0.00   0.00     0.04   0.07   0.01    -0.11  -0.17  -0.01
  23   1     0.00  -0.00  -0.00    -0.33   0.64   0.09     0.12  -0.23  -0.03
  24   1     0.03  -0.06  -0.15     0.00   0.00   0.00    -0.03   0.08   0.20
  25   1     0.40   0.16   0.29    -0.00  -0.00  -0.00    -0.20  -0.08  -0.15
  26   1     0.22  -0.01  -0.08    -0.00   0.00   0.00    -0.59   0.04   0.22
  27   1    -0.12   0.27   0.68    -0.00   0.00   0.00    -0.07   0.15   0.36
  28   1    -0.12  -0.05  -0.08     0.00   0.00   0.00    -0.12  -0.05  -0.09
                     76                     77                     78
                        a                      a                      a 
 Frequencies --  3086.7657              3097.1687              3102.1776
 Red. masses --     1.9022                 1.8581                 1.8584
 Frc consts  --     0.0000                 0.0000                 0.0000
 IR Inten    --    23.2530                47.4695                13.6548
 Raman Activ --     0.0000                 0.0000                 0.0000
 Depolar     --     0.0000                 0.0000                 0.0000
 Atom AN      X      Y      Z        X      Y      Z        X      Y      Z
   1   6     0.00   0.00   0.00     0.00   0.00   0.00    -0.00  -0.00   0.00
   2   6     0.00  -0.00  -0.00    -0.00   0.00   0.00    -0.00  -0.00  -0.00
   3   7     0.00   0.00   0.00     0.00  -0.00  -0.00     0.00   0.00   0.00
   4   6    -0.01   0.00   0.00    -0.00   0.00   0.00     0.00  -0.00  -0.00
   5   6    -0.03  -0.04  -0.00     0.00   0.00   0.00     0.00   0.00   0.00
   6   6     0.03  -0.07  -0.01    -0.00   0.00   0.00    -0.00   0.00   0.00
   7   6     0.15  -0.01  -0.01    -0.00   0.00   0.00    -0.00   0.00   0.00
   8   6     0.06   0.09   0.01    -0.00  -0.00  -0.00    -0.00  -0.00  -0.00
   9   6    -0.06   0.12   0.02     0.00  -0.00  -0.00     0.00  -0.00  -0.00
  10   6    -0.00   0.00   0.00    -0.01   0.00   0.00    -0.01  -0.00   0.00
  11   6    -0.00   0.01   0.04    -0.04   0.10   0.23    -0.00   0.01   0.03
  12   6    -0.03  -0.01  -0.03     0.07   0.03   0.05     0.01   0.01   0.01
  13   6    -0.10   0.01   0.04     0.04  -0.00  -0.02     0.03  -0.00  -0.01
  14   6    -0.01   0.02   0.06     0.00  -0.00  -0.01     0.01  -0.03  -0.07
  15   6    -0.02  -0.01  -0.02     0.03   0.01   0.02    -0.21  -0.08  -0.15
  16   1    -0.00  -0.00  -0.00    -0.01  -0.01  -0.00    -0.00   0.00   0.00
  17   1    -0.00   0.00  -0.00    -0.01   0.01  -0.01    -0.00  -0.00   0.00
  18   1    -0.01  -0.00   0.00    -0.01  -0.00   0.00     0.00   0.00  -0.00
  19   1     0.09   0.14   0.01    -0.00  -0.00  -0.00    -0.00  -0.01  -0.00
  20   1    -0.11   0.22   0.03     0.00  -0.01  -0.00     0.00  -0.00  -0.00
  21   1    -0.51   0.03   0.03     0.01  -0.00  -0.00     0.01  -0.00  -0.00
  22   1    -0.20  -0.30  -0.03     0.00   0.01   0.00     0.00   0.00   0.00
  23   1     0.21  -0.41  -0.06    -0.00   0.01   0.00    -0.00   0.00   0.00
  24   1     0.02  -0.05  -0.13     0.14  -0.34  -0.82     0.01  -0.04  -0.09
  25   1     0.11   0.05   0.08    -0.22  -0.09  -0.16    -0.04  -0.02  -0.03
  26   1     0.33  -0.02  -0.12    -0.14   0.01   0.05    -0.09   0.01   0.03
  27   1     0.04  -0.08  -0.21    -0.00   0.01   0.02    -0.04   0.08   0.21
  28   1     0.08   0.03   0.06    -0.10  -0.04  -0.07     0.71   0.28   0.51
