      -----------------------------------------------------------      
     |                   =====================                   |     
     |                           x T B                           |     
     |                   =====================                   |     
     |                         S. Grimme                         |     
     |          Mulliken Center for Theoretical Chemistry        |     
     |                    University of Bonn                     |     
      -----------------------------------------------------------      

   * xtb version 6.7.1 (edcfbbe) compiled by 'VssAdministrator@runnervm171ch' on 2026-06-10

   xtb is free software: you can redistribute it and/or modify it under
   the terms of the GNU Lesser General Public License as published by
   the Free Software Foundation, either version 3 of the License, or
   (at your option) any later version.
   
   xtb is distributed in the hope that it will be useful,
   but WITHOUT ANY WARRANTY; without even the implied warranty of
   MERCHANTABILITY or FITNESS FOR A PARTICULAR PURPOSE.  See the
   GNU Lesser General Public License for more details.
   
   Cite this work as:
   * C. Bannwarth, E. Caldeweyher, S. Ehlert, A. Hansen, P. Pracht,
     J. Seibert, S. Spicher, S. Grimme, WIREs Comput. Mol. Sci., 2020, 11,
     e01493. DOI: 10.1002/wcms.1493
   
   for GFN2-xTB:
   * C. Bannwarth, S. Ehlert and S. Grimme., J. Chem. Theory Comput., 2019,
     15, 1652-1671. DOI: 10.1021/acs.jctc.8b01176
   for GFN1-xTB:
   * S. Grimme, C. Bannwarth, P. Shushkov, J. Chem. Theory Comput., 2017,
     13, 1989-2009. DOI: 10.1021/acs.jctc.7b00118
   for GFN0-xTB:
   * P. Pracht, E. Caldeweyher, S. Ehlert, S. Grimme, ChemRxiv, 2019, preprint.
     DOI: 10.26434/chemrxiv.8326202.v1
   for GFN-FF:
   * S. Spicher and S. Grimme, Angew. Chem. Int. Ed., 2020, 59, 15665-15673.
     DOI: 10.1002/anie.202004239
   
   for ALPB and GBSA implicit solvation:
   * S. Ehlert, M. Stahn, S. Spicher, S. Grimme, J. Chem. Theory Comput.,
     2021, 17, 4250-4261. DOI: 10.1021/acs.jctc.1c00471
   
   for ddCOSMO and CPCM-X implicit solvation:
   * M. Stahn, S. Ehlert, S. Grimme, J. Phys. Chem. A,
     2023, XX, XXXX-XXXX. DOI: 10.1021/acs.jpca.3c04382
   
   for DFT-D4:
   * E. Caldeweyher, C. Bannwarth and S. Grimme, J. Chem. Phys., 2017,
     147, 034112. DOI: 10.1063/1.4993215
   * E. Caldeweyher, S. Ehlert, A. Hansen, H. Neugebauer, S. Spicher,
     C. Bannwarth and S. Grimme, J. Chem. Phys., 2019, 150, 154122.
     DOI: 10.1063/1.5090222
   * E. Caldeweyher, J.-M. Mewes, S. Ehlert and S. Grimme, Phys. Chem. Chem. Phys.
     2020, 22, 8499-8512. DOI: 10.1039/D0CP00502A
   
   for sTDA-xTB:
   * S. Grimme and C. Bannwarth, J. Chem. Phys., 2016, 145, 054103.
     DOI: 10.1063/1.4959605
   
   in the mass-spec context:
   * V. Asgeirsson, C. Bauer and S. Grimme, Chem. Sci., 2017, 8, 4879.
     DOI: 10.1039/c7sc00601b
   * J. Koopman and S. Grimme, ACS Omega 2019, 4, 12, 15120-15133.
     DOI: 10.1021/acsomega.9b02011
   
   for metadynamics refer to:
   * S. Grimme, J. Chem. Theory Comput., 2019, 155, 2847-2862
     DOI: 10.1021/acs.jctc.9b00143
   
   for SPH calculations refer to:
   * S. Spicher and S. Grimme, J. Chem. Theory Comput., 2021, 17, 1701-1714
     DOI: 10.1021/acs.jctc.0c01306
   
   for ONIOM refer to:
   * C. Plett, A. Katbashev, S. Ehlert, S. Grimme, M. Bursch,
     Phys. Chem. Chem. Phys., 2023, 25, 17860-17868. DOI: 10.1039/D3CP02178E
   
   for DIPRO refer to:
   * J. Kohn, N. Gildemeister, S. Grimme, D. Fazzi, A. Hansen,
     J. Chem. Phys., 2023, just accepted.
   
   for PTB refer to:
   * S. Grimme, M. Mueller, A. Hansen, J. Chem. Phys., 2023, 158, 124111.
     DOI: 10.1063/5.0137838
   
   with help from (in alphabetical order)
   P. Atkinson, C. Bannwarth, F. Bohle, G. Brandenburg, E. Caldeweyher
   M. Checinski, S. Dohm, S. Ehlert, S. Ehrlich, I. Gerasimov, C. Hölzer
   A. Katbashev, J. Kohn, J. Koopman, C. Lavigne, S. Lehtola, F. März, M. Müller,
   F. Musil, H. Neugebauer, J. Pisarek, C. Plett, P. Pracht, F. Pultar,
   J. Seibert, P. Shushkov, S. Spicher, M. Stahn, M. Steiner, T. Strunk,
   J. Stückrath, T. Rose, and J. Unsleber
   
 * started run on 2026/09/10 at 22:57:01.486     
   ID    Z sym.   atoms
    1    6 C      1, 2, 4-15
    2    7 N      3
    3    1 H      16-28

           -------------------------------------------------
          |                Calculation Setup                |
           -------------------------------------------------

          program call               : C:\Users\HUIWEI\miniconda3\envs\phase2ff\Library\bin\xtb.exe input.xyz --gfn 2 --chrg 0 --uhf 0 --alpb toluene --acc 0.2 --opt vtight
          coordinate file            : input.xyz
          omp threads                :                     1


           -------------------------------------------------
          |                 G F N 2 - x T B                 |
           -------------------------------------------------

        Reference                      10.1021/acs.jctc.8b01176
      * Hamiltonian:
        H0-scaling (s, p, d)           1.850000    2.230000    2.230000
        zeta-weighting                 0.500000
      * Dispersion:
        s8                             2.700000
        a1                             0.520000
        a2                             5.000000
        s9                             5.000000
      * Repulsion:
        kExp                           1.500000    1.000000
        rExp                           1.000000
      * Coulomb:
        alpha                          2.000000
        third order                    shell-resolved
        anisotropic                    true
        a3                             3.000000
        a5                             4.000000
        cn-shift                       1.200000
        cn-exp                         4.000000
        max-rad                        5.000000

      * Solvation model:               ALPB
        Solvent                        toluene
        Parameter file                 internal GFN2-xTB/ALPB
        Dielectric constant                7.0000E+00
        Reference state                gsolv [1 M gas/solution]
        Free energy shift                  2.2081E-03 Eh       1.3856E+00 kcal/mol
        Temperature                        2.9815E+02 K
        Density                            8.6700E-01 kg/L
        Solvent mass                       7.8110E+01 g/mol
        Interaction kernel             P16
        Born radius scaling (c1)           1.7172E+00
        Born radii integrator          GBOBC
        Born offset                        0.0000E+00 a0       0.0000E+00 AA
        H-bond correction              false
        Ion screening                  false
        Surface tension                    1.0000E-05 Eh       1.5569E+01 dyn/cm
        Grid points                               230 per atom

          ...................................................
          :                      SETUP                      :
          :.................................................:
          :  # basis functions                  73          :
          :  # atomic orbitals                  73          :
          :  # shells                           43          :
          :  # electrons                        74          :
          :  max. iterations                   250          :
          :  Hamiltonian                  GFN2-xTB          :
          :  restarted?                      false          :
          :  GBSA solvation                   true          :
          :  PC potential                    false          :
          :  electronic temp.          300.0000000     K    :
          :  accuracy                    0.2000000          :
          :  -> integral cutoff          0.3198970E+02      :
          :  -> integral neglect         0.2000000E-08      :
          :  -> SCF convergence          0.2000000E-06 Eh   :
          :  -> wf. convergence          0.2000000E-04 e    :
          :  Broyden damping             0.4000000          :
          :  net charge                          0          :
          :  unpaired electrons                  0          :
          ...................................................

 iter      E             dE          RMSdq      gap      omega  full diag
   1    -40.1677327 -0.401677E+02  0.442E+00    2.92       0.0  T
   2    -40.1916366 -0.239039E-01  0.266E+00    2.78       1.0  T
   3    -40.1814880  0.101486E-01  0.886E-01    2.47       1.0  T
   4    -40.1947913 -0.133033E-01  0.290E-01    2.55       1.0  T
   5    -40.1960082 -0.121686E-02  0.605E-02    2.52       1.0  T
   6    -40.1960742 -0.660760E-04  0.389E-02    2.53       1.0  T
   7    -40.1960875 -0.132609E-04  0.121E-02    2.53       1.6  T
   8    -40.1960886 -0.106450E-05  0.351E-03    2.53       5.4  T
   9    -40.1960888 -0.201871E-06  0.145E-03    2.53      13.0  T
  10    -40.1960888 -0.865116E-08  0.520E-04    2.53      36.3  T
  11    -40.1960888 -0.179396E-08  0.207E-04    2.53      91.4  T
  12    -40.1960888 -0.423839E-09  0.971E-05    2.53     194.7  T
  13    -40.1960888 -0.203926E-10  0.368E-05    2.53     513.4  T

   *** convergence criteria satisfied after 13 iterations ***

         #    Occupation            Energy/Eh            Energy/eV
      -------------------------------------------------------------
         1        2.0000           -0.6485727             -17.6486
       ...           ...                  ...                  ...
        31        2.0000           -0.4247773             -11.5588
        32        2.0000           -0.4173170             -11.3558
        33        2.0000           -0.4072560             -11.0820
        34        2.0000           -0.4061224             -11.0512
        35        2.0000           -0.3965041             -10.7894
        36        2.0000           -0.3954223             -10.7600
        37        2.0000           -0.3598951              -9.7932 (HOMO)
        38                         -0.2668887              -7.2624 (LUMO)
        39                         -0.2294301              -6.2431
        40                         -0.2195601              -5.9745
        41                         -0.2113440              -5.7510
        42                         -0.1975061              -5.3744
       ...                                ...                  ...
        73                          0.6494248              17.6717
      -------------------------------------------------------------
                  HL-Gap            0.0930063 Eh            2.5308 eV
             Fermi-level           -0.3133919 Eh           -8.5278 eV

 SCC (total)                   0 d,  0 h,  0 min,  0.051 sec
 SCC setup                      ...        0 min,  0.003 sec (  6.608%)
 Dispersion                     ...        0 min,  0.001 sec (  1.231%)
 classical contributions        ...        0 min,  0.000 sec (  0.636%)
 integral evaluation            ...        0 min,  0.005 sec (  9.342%)
 iterations                     ...        0 min,  0.030 sec ( 58.683%)
 molecular gradient             ...        0 min,  0.011 sec ( 21.564%)
 printout                       ...        0 min,  0.001 sec (  1.878%)

         :::::::::::::::::::::::::::::::::::::::::::::::::::::
         ::                     SUMMARY                     ::
         :::::::::::::::::::::::::::::::::::::::::::::::::::::
         :: total energy             -39.507173286597 Eh    ::
         :: total w/o Gsasa/hb       -39.489826060715 Eh    ::
         :: gradient norm              0.060361751484 Eh/a0 ::
         :: HOMO-LUMO gap              2.530831329221 eV    ::
         ::.................................................::
         :: SCC energy               -40.196154727769 Eh    ::
         :: -> isotropic ES            0.010517703262 Eh    ::
         :: -> anisotropic ES          0.005945188687 Eh    ::
         :: -> anisotropic XC          0.032125711676 Eh    ::
         :: -> dispersion             -0.027187698268 Eh    ::
         :: -> Gsolv                  -0.017668666638 Eh    ::
         ::    -> Gelec               -0.000321440756 Eh    ::
         ::    -> Gsasa               -0.019555369020 Eh    ::
         ::    -> Ghb                  0.000000000000 Eh    ::
         ::    -> Gshift               0.002208143139 Eh    ::
         :: repulsion energy           0.688981441172 Eh    ::
         :: add. restraining           0.000000000000 Eh    ::
         :: total charge              -0.000000000000 e     ::
         :::::::::::::::::::::::::::::::::::::::::::::::::::::

      ----------------------------------------------------------- 
     |                   =====================                   |
     |                        A N C O P T                        |
     |                   =====================                   |
     |               Approximate Normal Coordinate               |
     |                Rational Function Optimizer                |
      ----------------------------------------------------------- 
      ----------------------------------------------------------- 
     |                   =====================                   |
     |                        A N C O P T                        |
     |                   =====================                   |
     |               Approximate Normal Coordinate               |
     |                Rational Function Optimizer                |
      ----------------------------------------------------------- 

          ...................................................
          :                      SETUP                      :
          :.................................................:
          :   optimization level         verytight          :
          :   max. optcycles                   560          :
          :   ANC micro-cycles                  20          :
          :   degrees of freedom                78          :
          :.................................................:
          :   RF solver                   davidson          :
          :   write xtbopt.log                true          :
          :   linear?                        false          :
          :   energy convergence         0.1000000E-06 Eh   :
          :   grad. convergence          0.2000000E-03 Eh/α :
          :   maxmium RF displ.          1.0000000          :
          :   Hlow (freq-cutoff)         0.1000000E-01      :
          :   Hmax (freq-cutoff)         5.0000000          :
          :   S6 in model hess.         20.0000000          :
          ...................................................

generating ANC from exact Hessian ...
Using Lindh-Hessian (1995)
 Shifting diagonal of input Hessian by    9.3799859189054261E-003
 Lowest  eigenvalues of input Hessian
    0.000000    0.000000    0.000000    0.000000    0.000000    0.000000
    0.010000    0.010499    0.010637    0.011814    0.013441    0.015427
    0.018450    0.018885    0.023336    0.023764    0.024891    0.027763
 Highest eigenvalues
    1.843934    1.867955    1.940779    1.947492    1.955684    2.065703


........................................................................
.............................. CYCLE    1 ..............................
........................................................................

 iter      E             dE          RMSdq      gap      omega  full diag
   1    -40.1960888 -0.401961E+02  0.107E-05    2.53       0.0  T
   2    -40.1960888 -0.108713E-11  0.691E-06    2.53    2736.3  T
   3    -40.1960888 -0.575540E-12  0.386E-06    2.53    4896.7  T
     SCC iter.                  ...        0 min,  0.004 sec
     gradient                   ...        0 min,  0.010 sec
 * total energy  :   -39.5071733 Eh     change       -0.1728040E-10 Eh
   gradient norm :     0.0603616 Eh/α   predicted     0.0000000E+00 (-100.00%)
   displ. norm   :     0.2071932 α      lambda       -0.6216767E-02
   maximum displ.:     0.0888166 α      in ANC's #11, #41, #45, ...

........................................................................
.............................. CYCLE    2 ..............................
........................................................................

 iter      E             dE          RMSdq      gap      omega  full diag
   1    -40.2367052 -0.402367E+02  0.154E-01    2.59       0.0  T
   2    -40.2367523 -0.470908E-04  0.959E-02    2.59       1.0  T
   3    -40.2367345  0.177816E-04  0.424E-02    2.60       1.0  T
   4    -40.2367612 -0.267368E-04  0.891E-03    2.59       2.1  T
   5    -40.2367623 -0.107306E-05  0.254E-03    2.59       7.4  T
   6    -40.2367623  0.666429E-08  0.153E-03    2.59      12.3  T
   7    -40.2367623 -0.383856E-07  0.422E-04    2.59      44.8  T
   8    -40.2367623 -0.770385E-09  0.197E-04    2.59      96.1  T
   9    -40.2367623 -0.451180E-09  0.735E-05    2.59     257.2  T
     SCC iter.                  ...        0 min,  0.009 sec
     gradient                   ...        0 min,  0.011 sec
 * total energy  :   -39.5111230 Eh     change       -0.3949745E-02 Eh
   gradient norm :     0.0190154 Eh/α   predicted    -0.3242530E-02 ( -17.91%)
   displ. norm   :     0.1451669 α      lambda       -0.9245565E-03
   maximum displ.:     0.0818690 α      in ANC's #3, #11, #8, ...

........................................................................
.............................. CYCLE    3 ..............................
........................................................................

 iter      E             dE          RMSdq      gap      omega  full diag
   1    -40.2511360 -0.402511E+02  0.728E-02    2.58       0.0  T
   2    -40.2511498 -0.138098E-04  0.452E-02    2.59       1.0  T
   3    -40.2511475  0.223684E-05  0.242E-02    2.59       1.0  T
   4    -40.2511537 -0.614677E-05  0.388E-03    2.59       4.9  T
   5    -40.2511540 -0.282137E-06  0.127E-03    2.59      14.9  T
   6    -40.2511540 -0.110358E-07  0.591E-04    2.59      32.0  T
   7    -40.2511540 -0.234714E-08  0.230E-04    2.59      82.1  T
   8    -40.2511540 -0.277815E-09  0.816E-05    2.59     231.6  T
   9    -40.2511540 -0.140631E-09  0.277E-05    2.59     682.5  T
     SCC iter.                  ...        0 min,  0.010 sec
     gradient                   ...        0 min,  0.010 sec
 * total energy  :   -39.5116659 Eh     change       -0.5428797E-03 Eh
   gradient norm :     0.0077957 Eh/α   predicted    -0.4725999E-03 ( -12.95%)
   displ. norm   :     0.1277062 α      lambda       -0.2119874E-03
   maximum displ.:     0.1046035 α      in ANC's #3, #8, #11, ...

........................................................................
.............................. CYCLE    4 ..............................
........................................................................

 iter      E             dE          RMSdq      gap      omega  full diag
   1    -40.2527693 -0.402528E+02  0.443E-02    2.56       0.0  T
   2    -40.2527724 -0.310345E-05  0.277E-02    2.57       1.0  T
   3    -40.2527713  0.106105E-05  0.156E-02    2.56       1.2  T
   4    -40.2527744 -0.309572E-05  0.167E-03    2.57      11.4  T
   5    -40.2527745 -0.587291E-07  0.622E-04    2.56      30.4  T
   6    -40.2527745 -0.509623E-08  0.268E-04    2.56      70.5  T
   7    -40.2527745 -0.265274E-09  0.941E-05    2.56     200.9  T
   8    -40.2527745 -0.416946E-10  0.338E-05    2.56     559.5  T
     SCC iter.                  ...        0 min,  0.007 sec
     gradient                   ...        0 min,  0.010 sec
 * total energy  :   -39.5118388 Eh     change       -0.1728634E-03 Eh
   gradient norm :     0.0047982 Eh/α   predicted    -0.1077234E-03 ( -37.68%)
   displ. norm   :     0.2079851 α      lambda       -0.2533134E-03
   maximum displ.:     0.1679025 α      in ANC's #3, #8, #6, ...

........................................................................
.............................. CYCLE    5 ..............................
........................................................................

 iter      E             dE          RMSdq      gap      omega  full diag
   1    -40.2515398 -0.402515E+02  0.642E-02    2.53       0.0  T
   2    -40.2515442 -0.443389E-05  0.395E-02    2.53       1.0  T
   3    -40.2515402  0.401974E-05  0.220E-02    2.53       1.0  T
   4    -40.2515476 -0.736509E-05  0.216E-03    2.53       8.7  T
   5    -40.2515476 -0.852574E-07  0.857E-04    2.53      22.0  T
   6    -40.2515477 -0.799614E-08  0.427E-04    2.53      44.3  T
   7    -40.2515477 -0.725201E-09  0.118E-04    2.53     160.1  T
   8    -40.2515477 -0.839577E-10  0.463E-05    2.53     408.6  T
     SCC iter.                  ...        0 min,  0.010 sec
     gradient                   ...        0 min,  0.010 sec
 * total energy  :   -39.5120374 Eh     change       -0.1985760E-03 Eh
   gradient norm :     0.0038993 Eh/α   predicted    -0.1321372E-03 ( -33.46%)
   displ. norm   :     0.2178262 α      lambda       -0.1886524E-03
   maximum displ.:     0.1728174 α      in ANC's #3, #8, #6, ...

........................................................................
.............................. CYCLE    6 ..............................
........................................................................

 iter      E             dE          RMSdq      gap      omega  full diag
   1    -40.2499653 -0.402500E+02  0.609E-02    2.51       0.0  T
   2    -40.2499675 -0.221454E-05  0.365E-02    2.51       1.0  T
   3    -40.2499630  0.446151E-05  0.175E-02    2.51       1.1  T
   4    -40.2499688 -0.577755E-05  0.180E-03    2.51      10.5  T
   5    -40.2499689 -0.568023E-07  0.697E-04    2.51      27.1  T
   6    -40.2499689 -0.307637E-08  0.389E-04    2.51      48.6  T
   7    -40.2499689 -0.104522E-08  0.897E-05    2.51     210.6  T
   8    -40.2499689 -0.482316E-10  0.398E-05    2.51     474.3  T
     SCC iter.                  ...        0 min,  0.008 sec
     gradient                   ...        0 min,  0.011 sec
 * total energy  :   -39.5121967 Eh     change       -0.1593603E-03 Eh
   gradient norm :     0.0065423 Eh/α   predicted    -0.9880622E-04 ( -38.00%)
   displ. norm   :     0.2283497 α      lambda       -0.1902625E-03
   maximum displ.:     0.1781133 α      in ANC's #3, #8, #6, ...

........................................................................
.............................. CYCLE    7 ..............................
........................................................................

 iter      E             dE          RMSdq      gap      omega  full diag
   1    -40.2489145 -0.402489E+02  0.598E-02    2.50       0.0  T
   2    -40.2489154 -0.886385E-06  0.353E-02    2.51       1.0  T
   3    -40.2489137  0.175636E-05  0.992E-03    2.50       1.9  T
   4    -40.2489157 -0.205929E-05  0.148E-03    2.50      12.8  T
   5    -40.2489158 -0.358412E-07  0.577E-04    2.50      32.8  T
   6    -40.2489158 -0.199449E-09  0.293E-04    2.50      64.5  T
   7    -40.2489158 -0.131266E-08  0.651E-05    2.50     290.3  T
   8    -40.2489158 -0.189360E-10  0.332E-05    2.50     569.2  T
     SCC iter.                  ...        0 min,  0.009 sec
     gradient                   ...        0 min,  0.010 sec
 * total energy  :   -39.5123612 Eh     change       -0.1645068E-03 Eh
   gradient norm :     0.0070491 Eh/α   predicted    -0.1000933E-03 ( -39.16%)
   displ. norm   :     0.2758077 α      lambda       -0.2312002E-03
   maximum displ.:     0.2189140 α      in ANC's #3, #8, #6, ...

........................................................................
.............................. CYCLE    8 ..............................
........................................................................

 iter      E             dE          RMSdq      gap      omega  full diag
   1    -40.2486458 -0.402486E+02  0.722E-02    2.51       0.0  T
   2    -40.2486464 -0.622942E-06  0.426E-02    2.51       1.0  T
   3    -40.2486462  0.206119E-06  0.425E-03    2.51       4.5  T
   4    -40.2486466 -0.349535E-06  0.128E-03    2.51      14.8  T
   5    -40.2486466 -0.160186E-07  0.591E-04    2.51      32.0  T
   6    -40.2486466 -0.678654E-09  0.241E-04    2.51      78.6  T
   7    -40.2486466 -0.138289E-08  0.637E-05    2.51     296.6  T
   8    -40.2486466 -0.978417E-11  0.305E-05    2.51     618.7  T
     SCC iter.                  ...        0 min,  0.007 sec
     gradient                   ...        0 min,  0.011 sec
 * total energy  :   -39.5125522 Eh     change       -0.1910179E-03 Eh
   gradient norm :     0.0054904 Eh/α   predicted    -0.1244009E-03 ( -34.87%)
   displ. norm   :     0.3228072 α      lambda       -0.2296144E-03
   maximum displ.:     0.2635055 α      in ANC's #3, #6, #8, ...

........................................................................
.............................. CYCLE    9 ..............................
........................................................................

 iter      E             dE          RMSdq      gap      omega  full diag
   1    -40.2490882 -0.402491E+02  0.875E-02    2.51       0.0  T
   2    -40.2490889 -0.737123E-06  0.515E-02    2.51       1.0  T
   3    -40.2490887  0.248706E-06  0.454E-03    2.51       4.2  T
   4    -40.2490891 -0.464991E-06  0.136E-03    2.51      13.9  T
   5    -40.2490892 -0.138088E-07  0.633E-04    2.51      29.8  T
   6    -40.2490892 -0.953818E-09  0.186E-04    2.51     101.5  T
   7    -40.2490892 -0.467715E-09  0.699E-05    2.51     270.5  T
     SCC iter.                  ...        0 min,  0.007 sec
     gradient                   ...        0 min,  0.011 sec
 * total energy  :   -39.5127247 Eh     change       -0.1724397E-03 Eh
   gradient norm :     0.0039652 Eh/α   predicted    -0.1267726E-03 ( -26.48%)
   displ. norm   :     0.2756567 α      lambda       -0.1499621E-03
   maximum displ.:     0.2335523 α      in ANC's #3, #8, #6, ...

........................................................................
.............................. CYCLE   10 ..............................
........................................................................

 iter      E             dE          RMSdq      gap      omega  full diag
   1    -40.2504915 -0.402505E+02  0.793E-02    2.52       0.0  T
   2    -40.2504921 -0.586114E-06  0.466E-02    2.52       1.0  T
   3    -40.2504918  0.312478E-06  0.482E-03    2.52       3.9  T
   4    -40.2504923 -0.516873E-06  0.123E-03    2.52      15.4  T
   5    -40.2504923 -0.847073E-08  0.638E-04    2.52      29.6  T
   6    -40.2504923 -0.194455E-08  0.217E-04    2.52      87.0  T
   7    -40.2504923 -0.114108E-08  0.725E-05    2.52     260.7  T
   8    -40.2504923 -0.833467E-11  0.300E-05    2.52     629.9  T
     SCC iter.                  ...        0 min,  0.008 sec
     gradient                   ...        0 min,  0.011 sec
 * total energy  :   -39.5128330 Eh     change       -0.1083681E-03 Eh
   gradient norm :     0.0031222 Eh/α   predicted    -0.8068369E-04 ( -25.55%)
   displ. norm   :     0.3218724 α      lambda       -0.1073903E-03
   maximum displ.:     0.2597107 α      in ANC's #3, #8, #6, ...

........................................................................
.............................. CYCLE   11 ..............................
........................................................................

 iter      E             dE          RMSdq      gap      omega  full diag
   1    -40.2503133 -0.402503E+02  0.927E-02    2.51       0.0  T
   2    -40.2503149 -0.160477E-05  0.546E-02    2.51       1.0  T
   3    -40.2503124  0.254476E-05  0.113E-02    2.51       1.7  T
   4    -40.2503154 -0.304914E-05  0.200E-03    2.51       9.4  T
   5    -40.2503155 -0.588496E-07  0.842E-04    2.51      22.4  T
   6    -40.2503155  0.163119E-09  0.366E-04    2.51      51.6  T
   7    -40.2503155 -0.276829E-08  0.954E-05    2.51     198.2  T
   8    -40.2503155 -0.308020E-10  0.354E-05    2.51     533.1  T
     SCC iter.                  ...        0 min,  0.008 sec
     gradient                   ...        0 min,  0.011 sec
 * total energy  :   -39.5128909 Eh     change       -0.5789670E-04 Eh
   gradient norm :     0.0056148 Eh/α   predicted    -0.5925963E-04 (   2.35%)
   displ. norm   :     0.2269930 α      lambda       -0.1393890E-03
   maximum displ.:     0.1814730 α      in ANC's #3, #4, #1, ...

........................................................................
.............................. CYCLE   12 ..............................
........................................................................

 iter      E             dE          RMSdq      gap      omega  full diag
   1    -40.2537053 -0.402537E+02  0.777E-02    2.49       0.0  T
   2    -40.2537070 -0.171264E-05  0.454E-02    2.49       1.0  T
   3    -40.2537047  0.228938E-05  0.111E-02    2.49       1.7  T
   4    -40.2537075 -0.279681E-05  0.190E-03    2.49      10.0  T
   5    -40.2537076 -0.418030E-07  0.931E-04    2.49      20.3  T
   6    -40.2537076 -0.956462E-09  0.358E-04    2.49      52.8  T
   7    -40.2537076 -0.259094E-08  0.998E-05    2.49     189.3  T
   8    -40.2537076 -0.449702E-10  0.413E-05    2.49     457.5  T
     SCC iter.                  ...        0 min,  0.010 sec
     gradient                   ...        0 min,  0.010 sec
 * total energy  :   -39.5129578 Eh     change       -0.6688874E-04 Eh
   gradient norm :     0.0035819 Eh/α   predicted    -0.7328907E-04 (   9.57%)
   displ. norm   :     0.1723700 α      lambda       -0.4407711E-04
   maximum displ.:     0.1270748 α      in ANC's #3, #4, #8, ...

........................................................................
.............................. CYCLE   13 ..............................
........................................................................

 iter      E             dE          RMSdq      gap      omega  full diag
   1    -40.2528973 -0.402529E+02  0.542E-02    2.48       0.0  T
   2    -40.2528981 -0.750723E-06  0.319E-02    2.48       1.0  T
   3    -40.2528960  0.204444E-05  0.101E-02    2.48       1.9  T
   4    -40.2528985 -0.243120E-05  0.124E-03    2.48      15.3  T
   5    -40.2528985 -0.156821E-07  0.563E-04    2.48      33.6  T
   6    -40.2528985 -0.543302E-09  0.266E-04    2.48      71.2  T
   7    -40.2528985 -0.104254E-08  0.623E-05    2.48     303.3  T
   8    -40.2528985 -0.952838E-11  0.282E-05    2.48     669.6  T
     SCC iter.                  ...        0 min,  0.007 sec
     gradient                   ...        0 min,  0.011 sec
 * total energy  :   -39.5129882 Eh     change       -0.3038702E-04 Eh
   gradient norm :     0.0021329 Eh/α   predicted    -0.2269425E-04 ( -25.32%)
   displ. norm   :     0.0838965 α      lambda       -0.3435835E-04
   maximum displ.:     0.0547898 α      in ANC's #4, #1, #2, ...

........................................................................
.............................. CYCLE   14 ..............................
........................................................................

 iter      E             dE          RMSdq      gap      omega  full diag
   1    -40.2531546 -0.402532E+02  0.329E-02    2.47       0.0  T
   2    -40.2531549 -0.290399E-06  0.194E-02    2.47       1.0  T
   3    -40.2531538  0.115017E-05  0.761E-03    2.47       2.5  T
   4    -40.2531552 -0.138980E-05  0.752E-04    2.47      25.1  T
   5    -40.2531552 -0.133359E-08  0.370E-04    2.47      51.1  T
   6    -40.2531552 -0.156035E-08  0.108E-04    2.47     175.3  T
   7    -40.2531552 -0.999094E-10  0.341E-05    2.47     553.8  T
     SCC iter.                  ...        0 min,  0.008 sec
     gradient                   ...        0 min,  0.010 sec
 * total energy  :   -39.5130150 Eh     change       -0.2679255E-04 Eh
   gradient norm :     0.0013450 Eh/α   predicted    -0.1730338E-04 ( -35.42%)
   displ. norm   :     0.1695785 α      lambda       -0.3946824E-04
   maximum displ.:     0.1194244 α      in ANC's #4, #1, #2, ...

........................................................................
.............................. CYCLE   15 ..............................
........................................................................

 iter      E             dE          RMSdq      gap      omega  full diag
   1    -40.2528196 -0.402528E+02  0.703E-02    2.44       0.0  T
   2    -40.2528204 -0.824703E-06  0.410E-02    2.45       1.0  T
   3    -40.2528185  0.187932E-05  0.934E-03    2.44       2.0  T
   4    -40.2528208 -0.233570E-05  0.146E-03    2.45      12.9  T
   5    -40.2528208 -0.320534E-08  0.570E-04    2.45      33.1  T
   6    -40.2528208 -0.243871E-08  0.198E-04    2.45      95.3  T
   7    -40.2528208 -0.651369E-09  0.634E-05    2.45     298.1  T
     SCC iter.                  ...        0 min,  0.007 sec
     gradient                   ...        0 min,  0.011 sec
 * total energy  :   -39.5130539 Eh     change       -0.3890348E-04 Eh
   gradient norm :     0.0032944 Eh/α   predicted    -0.1998739E-04 ( -48.62%)
   displ. norm   :     0.0970386 α      lambda       -0.2890781E-04
   maximum displ.:     0.0687616 α      in ANC's #4, #1, #2, ...

........................................................................
.............................. CYCLE   16 ..............................
........................................................................

 iter      E             dE          RMSdq      gap      omega  full diag
   1    -40.2524188 -0.402524E+02  0.413E-02    2.44       0.0  T
   2    -40.2524191 -0.328244E-06  0.240E-02    2.44       1.0  T
   3    -40.2524189  0.240487E-06  0.402E-03    2.44       4.7  T
   4    -40.2524192 -0.361436E-06  0.890E-04    2.44      21.2  T
   5    -40.2524192 -0.299206E-08  0.332E-04    2.44      57.0  T
   6    -40.2524192 -0.416414E-09  0.895E-05    2.44     211.2  T
   7    -40.2524192 -0.117168E-09  0.367E-05    2.44     514.5  T
     SCC iter.                  ...        0 min,  0.008 sec
     gradient                   ...        0 min,  0.010 sec
 * total energy  :   -39.5130810 Eh     change       -0.2709349E-04 Eh
   gradient norm :     0.0033274 Eh/α   predicted    -0.1459047E-04 ( -46.15%)
   displ. norm   :     0.2167768 α      lambda       -0.7578401E-04
   maximum displ.:     0.1456243 α      in ANC's #4, #1, #2, ...

........................................................................
.............................. CYCLE   17 ..............................
........................................................................

 iter      E             dE          RMSdq      gap      omega  full diag
   1    -40.2517727 -0.402518E+02  0.924E-02    2.43       0.0  T
   2    -40.2517748 -0.210811E-05  0.536E-02    2.43       1.0  T
   3    -40.2517721  0.271851E-05  0.127E-02    2.43       1.5  T
   4    -40.2517757 -0.355194E-05  0.212E-03    2.43       8.9  T
   5    -40.2517757 -0.224797E-07  0.900E-04    2.43      21.0  T
   6    -40.2517757 -0.343456E-08  0.374E-04    2.43      50.6  T
   7    -40.2517757 -0.262517E-08  0.922E-05    2.43     205.0  T
   8    -40.2517757 -0.409912E-10  0.451E-05    2.43     418.9  T
     SCC iter.                  ...        0 min,  0.008 sec
     gradient                   ...        0 min,  0.011 sec
 * total energy  :   -39.5131466 Eh     change       -0.6559642E-04 Eh
   gradient norm :     0.0024268 Eh/α   predicted    -0.3967528E-04 ( -39.52%)
   displ. norm   :     0.3572817 α      lambda       -0.9922146E-04
   maximum displ.:     0.2416788 α      in ANC's #4, #1, #2, ...

........................................................................
.............................. CYCLE   18 ..............................
........................................................................

 iter      E             dE          RMSdq      gap      omega  full diag
   1    -40.2503374 -0.402503E+02  0.151E-01    2.42       0.0  T
   2    -40.2503432 -0.581505E-05  0.877E-02    2.42       1.0  T
   3    -40.2503364  0.688271E-05  0.203E-02    2.42       1.0  T
   4    -40.2503455 -0.910618E-05  0.358E-03    2.42       5.3  T
   5    -40.2503455 -0.645136E-07  0.150E-03    2.42      12.6  T
   6    -40.2503455 -0.860537E-08  0.590E-04    2.42      32.0  T
   7    -40.2503455 -0.646194E-08  0.151E-04    2.42     125.1  T
   8    -40.2503455 -0.111328E-09  0.755E-05    2.42     250.2  T
     SCC iter.                  ...        0 min,  0.007 sec
     gradient                   ...        0 min,  0.010 sec
 * total energy  :   -39.5132215 Eh     change       -0.7493711E-04 Eh
   gradient norm :     0.0025754 Eh/α   predicted    -0.5594441E-04 ( -25.34%)
   displ. norm   :     0.3402749 α      lambda       -0.6479616E-04
   maximum displ.:     0.2333217 α      in ANC's #4, #1, #2, ...

........................................................................
.............................. CYCLE   19 ..............................
........................................................................

 iter      E             dE          RMSdq      gap      omega  full diag
   1    -40.2493937 -0.402494E+02  0.142E-01    2.41       0.0  T
   2    -40.2493986 -0.490301E-05  0.824E-02    2.41       1.0  T
   3    -40.2493937  0.499735E-05  0.175E-02    2.41       1.1  T
   4    -40.2494005 -0.684213E-05  0.343E-03    2.41       5.5  T
   5    -40.2494005 -0.516560E-07  0.133E-03    2.41      14.2  T
   6    -40.2494006 -0.656999E-08  0.498E-04    2.41      38.0  T
   7    -40.2494006 -0.450798E-08  0.138E-04    2.41     137.2  T
   8    -40.2494006 -0.774492E-10  0.668E-05    2.41     283.0  T
     SCC iter.                  ...        0 min,  0.009 sec
     gradient                   ...        0 min,  0.010 sec
 * total energy  :   -39.5132663 Eh     change       -0.4471181E-04 Eh
   gradient norm :     0.0032387 Eh/α   predicted    -0.3615287E-04 ( -19.14%)
   displ. norm   :     0.2243719 α      lambda       -0.4453418E-04
   maximum displ.:     0.1547688 α      in ANC's #4, #1, #2, ...

........................................................................
.............................. CYCLE   20 ..............................
........................................................................

 iter      E             dE          RMSdq      gap      omega  full diag
   1    -40.2504455 -0.402504E+02  0.916E-02    2.40       0.0  T
   2    -40.2504473 -0.186026E-05  0.530E-02    2.40       1.0  T
   3    -40.2504459  0.145278E-05  0.967E-03    2.40       2.0  T
   4    -40.2504480 -0.214024E-05  0.228E-03    2.40       8.3  T
   5    -40.2504480 -0.222139E-07  0.766E-04    2.40      24.7  T
   6    -40.2504481 -0.236264E-08  0.306E-04    2.40      61.7  T
   7    -40.2504481 -0.188815E-08  0.849E-05    2.40     222.6  T
   8    -40.2504481 -0.219771E-10  0.389E-05    2.40     485.6  T
     SCC iter.                  ...        0 min,  0.008 sec
     gradient                   ...        0 min,  0.011 sec
 * total energy  :   -39.5132989 Eh     change       -0.3264193E-04 Eh
   gradient norm :     0.0022521 Eh/α   predicted    -0.2338839E-04 ( -28.35%)
   displ. norm   :     0.2110785 α      lambda       -0.3385721E-04
   maximum displ.:     0.1401646 α      in ANC's #4, #1, #2, ...
 * RMSD in coord.:     0.5783770 α      energy gain  -0.6125607E-02 Eh

generating ANC from exact Hessian ...
Using Lindh-Hessian (1995)
 Shifting diagonal of input Hessian by    9.2620691499562327E-003
 Lowest  eigenvalues of input Hessian
    0.000000    0.000000    0.000000    0.000000    0.000000    0.000000
    0.010000    0.010477    0.010674    0.011997    0.014334    0.015699
    0.019232    0.019775    0.024608    0.024827    0.027486    0.030221
 Highest eigenvalues
    1.893721    1.968705    2.002646    2.022108    2.040200    2.234329


........................................................................
.............................. CYCLE   21 ..............................
........................................................................

 iter      E             dE          RMSdq      gap      omega  full diag
   1    -40.2513546 -0.402514E+02  0.858E-02    2.39       0.0  T
   2    -40.2513560 -0.140731E-05  0.496E-02    2.39       1.0  T
   3    -40.2513554  0.595994E-06  0.691E-03    2.39       2.7  T
   4    -40.2513565 -0.111490E-05  0.209E-03    2.39       9.1  T
   5    -40.2513565 -0.172257E-07  0.533E-04    2.39      35.4  T
   6    -40.2513565 -0.141093E-08  0.179E-04    2.39     105.4  T
   7    -40.2513565 -0.476476E-09  0.772E-05    2.39     244.9  T
     SCC iter.                  ...        0 min,  0.007 sec
     gradient                   ...        0 min,  0.012 sec
 * total energy  :   -39.5133232 Eh     change       -0.2429412E-04 Eh
   gradient norm :     0.0016134 Eh/α   predicted     0.0000000E+00 (-100.00%)
   displ. norm   :     0.0218468 α      lambda       -0.2675282E-05
   maximum displ.:     0.0113073 α      in ANC's #7, #8, #6, ...

........................................................................
.............................. CYCLE   22 ..............................
........................................................................

 iter      E             dE          RMSdq      gap      omega  full diag
   1    -40.2521122 -0.402521E+02  0.103E-02    2.39       0.0  T
   2    -40.2521123 -0.833846E-07  0.595E-03    2.39       3.2  T
   3    -40.2521123  0.321614E-07  0.180E-03    2.39      10.5  T
   4    -40.2521123 -0.462174E-07  0.408E-04    2.39      46.3  T
   5    -40.2521123 -0.200816E-08  0.176E-04    2.39     107.1  T
   6    -40.2521123  0.317115E-10  0.844E-05    2.39     223.9  T
     SCC iter.                  ...        0 min,  0.008 sec
     gradient                   ...        0 min,  0.010 sec
 * total energy  :   -39.5133308 Eh     change       -0.7602790E-05 Eh
   gradient norm :     0.0005123 Eh/α   predicted    -0.4259047E-05 ( -43.98%)
   displ. norm   :     0.0271138 α      lambda       -0.3405160E-05
   maximum displ.:     0.0127847 α      in ANC's #6, #7, #1, ...

........................................................................
.............................. CYCLE   23 ..............................
........................................................................

 iter      E             dE          RMSdq      gap      omega  full diag
   1    -40.2521708 -0.402522E+02  0.791E-03    2.39       0.0  T
   2    -40.2521708 -0.156487E-07  0.465E-03    2.39       4.1  T
   3    -40.2521708  0.461084E-07  0.157E-03    2.39      12.0  T
   4    -40.2521708 -0.550990E-07  0.171E-04    2.39     110.7  T
   5    -40.2521708 -0.264237E-09  0.923E-05    2.39     204.7  T
     SCC iter.                  ...        0 min,  0.005 sec
     gradient                   ...        0 min,  0.012 sec
 * total energy  :   -39.5133349 Eh     change       -0.4115986E-05 Eh
   gradient norm :     0.0004573 Eh/α   predicted    -0.1707700E-05 ( -58.51%)
   displ. norm   :     0.0685561 α      lambda       -0.6266683E-05
   maximum displ.:     0.0318795 α      in ANC's #6, #1, #8, ...

........................................................................
.............................. CYCLE   24 ..............................
........................................................................

 iter      E             dE          RMSdq      gap      omega  full diag
   1    -40.2520472 -0.402520E+02  0.177E-02    2.39       0.0  T
   2    -40.2520472 -0.542265E-07  0.105E-02    2.39       1.8  T
   3    -40.2520470  0.201678E-06  0.307E-03    2.39       6.1  T
   4    -40.2520472 -0.236783E-06  0.348E-04    2.39      54.4  T
   5    -40.2520472 -0.792397E-09  0.190E-04    2.39      99.4  T
   6    -40.2520472 -0.201254E-09  0.817E-05    2.39     231.4  T
     SCC iter.                  ...        0 min,  0.008 sec
     gradient                   ...        0 min,  0.010 sec
 * total energy  :   -39.5133411 Eh     change       -0.6185169E-05 Eh
   gradient norm :     0.0006874 Eh/α   predicted    -0.3144115E-05 ( -49.17%)
   displ. norm   :     0.0472160 α      lambda       -0.2752873E-05
   maximum displ.:     0.0230830 α      in ANC's #1, #3, #8, ...

........................................................................
.............................. CYCLE   25 ..............................
........................................................................

 iter      E             dE          RMSdq      gap      omega  full diag
   1    -40.2520193 -0.402520E+02  0.120E-02    2.39       0.0  T
   2    -40.2520193 -0.125143E-07  0.708E-03    2.39       2.7  T
   3    -40.2520193  0.232452E-07  0.105E-03    2.39      18.1  T
   4    -40.2520193 -0.301841E-07  0.215E-04    2.39      88.0  T
   5    -40.2520193  0.850306E-10  0.107E-04    2.39     176.3  T
   6    -40.2520193 -0.239588E-09  0.223E-05    2.39     848.8  T
     SCC iter.                  ...        0 min,  0.010 sec
     gradient                   ...        0 min,  0.010 sec
 * total energy  :   -39.5133440 Eh     change       -0.2953038E-05 Eh
   gradient norm :     0.0005695 Eh/α   predicted    -0.1411789E-05 ( -52.19%)
   displ. norm   :     0.0336951 α      lambda       -0.1875324E-05
   maximum displ.:     0.0190174 α      in ANC's #1, #3, #8, ...

........................................................................
.............................. CYCLE   26 ..............................
........................................................................

 iter      E             dE          RMSdq      gap      omega  full diag
   1    -40.2520190 -0.402520E+02  0.952E-03    2.39       0.0  T
   2    -40.2520190 -0.183433E-07  0.560E-03    2.39       3.4  T
   3    -40.2520190  0.259077E-07  0.121E-03    2.39      15.6  T
   4    -40.2520190 -0.338152E-07  0.225E-04    2.39      84.0  T
   5    -40.2520190 -0.151843E-09  0.962E-05    2.39     196.5  T
   6    -40.2520190 -0.444587E-10  0.396E-05    2.39     476.7  T
     SCC iter.                  ...        0 min,  0.006 sec
     gradient                   ...        0 min,  0.010 sec
 * total energy  :   -39.5133459 Eh     change       -0.1863458E-05 Eh
   gradient norm :     0.0002290 Eh/α   predicted    -0.9434842E-06 ( -49.37%)
   displ. norm   :     0.0178108 α      lambda       -0.7377664E-06
   maximum displ.:     0.0117949 α      in ANC's #1, #3, #8, ...

........................................................................
.............................. CYCLE   27 ..............................
........................................................................

 iter      E             dE          RMSdq      gap      omega  full diag
   1    -40.2520606 -0.402521E+02  0.613E-03    2.39       0.0  T
   2    -40.2520607 -0.124249E-07  0.355E-03    2.39       5.3  T
   3    -40.2520606  0.187903E-07  0.106E-03    2.39      17.8  T
   4    -40.2520607 -0.240918E-07  0.157E-04    2.39     120.4  T
   5    -40.2520607 -0.125887E-09  0.715E-05    2.39     264.2  T
     SCC iter.                  ...        0 min,  0.005 sec
     gradient                   ...        0 min,  0.010 sec
 * total energy  :   -39.5133467 Eh     change       -0.7602007E-06 Eh
   gradient norm :     0.0001672 Eh/α   predicted    -0.3720771E-06 ( -51.06%)
   displ. norm   :     0.0174710 α      lambda       -0.5346603E-06
   maximum displ.:     0.0114203 α      in ANC's #1, #3, #4, ...

........................................................................
.............................. CYCLE   28 ..............................
........................................................................

 iter      E             dE          RMSdq      gap      omega  full diag
   1    -40.2520661 -0.402521E+02  0.648E-03    2.39       0.0  T
   2    -40.2520661 -0.107661E-07  0.376E-03    2.39       5.0  T
   3    -40.2520661  0.135362E-07  0.905E-04    2.39      20.9  T
   4    -40.2520661 -0.179615E-07  0.157E-04    2.39     120.4  T
   5    -40.2520661 -0.976570E-10  0.658E-05    2.39     287.3  T
     SCC iter.                  ...        0 min,  0.010 sec
     gradient                   ...        0 min,  0.015 sec
 * total energy  :   -39.5133473 Eh     change       -0.6710723E-06 Eh
   gradient norm :     0.0002562 Eh/α   predicted    -0.2700530E-06 ( -59.76%)
   displ. norm   :     0.0340915 α      lambda       -0.1000208E-05
   maximum displ.:     0.0203344 α      in ANC's #1, #4, #3, ...

........................................................................
.............................. CYCLE   29 ..............................
........................................................................

 iter      E             dE          RMSdq      gap      omega  full diag
   1    -40.2520471 -0.402520E+02  0.130E-02    2.39       0.0  T
   2    -40.2520471 -0.359621E-07  0.754E-03    2.39       2.5  T
   3    -40.2520471  0.347135E-07  0.147E-03    2.39      12.8  T
   4    -40.2520471 -0.485151E-07  0.296E-04    2.39      63.9  T
   5    -40.2520471 -0.324235E-09  0.114E-04    2.39     165.9  T
   6    -40.2520471 -0.528928E-10  0.392E-05    2.39     482.0  T
     SCC iter.                  ...        0 min,  0.006 sec
     gradient                   ...        0 min,  0.011 sec
 * total energy  :   -39.5133486 Eh     change       -0.1218015E-05 Eh
   gradient norm :     0.0003265 Eh/α   predicted    -0.5006677E-06 ( -58.89%)
   displ. norm   :     0.0430144 α      lambda       -0.1087012E-05
   maximum displ.:     0.0259768 α      in ANC's #1, #4, #3, ...

........................................................................
.............................. CYCLE   30 ..............................
........................................................................

 iter      E             dE          RMSdq      gap      omega  full diag
   1    -40.2520138 -0.402520E+02  0.166E-02    2.38       0.0  T
   2    -40.2520138 -0.478530E-07  0.962E-03    2.38       2.0  T
   3    -40.2520138  0.287052E-07  0.144E-03    2.39      13.1  T
   4    -40.2520138 -0.469412E-07  0.365E-04    2.39      51.8  T
   5    -40.2520138 -0.387807E-09  0.122E-04    2.39     155.1  T
   6    -40.2520138 -0.829914E-10  0.354E-05    2.39     533.5  T
     SCC iter.                  ...        0 min,  0.006 sec
     gradient                   ...        0 min,  0.011 sec
 * total energy  :   -39.5133498 Eh     change       -0.1245959E-05 Eh
   gradient norm :     0.0002669 Eh/α   predicted    -0.5463414E-06 ( -56.15%)
   displ. norm   :     0.0320550 α      lambda       -0.6327063E-06
   maximum displ.:     0.0201451 α      in ANC's #1, #4, #3, ...

........................................................................
.............................. CYCLE   31 ..............................
........................................................................

 iter      E             dE          RMSdq      gap      omega  full diag
   1    -40.2520001 -0.402520E+02  0.125E-02    2.38       0.0  T
   2    -40.2520001 -0.254992E-07  0.723E-03    2.38       2.6  T
   3    -40.2520001  0.155839E-07  0.103E-03    2.38      18.4  T
   4    -40.2520001 -0.253007E-07  0.265E-04    2.38      71.2  T
   5    -40.2520001 -0.196984E-09  0.935E-05    2.38     202.1  T
   6    -40.2520001 -0.509246E-10  0.284E-05    2.38     664.8  T
     SCC iter.                  ...        0 min,  0.010 sec
     gradient                   ...        0 min,  0.011 sec
 * total energy  :   -39.5133505 Eh     change       -0.6874631E-06 Eh
   gradient norm :     0.0001294 Eh/α   predicted    -0.3194054E-06 ( -53.54%)
   displ. norm   :     0.0320550 α      lambda        0.0000000E+00
   maximum displ.:     0.0201451 α      in ANC's #1, #4, #3, ...

........................................................................
.............................. CYCLE   32 ..............................
........................................................................

 iter      E             dE          RMSdq      gap      omega  full diag
   1    -40.2519728 -0.402520E+02  0.125E-02    2.38       0.0  T
   2    -40.2519728 -0.257723E-07  0.723E-03    2.38       2.6  T
   3    -40.2519728  0.161473E-07  0.104E-03    2.38      18.2  T
   4    -40.2519728 -0.259537E-07  0.266E-04    2.38      71.1  T
   5    -40.2519728 -0.197680E-09  0.952E-05    2.38     198.6  T
   6    -40.2519728 -0.521041E-10  0.288E-05    2.38     656.0  T
     SCC iter.                  ...        0 min,  0.008 sec
     gradient                   ...        0 min,  0.010 sec
 * total energy  :   -39.5133506 Eh     change       -0.1419821E-06 Eh
   gradient norm :     0.0001835 Eh/α   predicted    -0.1762284E-08 ( -98.76%)
   displ. norm   :     0.0048773 α      lambda       -0.2040756E-06
   maximum displ.:     0.0035379 α      in ANC's #6, #8, #1, ...

........................................................................
.............................. CYCLE   33 ..............................
........................................................................

 iter      E             dE          RMSdq      gap      omega  full diag
   1    -40.2519917 -0.402520E+02  0.206E-03    2.38       0.0  T
   2    -40.2519917 -0.308674E-09  0.123E-03    2.38      15.4  T
   3    -40.2519917  0.343121E-10  0.801E-05    2.38     236.1  T
   4    -40.2519917 -0.128075E-09  0.287E-05    2.38     658.9  T
     SCC iter.                  ...        0 min,  0.005 sec
     gradient                   ...        0 min,  0.010 sec
 * total energy  :   -39.5133508 Eh     change       -0.1928900E-06 Eh
   gradient norm :     0.0000984 Eh/α   predicted    -0.1049408E-06 ( -45.60%)
   displ. norm   :     0.0057580 α      lambda       -0.8805489E-07
   maximum displ.:     0.0040595 α      in ANC's #6, #5, #1, ...

........................................................................
.............................. CYCLE   34 ..............................
........................................................................

 iter      E             dE          RMSdq      gap      omega  full diag
   1    -40.2519986 -0.402520E+02  0.165E-03    2.38       0.0  T
   2    -40.2519986 -0.442782E-09  0.980E-04    2.38      19.3  T
   3    -40.2519986  0.887695E-09  0.210E-04    2.38      89.9  T
   4    -40.2519986 -0.106650E-08  0.301E-05    2.38     627.3  T
   5    -40.2519986 -0.658673E-11  0.156E-05    2.38    1214.9  T
     SCC iter.                  ...        0 min,  0.006 sec
     gradient                   ...        0 min,  0.014 sec
 * total energy  :   -39.5133509 Eh     change       -0.1047257E-06 Eh
   gradient norm :     0.0000636 Eh/α   predicted    -0.4893043E-07 ( -53.28%)
   displ. norm   :     0.0067455 α      lambda       -0.7435673E-07
   maximum displ.:     0.0036472 α      in ANC's #6, #1, #8, ...

........................................................................
.............................. CYCLE   35 ..............................
........................................................................

 iter      E             dE          RMSdq      gap      omega  full diag
   1    -40.2519917 -0.402520E+02  0.196E-03    2.38       0.0  T
   2    -40.2519917 -0.116931E-08  0.116E-03    2.38      16.2  T
   3    -40.2519917  0.261250E-08  0.379E-04    2.38      49.9  T
   4    -40.2519917 -0.313777E-08  0.405E-05    2.38     467.2  T
   5    -40.2519917 -0.173799E-10  0.197E-05    2.38     959.4  T
     SCC iter.                  ...        0 min,  0.009 sec
     gradient                   ...        0 min,  0.011 sec
 * total energy  :   -39.5133510 Eh     change       -0.7206170E-07 Eh
   gradient norm :     0.0000450 Eh/α   predicted    -0.3800596E-07 ( -47.26%)
   displ. norm   :     0.0054601 α      lambda        0.1950650E-07
   maximum displ.:     0.0031038 α      in ANC's #6, #1, #8, ...

   *** GEOMETRY OPTIMIZATION CONVERGED AFTER 35 ITERATIONS ***

------------------------------------------------------------------------
 total energy gain   :        -0.0061777 Eh       -3.8766 kcal/mol
 total RMSD          :         0.6297747 a0        0.3333 Å
 total power (kW/mol):        -0.4634169 (step)  -18.5446 (real)
------------------------------------------------------------------------

 ANCopt (total)                0 d,  0 h,  0 min,  0.875 sec
 optimizer setup                ...        0 min,  0.001 sec (  0.119%)
 model hessian                  ...        0 min,  0.012 sec (  1.397%)
 ANC generation                 ...        0 min,  0.003 sec (  0.289%)
 coordinate transformation      ...        0 min,  0.000 sec (  0.053%)
 single point calculation       ...        0 min,  0.833 sec ( 95.276%)
 optimization log               ...        0 min,  0.007 sec (  0.834%)
 hessian update                 ...        0 min,  0.001 sec (  0.132%)
 rational function              ...        0 min,  0.014 sec (  1.553%)

================
 final structure:
================
28
 xtb: 6.7.1 (edcfbbe)
C           -0.21397163872298       -0.41199759186170       -1.86203669621626
C           -0.46104221667704       -0.05943770679836       -0.41889052005494
N            0.45851100831558        0.20102415291556        0.41399287392097
C            1.81626473455595        0.12362267282059        0.22232471578834
C            2.45838685846000       -1.10642765827773        0.05047839493333
C            3.83691693985309       -1.17052794223058       -0.00832355445857
C            4.59862301517836       -0.01743394720011        0.08797290849888
C            3.96833223044793        1.20567965211846        0.25853454433061
C            2.59234184626006        1.28032311912657        0.33722926854098
C           -1.85106244995729        0.02185817342761        0.05861953968139
C           -2.93013553389495       -0.40027664903049       -0.71802394792499
C           -4.22205559820054       -0.31395523936793       -0.23036385169693
C           -4.46136041624090        0.19565221833195        1.03484959419742
C           -3.39682284141691        0.61718373288257        1.81702429629539
C           -2.10617317340710        0.52984933407676        1.33500182278183
H           -0.50290461866645       -1.44555894915120       -2.04989262516303
H           -0.79829772891823        0.23502685243629       -2.51400909060190
H            0.84207965094520       -0.29748171636075       -2.10024542812862
H            1.86123676821066       -2.00526066790405       -0.01749541406844
H            4.32033008173215       -2.12887407129652       -0.13834654573211
H            5.67611644960727       -0.07120510615021        0.03395044959949
H            4.55648331820918        2.10943742579683        0.33561180002897
H            2.09629986362984        2.23076232195429        0.47079336067613
H           -2.77216131655213       -0.80790264061841       -1.70471816795255
H           -5.04768473746462       -0.64725961836362       -0.84288999149864
H           -5.47221394662267        0.26331048606432        1.41001788345000
H           -3.57688724727216        1.01508569008989        2.80529319667567
H           -1.26914930139067        0.85478367237083        1.93354118419876

 Bond Distances (Angstroems)
 ---------------------------
C1-C2=1.5060         C1-H16=1.0895        C1-H17=1.0886        C1-H18=1.0886        C2-C1=1.5060         C2-N3=1.2677         
C2-C10=1.4720        N3-C2=1.2677         N3-C4=1.3734         C4-N3=1.3734         C4-C5=1.3982         C4-C9=1.3977         
C5-C4=1.3982         C5-C6=1.3813         C5-H19=1.0813        C6-C5=1.3813         C6-C7=1.3853         C6-H20=1.0812        
C7-C6=1.3853         C7-C8=1.3865         C7-H21=1.0802        C8-C7=1.3865         C8-C9=1.3803         C8-H22=1.0810        
C9-C4=1.3977         C9-C8=1.3803         C9-H23=1.0804        C10-C2=1.4720        C10-C11=1.3949       C10-C15=1.3972       
C11-C10=1.3949       C11-C12=1.3836       C11-H24=1.0792       C12-C11=1.3836       C12-C13=1.3848       C12-H25=1.0807       
C13-C12=1.3848       C13-C14=1.3866       C13-H26=1.0803       C14-C13=1.3866       C14-C15=1.3805       C14-H27=1.0805       
C15-C10=1.3972       C15-C14=1.3805       C15-H28=1.0791       H16-C1=1.0895        H17-C1=1.0886        H18-C1=1.0886        
H19-C5=1.0813        H20-C6=1.0812        H21-C7=1.0802        H22-C8=1.0810        H23-C9=1.0804        H24-C11=1.0792       
H25-C12=1.0807       H26-C13=1.0803       H27-C14=1.0805       H28-C15=1.0791       
 C  H  Rav=1.0824 sigma=0.0037  Rmin=1.0791  Rmax=1.0895    13
 C  C  Rav=1.4025 sigma=0.0364  Rmin=1.3803  Rmax=1.5060    14
 N  C  Rav=1.3206 sigma=0.0528  Rmin=1.2677  Rmax=1.3734     2

 selected bond angles (degree)
 --------------------
H16-C1-C2=110.11               H17-C1-C2=110.29               H17-C1-H16=108.56              H18-C1-C2=110.13               
H18-C1-H16=108.62              H18-C1-H17=109.09              N3-C2-C1=123.96                C10-C2-C1=118.60               
C10-C2-N3=117.42               C4-N3-C2=127.87                C5-C4-N3=121.38                C9-C4-N3=119.40                
C9-C4-C5=118.89                C6-C5-C4=120.29                H19-C5-C4=119.04               H19-C5-C6=120.66               
C7-C6-C5=120.48                H20-C6-C5=119.50               H20-C6-C7=120.02               C8-C7-C6=119.53                
H21-C7-C6=120.24               H21-C7-C8=120.23               C9-C8-C7=120.52                H22-C8-C7=119.93               
H22-C8-C9=119.54               C8-C9-C4=120.27                H23-C9-C4=118.90               H23-C9-C8=120.82               
C11-C10-C2=122.22              C15-C10-C2=119.26              C15-C10-C11=118.52             

 selected dihedral angles (degree)
 ---------------------------------
N3-C2-C1-H16=113.33           N3-C2-C1-H17=233.11           N3-C2-C1-H18=353.57           C10-C2-C1-H16=291.84          
C10-C2-C1-H17= 51.61          C10-C2-C1-H18=172.08          C4-N3-C2-C1=354.79            C4-N3-C2-C10=176.27           
C5-C4-N3-C2=291.59            C9-C4-N3-C2=118.25            C6-C5-C4-N3=186.42            C6-C5-C4-C9=359.79            
H19-C5-C4-N3=  5.33           H19-C5-C4-C9=178.71           C7-C6-C5-C4=359.32            C7-C6-C5-H19=180.43           
H20-C6-C5-C4=179.80           H20-C6-C5-H19=  0.91          C8-C7-C6-C5=  0.68            C8-C7-C6-H20=180.19           
H21-C7-C6-C5=180.47           H21-C7-C6-H20=  0.00          C9-C8-C7-C6=  0.22            C9-C8-C7-H21=180.43           
H22-C8-C7-C6=179.93           H22-C8-C7-H21=  0.14          C8-C9-C4-N3=174.61            C8-C9-C4-C5=  1.10            
H23-C9-C4-N3=353.56           H23-C9-C4-C5=180.05           C4-C9-C8-C7=358.89            C4-C9-C8-H22=179.18           
H23-C9-C8-C7=179.96           H23-C9-C8-H22=  0.25          C11-C10-C2-C1=  9.45          C11-C10-C2-N3=188.05          
C15-C10-C2-C1=189.03          C15-C10-C2-N3=  7.63          
           -------------------------------------------------
          |                Final Singlepoint                |
           -------------------------------------------------

          ...................................................
          :                      SETUP                      :
          :.................................................:
          :  # basis functions                  73          :
          :  # atomic orbitals                  73          :
          :  # shells                           43          :
          :  # electrons                        74          :
          :  max. iterations                   250          :
          :  Hamiltonian                  GFN2-xTB          :
          :  restarted?                      false          :
          :  GBSA solvation                   true          :
          :  PC potential                    false          :
          :  electronic temp.          300.0000000     K    :
          :  accuracy                    0.2000000          :
          :  -> integral cutoff          0.3198970E+02      :
          :  -> integral neglect         0.2000000E-08      :
          :  -> SCF convergence          0.2000000E-06 Eh   :
          :  -> wf. convergence          0.2000000E-04 e    :
          :  Broyden damping             0.4000000          :
          :  net charge                          0          :
          :  unpaired electrons                  0          :
          ...................................................

 iter      E             dE          RMSdq      gap      omega  full diag
   1    -40.2519917 -0.402520E+02  0.107E-05    2.38       0.0  T
   2    -40.2519917 -0.767386E-12  0.692E-06    2.38    2729.8  T
   3    -40.2519917 -0.390799E-12  0.374E-06    2.38    5051.0  T

   *** convergence criteria satisfied after 3 iterations ***

         #    Occupation            Energy/Eh            Energy/eV
      -------------------------------------------------------------
         1        2.0000           -0.6526025             -17.7582
       ...           ...                  ...                  ...
        31        2.0000           -0.4217064             -11.4752
        32        2.0000           -0.4167080             -11.3392
        33        2.0000           -0.4095944             -11.1456
        34        2.0000           -0.4074586             -11.0875
        35        2.0000           -0.3964357             -10.7876
        36        2.0000           -0.3932520             -10.7009
        37        2.0000           -0.3545902              -9.6489 (HOMO)
        38                         -0.2670674              -7.2673 (LUMO)
        39                         -0.2249352              -6.1208
        40                         -0.2140566              -5.8248
        41                         -0.2075521              -5.6478
        42                         -0.1827626              -4.9732
       ...                                ...                  ...
        73                          0.7017184              19.0947
      -------------------------------------------------------------
                  HL-Gap            0.0875228 Eh            2.3816 eV
             Fermi-level           -0.3108288 Eh           -8.4581 eV

 SCC (total)                   0 d,  0 h,  0 min,  0.020 sec
 SCC setup                      ...        0 min,  0.001 sec (  3.917%)
 Dispersion                     ...        0 min,  0.000 sec (  1.409%)
 classical contributions        ...        0 min,  0.000 sec (  0.343%)
 integral evaluation            ...        0 min,  0.004 sec ( 18.334%)
 iterations                     ...        0 min,  0.004 sec ( 20.620%)
 molecular gradient             ...        0 min,  0.011 sec ( 53.517%)
 printout                       ...        0 min,  0.000 sec (  1.769%)

         :::::::::::::::::::::::::::::::::::::::::::::::::::::
         ::                     SUMMARY                     ::
         :::::::::::::::::::::::::::::::::::::::::::::::::::::
         :: total energy             -39.513351002085 Eh    ::
         :: total w/o Gsasa/hb       -39.496321950846 Eh    ::
         :: gradient norm              0.000046093204 Eh/a0 ::
         :: HOMO-LUMO gap              2.381616784930 eV    ::
         ::.................................................::
         :: SCC energy               -40.252072157254 Eh    ::
         :: -> isotropic ES            0.010050492562 Eh    ::
         :: -> anisotropic ES          0.005220395456 Eh    ::
         :: -> anisotropic XC          0.029995448048 Eh    ::
         :: -> dispersion             -0.027195997530 Eh    ::
         :: -> Gsolv                  -0.017315301037 Eh    ::
         ::    -> Gelec               -0.000286249799 Eh    ::
         ::    -> Gsasa               -0.019237194377 Eh    ::
         ::    -> Ghb                  0.000000000000 Eh    ::
         ::    -> Gshift               0.002208143139 Eh    ::
         :: repulsion energy           0.738721155170 Eh    ::
         :: add. restraining           0.000000000000 Eh    ::
         :: total charge               0.000000000000 e     ::
         :::::::::::::::::::::::::::::::::::::::::::::::::::::

           -------------------------------------------------
          |                Property Printout                |
           -------------------------------------------------

    * Orbital Energies and Occupations

         #    Occupation            Energy/Eh            Energy/eV
      -------------------------------------------------------------
         1        2.0000           -0.6526025             -17.7582
       ...           ...                  ...                  ...
        25        2.0000           -0.4705507             -12.8043
        26        2.0000           -0.4677564             -12.7283
        27        2.0000           -0.4622878             -12.5795
        28        2.0000           -0.4449068             -12.1065
        29        2.0000           -0.4312590             -11.7352
        30        2.0000           -0.4299440             -11.6994
        31        2.0000           -0.4217064             -11.4752
        32        2.0000           -0.4167080             -11.3392
        33        2.0000           -0.4095944             -11.1456
        34        2.0000           -0.4074586             -11.0875
        35        2.0000           -0.3964357             -10.7876
        36        2.0000           -0.3932520             -10.7009
        37        2.0000           -0.3545902              -9.6489 (HOMO)
        38                         -0.2670674              -7.2673 (LUMO)
        39                         -0.2249352              -6.1208
        40                         -0.2140566              -5.8248
        41                         -0.2075521              -5.6478
        42                         -0.1827626              -4.9732
        43                         -0.0854091              -2.3241
        44                         -0.0796786              -2.1682
        45                          0.0751173               2.0440
        46                          0.1118897               3.0447
        47                          0.1216729               3.3109
        48                          0.1322563               3.5989
       ...                                ...                  ...
        73                          0.7017184              19.0947
      -------------------------------------------------------------
                  HL-Gap            0.0875228 Eh            2.3816 eV
             Fermi-level           -0.3108288 Eh           -8.4581 eV

     #   Z          covCN         q      C6AA      α(0)
     1   6 C        3.755    -0.116    22.778     6.805
     2   6 C        2.898     0.112    25.534     8.285
     3   7 N        1.848    -0.215    26.517     7.632
     4   6 C        2.923     0.084    26.120     8.381
     5   6 C        2.922    -0.051    29.268     8.872
     6   6 C        2.918    -0.032    28.792     8.799
     7   6 C        2.919    -0.042    29.051     8.839
     8   6 C        2.919    -0.031    28.780     8.797
     9   6 C        2.924    -0.048    29.204     8.862
    10   6 C        2.982     0.003    27.941     8.671
    11   6 C        2.922    -0.032    28.800     8.801
    12   6 C        2.918    -0.030    28.740     8.791
    13   6 C        2.919    -0.026    28.650     8.777
    14   6 C        2.917    -0.027    28.680     8.782
    15   6 C        2.926    -0.026    28.644     8.777
    16   1 H        0.925     0.055     2.258     2.350
    17   1 H        0.925     0.053     2.287     2.365
    18   1 H        0.925     0.044     2.391     2.418
    19   1 H        0.925     0.023     2.690     2.565
    20   1 H        0.925     0.024     2.668     2.554
    21   1 H        0.926     0.023     2.695     2.567
    22   1 H        0.926     0.025     2.651     2.546
    23   1 H        0.926     0.029     2.602     2.523
    24   1 H        0.926     0.039     2.456     2.451
    25   1 H        0.926     0.034     2.525     2.485
    26   1 H        0.926     0.035     2.510     2.478
    27   1 H        0.926     0.036     2.498     2.472
    28   1 H        0.926     0.055     2.262     2.352

 Mol. C6AA /au·bohr⁶  :       9915.017652
 Mol. C8AA /au·bohr⁸  :     243037.240902
 Mol. α(0) /au        :        159.996380


Wiberg/Mayer (AO) data.
largest (>0.10) Wiberg bond orders for each atom

 ---------------------------------------------------------------------------
     #   Z sym  total        # sym  WBO       # sym  WBO       # sym  WBO
 ---------------------------------------------------------------------------
     1   6 C    3.996 --     2 C    1.007    18 H    0.981    17 H    0.970
                            16 H    0.963
     2   6 C    3.966 --     3 N    1.766    10 C    1.057     1 C    1.007
     3   7 N    3.227 --     2 C    1.766     4 C    1.137
     4   6 C    3.976 --     9 C    1.341     5 C    1.339     3 N    1.137
     5   6 C    3.984 --     6 C    1.457     4 C    1.339    19 H    0.971
                             8 C    0.103
     6   6 C    3.992 --     5 C    1.457     7 C    1.431    20 H    0.970
                             9 C    0.105
     7   6 C    3.989 --     6 C    1.431     8 C    1.425    21 H    0.972
     8   6 C    3.992 --     9 C    1.464     7 C    1.425    22 H    0.971
                             5 C    0.103
     9   6 C    3.986 --     8 C    1.464     4 C    1.341    23 H    0.971
                             6 C    0.105
    10   6 C    3.988 --    11 C    1.385    15 C    1.373     2 C    1.057
                            13 C    0.102
    11   6 C    3.986 --    12 C    1.451    10 C    1.385    24 H    0.967
                            14 C    0.105
    12   6 C    3.992 --    11 C    1.451    13 C    1.436    25 H    0.971
                            15 C    0.107
    13   6 C    3.988 --    12 C    1.436    14 C    1.426    26 H    0.971
                            10 C    0.102
    14   6 C    3.992 --    15 C    1.464    13 C    1.426    27 H    0.970
                            11 C    0.105
    15   6 C    3.989 --    14 C    1.464    10 C    1.373    28 H    0.966
                            12 C    0.107
    16   1 H    0.996 --     1 C    0.963
    17   1 H    0.997 --     1 C    0.970
    18   1 H    0.998 --     1 C    0.981
    19   1 H    0.999 --     5 C    0.971
    20   1 H    0.999 --     6 C    0.970
    21   1 H    0.999 --     7 C    0.972
    22   1 H    0.998 --     8 C    0.971
    23   1 H    0.999 --     9 C    0.971
    24   1 H    0.998 --    11 C    0.967
    25   1 H    0.998 --    12 C    0.971
    26   1 H    0.998 --    13 C    0.971
    27   1 H    0.998 --    14 C    0.970
    28   1 H    0.997 --    15 C    0.966
 ---------------------------------------------------------------------------

Topologies differ in total number of bonds
Writing topology from bond orders to xtbtopo.mol

molecular dipole:
                 x           y           z       tot (Debye)
 q only:       -0.841      -0.062      -0.321
   full:       -0.784      -0.173      -0.603       2.551
molecular quadrupole (traceless):
                xx          xy          yy          xz          yz          zz
 q only:        0.623       0.196      -1.511      -0.882       1.612       0.888
  q+dip:        4.353       0.711      -2.363      -0.903       4.168      -1.990
Note: The following floating-point exceptions are signalling: IEEE_DIVIDE_BY_ZERO IEEE_UNDERFLOW_FLAG IEEE_DENORMAL
normal termination of xtb
   full:        1.638       0.314      -1.024      -0.789       2.045      -0.614

           -------------------------------------------------
          |                Geometry Summary                 |
           -------------------------------------------------

      molecular mass/u    :      195.2602356
   center of mass at/Å    :        0.0095754       0.0412254       0.1382527
  moments of inertia/u·Å² :        0.2591618E+03   0.1839647E+04   0.1966350E+04
rotational constants/cm⁻¹ :        0.6504676E-01   0.9163513E-02   0.8573060E-02

 * 27 selected distances

     #   Z          #   Z                                           value/Å
     2   6 C        3   7 N                                       1.2677198
     3   7 N        4   6 C                                       1.3733984
     4   6 C        5   6 C                                       1.3981689 (max)
     5   6 C        6   6 C                                       1.3812719
     6   6 C        7   6 C                                       1.3853141
     7   6 C        8   6 C                                       1.3864938
     4   6 C        9   6 C                                       1.3976606
     8   6 C        9   6 C                                       1.3802588
    10   6 C       11   6 C                                       1.3949093
    11   6 C       12   6 C                                       1.3835901
    12   6 C       13   6 C                                       1.3848220
    13   6 C       14   6 C                                       1.3866242
    10   6 C       15   6 C                                       1.3972432
    14   6 C       15   6 C                                       1.3804890
     1   6 C       16   1 H                                       1.0895051
     1   6 C       17   1 H                                       1.0886440
     1   6 C       18   1 H                                       1.0886238
     5   6 C       19   1 H                                       1.0812537
     6   6 C       20   1 H                                       1.0812131
     7   6 C       21   1 H                                       1.0801861
     8   6 C       22   1 H                                       1.0810370
     9   6 C       23   1 H                                       1.0803851
    11   6 C       24   1 H                                       1.0792036
    12   6 C       25   1 H                                       1.0807145
    13   6 C       26   1 H                                       1.0803490
    14   6 C       27   1 H                                       1.0804743
    15   6 C       28   1 H                                       1.0790926 (min)

 * 3 distinct bonds (by element types)

   Z      Z             #   av. dist./Å        max./Å        min./Å
   1 H    6 C          13     1.0823602     1.0895051     1.0790926
   6 C    6 C          12     1.3880705     1.3981689     1.3802588
   6 C    7 N           2     1.3205591     1.3733984     1.2677198


optimized geometry written to: xtbopt.xyz


           -------------------------------------------------
          | TOTAL ENERGY              -39.513351002085 Eh   |
          | GRADIENT NORM               0.000046093204 Eh/α |
          | HOMO-LUMO GAP               2.381616784930 eV   |
           -------------------------------------------------

------------------------------------------------------------------------
 * finished run on 2026/09/10 at 22:57:02.533     
------------------------------------------------------------------------
 total:
 * wall-time:     0 d,  0 h,  0 min,  1.047 sec
 *  cpu-time:     0 d,  0 h,  0 min,  0.109 sec
 * ratio c/w:     0.104 speedup
 SCF:
 * wall-time:     0 d,  0 h,  0 min,  0.054 sec
 *  cpu-time:     0 d,  0 h,  0 min,  0.016 sec
 * ratio c/w:     0.292 speedup
 ANC optimizer:
 * wall-time:     0 d,  0 h,  0 min,  0.899 sec
 *  cpu-time:     0 d,  0 h,  0 min,  0.094 sec
 * ratio c/w:     0.104 speedup

