 Entering Gaussian System
 *********************************************
 Gaussian 98:
 frequency output generated by the xtb code
 *********************************************
                         Standard orientation:
 --------------------------------------------------------------------
  Center     Atomic     Atomic              Coordinates (Angstroms)
  Number     Number      Type              X           Y           Z
 --------------------------------------------------------------------
    1          6             0        1.189295   -0.568734    1.704322
    2          6             0        0.769386    0.006588    0.377169
    3          7             0        1.577493    0.471197   -0.483040
    4          6             0        2.950005    0.448837   -0.443677
    5          6             0        3.655836    1.655023   -0.465053
    6          6             0        5.034365    1.653363   -0.533425
    7          6             0        5.734431    0.458784   -0.607101
    8          6             0        5.040719   -0.740321   -0.607595
    9          6             0        3.662347   -0.751993   -0.520011
   10          6             0       -0.664947    0.067389    0.059538
   11          6             0       -1.081623    0.806875   -1.074393
   12          6             0       -2.397674    0.886417   -1.417721
   13          6             0       -3.388133    0.227127   -0.655759
   14          6             0       -4.757553    0.284440   -0.984188
   15          6             0       -5.686152   -0.372266   -0.224222
   16          6             0       -5.287043   -1.114832    0.898670
   17          6             0       -3.966376   -1.188329    1.243817
   18          6             0       -2.983112   -0.522095    0.480257
   19          6             0       -1.615941   -0.581365    0.815424
   20          1             0        0.625977   -0.104969    2.512085
   21          1             0        1.002623   -1.641993    1.723103
   22          1             0        2.252170   -0.398766    1.867012
   23          1             0        3.105630    2.583031   -0.407919
   24          1             0        5.569092    2.592897   -0.534840
   25          1             0        6.812905    0.463109   -0.667441
   26          1             0        5.578301   -1.676407   -0.669137
   27          1             0        3.117661   -1.686016   -0.528459
   28          1             0       -0.321612    1.306629   -1.654589
   29          1             0       -2.704852    1.456917   -2.283180
   30          1             0       -5.060404    0.856748   -1.849956
   31          1             0       -6.734363   -0.325334   -0.482407
   32          1             0       -6.034101   -1.627887    1.487130
   33          1             0       -3.655601   -1.758711    2.108253
   34          1             0       -1.338751   -1.165353    1.680681
 --------------------------------------------------------------------
     1 basis functions        1 primitive gaussians
     1 alpha electrons        1 beta electrons

 Harmonic frequencies (cm**-1), IR intensities (km*mol⁻¹),
 Raman scattering activities (A**4/amu), Raman depolarization ratios,
 reduced masses (AMU), force constants (mDyne/A) and normal coordinates:
                      1                      2                      3
                        a                      a                      a 
 Frequencies --    17.4511                36.6479                47.3489
 Red. masses --    10.0793                10.3639                10.6869
 Frc consts  --     0.0000                 0.0000                 0.0000
 IR Inten    --     0.2230                 0.1843                 0.4155
 Raman Activ --     0.0000                 0.0000                 0.0000
 Depolar     --     0.0000                 0.0000                 0.0000
 Atom AN      X      Y      Z        X      Y      Z        X      Y      Z
   1   6     0.02  -0.26  -0.12    -0.01  -0.19  -0.09    -0.02  -0.30   0.14
   2   6     0.01  -0.13  -0.06     0.01  -0.20  -0.10     0.00  -0.09   0.22
   3   7     0.01  -0.02   0.00     0.01  -0.18  -0.09    -0.00   0.05   0.32
   4   6     0.01   0.02   0.01     0.01  -0.06  -0.03    -0.01   0.04   0.15
   5   6    -0.03   0.05   0.26    -0.12   0.01  -0.24    -0.03   0.05  -0.07
   6   6    -0.03   0.10   0.27    -0.11   0.15  -0.17    -0.04   0.07  -0.33
   7   6     0.01   0.14   0.05     0.02   0.21   0.12    -0.04   0.07  -0.37
   8   6     0.05   0.12  -0.19     0.15   0.14   0.32    -0.02   0.06  -0.12
   9   6     0.05   0.06  -0.21     0.15   0.00   0.24    -0.00   0.05   0.14
  10   6     0.01  -0.12  -0.06     0.01  -0.19  -0.10     0.01  -0.04   0.18
  11   6     0.03  -0.26  -0.16     0.02  -0.09  -0.04     0.11  -0.06   0.14
  12   6     0.04  -0.25  -0.17     0.01   0.02   0.02     0.14  -0.04   0.04
  13   6     0.01  -0.08  -0.06    -0.01   0.05   0.03     0.07  -0.01  -0.03
  14   6     0.01  -0.06  -0.05    -0.02   0.22   0.13     0.10  -0.01  -0.15
  15   6    -0.02   0.12   0.06    -0.04   0.25   0.14     0.03   0.02  -0.21
  16   6    -0.05   0.27   0.17    -0.04   0.12   0.05    -0.08   0.07  -0.15
  17   6    -0.05   0.24   0.16    -0.02  -0.04  -0.05    -0.11   0.07  -0.02
  18   6    -0.02   0.07   0.05    -0.01  -0.07  -0.05    -0.03   0.03   0.04
  19   6    -0.02   0.04   0.04     0.00  -0.19  -0.12    -0.06   0.01   0.14
  20   1     0.04  -0.07  -0.02    -0.02  -0.07  -0.03     0.01  -0.10   0.06
  21   1    -0.04  -0.07  -0.05     0.01  -0.06  -0.03    -0.04  -0.08   0.00
  22   1     0.01  -0.12  -0.05    -0.01  -0.04  -0.01    -0.00  -0.12   0.04
  23   1    -0.02   0.00   0.12    -0.06  -0.01  -0.13    -0.01   0.01  -0.02
  24   1    -0.02   0.04   0.13    -0.06   0.06  -0.10    -0.02   0.02  -0.15
  25   1     0.00   0.05   0.02     0.01   0.09   0.05    -0.01   0.02  -0.17
  26   1     0.02   0.04  -0.10     0.07   0.05   0.15    -0.00   0.02  -0.04
  27   1     0.02   0.01  -0.11     0.07  -0.02   0.11     0.00   0.01   0.09
  28   1     0.02  -0.11  -0.07     0.01  -0.03  -0.01     0.05  -0.03   0.05
  29   1     0.02  -0.11  -0.07     0.00   0.03   0.02     0.06  -0.02  -0.00
  30   1     0.01  -0.05  -0.04    -0.01   0.09   0.06     0.05  -0.01  -0.06
  31   1    -0.01   0.04   0.02    -0.02   0.11   0.06     0.01   0.01  -0.09
  32   1    -0.02   0.12   0.07    -0.02   0.04   0.02    -0.04   0.03  -0.06
  33   1    -0.02   0.10   0.07    -0.01  -0.04  -0.03    -0.06   0.03   0.01
  34   1    -0.01   0.05   0.04     0.00  -0.08  -0.05    -0.04   0.01   0.05
                      4                      5                      6
                        a                      a                      a 
 Frequencies --    65.3017                95.5237               148.4855
 Red. masses --    10.2790                10.5319                10.4866
 Frc consts  --     0.0000                 0.0000                 0.0000
 IR Inten    --     2.6093                 0.2675                 2.3765
 Raman Activ --     0.0000                 0.0000                 0.0000
 Depolar     --     0.0000                 0.0000                 0.0000
 Atom AN      X      Y      Z        X      Y      Z        X      Y      Z
   1   6     0.04  -0.39  -0.30    -0.08   0.20   0.13    -0.32  -0.07  -0.00
   2   6     0.01   0.04  -0.10    -0.01   0.09   0.06    -0.06  -0.01  -0.07
   3   7    -0.01   0.39   0.04     0.02   0.21   0.16     0.15  -0.09   0.09
   4   6    -0.01   0.21   0.02     0.01   0.17   0.16     0.15  -0.10   0.23
   5   6     0.14   0.12  -0.12     0.13   0.10   0.14     0.12  -0.07   0.20
   6   6     0.15  -0.07  -0.07     0.12  -0.04  -0.04     0.10   0.01  -0.05
   7   6    -0.00  -0.17   0.12    -0.00  -0.11  -0.17     0.16   0.06  -0.25
   8   6    -0.15  -0.08   0.23    -0.12  -0.04  -0.09     0.22   0.02  -0.04
   9   6    -0.16   0.11   0.18    -0.10   0.10   0.09     0.23  -0.05   0.21
  10   6     0.00   0.07  -0.06     0.01  -0.12  -0.09    -0.04   0.10  -0.18
  11   6    -0.05   0.03  -0.07     0.02  -0.17  -0.12    -0.13   0.09  -0.16
  12   6    -0.06  -0.02  -0.05     0.02  -0.18  -0.13    -0.17   0.09  -0.06
  13   6    -0.03  -0.03  -0.01     0.01  -0.11  -0.08    -0.14   0.08  -0.02
  14   6    -0.03  -0.10   0.01    -0.02   0.13   0.10    -0.17  -0.04   0.06
  15   6     0.01  -0.10   0.06    -0.04   0.27   0.20    -0.07  -0.15   0.09
  16   6     0.05  -0.03   0.09    -0.01   0.08   0.07     0.04  -0.11   0.09
  17   6     0.06   0.04   0.07     0.02  -0.18  -0.12     0.06   0.04   0.03
  18   6     0.02   0.03   0.01     0.03  -0.22  -0.15    -0.05   0.11  -0.04
  19   6     0.03   0.07  -0.02     0.03  -0.24  -0.17    -0.03   0.14  -0.12
  20   1     0.03  -0.17  -0.04    -0.07   0.04   0.01    -0.08   0.02  -0.02
  21   1    -0.01  -0.11  -0.18     0.03   0.05   0.05    -0.16  -0.01   0.00
  22   1     0.01  -0.14  -0.08    -0.04   0.11   0.07    -0.08  -0.09   0.02
  23   1     0.08   0.06  -0.07     0.07   0.04   0.06     0.02  -0.03   0.09
  24   1     0.08  -0.04  -0.05     0.06  -0.03  -0.02     0.01   0.01  -0.04
  25   1     0.00  -0.09   0.05    -0.00  -0.06  -0.09     0.04   0.03  -0.15
  26   1    -0.08  -0.05   0.11    -0.06  -0.03  -0.05     0.07   0.01  -0.03
  27   1    -0.08   0.05   0.07    -0.06   0.04   0.04     0.09  -0.03   0.09
  28   1    -0.02   0.01  -0.03     0.00  -0.05  -0.03    -0.05   0.02  -0.07
  29   1    -0.03  -0.02  -0.02     0.00  -0.05  -0.04    -0.06   0.03  -0.01
  30   1    -0.02  -0.05  -0.00    -0.01   0.07   0.05    -0.08  -0.02   0.02
  31   1    -0.00  -0.05   0.02    -0.02   0.15   0.11    -0.02  -0.08   0.04
  32   1     0.02  -0.01   0.04    -0.01   0.05   0.03     0.03  -0.05   0.03
  33   1     0.03   0.03   0.03     0.01  -0.09  -0.06     0.05   0.02   0.01
  34   1     0.01   0.03  -0.00     0.01  -0.08  -0.06    -0.00   0.04  -0.04
                      7                      8                      9
                        a                      a                      a 
 Frequencies --   162.6876               201.0107               211.6208
 Red. masses --     9.2777                 2.3362                10.7259
 Frc consts  --     0.0000                 0.0000                 0.0000
 IR Inten    --     0.2057                 0.8046                 0.1501
 Raman Activ --     0.0000                 0.0000                 0.0000
 Depolar     --     0.0000                 0.0000                 0.0000
 Atom AN      X      Y      Z        X      Y      Z        X      Y      Z
   1   6    -0.02   0.00   0.00    -0.11  -0.02   0.05    -0.12  -0.14   0.04
   2   6    -0.01   0.01   0.00     0.00  -0.01   0.02    -0.07   0.07   0.11
   3   7     0.01  -0.03  -0.00    -0.00   0.03   0.05    -0.09  -0.07   0.06
   4   6     0.01  -0.03   0.02    -0.00   0.02  -0.05    -0.12  -0.14   0.03
   5   6    -0.01  -0.02   0.02     0.00   0.02  -0.09    -0.25  -0.08   0.04
   6   6    -0.01   0.00   0.00     0.01   0.00  -0.02    -0.27   0.02   0.02
   7   6     0.01   0.01  -0.03     0.00  -0.01   0.09    -0.22   0.04  -0.01
   8   6     0.02   0.00  -0.01    -0.01   0.00   0.01    -0.12  -0.02   0.01
   9   6     0.03  -0.02   0.02    -0.02   0.02  -0.08    -0.11  -0.13   0.04
  10   6    -0.01   0.03  -0.01     0.01   0.02   0.02     0.02   0.25   0.02
  11   6    -0.05   0.36   0.23     0.00   0.09   0.07     0.09   0.14  -0.09
  12   6    -0.03   0.13   0.07     0.01   0.02   0.01     0.11  -0.04  -0.20
  13   6     0.02  -0.19  -0.14     0.03  -0.09  -0.06     0.13  -0.03  -0.15
  14   6     0.03  -0.31  -0.21     0.02  -0.06  -0.04     0.10  -0.00   0.02
  15   6    -0.00  -0.02   0.00     0.01   0.06   0.06     0.18   0.08   0.19
  16   6    -0.03   0.32   0.24     0.01   0.06   0.06     0.25  -0.04   0.08
  17   6    -0.01   0.12   0.08     0.03  -0.07  -0.04     0.28  -0.09  -0.08
  18   6     0.02  -0.17  -0.13     0.02  -0.09  -0.07     0.14   0.03  -0.12
  19   6     0.04  -0.26  -0.21     0.01  -0.04  -0.03     0.08   0.19  -0.01
  20   1    -0.09  -0.09  -0.01     0.30   0.40   0.02    -0.06  -0.11   0.03
  21   1     0.11  -0.02  -0.05    -0.54   0.09   0.23    -0.00  -0.05  -0.07
  22   1    -0.03   0.10   0.05     0.07  -0.47  -0.17    -0.04  -0.02   0.04
  23   1    -0.01  -0.01   0.01     0.00   0.01  -0.04    -0.10  -0.04   0.01
  24   1    -0.01   0.00   0.00     0.00  -0.00  -0.01    -0.09   0.01   0.00
  25   1     0.00   0.01  -0.02     0.00  -0.01   0.06    -0.06   0.03  -0.02
  26   1     0.01   0.00  -0.01    -0.00  -0.00   0.01    -0.01   0.01  -0.00
  27   1     0.01  -0.01   0.01    -0.01   0.01  -0.04    -0.02  -0.04   0.02
  28   1    -0.03   0.21   0.14    -0.00   0.06   0.04     0.03   0.04  -0.02
  29   1    -0.01   0.08   0.05     0.00   0.02   0.01     0.03  -0.04  -0.08
  30   1     0.01  -0.15  -0.10     0.00  -0.02  -0.01    -0.00   0.00   0.02
  31   1    -0.00  -0.00   0.01    -0.00   0.04   0.04     0.04   0.06   0.11
  32   1    -0.02   0.20   0.14     0.00   0.04   0.04     0.09  -0.02   0.03
  33   1    -0.00   0.08   0.05     0.01  -0.03  -0.02     0.12  -0.04  -0.05
  34   1     0.02  -0.14  -0.10    -0.00  -0.00   0.00     0.03   0.07   0.01
                     10                     11                     12
                        a                      a                      a 
 Frequencies --   223.1838               256.4583               330.2207
 Red. masses --    10.3807                 9.5756                10.0000
 Frc consts  --     0.0000                 0.0000                 0.0000
 IR Inten    --     0.1362                 0.8560                 0.4392
 Raman Activ --     0.0000                 0.0000                 0.0000
 Depolar     --     0.0000                 0.0000                 0.0000
 Atom AN      X      Y      Z        X      Y      Z        X      Y      Z
   1   6    -0.04   0.10  -0.01    -0.41  -0.08   0.26     0.47  -0.02   0.14
   2   6    -0.01  -0.19  -0.14    -0.03  -0.07   0.13     0.07  -0.08   0.21
   3   7    -0.07  -0.03  -0.10     0.03   0.01   0.26     0.02  -0.02   0.21
   4   6    -0.09   0.07   0.09     0.01   0.06  -0.08     0.00  -0.02   0.06
   5   6    -0.11   0.07   0.18     0.05   0.05  -0.32    -0.03  -0.01  -0.03
   6   6    -0.12   0.00   0.03     0.06   0.01  -0.04    -0.04   0.00  -0.03
   7   6    -0.19  -0.03  -0.14     0.06  -0.02   0.28    -0.03  -0.00   0.06
   8   6    -0.20  -0.03   0.03    -0.00   0.02  -0.10    -0.01  -0.01  -0.02
   9   6    -0.18   0.03   0.18    -0.01   0.06  -0.32    -0.01  -0.03  -0.04
  10   6     0.06  -0.27  -0.21     0.02  -0.09  -0.08     0.06  -0.05   0.02
  11   6     0.10  -0.09  -0.10     0.05  -0.06  -0.07    -0.00  -0.05   0.00
  12   6     0.07   0.20   0.09     0.03   0.07  -0.00    -0.01   0.07  -0.11
  13   6     0.10   0.18   0.10     0.01   0.12   0.02    -0.19   0.17  -0.20
  14   6     0.12   0.04   0.02     0.00   0.04   0.04    -0.28   0.04   0.01
  15   6     0.17  -0.19  -0.12     0.07  -0.13  -0.02    -0.11  -0.16   0.09
  16   6     0.13   0.01   0.02     0.07  -0.03   0.05     0.05  -0.06   0.10
  17   6     0.10   0.20   0.15     0.07   0.10   0.08     0.09   0.15  -0.07
  18   6     0.08   0.09   0.05     0.01   0.06  -0.02    -0.07   0.14  -0.26
  19   6     0.09  -0.19  -0.13     0.01  -0.09  -0.11    -0.09  -0.04  -0.19
  20   1     0.02   0.14  -0.04    -0.24  -0.08   0.02     0.22   0.01   0.09
  21   1    -0.07   0.04   0.11    -0.05  -0.04   0.02     0.14  -0.01   0.09
  22   1    -0.00  -0.01  -0.03    -0.15   0.04   0.20     0.15   0.01  -0.08
  23   1    -0.03   0.02   0.08     0.02   0.02  -0.14    -0.02  -0.01  -0.02
  24   1    -0.02  -0.01   0.00     0.03  -0.00  -0.01    -0.01   0.00  -0.02
  25   1    -0.06  -0.02  -0.10     0.02  -0.02   0.19    -0.01   0.00   0.04
  26   1    -0.06  -0.01   0.00    -0.01  -0.00  -0.04     0.00   0.00  -0.01
  27   1    -0.07   0.02   0.08    -0.01   0.02  -0.14    -0.01  -0.01  -0.02
  28   1     0.04  -0.04  -0.03     0.02  -0.03  -0.02    -0.00  -0.01  -0.00
  29   1     0.01   0.10   0.06     0.01   0.03   0.00     0.05   0.03  -0.04
  30   1     0.03  -0.00   0.00    -0.02   0.01   0.02    -0.15   0.01   0.02
  31   1     0.06  -0.13  -0.09     0.02  -0.08  -0.02    -0.04  -0.10   0.05
  32   1     0.04  -0.00   0.00     0.03  -0.02   0.01     0.05  -0.03   0.06
  33   1     0.03   0.10   0.07     0.03   0.05   0.03     0.08   0.08  -0.02
  34   1     0.03  -0.08  -0.06    -0.01  -0.05  -0.05    -0.06  -0.03  -0.05
                     13                     14                     15
                        a                      a                      a 
 Frequencies --   350.3245               369.8480               394.4249
 Red. masses --     9.2726                 9.0654                10.3738
 Frc consts  --     0.0000                 0.0000                 0.0000
 IR Inten    --     0.0697                 2.0239                 1.8376
 Raman Activ --     0.0000                 0.0000                 0.0000
 Depolar     --     0.0000                 0.0000                 0.0000
 Atom AN      X      Y      Z        X      Y      Z        X      Y      Z
   1   6     0.00   0.00   0.05     0.02   0.00  -0.01     0.12   0.03  -0.06
   2   6     0.02  -0.19  -0.05     0.01   0.00  -0.01    -0.05   0.29   0.11
   3   7     0.00  -0.07   0.00     0.02   0.03   0.01     0.06   0.25   0.21
   4   6    -0.00   0.08   0.01     0.01  -0.01   0.01     0.03  -0.19   0.14
   5   6     0.03   0.06  -0.02    -0.03   0.00  -0.42    -0.09  -0.15  -0.02
   6   6     0.04  -0.00   0.01     0.01  -0.01   0.42    -0.12   0.02  -0.06
   7   6     0.00  -0.02   0.01    -0.01   0.00   0.00    -0.05   0.06   0.10
   8   6    -0.04  -0.00  -0.02    -0.02   0.01  -0.42     0.05  -0.01  -0.04
   9   6    -0.03   0.06   0.00     0.03  -0.03   0.44     0.03  -0.19  -0.05
  10   6     0.02  -0.17  -0.07     0.01   0.01  -0.00    -0.00   0.12  -0.12
  11   6     0.04  -0.19  -0.09    -0.00   0.01  -0.00    -0.02  -0.16  -0.31
  12   6    -0.01   0.34   0.20    -0.01  -0.01   0.00    -0.11   0.14   0.14
  13   6    -0.03   0.06  -0.05    -0.00  -0.01   0.01     0.02   0.08   0.24
  14   6    -0.01  -0.28  -0.21    -0.00   0.00   0.00     0.09  -0.01   0.01
  15   6    -0.02   0.10   0.13    -0.01   0.00  -0.01     0.01  -0.07  -0.16
  16   6     0.01   0.13   0.14    -0.01  -0.00  -0.01    -0.07   0.20   0.05
  17   6     0.07  -0.26  -0.22    -0.01   0.00   0.00    -0.06  -0.12  -0.00
  18   6    -0.02   0.03  -0.07     0.00  -0.00   0.00     0.06  -0.21   0.03
  19   6    -0.07   0.29   0.19     0.01  -0.00  -0.01     0.10  -0.05  -0.10
  20   1    -0.04   0.00  -0.02     0.02   0.01  -0.00     0.11  -0.03   0.06
  21   1     0.06  -0.01   0.05    -0.00   0.00   0.01     0.01   0.01  -0.07
  22   1    -0.01   0.07   0.04     0.01  -0.01  -0.01     0.05  -0.03  -0.08
  23   1     0.02   0.03  -0.01    -0.02   0.00  -0.25    -0.07  -0.07  -0.03
  24   1     0.02  -0.01   0.00     0.01  -0.01   0.26    -0.06   0.02  -0.05
  25   1     0.00  -0.02   0.01    -0.00   0.00  -0.01    -0.01   0.04   0.05
  26   1    -0.02  -0.01  -0.01    -0.01   0.01  -0.27     0.05   0.02  -0.04
  27   1    -0.02   0.03   0.00     0.02  -0.01   0.25     0.03  -0.07  -0.05
  28   1     0.02  -0.10  -0.05    -0.00   0.00  -0.00    -0.02  -0.11  -0.16
  29   1     0.00   0.20   0.12    -0.00  -0.00  -0.00    -0.09   0.05   0.07
  30   1    -0.01  -0.17  -0.12     0.00   0.00   0.00     0.07  -0.03  -0.03
  31   1    -0.01   0.06   0.07    -0.00   0.00  -0.00     0.02  -0.07  -0.10
  32   1     0.00   0.08   0.08    -0.00  -0.00  -0.00    -0.04   0.12   0.05
  33   1     0.05  -0.16  -0.13    -0.01   0.00   0.00    -0.05  -0.05   0.00
  34   1    -0.05   0.18   0.13     0.00  -0.00  -0.00     0.08   0.03  -0.02
                     16                     17                     18
                        a                      a                      a 
 Frequencies --   436.7723               445.9695               471.5997
 Red. masses --     9.9015                 8.7233                10.7078
 Frc consts  --     0.0000                 0.0000                 0.0000
 IR Inten    --     3.5985                 3.8307                 3.3692
 Raman Activ --     0.0000                 0.0000                 0.0000
 Depolar     --     0.0000                 0.0000                 0.0000
 Atom AN      X      Y      Z        X      Y      Z        X      Y      Z
   1   6     0.14   0.02   0.02    -0.04   0.00  -0.02     0.04  -0.15   0.26
   2   6    -0.01  -0.28  -0.09    -0.02   0.10   0.03     0.18  -0.02   0.17
   3   7     0.12  -0.05   0.19    -0.04   0.05  -0.04     0.11  -0.32  -0.05
   4   6     0.06   0.01   0.29    -0.02  -0.02  -0.07     0.07   0.14  -0.29
   5   6    -0.03   0.06  -0.02     0.01  -0.04   0.00    -0.01   0.20  -0.01
   6   6    -0.05   0.04  -0.13     0.01  -0.01   0.03     0.00   0.02   0.13
   7   6    -0.09  -0.01   0.19     0.03   0.01  -0.04    -0.13  -0.05  -0.17
   8   6    -0.06  -0.03  -0.11     0.03   0.01   0.03    -0.08  -0.08   0.13
   9   6    -0.04  -0.03  -0.04     0.02  -0.01   0.01    -0.05   0.09  -0.01
  10   6     0.04  -0.04  -0.30    -0.01  -0.10   0.01     0.18   0.21  -0.10
  11   6    -0.05   0.26  -0.11     0.02  -0.14  -0.02     0.02   0.07  -0.18
  12   6    -0.10  -0.02   0.01     0.01   0.20   0.12    -0.08  -0.06   0.09
  13   6     0.06  -0.30  -0.04     0.04  -0.31  -0.27    -0.06  -0.06   0.13
  14   6     0.07  -0.02   0.02    -0.03   0.21   0.14    -0.07   0.02   0.08
  15   6    -0.03   0.16   0.03     0.03  -0.11  -0.06    -0.16  -0.06  -0.11
  16   6    -0.04  -0.14  -0.16     0.03  -0.07  -0.03    -0.10   0.09  -0.02
  17   6    -0.09   0.06   0.13    -0.00   0.19   0.12    -0.07  -0.02  -0.03
  18   6     0.02  -0.02   0.16     0.04  -0.36  -0.30     0.07  -0.14   0.01
  19   6     0.07   0.19  -0.03    -0.06   0.14   0.16     0.17   0.14  -0.16
  20   1     0.05   0.05  -0.01    -0.02  -0.03   0.01     0.00  -0.06   0.08
  21   1     0.11  -0.00   0.13    -0.02   0.00  -0.05    -0.01  -0.04   0.02
  22   1     0.04   0.09  -0.05    -0.01  -0.01   0.01     0.01  -0.07   0.11
  23   1    -0.02   0.01  -0.07     0.00  -0.01   0.02     0.01   0.06   0.07
  24   1    -0.00   0.00  -0.11    -0.00   0.00   0.03     0.05  -0.02   0.12
  25   1    -0.02  -0.01   0.09     0.01   0.00  -0.02    -0.04  -0.02  -0.06
  26   1    -0.01  -0.00  -0.10     0.01   0.00   0.02    -0.03  -0.03   0.12
  27   1    -0.04   0.01  -0.08     0.02  -0.01   0.02    -0.06   0.05   0.08
  28   1    -0.05   0.17  -0.00     0.01   0.00   0.04    -0.05   0.03  -0.12
  29   1    -0.10   0.03   0.05    -0.00   0.21   0.14    -0.06  -0.03   0.03
  30   1     0.05   0.05   0.03    -0.04   0.22   0.16     0.01   0.03   0.03
  31   1    -0.01   0.13   0.04     0.00   0.01   0.02    -0.04  -0.03  -0.05
  32   1    -0.02  -0.08  -0.09     0.00   0.04   0.04    -0.03   0.06   0.02
  33   1    -0.06   0.04   0.06    -0.01   0.22   0.15    -0.06   0.00   0.01
  34   1     0.08   0.11   0.01    -0.06   0.20   0.17     0.09   0.06  -0.04
                     19                     20                     21
                        a                      a                      a 
 Frequencies --   486.6449               499.7826               505.8407
 Red. masses --    11.1969                11.1984                10.5594
 Frc consts  --     0.0000                 0.0000                 0.0000
 IR Inten    --     2.1910                 0.6051                 0.4594
 Raman Activ --     0.0000                 0.0000                 0.0000
 Depolar     --     0.0000                 0.0000                 0.0000
 Atom AN      X      Y      Z        X      Y      Z        X      Y      Z
   1   6    -0.12   0.03  -0.03    -0.01   0.02   0.00     0.07  -0.04   0.13
   2   6     0.27   0.06  -0.11     0.05  -0.01  -0.02    -0.10  -0.11   0.09
   3   7     0.26   0.32   0.00     0.02   0.25   0.08    -0.17   0.25   0.23
   4   6     0.19  -0.12  -0.06     0.01  -0.08  -0.19    -0.15  -0.07  -0.34
   5   6    -0.05  -0.01   0.01    -0.00  -0.08  -0.03     0.02  -0.17  -0.07
   6   6    -0.11   0.14   0.02    -0.02   0.03   0.09     0.04  -0.06   0.17
   7   6    -0.25   0.05  -0.01    -0.03   0.04  -0.12     0.15   0.05  -0.24
   8   6    -0.05  -0.08   0.03     0.02   0.01   0.10     0.07   0.09   0.17
   9   6    -0.04  -0.26  -0.03    -0.00  -0.11  -0.04     0.03  -0.01  -0.06
  10   6     0.23  -0.13   0.04     0.05  -0.02  -0.10    -0.06  -0.10  -0.13
  11   6    -0.03  -0.11   0.19     0.34   0.11  -0.11    -0.18  -0.00  -0.06
  12   6    -0.03  -0.08   0.15     0.31   0.09  -0.04    -0.19   0.03   0.02
  13   6    -0.15  -0.07  -0.03     0.17   0.04  -0.08    -0.04  -0.10   0.02
  14   6    -0.19  -0.06  -0.06     0.09  -0.16   0.15     0.04  -0.02  -0.16
  15   6    -0.22   0.08   0.02    -0.05  -0.03   0.17     0.08   0.18   0.02
  16   6     0.06  -0.01  -0.14    -0.35  -0.23   0.14     0.19  -0.03  -0.16
  17   6     0.07   0.14  -0.10    -0.29  -0.01   0.03     0.11   0.05   0.10
  18   6     0.12   0.13   0.00    -0.19   0.05   0.03     0.04   0.09   0.12
  19   6     0.15  -0.02   0.05    -0.11   0.06  -0.15     0.03  -0.05  -0.02
  20   1    -0.13   0.04  -0.09    -0.03   0.03  -0.03     0.04   0.01   0.04
  21   1    -0.08   0.02  -0.02     0.00   0.01   0.03     0.06  -0.02   0.11
  22   1    -0.05  -0.02   0.13    -0.01   0.02   0.02     0.02   0.04  -0.02
  23   1    -0.09  -0.05   0.01    -0.02  -0.04   0.05     0.02  -0.04   0.09
  24   1    -0.02   0.03   0.01    -0.01   0.01   0.09    -0.03   0.00   0.18
  25   1    -0.07   0.02  -0.01    -0.01   0.01  -0.04     0.04   0.01  -0.07
  26   1     0.05   0.01   0.02     0.03   0.01   0.09     0.02   0.01   0.17
  27   1    -0.03  -0.06  -0.01     0.02  -0.04   0.04     0.06  -0.04   0.08
  28   1    -0.04   0.01   0.05     0.12   0.04  -0.00    -0.07   0.04  -0.01
  29   1     0.04   0.01   0.05     0.08   0.04  -0.00    -0.09   0.03   0.03
  30   1    -0.04  -0.02  -0.03    -0.02  -0.07   0.04     0.04  -0.02  -0.06
  31   1    -0.08   0.03   0.05     0.00   0.06  -0.00     0.01   0.07   0.06
  32   1     0.06  -0.05  -0.03    -0.10  -0.09   0.02     0.05  -0.06  -0.09
  33   1    -0.00   0.02  -0.03    -0.04  -0.01  -0.00     0.02  -0.01   0.02
  34   1    -0.01  -0.02   0.02    -0.01   0.02  -0.05     0.03  -0.01  -0.01
                     22                     23                     24
                        a                      a                      a 
 Frequencies --   539.8158               580.9989               589.4600
 Red. masses --     9.8299                11.3707                11.2430
 Frc consts  --     0.0000                 0.0000                 0.0000
 IR Inten    --     0.9049                 4.3058                 0.4075
 Raman Activ --     0.0000                 0.0000                 0.0000
 Depolar     --     0.0000                 0.0000                 0.0000
 Atom AN      X      Y      Z        X      Y      Z        X      Y      Z
   1   6     0.01  -0.00   0.01    -0.02  -0.03   0.05     0.02  -0.03   0.06
   2   6    -0.03   0.46   0.22    -0.04  -0.07   0.02     0.04   0.03   0.05
   3   7    -0.01  -0.25  -0.13    -0.22   0.03  -0.07    -0.05  -0.14  -0.13
   4   6     0.00   0.06   0.05    -0.20  -0.03   0.04    -0.03  -0.13   0.01
   5   6    -0.03   0.07   0.02     0.03  -0.18   0.04     0.31  -0.27   0.02
   6   6    -0.02  -0.04  -0.03     0.04  -0.08  -0.06     0.34   0.30  -0.05
   7   6     0.00  -0.04   0.04     0.20   0.02   0.06     0.03   0.16   0.06
   8   6     0.02  -0.04  -0.04    -0.03   0.16  -0.05    -0.35   0.34  -0.02
   9   6     0.03   0.08   0.03    -0.05   0.08   0.06    -0.32  -0.22   0.06
  10   6     0.01  -0.11  -0.07     0.06   0.02  -0.01     0.04   0.03  -0.01
  11   6     0.03  -0.14  -0.09    -0.00   0.01  -0.04     0.05  -0.00  -0.02
  12   6     0.00   0.16   0.10     0.00   0.07  -0.08     0.02  -0.04   0.09
  13   6     0.02  -0.05  -0.05     0.12  -0.02   0.04    -0.06  -0.01   0.01
  14   6     0.03  -0.21  -0.12     0.01  -0.21   0.29    -0.04   0.04  -0.08
  15   6    -0.04   0.23   0.18    -0.36  -0.05   0.02     0.04   0.03  -0.00
  16   6     0.01  -0.23  -0.15    -0.13   0.03  -0.08     0.04  -0.01  -0.00
  17   6    -0.04   0.18   0.11    -0.01   0.24  -0.34     0.01  -0.05   0.09
  18   6    -0.02   0.15   0.09     0.31   0.05  -0.02    -0.07  -0.02   0.01
  19   6     0.02  -0.17  -0.11     0.29  -0.06   0.14    -0.04   0.05  -0.10
  20   1     0.07  -0.13   0.12    -0.01   0.01   0.01     0.00  -0.03   0.03
  21   1    -0.08   0.01  -0.22     0.01  -0.01   0.04    -0.02  -0.01  -0.02
  22   1     0.02  -0.13  -0.02    -0.01   0.00   0.01     0.01  -0.04   0.03
  23   1     0.01   0.03  -0.02     0.04  -0.03  -0.01     0.05  -0.09  -0.02
  24   1     0.01  -0.02  -0.03    -0.04   0.01  -0.04     0.04   0.11  -0.04
  25   1     0.00   0.00   0.01     0.05  -0.01   0.01     0.01  -0.11   0.01
  26   1    -0.01  -0.02  -0.03    -0.05   0.03  -0.05    -0.06   0.12  -0.03
  27   1    -0.01   0.03  -0.00     0.04  -0.01  -0.01    -0.04  -0.09  -0.00
  28   1     0.01  -0.02  -0.00     0.01  -0.00  -0.01    -0.00   0.01  -0.02
  29   1    -0.00   0.11   0.07    -0.00   0.02  -0.02     0.00  -0.01   0.03
  30   1     0.01  -0.09  -0.06     0.04  -0.05   0.07    -0.01   0.01  -0.02
  31   1    -0.02   0.13   0.09    -0.09   0.02  -0.04     0.01  -0.00   0.02
  32   1     0.02  -0.16  -0.10     0.05  -0.03   0.06    -0.01   0.00  -0.02
  33   1    -0.01   0.03   0.02    -0.03   0.06  -0.09     0.00  -0.01   0.03
  34   1     0.00  -0.04  -0.02     0.09  -0.02   0.03    -0.01   0.01  -0.03
                     25                     26                     27
                        a                      a                      a 
 Frequencies --   605.2145               626.5006               655.9543
 Red. masses --    11.2875                 9.7443                10.2850
 Frc consts  --     0.0000                 0.0000                 0.0000
 IR Inten    --     2.6409                 0.9400                 1.7955
 Raman Activ --     0.0000                 0.0000                 0.0000
 Depolar     --     0.0000                 0.0000                 0.0000
 Atom AN      X      Y      Z        X      Y      Z        X      Y      Z
   1   6     0.01   0.03  -0.06     0.00   0.02   0.03     0.03  -0.05   0.12
   2   6    -0.10   0.07   0.00    -0.01   0.26   0.14     0.08   0.00   0.03
   3   7     0.22  -0.19   0.17    -0.04  -0.01  -0.02     0.01   0.09  -0.02
   4   6     0.20  -0.01  -0.00    -0.05  -0.01   0.01     0.04   0.01  -0.46
   5   6     0.12   0.11  -0.12    -0.03  -0.05  -0.01     0.02   0.04   0.29
   6   6     0.13   0.22   0.11    -0.03  -0.05   0.01    -0.02   0.05  -0.34
   7   6    -0.20   0.04  -0.13     0.05   0.00  -0.02    -0.05  -0.01   0.30
   8   6    -0.10  -0.05   0.12     0.01   0.03   0.01     0.02  -0.05  -0.34
   9   6    -0.08  -0.17  -0.12     0.00   0.02  -0.01     0.05  -0.06   0.29
  10   6    -0.19  -0.12   0.00     0.09  -0.48  -0.36    -0.02  -0.05  -0.02
  11   6    -0.26   0.00   0.02     0.03   0.18   0.12    -0.14  -0.00  -0.01
  12   6    -0.14   0.17  -0.33     0.06  -0.22  -0.08    -0.10   0.07  -0.15
  13   6     0.17   0.06  -0.05    -0.02  -0.04  -0.01     0.05   0.02  -0.03
  14   6     0.17  -0.06   0.16    -0.05   0.16   0.10     0.08   0.01   0.02
  15   6     0.05  -0.04   0.02    -0.01  -0.14  -0.10     0.10  -0.01   0.01
  16   6    -0.09  -0.01   0.05    -0.01   0.18   0.12    -0.05  -0.02   0.04
  17   6    -0.04   0.06  -0.14     0.03  -0.15  -0.10    -0.04  -0.02   0.00
  18   6     0.08   0.04  -0.01    -0.02   0.16   0.11    -0.03   0.01   0.01
  19   6     0.00  -0.14   0.25    -0.00   0.14   0.05    -0.02  -0.03   0.04
  20   1     0.06  -0.03   0.04     0.04  -0.08   0.09    -0.01  -0.01   0.02
  21   1     0.02   0.00  -0.04    -0.04   0.01  -0.14    -0.00  -0.01   0.03
  22   1     0.01   0.01  -0.09     0.01  -0.06  -0.00     0.01  -0.02   0.07
  23   1    -0.01   0.00   0.01     0.00  -0.01  -0.00    -0.00  -0.00   0.23
  24   1     0.08   0.04   0.09    -0.02  -0.01   0.01     0.02   0.00  -0.01
  25   1    -0.05  -0.04  -0.02     0.01   0.01  -0.00    -0.01   0.00   0.21
  26   1     0.03   0.01   0.09    -0.01   0.00   0.01     0.03  -0.01  -0.01
  27   1    -0.06  -0.03   0.02     0.02  -0.00  -0.00     0.01  -0.02   0.22
  28   1    -0.01  -0.01   0.07    -0.02   0.24   0.15    -0.03   0.01   0.02
  29   1    -0.05   0.05  -0.08     0.00   0.05   0.05    -0.04   0.03  -0.03
  30   1     0.04  -0.02   0.04    -0.01  -0.00  -0.01     0.02  -0.01   0.00
  31   1     0.03   0.01  -0.05     0.01  -0.12  -0.08     0.03   0.01  -0.02
  32   1    -0.01  -0.01   0.03     0.00   0.02   0.01    -0.03  -0.00  -0.01
  33   1     0.00   0.01  -0.05     0.02  -0.14  -0.09     0.00  -0.01  -0.01
  34   1    -0.01  -0.03   0.08    -0.01   0.14   0.08    -0.01   0.00   0.02
                     28                     29                     30
                        a                      a                      a 
 Frequencies --   700.8716               723.6859               755.7752
 Red. masses --     8.4386                11.2639                 3.7650
 Frc consts  --     0.0000                 0.0000                 0.0000
 IR Inten    --    27.6117                 0.0487                10.9726
 Raman Activ --     0.0000                 0.0000                 0.0000
 Depolar     --     0.0000                 0.0000                 0.0000
 Atom AN      X      Y      Z        X      Y      Z        X      Y      Z
   1   6     0.11  -0.13   0.30    -0.00   0.00  -0.02    -0.02  -0.01  -0.03
   2   6     0.29   0.00   0.02    -0.01  -0.02  -0.01    -0.05  -0.06  -0.02
   3   7    -0.07   0.19  -0.30     0.00  -0.01   0.01    -0.02  -0.01   0.03
   4   6    -0.00  -0.01   0.09     0.00   0.00   0.00     0.01   0.00  -0.08
   5   6    -0.03  -0.05   0.03     0.01   0.01  -0.00     0.03   0.04   0.04
   6   6    -0.03  -0.04   0.12     0.01   0.01  -0.00     0.03   0.05   0.02
   7   6     0.02   0.00   0.00    -0.01  -0.00  -0.00    -0.04  -0.00   0.04
   8   6     0.04  -0.00   0.12    -0.00  -0.00  -0.00     0.02  -0.04   0.02
   9   6     0.01   0.01   0.01     0.00  -0.00  -0.00     0.02  -0.02   0.03
  10   6     0.09  -0.03   0.02    -0.03   0.18   0.13    -0.05   0.16   0.11
  11   6    -0.24  -0.04   0.00     0.03  -0.16  -0.11     0.05  -0.08  -0.07
  12   6    -0.19   0.12  -0.21    -0.01   0.16   0.12     0.03  -0.06  -0.02
  13   6     0.05   0.02  -0.06     0.06  -0.46  -0.32     0.01  -0.09  -0.05
  14   6     0.14   0.03   0.00    -0.02   0.14   0.10    -0.04   0.14   0.11
  15   6     0.20   0.00   0.02     0.02  -0.17  -0.12    -0.05   0.11   0.08
  16   6    -0.12  -0.06   0.08    -0.02   0.16   0.11     0.01   0.12   0.06
  17   6    -0.09  -0.04   0.02     0.02  -0.16  -0.11    -0.00   0.17   0.12
  18   6    -0.06   0.02   0.00    -0.06   0.45   0.32     0.02  -0.09  -0.06
  19   6    -0.00   0.00  -0.01     0.02  -0.13  -0.09     0.00  -0.11  -0.06
  20   1    -0.07  -0.00  -0.00    -0.00   0.01  -0.01    -0.00   0.02  -0.02
  21   1    -0.04  -0.03   0.06     0.00   0.00   0.01     0.03  -0.01   0.05
  22   1     0.01  -0.09   0.24    -0.00   0.01  -0.01    -0.01   0.04  -0.03
  23   1    -0.03  -0.01  -0.24     0.00   0.00   0.00    -0.00   0.01  -0.06
  24   1    -0.03   0.00  -0.19     0.01   0.00   0.00     0.02   0.01  -0.07
  25   1    -0.01   0.02  -0.24    -0.00  -0.00   0.00    -0.02  -0.00  -0.09
  26   1    -0.01   0.00  -0.19     0.00  -0.00   0.00     0.01  -0.00  -0.07
  27   1    -0.00   0.01  -0.23    -0.00   0.00   0.00    -0.01   0.00  -0.06
  28   1    -0.08   0.01  -0.00     0.01  -0.02  -0.01     0.00   0.12   0.08
  29   1    -0.06   0.04  -0.05    -0.01   0.07   0.05    -0.02   0.18   0.14
  30   1     0.02  -0.00   0.00    -0.02   0.12   0.09     0.04  -0.29  -0.20
  31   1     0.07   0.02  -0.04    -0.01   0.03   0.02     0.03  -0.34  -0.23
  32   1    -0.07  -0.01  -0.01    -0.00   0.02   0.02     0.06  -0.33  -0.23
  33   1    -0.00  -0.01  -0.00     0.01  -0.07  -0.05     0.04  -0.30  -0.21
  34   1    -0.03   0.00   0.01     0.02  -0.13  -0.09    -0.02   0.17   0.12
                     31                     32                     33
                        a                      a                      a 
 Frequencies --   761.7989               801.7380               813.8585
 Red. masses --     6.2913                10.5106                11.0299
 Frc consts  --     0.0000                 0.0000                 0.0000
 IR Inten    --    21.8227                 0.2906                28.5979
 Raman Activ --     0.0000                 0.0000                 0.0000
 Depolar     --     0.0000                 0.0000                 0.0000
 Atom AN      X      Y      Z        X      Y      Z        X      Y      Z
   1   6     0.05  -0.01   0.02     0.02  -0.05   0.10    -0.05   0.11  -0.21
   2   6     0.18   0.00  -0.05     0.03   0.01  -0.02     0.10   0.00  -0.02
   3   7     0.07   0.01  -0.12    -0.03   0.05  -0.10     0.37  -0.16   0.31
   4   6    -0.02  -0.01   0.37     0.01  -0.00   0.07    -0.02   0.01  -0.22
   5   6    -0.07  -0.09  -0.16     0.00  -0.00  -0.02    -0.12  -0.09   0.03
   6   6    -0.09  -0.13  -0.09     0.00   0.01  -0.01    -0.16  -0.28   0.03
   7   6     0.10   0.01  -0.16    -0.02   0.00  -0.03     0.24  -0.01   0.07
   8   6    -0.07   0.13  -0.09     0.02  -0.02  -0.01    -0.20   0.29   0.06
   9   6    -0.06   0.09  -0.14     0.01  -0.01  -0.02    -0.13   0.12   0.08
  10   6     0.12   0.06   0.07    -0.05  -0.01  -0.01     0.13   0.02   0.02
  11   6    -0.12  -0.08   0.04     0.14   0.12  -0.14    -0.06  -0.04   0.07
  12   6    -0.09   0.02  -0.06     0.11   0.25  -0.34    -0.03   0.07  -0.08
  13   6     0.01  -0.01  -0.05    -0.03   0.08  -0.12    -0.03   0.03  -0.08
  14   6     0.06   0.06   0.01    -0.29   0.08  -0.16    -0.06   0.08  -0.11
  15   6     0.12   0.03   0.04    -0.25   0.01  -0.05     0.08   0.01   0.02
  16   6    -0.10  -0.03   0.08     0.07   0.05  -0.06    -0.11  -0.06   0.08
  17   6    -0.07   0.04   0.02     0.01  -0.24   0.34    -0.08  -0.05   0.07
  18   6    -0.01  -0.01  -0.04     0.06  -0.14   0.20     0.04  -0.03   0.02
  19   6     0.04   0.01  -0.05     0.18  -0.16   0.28     0.14  -0.01   0.06
  20   1    -0.06   0.02  -0.05    -0.01  -0.00   0.01    -0.02   0.02  -0.05
  21   1    -0.04   0.01  -0.01    -0.00  -0.01   0.03    -0.02   0.03  -0.09
  22   1     0.00  -0.04   0.12     0.00  -0.03   0.06    -0.01   0.01  -0.06
  23   1     0.01  -0.03   0.24    -0.00  -0.00   0.01    -0.01  -0.01  -0.00
  24   1    -0.05  -0.02   0.29     0.01   0.00   0.04    -0.13  -0.03  -0.08
  25   1     0.05  -0.01   0.39    -0.00   0.00   0.06     0.05  -0.01  -0.19
  26   1    -0.04   0.00   0.29     0.01  -0.00   0.04    -0.15   0.04  -0.09
  27   1     0.02   0.00   0.23     0.00  -0.00   0.02    -0.02   0.03  -0.07
  28   1    -0.06   0.02   0.01     0.13  -0.01   0.03    -0.01  -0.03   0.00
  29   1    -0.02   0.05   0.01     0.06   0.08  -0.10     0.04   0.01  -0.04
  30   1     0.01  -0.07  -0.05    -0.12   0.01  -0.04    -0.05   0.00  -0.03
  31   1     0.05  -0.07  -0.08    -0.10  -0.07   0.07     0.02  -0.02  -0.01
  32   1    -0.04  -0.09  -0.07    -0.02   0.03  -0.05    -0.06  -0.02  -0.02
  33   1     0.01  -0.07  -0.06    -0.09  -0.09   0.11    -0.02  -0.03   0.01
  34   1    -0.02   0.04   0.02     0.12  -0.04   0.06     0.04  -0.02   0.00
                     34                     35                     36
                        a                      a                      a 
 Frequencies --   838.9490               865.9747               867.1093
 Red. masses --     4.6615                 3.3233                 4.7655
 Frc consts  --     0.0000                 0.0000                 0.0000
 IR Inten    --    32.0032                 3.3585                 1.6352
 Raman Activ --     0.0000                 0.0000                 0.0000
 Depolar     --     0.0000                 0.0000                 0.0000
 Atom AN      X      Y      Z        X      Y      Z        X      Y      Z
   1   6    -0.01  -0.02  -0.04    -0.00  -0.00  -0.02    -0.04   0.00  -0.01
   2   6     0.00  -0.04  -0.02     0.00  -0.00  -0.00    -0.06  -0.00   0.02
   3   7     0.02  -0.02   0.01     0.01  -0.01   0.02    -0.08   0.00   0.00
   4   6     0.00  -0.00   0.00     0.01  -0.00  -0.02    -0.03   0.00   0.00
   5   6    -0.00   0.00  -0.00     0.01  -0.01   0.28     0.03   0.00   0.03
   6   6    -0.00  -0.01  -0.00     0.00  -0.02   0.18     0.04   0.06   0.02
   7   6     0.01  -0.00  -0.00     0.02  -0.00  -0.01    -0.05   0.00  -0.01
   8   6    -0.01   0.01   0.00    -0.02   0.02  -0.19     0.04  -0.06  -0.02
   9   6    -0.01   0.01   0.00    -0.02   0.02  -0.24     0.02  -0.01  -0.02
  10   6    -0.00   0.17   0.12     0.00   0.00  -0.00     0.05   0.01  -0.03
  11   6     0.02  -0.19  -0.12    -0.00   0.01   0.01     0.01  -0.11  -0.07
  12   6     0.03  -0.22  -0.17    -0.00   0.01   0.01     0.00  -0.11  -0.01
  13   6    -0.03   0.20   0.12    -0.00   0.01  -0.00    -0.05  -0.01  -0.05
  14   6    -0.00  -0.04  -0.06    -0.00  -0.00  -0.02    -0.07   0.18  -0.07
  15   6     0.02  -0.05  -0.03     0.01  -0.01  -0.01     0.12   0.09   0.11
  16   6    -0.00  -0.11  -0.05    -0.01  -0.00   0.01    -0.12  -0.14   0.06
  17   6    -0.00  -0.08  -0.05    -0.01   0.01   0.00    -0.05  -0.06  -0.12
  18   6    -0.00   0.10   0.08     0.01   0.01   0.00     0.08  -0.03  -0.03
  19   6     0.05  -0.18  -0.11     0.02  -0.04  -0.02     0.11   0.24   0.24
  20   1    -0.02   0.03  -0.04    -0.00   0.00  -0.01     0.03  -0.01   0.03
  21   1     0.02  -0.01   0.04     0.00  -0.00   0.00     0.01  -0.00   0.01
  22   1    -0.01   0.03  -0.00    -0.00   0.01  -0.01    -0.00   0.01  -0.06
  23   1     0.00   0.00   0.01    -0.04   0.01  -0.53     0.00   0.00  -0.07
  24   1    -0.00  -0.00   0.00    -0.02   0.01  -0.35     0.02   0.01  -0.03
  25   1     0.00  -0.00  -0.00     0.00  -0.00   0.01    -0.01  -0.00   0.02
  26   1    -0.01   0.00  -0.00     0.01  -0.01   0.37     0.03  -0.01   0.04
  27   1    -0.00   0.00  -0.01     0.03  -0.02   0.49     0.01  -0.01   0.04
  28   1    -0.05   0.37   0.26     0.00  -0.02  -0.01    -0.04   0.14   0.08
  29   1    -0.04   0.39   0.27     0.01  -0.02  -0.02    -0.01   0.20   0.16
  30   1    -0.01   0.04   0.02    -0.01   0.03   0.02    -0.03  -0.19  -0.17
  31   1    -0.02   0.16   0.11    -0.00   0.02   0.02     0.06  -0.16  -0.10
  32   1    -0.04   0.21   0.15    -0.00  -0.01  -0.00    -0.06   0.03   0.05
  33   1    -0.02   0.12   0.09     0.00  -0.03  -0.02    -0.02   0.22   0.13
  34   1    -0.02   0.25   0.18    -0.00   0.07   0.05     0.14  -0.49  -0.34
                     37                     38                     39
                        a                      a                      a 
 Frequencies --   869.3500               879.2389               880.4334
 Red. masses --     9.3729                 3.9565                 3.8820
 Frc consts  --     0.0000                 0.0000                 0.0000
 IR Inten    --     0.6448                 0.2480                 1.2709
 Raman Activ --     0.0000                 0.0000                 0.0000
 Depolar     --     0.0000                 0.0000                 0.0000
 Atom AN      X      Y      Z        X      Y      Z        X      Y      Z
   1   6    -0.09  -0.01  -0.02    -0.01  -0.00   0.00    -0.01   0.02  -0.02
   2   6    -0.11  -0.02   0.03    -0.00  -0.00  -0.00     0.00  -0.01   0.01
   3   7    -0.16  -0.01  -0.00    -0.01   0.00  -0.00     0.05  -0.02   0.05
   4   6    -0.06   0.00   0.02    -0.00   0.00   0.00     0.01   0.00  -0.11
   5   6     0.05   0.01  -0.01     0.00  -0.00  -0.01    -0.00   0.01   0.24
   6   6     0.08   0.11  -0.02     0.00   0.01  -0.00    -0.02  -0.02  -0.03
   7   6    -0.09   0.00  -0.02    -0.00   0.00   0.01     0.01   0.01  -0.34
   8   6     0.08  -0.11   0.01     0.00  -0.01   0.00    -0.02   0.03  -0.01
   9   6     0.05  -0.01   0.02     0.00  -0.00  -0.00    -0.00  -0.01   0.26
  10   6     0.10   0.03  -0.06     0.00  -0.01  -0.02    -0.00  -0.00   0.00
  11   6    -0.00   0.05   0.04    -0.01   0.08   0.05    -0.00  -0.00   0.01
  12   6    -0.01  -0.04   0.14    -0.01   0.10   0.08    -0.00   0.01  -0.01
  13   6    -0.12   0.04  -0.05     0.00  -0.08  -0.06     0.01  -0.00   0.00
  14   6    -0.12   0.13  -0.33    -0.04   0.21   0.11     0.01  -0.01   0.02
  15   6     0.29  -0.08   0.04     0.01   0.12   0.09    -0.01   0.00  -0.00
  16   6    -0.27  -0.15   0.23    -0.00  -0.13  -0.07     0.01   0.01  -0.01
  17   6    -0.14   0.13  -0.09     0.02  -0.20  -0.16     0.01  -0.01   0.00
  18   6     0.17   0.02   0.01     0.00   0.10   0.07    -0.01   0.00   0.00
  19   6     0.33  -0.15   0.06     0.05  -0.18  -0.11    -0.02   0.00  -0.01
  20   1     0.04  -0.00   0.04     0.00  -0.00   0.00     0.00  -0.00   0.00
  21   1     0.05  -0.01   0.04     0.01  -0.00   0.00     0.00   0.00  -0.01
  22   1    -0.02   0.05  -0.11    -0.00   0.01  -0.00    -0.00   0.01  -0.02
  23   1     0.01   0.00   0.01     0.00  -0.00   0.01    -0.03   0.01  -0.44
  24   1     0.05   0.02   0.03     0.00   0.00   0.00    -0.00  -0.01   0.13
  25   1    -0.02  -0.00   0.04    -0.00   0.00  -0.01     0.04  -0.02   0.53
  26   1     0.05  -0.01  -0.02     0.00  -0.00  -0.01    -0.01   0.00   0.10
  27   1     0.01  -0.00  -0.05     0.00  -0.00   0.01    -0.03   0.02  -0.48
  28   1    -0.03  -0.04  -0.08     0.01  -0.11  -0.08     0.00  -0.01   0.00
  29   1     0.04  -0.12  -0.05     0.02  -0.19  -0.13     0.00  -0.00  -0.00
  30   1    -0.14   0.15   0.02     0.04  -0.38  -0.27     0.01  -0.01  -0.00
  31   1     0.06   0.08   0.08     0.03  -0.17  -0.11    -0.00  -0.00  -0.00
  32   1    -0.10  -0.08  -0.00    -0.03   0.16   0.12     0.00   0.01   0.00
  33   1     0.02  -0.10  -0.13    -0.05   0.39   0.27    -0.00   0.01   0.01
  34   1     0.12   0.20   0.16    -0.03   0.30   0.22    -0.01   0.01   0.00
                     40                     41                     42
                        a                      a                      a 
 Frequencies --   915.8329               920.1480               923.5533
 Red. masses --     3.8504                 3.9598                 2.8218
 Frc consts  --     0.0000                 0.0000                 0.0000
 IR Inten    --     0.6398                 0.6429                 0.0114
 Raman Activ --     0.0000                 0.0000                 0.0000
 Depolar     --     0.0000                 0.0000                 0.0000
 Atom AN      X      Y      Z        X      Y      Z        X      Y      Z
   1   6    -0.00  -0.00  -0.01    -0.00  -0.00   0.00     0.00  -0.00   0.01
   2   6     0.00  -0.00   0.00    -0.00   0.00   0.00    -0.00  -0.00  -0.00
   3   7    -0.00  -0.00   0.00    -0.01   0.00  -0.01     0.00   0.00  -0.01
   4   6    -0.00  -0.00   0.00    -0.02  -0.00   0.02     0.01  -0.00   0.08
   5   6     0.00  -0.00  -0.00    -0.00   0.00  -0.21     0.00  -0.00   0.08
   6   6     0.00   0.00   0.00     0.02   0.01   0.27    -0.01   0.01  -0.26
   7   6    -0.00  -0.00  -0.00    -0.01  -0.00   0.03     0.02  -0.01   0.23
   8   6     0.00  -0.00  -0.00    -0.01  -0.00  -0.32    -0.01   0.01  -0.17
   9   6     0.00   0.00   0.00     0.02  -0.01   0.22    -0.00  -0.00   0.03
  10   6     0.01   0.01   0.01     0.01  -0.00   0.00    -0.01   0.00  -0.00
  11   6     0.01  -0.09  -0.05    -0.00  -0.01   0.00     0.00   0.01  -0.00
  12   6    -0.01   0.05   0.03    -0.00   0.01   0.00     0.00  -0.01   0.00
  13   6    -0.00   0.05   0.03     0.00  -0.00  -0.00    -0.00  -0.00   0.00
  14   6     0.03  -0.23  -0.15     0.00   0.00   0.00    -0.00   0.00  -0.00
  15   6    -0.03   0.18   0.13    -0.00  -0.00  -0.00     0.00   0.00   0.00
  16   6    -0.02   0.19   0.13     0.00  -0.00  -0.00    -0.00   0.00   0.00
  17   6     0.03  -0.21  -0.14    -0.00   0.00   0.01     0.00   0.00  -0.01
  18   6    -0.00   0.02   0.02    -0.00  -0.00  -0.00    -0.00   0.00   0.00
  19   6     0.00  -0.02  -0.02     0.00   0.00  -0.00    -0.00  -0.01   0.01
  20   1    -0.00   0.00  -0.01    -0.00   0.00  -0.00     0.00  -0.00   0.00
  21   1     0.00  -0.00   0.01     0.00  -0.00   0.00     0.00  -0.00   0.00
  22   1    -0.00   0.01  -0.00     0.00  -0.00   0.00     0.00  -0.00   0.00
  23   1     0.00   0.00   0.00     0.02  -0.01   0.31    -0.02   0.00  -0.26
  24   1     0.00   0.00  -0.01    -0.02   0.02  -0.42     0.03  -0.02   0.56
  25   1    -0.00  -0.00   0.00    -0.01   0.00  -0.07    -0.03   0.02  -0.49
  26   1     0.00  -0.00   0.01     0.04  -0.02   0.55     0.02  -0.01   0.41
  27   1    -0.00   0.00  -0.00    -0.02   0.02  -0.37    -0.01   0.01  -0.18
  28   1    -0.02   0.17   0.12    -0.00   0.01   0.01     0.00  -0.01  -0.01
  29   1     0.02  -0.10  -0.07     0.00  -0.01  -0.01    -0.00   0.01   0.01
  30   1    -0.05   0.37   0.26     0.00  -0.01  -0.00    -0.00   0.00   0.00
  31   1     0.04  -0.31  -0.22    -0.00   0.00   0.00     0.00  -0.00   0.00
  32   1     0.04  -0.33  -0.23    -0.00   0.01   0.00     0.00  -0.01  -0.00
  33   1    -0.04   0.32   0.23    -0.00  -0.01  -0.00     0.00   0.01   0.00
  34   1    -0.01   0.06   0.04     0.00   0.00  -0.00    -0.00   0.00   0.00
                     43                     44                     45
                        a                      a                      a 
 Frequencies --   926.7237               929.5840               931.3675
 Red. masses --     3.6663                 4.1701                 9.5912
 Frc consts  --     0.0000                 0.0000                 0.0000
 IR Inten    --     0.3155                 0.2773                 2.9774
 Raman Activ --     0.0000                 0.0000                 0.0000
 Depolar     --     0.0000                 0.0000                 0.0000
 Atom AN      X      Y      Z        X      Y      Z        X      Y      Z
   1   6     0.02  -0.01   0.04    -0.04   0.03  -0.07     0.10  -0.08   0.17
   2   6     0.00   0.02  -0.03    -0.00  -0.03   0.05     0.01   0.07  -0.13
   3   7     0.03   0.01  -0.02    -0.06  -0.02   0.03     0.17   0.05  -0.09
   4   6     0.03   0.00  -0.00    -0.05  -0.00   0.00     0.13  -0.00  -0.01
   5   6    -0.01   0.01  -0.01     0.02  -0.03   0.00    -0.06   0.08   0.00
   6   6    -0.02  -0.03   0.01     0.03   0.05  -0.01    -0.08  -0.13   0.00
   7   6     0.03   0.00  -0.01    -0.05  -0.00   0.01     0.13   0.00  -0.01
   8   6    -0.01   0.03  -0.00     0.03  -0.05  -0.00    -0.08   0.13   0.01
   9   6    -0.01  -0.01   0.01     0.02   0.03  -0.00    -0.06  -0.08   0.01
  10   6    -0.07   0.00  -0.01     0.11   0.00   0.01    -0.30  -0.00  -0.03
  11   6     0.01   0.27   0.10    -0.05  -0.19   0.03     0.19   0.12  -0.35
  12   6     0.03  -0.24  -0.11    -0.02   0.14  -0.00     0.02  -0.04   0.22
  13   6    -0.02   0.01   0.03     0.01   0.08   0.02    -0.06  -0.03   0.08
  14   6    -0.01   0.01  -0.02     0.01   0.08   0.11    -0.06   0.09  -0.07
  15   6     0.04  -0.08  -0.04    -0.01  -0.20  -0.17     0.11  -0.08   0.01
  16   6    -0.02   0.15   0.12    -0.03   0.19   0.11     0.01   0.01   0.06
  17   6     0.02  -0.07  -0.12     0.00  -0.11   0.04     0.01   0.14  -0.20
  18   6    -0.01   0.02   0.01     0.02  -0.08  -0.05    -0.02  -0.02  -0.05
  19   6    -0.01  -0.09   0.03     0.04   0.11  -0.08    -0.12  -0.19   0.30
  20   1     0.00  -0.01   0.01     0.00   0.01  -0.01    -0.01  -0.01   0.01
  21   1    -0.00  -0.00   0.00     0.00   0.01  -0.01     0.00  -0.02   0.05
  22   1     0.00  -0.01   0.03    -0.01   0.02  -0.05     0.02  -0.05   0.12
  23   1    -0.00   0.00   0.02     0.01  -0.01  -0.01    -0.02   0.02   0.01
  24   1    -0.01  -0.00  -0.02     0.01   0.01   0.01    -0.03  -0.03  -0.01
  25   1     0.01   0.00   0.01    -0.01  -0.00  -0.01     0.03   0.00   0.01
  26   1    -0.01   0.01   0.00     0.01  -0.01  -0.00    -0.03   0.03   0.00
  27   1    -0.00  -0.00  -0.01     0.01   0.01   0.00    -0.02  -0.02  -0.00
  28   1     0.07  -0.43  -0.32    -0.05   0.20   0.18     0.02   0.25   0.05
  29   1    -0.08   0.38   0.29     0.08  -0.16  -0.16    -0.13  -0.21  -0.03
  30   1    -0.00  -0.04  -0.03     0.05  -0.25  -0.17    -0.03  -0.06  -0.07
  31   1    -0.01   0.15   0.12    -0.06   0.42   0.27     0.00   0.08   0.12
  32   1     0.05  -0.30  -0.20     0.03  -0.34  -0.26     0.06  -0.10  -0.01
  33   1    -0.01   0.22   0.13    -0.04   0.14   0.14     0.05   0.07  -0.05
  34   1    -0.01   0.01   0.03     0.02   0.01  -0.04    -0.05  -0.08   0.07
                     46                     47                     48
                        a                      a                      a 
 Frequencies --   975.7747               992.2424              1007.0418
 Red. masses --     8.8154                 5.9213                 8.0107
 Frc consts  --     0.0000                 0.0000                 0.0000
 IR Inten    --    11.8199                 9.0448                 6.5055
 Raman Activ --     0.0000                 0.0000                 0.0000
 Depolar     --     0.0000                 0.0000                 0.0000
 Atom AN      X      Y      Z        X      Y      Z        X      Y      Z
   1   6    -0.15  -0.20   0.13     0.02  -0.35  -0.17     0.19   0.05  -0.32
   2   6    -0.13   0.15  -0.06    -0.01   0.38   0.14     0.06  -0.03   0.29
   3   7    -0.02   0.05  -0.16     0.08  -0.10  -0.01    -0.24  -0.10   0.13
   4   6     0.13  -0.00   0.03     0.00  -0.01  -0.01    -0.09  -0.00   0.02
   5   6    -0.13   0.38   0.00     0.06  -0.18  -0.00    -0.09   0.33   0.01
   6   6    -0.05  -0.14  -0.00    -0.00   0.03  -0.00     0.06   0.02  -0.00
   7   6     0.29   0.00  -0.01    -0.12  -0.01   0.01     0.19  -0.00  -0.01
   8   6    -0.04   0.14   0.00    -0.02  -0.02   0.00     0.05  -0.01  -0.00
   9   6    -0.13  -0.38  -0.01     0.06   0.22   0.01    -0.09  -0.32  -0.00
  10   6     0.04   0.00  -0.04    -0.02  -0.07  -0.05     0.05  -0.05   0.02
  11   6    -0.06  -0.11   0.16     0.01   0.02   0.00     0.02   0.07  -0.08
  12   6     0.04   0.01  -0.00     0.00  -0.00   0.02    -0.04   0.02  -0.03
  13   6     0.02   0.02  -0.03     0.00  -0.01  -0.00    -0.02  -0.02   0.02
  14   6     0.01  -0.01   0.02     0.00  -0.00   0.01    -0.01   0.01  -0.02
  15   6    -0.03   0.01  -0.02    -0.00   0.00   0.00     0.02  -0.00   0.01
  16   6    -0.01  -0.00   0.00     0.01   0.00  -0.01    -0.01  -0.00   0.00
  17   6    -0.00  -0.04   0.05     0.00   0.00  -0.01    -0.00   0.01  -0.01
  18   6     0.03   0.00   0.00    -0.02   0.01  -0.00     0.01  -0.00   0.01
  19   6     0.04   0.08  -0.10    -0.03  -0.00   0.03     0.02  -0.00   0.02
  20   1     0.13   0.02   0.11    -0.11   0.29  -0.33    -0.24   0.15  -0.36
  21   1     0.17  -0.08   0.28     0.14  -0.09   0.51    -0.15   0.05  -0.05
  22   1    -0.03   0.15  -0.22    -0.05   0.20   0.02     0.00  -0.05   0.26
  23   1     0.00   0.13   0.02    -0.01  -0.07  -0.01     0.04   0.13  -0.00
  24   1     0.04  -0.06  -0.00    -0.03   0.02   0.01     0.09  -0.03  -0.00
  25   1     0.08   0.00  -0.01    -0.03  -0.01   0.00     0.05  -0.01  -0.01
  26   1     0.04   0.06   0.01    -0.05  -0.03  -0.00     0.09   0.03  -0.00
  27   1    -0.00  -0.13   0.01    -0.02   0.09  -0.01     0.04  -0.13  -0.01
  28   1    -0.00  -0.05   0.05     0.01  -0.02  -0.01    -0.01   0.02  -0.05
  29   1     0.11   0.03  -0.02    -0.01  -0.01   0.00    -0.07  -0.01  -0.00
  30   1     0.01  -0.00   0.00     0.00  -0.00   0.00    -0.01   0.00  -0.00
  31   1    -0.01   0.01  -0.02    -0.00  -0.00   0.00     0.00  -0.01   0.01
  32   1    -0.02   0.01  -0.01     0.01   0.00   0.00    -0.00   0.00  -0.00
  33   1    -0.01  -0.01   0.02     0.01   0.00  -0.00    -0.01   0.00  -0.00
  34   1     0.08   0.03  -0.05    -0.01  -0.03  -0.01    -0.04  -0.02   0.01
                     49                     50                     51
                        a                      a                      a 
 Frequencies --  1078.0754              1079.7326              1095.5296
 Red. masses --     6.9191                 6.6479                 6.9371
 Frc consts  --     0.0000                 0.0000                 0.0000
 IR Inten    --     2.6009                 0.1466                13.2098
 Raman Activ --     0.0000                 0.0000                 0.0000
 Depolar     --     0.0000                 0.0000                 0.0000
 Atom AN      X      Y      Z        X      Y      Z        X      Y      Z
   1   6    -0.08   0.01  -0.03    -0.00  -0.00   0.01     0.27  -0.03   0.11
   2   6     0.06  -0.02   0.05     0.01   0.00  -0.02    -0.24   0.07  -0.20
   3   7    -0.02   0.01  -0.02     0.02  -0.00   0.00     0.05  -0.03   0.07
   4   6    -0.01   0.00   0.01     0.01  -0.01  -0.00     0.02  -0.01  -0.03
   5   6    -0.00   0.00  -0.00    -0.17   0.01   0.01     0.00  -0.00   0.00
   6   6     0.00   0.01  -0.00     0.06   0.36   0.01     0.00   0.00   0.00
   7   6     0.01   0.00  -0.00     0.45  -0.01  -0.02    -0.01  -0.01  -0.00
   8   6     0.00  -0.01  -0.00     0.05  -0.34  -0.01    -0.01   0.01   0.00
   9   6    -0.01  -0.01  -0.00    -0.15   0.01   0.01     0.01   0.02   0.00
  10   6     0.10  -0.02   0.04    -0.00   0.00  -0.00    -0.32   0.10  -0.20
  11   6     0.04   0.04  -0.04     0.00  -0.00  -0.00    -0.09  -0.17   0.22
  12   6    -0.00   0.01  -0.02     0.00  -0.00   0.00     0.08  -0.03   0.06
  13   6    -0.09   0.02  -0.05     0.00   0.00   0.00     0.01   0.01  -0.02
  14   6    -0.04  -0.14   0.19     0.00   0.00  -0.00    -0.04  -0.00  -0.00
  15   6     0.34  -0.12   0.24    -0.01   0.00  -0.00     0.08  -0.04   0.07
  16   6     0.14   0.26  -0.34    -0.00  -0.00   0.00     0.01   0.04  -0.06
  17   6    -0.16   0.07  -0.12     0.00  -0.00   0.00    -0.05   0.05  -0.08
  18   6    -0.06  -0.04   0.05    -0.00   0.00  -0.00     0.09  -0.06   0.10
  19   6     0.01  -0.02   0.02    -0.00  -0.00   0.00     0.04   0.11  -0.15
  20   1     0.04  -0.01   0.04     0.01  -0.01   0.01    -0.11   0.02  -0.11
  21   1     0.03  -0.01   0.01     0.00  -0.00  -0.00    -0.10   0.02  -0.04
  22   1    -0.01   0.04  -0.10     0.00   0.00  -0.01     0.04  -0.14   0.34
  23   1    -0.00  -0.00   0.00    -0.33  -0.16   0.02    -0.01  -0.01  -0.01
  24   1    -0.00   0.00   0.00    -0.22   0.24   0.02     0.00  -0.00  -0.00
  25   1     0.00   0.00   0.00     0.14  -0.02  -0.01    -0.00  -0.01  -0.00
  26   1     0.00  -0.00   0.00    -0.24  -0.25   0.00    -0.02  -0.01  -0.00
  27   1    -0.00  -0.00   0.00    -0.29   0.14   0.02    -0.00   0.01  -0.01
  28   1    -0.03   0.03  -0.05    -0.00   0.00   0.00     0.12  -0.11   0.20
  29   1    -0.03  -0.00   0.00     0.00  -0.00   0.00     0.26   0.05  -0.02
  30   1    -0.36  -0.13   0.12     0.01   0.00  -0.00    -0.10  -0.02   0.02
  31   1     0.07  -0.12   0.19    -0.00   0.00  -0.00     0.01  -0.05   0.07
  32   1    -0.08   0.13  -0.20     0.00  -0.00   0.00     0.01   0.01  -0.01
  33   1    -0.39  -0.07   0.02     0.01   0.00  -0.00    -0.12  -0.01  -0.00
  34   1    -0.05  -0.02   0.02    -0.00  -0.00   0.00     0.31   0.11  -0.09
                     52                     53                     54
                        a                      a                      a 
 Frequencies --  1115.4001              1139.7531              1166.1194
 Red. masses --     4.0553                 5.2638                 2.2197
 Frc consts  --     0.0000                 0.0000                 0.0000
 IR Inten    --     0.5618                23.0992                 6.3409
 Raman Activ --     0.0000                 0.0000                 0.0000
 Depolar     --     0.0000                 0.0000                 0.0000
 Atom AN      X      Y      Z        X      Y      Z        X      Y      Z
   1   6    -0.00   0.00   0.01    -0.08   0.01  -0.04     0.00   0.00   0.00
   2   6     0.00  -0.00  -0.00     0.11  -0.03   0.09    -0.00  -0.00   0.00
   3   7    -0.02   0.04  -0.01    -0.03   0.02  -0.04    -0.01   0.00  -0.00
   4   6     0.01  -0.17   0.00     0.04   0.00   0.01     0.02  -0.00  -0.00
   5   6    -0.19   0.15   0.01    -0.00  -0.01  -0.00    -0.00  -0.00  -0.00
   6   6     0.10   0.13  -0.00    -0.00  -0.01  -0.00    -0.00  -0.00  -0.00
   7   6    -0.02  -0.22  -0.00    -0.00  -0.00   0.00    -0.00  -0.00   0.00
   8   6    -0.11   0.17   0.01    -0.01   0.01  -0.00    -0.00   0.01  -0.00
   9   6     0.21   0.15  -0.01     0.00   0.01  -0.00     0.00   0.00   0.00
  10   6     0.01  -0.01   0.00     0.03  -0.04   0.05    -0.03  -0.01   0.01
  11   6     0.00   0.00  -0.01     0.04  -0.02   0.03     0.09  -0.00   0.01
  12   6     0.00  -0.00   0.00    -0.07   0.12  -0.18    -0.09  -0.01   0.00
  13   6    -0.00   0.00  -0.00     0.06  -0.15   0.23    -0.06  -0.02   0.02
  14   6     0.00  -0.00   0.00    -0.05   0.13  -0.20    -0.07  -0.08   0.10
  15   6    -0.00   0.00  -0.00     0.02  -0.04   0.06     0.04   0.05  -0.06
  16   6    -0.00   0.00  -0.00     0.03  -0.03   0.05    -0.07   0.01  -0.02
  17   6     0.00  -0.00   0.01    -0.10   0.13  -0.20     0.11  -0.05   0.09
  18   6    -0.00   0.00  -0.00    -0.01  -0.11   0.15     0.06   0.07  -0.09
  19   6     0.00  -0.00   0.01    -0.07   0.11  -0.17     0.09   0.04  -0.04
  20   1     0.00  -0.00   0.01     0.03  -0.01   0.02    -0.00   0.00   0.00
  21   1     0.00   0.00  -0.00     0.02  -0.00   0.01    -0.00  -0.00  -0.00
  22   1     0.00  -0.00  -0.00    -0.01   0.04  -0.09     0.00  -0.00   0.00
  23   1    -0.40  -0.16   0.03    -0.02  -0.01   0.01    -0.01  -0.01   0.00
  24   1     0.28  -0.10  -0.02     0.00  -0.00   0.00    -0.00  -0.00   0.00
  25   1    -0.00  -0.44  -0.01    -0.00  -0.01   0.00    -0.00  -0.00   0.00
  26   1    -0.24  -0.07   0.01    -0.01   0.00   0.00    -0.00   0.00   0.00
  27   1     0.41  -0.16  -0.04     0.00   0.00   0.00    -0.00   0.00  -0.00
  28   1    -0.02   0.01  -0.01     0.36  -0.17   0.32     0.39  -0.17   0.33
  29   1    -0.00  -0.00  -0.00    -0.28  -0.03  -0.00    -0.40  -0.10   0.07
  30   1    -0.00  -0.00   0.00     0.14   0.08  -0.08    -0.29  -0.09   0.08
  31   1     0.00   0.00  -0.00    -0.07  -0.20   0.27     0.08   0.19  -0.25
  32   1    -0.00   0.00  -0.00     0.21  -0.10   0.18    -0.27   0.12  -0.22
  33   1     0.00  -0.00   0.00    -0.14   0.01  -0.03     0.27   0.05  -0.02
  34   1    -0.01  -0.00   0.00    -0.02   0.03  -0.05     0.04   0.02  -0.01
                     55                     56                     57
                        a                      a                      a 
 Frequencies --  1179.1592              1179.6733              1188.8727
 Red. masses --     1.6513                 1.3823                 2.2432
 Frc consts  --     0.0000                 0.0000                 0.0000
 IR Inten    --     0.7472                 0.4298                24.0558
 Raman Activ --     0.0000                 0.0000                 0.0000
 Depolar     --     0.0000                 0.0000                 0.0000
 Atom AN      X      Y      Z        X      Y      Z        X      Y      Z
   1   6    -0.01   0.00  -0.01     0.00  -0.00   0.01    -0.02   0.02  -0.04
   2   6     0.00  -0.00   0.00     0.00   0.01  -0.02     0.02  -0.05   0.09
   3   7    -0.00  -0.00   0.00     0.01   0.01   0.00    -0.09   0.01  -0.02
   4   6     0.01  -0.00  -0.00    -0.02   0.06   0.00     0.15   0.02  -0.01
   5   6     0.00  -0.00  -0.00    -0.09   0.00   0.01    -0.06  -0.07  -0.00
   6   6     0.00  -0.00  -0.00    -0.04   0.04   0.00     0.06  -0.14  -0.01
   7   6    -0.00   0.00   0.00     0.00  -0.09  -0.00     0.02  -0.00  -0.00
   8   6    -0.00   0.00   0.00     0.03   0.01  -0.00     0.06   0.13  -0.00
   9   6    -0.00   0.00   0.00     0.09  -0.01  -0.01    -0.07   0.06   0.01
  10   6    -0.01  -0.02   0.03     0.00  -0.00   0.00    -0.04  -0.00  -0.00
  11   6    -0.02   0.02  -0.03     0.00   0.00  -0.00    -0.01   0.00  -0.00
  12   6     0.04   0.02  -0.03     0.00   0.00  -0.00     0.01  -0.00   0.00
  13   6    -0.05  -0.06   0.08     0.00  -0.00   0.00    -0.01   0.00  -0.01
  14   6     0.01  -0.02   0.04     0.00  -0.00   0.00     0.00  -0.00   0.00
  15   6    -0.00  -0.06   0.08    -0.00  -0.00   0.00     0.00  -0.00   0.00
  16   6    -0.07   0.04  -0.07    -0.00   0.00  -0.00    -0.00   0.00  -0.01
  17   6     0.01   0.02  -0.02    -0.00   0.00  -0.00     0.01   0.01  -0.01
  18   6    -0.08   0.03  -0.06    -0.00   0.00  -0.00    -0.02  -0.01   0.02
  19   6     0.06  -0.01   0.02     0.00  -0.00   0.00     0.00   0.00   0.00
  20   1     0.00   0.00  -0.00     0.00  -0.00   0.00    -0.01   0.00  -0.01
  21   1     0.00  -0.00  -0.00     0.00  -0.00   0.00    -0.01   0.01  -0.02
  22   1    -0.00  -0.00   0.00     0.00  -0.00   0.00    -0.00   0.00  -0.02
  23   1    -0.01  -0.01   0.00     0.16   0.11  -0.01    -0.42  -0.26   0.03
  24   1     0.01  -0.01  -0.00    -0.41   0.24   0.03     0.31  -0.21  -0.02
  25   1    -0.00   0.02   0.00     0.00  -0.72  -0.02     0.00  -0.05  -0.00
  26   1    -0.01  -0.00   0.00     0.36   0.21  -0.01     0.41   0.26  -0.01
  27   1    -0.00   0.00   0.00    -0.08   0.06   0.01    -0.44   0.26   0.03
  28   1     0.00   0.00  -0.00     0.00  -0.00   0.00    -0.02   0.01  -0.01
  29   1     0.11   0.03  -0.03    -0.00  -0.00   0.00     0.04   0.01  -0.01
  30   1     0.36   0.08  -0.05     0.01   0.00  -0.00    -0.02  -0.01   0.00
  31   1    -0.11  -0.31   0.42    -0.00  -0.01   0.01     0.01   0.02  -0.03
  32   1    -0.41   0.20  -0.36    -0.01   0.01  -0.01     0.01  -0.00   0.01
  33   1     0.37   0.10  -0.08     0.01   0.00  -0.00     0.02   0.01  -0.01
  34   1     0.09   0.02  -0.01    -0.01  -0.00   0.00     0.07   0.02  -0.01
                     58                     59                     60
                        a                      a                      a 
 Frequencies --  1207.1196              1224.0745              1251.3366
 Red. masses --     5.3006                 5.4961                 9.8388
 Frc consts  --     0.0000                 0.0000                 0.0000
 IR Inten    --    59.4273                 3.0449               181.2469
 Raman Activ --     0.0000                 0.0000                 0.0000
 Depolar     --     0.0000                 0.0000                 0.0000
 Atom AN      X      Y      Z        X      Y      Z        X      Y      Z
   1   6     0.12  -0.03   0.09     0.01  -0.00   0.01     0.04  -0.05   0.10
   2   6    -0.24   0.08  -0.20    -0.01   0.02  -0.03    -0.11   0.16  -0.32
   3   7     0.05  -0.03   0.05     0.02  -0.01   0.01     0.26  -0.06   0.09
   4   6    -0.08  -0.02  -0.01    -0.04   0.00  -0.00    -0.51  -0.06   0.00
   5   6    -0.03   0.00   0.00    -0.01   0.00   0.00    -0.14  -0.01   0.02
   6   6     0.03   0.01  -0.00     0.01   0.01  -0.00     0.09   0.15   0.00
   7   6     0.01   0.00  -0.00     0.01  -0.00  -0.00     0.07   0.00  -0.00
   8   6     0.03  -0.00  -0.00     0.01  -0.01  -0.00     0.11  -0.11  -0.01
   9   6    -0.02   0.01   0.00    -0.01  -0.00   0.00    -0.12   0.02   0.00
  10   6     0.10   0.05  -0.05     0.01   0.01  -0.01     0.22  -0.06   0.14
  11   6     0.03  -0.02   0.03    -0.02  -0.11   0.16     0.02   0.02  -0.02
  12   6    -0.04  -0.03   0.04     0.04  -0.03   0.05     0.04   0.07  -0.10
  13   6     0.11   0.03  -0.02     0.52   0.12  -0.07    -0.13  -0.07   0.07
  14   6    -0.06   0.00  -0.01    -0.03   0.06  -0.09     0.05   0.01  -0.00
  15   6    -0.02   0.01  -0.02    -0.13   0.06  -0.11     0.03  -0.02   0.04
  16   6    -0.01  -0.08   0.11     0.02  -0.01   0.02    -0.02   0.06  -0.08
  17   6    -0.04  -0.08   0.11    -0.10  -0.03   0.03     0.00   0.03  -0.05
  18   6     0.33   0.16  -0.17     0.04  -0.00   0.01    -0.22  -0.09   0.08
  19   6     0.03   0.03  -0.04    -0.12  -0.00  -0.02     0.06   0.00   0.00
  20   1    -0.03  -0.03  -0.00     0.00   0.00  -0.00     0.03  -0.01   0.04
  21   1    -0.04   0.00   0.03     0.00  -0.00  -0.00     0.02  -0.01   0.05
  22   1     0.02  -0.03   0.09     0.00  -0.01   0.02     0.00  -0.03   0.07
  23   1    -0.04  -0.02  -0.00    -0.00   0.00  -0.00     0.08   0.08  -0.02
  24   1     0.10  -0.05  -0.01     0.02  -0.01  -0.00     0.27  -0.10  -0.02
  25   1     0.00   0.00  -0.00     0.00   0.00  -0.00     0.02  -0.01  -0.00
  26   1     0.08   0.04  -0.00     0.02   0.01  -0.00     0.19   0.06  -0.01
  27   1    -0.07   0.04   0.00    -0.00  -0.00   0.00    -0.01  -0.02   0.01
  28   1     0.05  -0.02   0.04    -0.25   0.08  -0.17     0.01   0.00  -0.01
  29   1    -0.13  -0.04   0.03    -0.39  -0.11   0.09    -0.05   0.01  -0.02
  30   1     0.15   0.04  -0.04    -0.36  -0.07   0.03    -0.04  -0.01   0.01
  31   1    -0.04  -0.09   0.12    -0.12  -0.20   0.26     0.02   0.03  -0.03
  32   1    -0.16   0.05  -0.10     0.00  -0.00   0.00     0.11  -0.04   0.07
  33   1    -0.34  -0.11   0.09     0.17   0.04  -0.03     0.18   0.06  -0.05
  34   1    -0.55  -0.13   0.08     0.16   0.05  -0.04     0.00  -0.00   0.01
                     61                     62                     63
                        a                      a                      a 
 Frequencies --  1264.9411              1277.8336              1286.4567
 Red. masses --     4.6145                 4.2245                 9.7791
 Frc consts  --     0.0000                 0.0000                 0.0000
 IR Inten    --     2.5100                 5.0323                14.3059
 Raman Activ --     0.0000                 0.0000                 0.0000
 Depolar     --     0.0000                 0.0000                 0.0000
 Atom AN      X      Y      Z        X      Y      Z        X      Y      Z
   1   6    -0.03   0.00  -0.01    -0.01  -0.02   0.01     0.12  -0.01   0.04
   2   6     0.04   0.01  -0.02     0.05   0.02  -0.02    -0.47   0.04  -0.14
   3   7     0.03  -0.01   0.01     0.07  -0.05   0.01    -0.15  -0.01   0.02
   4   6    -0.08  -0.00   0.00    -0.13   0.40   0.01     0.33   0.05  -0.03
   5   6    -0.02  -0.00   0.00     0.08  -0.01  -0.00     0.14   0.04  -0.01
   6   6     0.01   0.02  -0.00     0.14  -0.10  -0.01    -0.04  -0.12  -0.00
   7   6     0.01  -0.00  -0.00     0.02  -0.08  -0.00    -0.06  -0.03   0.00
   8   6     0.01  -0.02  -0.00    -0.10  -0.17   0.00    -0.07   0.08   0.01
   9   6    -0.02   0.00   0.00    -0.14  -0.00   0.01     0.08  -0.01   0.00
  10   6    -0.03  -0.04   0.05    -0.03   0.03  -0.03     0.26  -0.16   0.28
  11   6     0.04  -0.02   0.03    -0.00  -0.00   0.00     0.02   0.01  -0.01
  12   6     0.00  -0.07   0.09    -0.01  -0.01   0.01     0.12   0.10  -0.12
  13   6    -0.12   0.19  -0.29     0.01   0.00   0.00    -0.14  -0.05   0.04
  14   6     0.09  -0.04   0.08    -0.01  -0.00   0.00     0.08   0.03  -0.03
  15   6    -0.02  -0.05   0.06     0.00   0.01  -0.01    -0.01  -0.05   0.08
  16   6     0.05  -0.00   0.01     0.01  -0.00   0.01    -0.08   0.05  -0.08
  17   6    -0.01  -0.06   0.08    -0.01   0.00  -0.00     0.06   0.01  -0.00
  18   6    -0.15   0.16  -0.25     0.01   0.00  -0.00    -0.16  -0.04   0.03
  19   6     0.08  -0.06   0.09    -0.02  -0.01   0.01     0.18   0.08  -0.08
  20   1     0.02   0.02   0.00     0.00   0.01  -0.00    -0.05  -0.01  -0.03
  21   1     0.03  -0.01  -0.01     0.02  -0.01   0.01    -0.06   0.01   0.01
  22   1    -0.01  -0.02   0.02    -0.00   0.01  -0.01     0.01  -0.04   0.14
  23   1     0.01   0.01  -0.00    -0.36  -0.23   0.01    -0.13  -0.10   0.01
  24   1     0.04  -0.01  -0.00    -0.25   0.14   0.02    -0.21   0.08   0.01
  25   1     0.00   0.00  -0.00     0.00   0.23   0.01    -0.02   0.05   0.00
  26   1     0.03   0.01  -0.00     0.34   0.16  -0.01    -0.08  -0.01   0.00
  27   1     0.01  -0.01   0.00     0.41  -0.27  -0.03    -0.01   0.02  -0.01
  28   1     0.02  -0.01   0.02     0.02  -0.01   0.02    -0.12   0.06  -0.11
  29   1    -0.37  -0.11   0.09     0.03   0.01  -0.00    -0.23  -0.04   0.01
  30   1     0.39   0.08  -0.05    -0.00  -0.00   0.00     0.00   0.00  -0.00
  31   1    -0.00  -0.01   0.01     0.00  -0.00   0.00     0.01   0.01  -0.02
  32   1     0.04  -0.01   0.03    -0.01   0.00  -0.00     0.06  -0.03   0.05
  33   1    -0.33  -0.10   0.08     0.00   0.00  -0.00     0.05   0.01  -0.01
  34   1     0.46   0.10  -0.05    -0.01  -0.00   0.01    -0.01   0.01  -0.01
                     64                     65                     66
                        a                      a                      a 
 Frequencies --  1316.0748              1327.7103              1372.8536
 Red. masses --    11.3757                 7.3977                10.5280
 Frc consts  --     0.0000                 0.0000                 0.0000
 IR Inten    --     3.8487                 3.2203                 8.7832
 Raman Activ --     0.0000                 0.0000                 0.0000
 Depolar     --     0.0000                 0.0000                 0.0000
 Atom AN      X      Y      Z        X      Y      Z        X      Y      Z
   1   6     0.00  -0.01   0.00    -0.02   0.00  -0.02    -0.03  -0.00   0.00
   2   6    -0.01   0.01  -0.02     0.02   0.02  -0.03     0.15  -0.01   0.05
   3   7    -0.00  -0.01   0.01     0.07   0.01  -0.01     0.05   0.01  -0.01
   4   6     0.00   0.41   0.01    -0.05   0.01   0.00    -0.04   0.00   0.01
   5   6    -0.35  -0.23   0.01    -0.02  -0.01   0.00    -0.03  -0.03   0.00
   6   6     0.27  -0.17  -0.02     0.01   0.01   0.00    -0.01   0.03   0.00
   7   6    -0.00   0.45   0.01     0.01   0.01  -0.00     0.02   0.00  -0.00
   8   6    -0.27  -0.16   0.01    -0.00  -0.02  -0.00     0.01  -0.03  -0.00
   9   6     0.36  -0.24  -0.03    -0.01   0.00  -0.00    -0.04   0.02   0.00
  10   6     0.01   0.00   0.01    -0.08  -0.14   0.19    -0.27  -0.09   0.08
  11   6    -0.00  -0.00  -0.00     0.17  -0.03   0.08    -0.25   0.03  -0.08
  12   6     0.01   0.00   0.00     0.03   0.13  -0.18     0.27  -0.02   0.08
  13   6    -0.00   0.00  -0.00     0.02  -0.12   0.17    -0.03   0.02  -0.03
  14   6     0.01   0.00  -0.00    -0.26   0.02  -0.07     0.32   0.17  -0.18
  15   6    -0.00  -0.00   0.00     0.01  -0.05   0.08    -0.23  -0.15   0.17
  16   6    -0.01   0.00  -0.01     0.09  -0.09   0.15    -0.26  -0.01  -0.04
  17   6    -0.00  -0.00   0.00     0.15   0.12  -0.15     0.44   0.06  -0.00
  18   6    -0.01  -0.00  -0.00     0.24  -0.06   0.14    -0.04  -0.06   0.07
  19   6     0.01   0.00  -0.00    -0.30   0.06  -0.14     0.15   0.10  -0.12
  20   1     0.00   0.00  -0.00     0.03  -0.01   0.02    -0.00   0.01  -0.00
  21   1    -0.01  -0.00   0.00     0.03  -0.01   0.02     0.01  -0.00  -0.01
  22   1    -0.00   0.01   0.01    -0.01  -0.02   0.03    -0.00   0.02  -0.06
  23   1     0.03   0.01  -0.01     0.01   0.01  -0.00     0.03   0.02  -0.00
  24   1     0.11  -0.07  -0.01     0.03  -0.01  -0.00     0.04  -0.01  -0.00
  25   1     0.00  -0.12  -0.00     0.00  -0.00  -0.00     0.01  -0.01  -0.00
  26   1    -0.12  -0.07   0.01     0.02   0.00  -0.00     0.03   0.01  -0.00
  27   1    -0.05   0.02   0.00     0.01  -0.01   0.00     0.03  -0.02  -0.00
  28   1    -0.00   0.00   0.00    -0.20   0.11  -0.20    -0.03  -0.01   0.02
  29   1    -0.01  -0.00   0.00    -0.09   0.01  -0.03    -0.06  -0.04   0.05
  30   1    -0.00  -0.00   0.00     0.11   0.05  -0.05    -0.18  -0.02  -0.01
  31   1    -0.00  -0.00   0.00     0.07   0.17  -0.23    -0.06  -0.02   0.02
  32   1     0.01  -0.00   0.01    -0.26   0.11  -0.20    -0.13   0.02  -0.05
  33   1     0.01   0.00  -0.00    -0.19  -0.03   0.00    -0.19  -0.07   0.06
  34   1    -0.01  -0.00   0.00     0.20   0.09  -0.09    -0.12  -0.01  -0.01
                     67                     68                     69
                        a                      a                      a 
 Frequencies --  1377.1966              1401.0632              1425.3730
 Red. masses --     3.2382                 9.4472                10.3852
 Frc consts  --     0.0000                 0.0000                 0.0000
 IR Inten    --    19.3182                 0.3784                13.1713
 Raman Activ --     0.0000                 0.0000                 0.0000
 Depolar     --     0.0000                 0.0000                 0.0000
 Atom AN      X      Y      Z        X      Y      Z        X      Y      Z
   1   6    -0.08   0.20  -0.38     0.02   0.02  -0.02     0.00   0.02  -0.02
   2   6     0.02  -0.02   0.04     0.02  -0.02   0.03     0.08  -0.02   0.03
   3   7    -0.01   0.00  -0.00    -0.03   0.00  -0.00    -0.03  -0.01   0.01
   4   6     0.01  -0.00  -0.00     0.01  -0.00   0.00     0.02   0.01   0.00
   5   6    -0.00   0.00   0.00     0.01   0.01  -0.00    -0.00  -0.01  -0.00
   6   6     0.01  -0.00  -0.00    -0.00  -0.01  -0.00    -0.02   0.01   0.00
   7   6     0.00  -0.00  -0.00    -0.01  -0.00   0.00     0.01   0.01  -0.00
   8   6    -0.01  -0.00   0.00     0.00   0.01  -0.00     0.01  -0.01  -0.00
   9   6     0.00   0.00  -0.00     0.01  -0.01  -0.00    -0.02   0.00   0.00
  10   6    -0.02  -0.01   0.01     0.03   0.20  -0.28    -0.14   0.10  -0.17
  11   6    -0.02   0.02  -0.03     0.13  -0.13   0.20    -0.22  -0.09   0.09
  12   6    -0.01  -0.01   0.02    -0.03  -0.01   0.01     0.38   0.07  -0.03
  13   6    -0.00  -0.00   0.00    -0.08   0.24  -0.35     0.22  -0.11   0.20
  14   6     0.03   0.00   0.00    -0.01   0.01  -0.02    -0.31  -0.01  -0.05
  15   6    -0.01   0.01  -0.02    -0.01  -0.17   0.24     0.02  -0.08   0.12
  16   6    -0.02  -0.00   0.00    -0.07   0.10  -0.15     0.23   0.02   0.01
  17   6     0.01  -0.01   0.02     0.05   0.05  -0.07    -0.17   0.01  -0.05
  18   6     0.01   0.02  -0.03     0.07  -0.27   0.40    -0.34   0.05  -0.14
  19   6     0.01   0.00  -0.00    -0.09  -0.03   0.03     0.33   0.01   0.04
  20   1     0.16  -0.39   0.31    -0.02  -0.06   0.02    -0.02  -0.04   0.01
  21   1     0.11   0.01   0.52    -0.03   0.01   0.06    -0.01   0.01   0.04
  22   1    -0.03  -0.26   0.40     0.00  -0.01  -0.00     0.00  -0.01  -0.02
  23   1     0.00   0.00  -0.00    -0.01  -0.00   0.00     0.01   0.00   0.00
  24   1    -0.01   0.00   0.00    -0.01   0.00   0.00     0.01  -0.01  -0.00
  25   1     0.00   0.01   0.00    -0.00  -0.00   0.00     0.00  -0.01  -0.00
  26   1     0.00   0.00   0.00    -0.01  -0.00   0.00    -0.00  -0.00  -0.00
  27   1     0.01  -0.00  -0.00    -0.01   0.00   0.00     0.01  -0.01  -0.00
  28   1     0.02  -0.01   0.01    -0.05   0.01  -0.02    -0.10  -0.01  -0.00
  29   1     0.03   0.01  -0.00    -0.21  -0.05   0.04    -0.12  -0.04   0.04
  30   1    -0.03  -0.01   0.01     0.23   0.07  -0.05     0.12   0.05  -0.05
  31   1    -0.01  -0.02   0.03     0.04   0.08  -0.10     0.07   0.14  -0.19
  32   1     0.01  -0.01   0.01     0.01   0.01  -0.02    -0.00   0.04  -0.06
  33   1    -0.01  -0.01   0.01     0.18   0.06  -0.05     0.01   0.02  -0.03
  34   1    -0.00   0.00  -0.00    -0.22  -0.06   0.04    -0.15  -0.06   0.05
                     70                     71                     72
                        a                      a                      a 
 Frequencies --  1432.8731              1448.5384              1466.9979
 Red. masses --     9.0040                 9.6312                 8.9147
 Frc consts  --     0.0000                 0.0000                 0.0000
 IR Inten    --     5.6567                15.5053                12.7353
 Raman Activ --     0.0000                 0.0000                 0.0000
 Depolar     --     0.0000                 0.0000                 0.0000
 Atom AN      X      Y      Z        X      Y      Z        X      Y      Z
   1   6    -0.00  -0.00   0.00    -0.02   0.00  -0.00     0.05  -0.02  -0.02
   2   6     0.02  -0.00   0.00     0.10  -0.02   0.05    -0.14  -0.03   0.03
   3   7    -0.02   0.05   0.00     0.02   0.02  -0.02    -0.08   0.02  -0.02
   4   6     0.01  -0.36  -0.00     0.10  -0.01  -0.00     0.42   0.02  -0.03
   5   6    -0.30   0.13   0.02    -0.09  -0.08   0.00    -0.18  -0.24   0.00
   6   6     0.39   0.02  -0.02    -0.04   0.08   0.00    -0.22   0.22   0.02
   7   6     0.01  -0.25  -0.01     0.08  -0.01  -0.00     0.23   0.02  -0.01
   8   6    -0.40   0.01   0.02    -0.07  -0.08   0.00    -0.20  -0.24   0.00
   9   6     0.29   0.14  -0.01    -0.07   0.08   0.01    -0.19   0.23   0.02
  10   6     0.01   0.00  -0.01    -0.37  -0.08   0.06     0.14   0.01   0.01
  11   6    -0.02   0.00  -0.00     0.12  -0.07   0.12    -0.01   0.03  -0.04
  12   6     0.00  -0.00   0.01     0.18   0.10  -0.11    -0.09  -0.03   0.03
  13   6     0.02   0.00   0.00    -0.28  -0.08   0.07     0.08   0.04  -0.04
  14   6    -0.01   0.01  -0.01    -0.07  -0.08   0.10     0.01   0.02  -0.02
  15   6    -0.01  -0.01   0.01     0.20   0.06  -0.05    -0.05  -0.01   0.01
  16   6     0.02  -0.00   0.01    -0.22   0.10  -0.18     0.08  -0.03   0.05
  17   6     0.00   0.01  -0.01    -0.13  -0.14   0.17     0.01   0.03  -0.05
  18   6    -0.02  -0.00   0.00     0.33   0.11  -0.09    -0.09  -0.04   0.04
  19   6     0.00  -0.00   0.01     0.10   0.10  -0.13    -0.02  -0.02   0.03
  20   1     0.02   0.01   0.01    -0.00   0.00  -0.00     0.00  -0.04   0.02
  21   1    -0.01   0.00  -0.02     0.00  -0.00  -0.00    -0.14   0.02   0.01
  22   1    -0.00   0.02   0.00     0.00   0.01  -0.03    -0.02   0.11   0.02
  23   1     0.08   0.14  -0.00     0.09   0.04  -0.00     0.22   0.09  -0.01
  24   1    -0.15   0.16   0.01     0.07  -0.02  -0.00     0.22  -0.10  -0.02
  25   1     0.00   0.36   0.01     0.02   0.01  -0.00     0.07  -0.01  -0.00
  26   1     0.16   0.16  -0.00     0.08   0.04  -0.00     0.21   0.09  -0.01
  27   1    -0.07   0.13   0.01     0.08  -0.03  -0.01     0.23  -0.10  -0.03
  28   1     0.00  -0.00   0.01    -0.15   0.07  -0.12     0.04  -0.01   0.03
  29   1     0.00  -0.00   0.00    -0.15  -0.02   0.00     0.05   0.01  -0.00
  30   1     0.00   0.00  -0.00     0.05  -0.01   0.02    -0.01   0.00  -0.01
  31   1     0.00   0.01  -0.01     0.03  -0.06   0.09    -0.01   0.01  -0.02
  32   1    -0.01   0.01  -0.01     0.18  -0.09   0.16    -0.04   0.02  -0.04
  33   1    -0.01  -0.00  -0.00     0.17   0.01   0.01    -0.03   0.00  -0.01
  34   1     0.00  -0.00   0.00    -0.08   0.00  -0.02     0.03   0.00   0.00
                     73                     74                     75
                        a                      a                      a 
 Frequencies --  1475.4757              1477.7248              1499.3858
 Red. masses --     1.8777                 1.7614                10.6906
 Frc consts  --     0.0000                 0.0000                 0.0000
 IR Inten    --     8.9432                 8.5750                 4.7904
 Raman Activ --     0.0000                 0.0000                 0.0000
 Depolar     --     0.0000                 0.0000                 0.0000
 Atom AN      X      Y      Z        X      Y      Z        X      Y      Z
   1   6     0.13  -0.15  -0.10    -0.17  -0.12  -0.09     0.00   0.00   0.01
   2   6     0.05  -0.02  -0.00     0.01  -0.01  -0.02    -0.03   0.01  -0.01
   3   7     0.04   0.00  -0.01    -0.06  -0.02   0.04     0.04   0.01  -0.01
   4   6    -0.09   0.00   0.01     0.05   0.00  -0.00    -0.03   0.00  -0.00
   5   6     0.04   0.04  -0.00     0.00  -0.01  -0.00     0.00   0.01   0.00
   6   6     0.03  -0.04  -0.00    -0.01   0.00   0.00     0.01  -0.00  -0.00
   7   6    -0.04  -0.00   0.00     0.01   0.01   0.00    -0.00  -0.00   0.00
   8   6     0.05   0.04  -0.00     0.00  -0.01  -0.00     0.00   0.00   0.00
   9   6     0.02  -0.04  -0.00    -0.02   0.01   0.00     0.01  -0.01  -0.00
  10   6    -0.04  -0.01   0.01     0.01   0.02  -0.02     0.02  -0.20   0.29
  11   6     0.00  -0.00   0.00    -0.02  -0.00  -0.00    -0.22   0.16  -0.27
  12   6     0.01   0.00  -0.00     0.01  -0.00   0.01    -0.06  -0.13   0.17
  13   6    -0.02  -0.01   0.01     0.03   0.01  -0.01     0.35   0.11  -0.10
  14   6    -0.00  -0.01   0.01    -0.01   0.01  -0.01    -0.22   0.04  -0.10
  15   6     0.01   0.01  -0.01    -0.00  -0.03   0.04     0.02  -0.21   0.30
  16   6    -0.01   0.00  -0.00    -0.01   0.02  -0.03    -0.08   0.16  -0.24
  17   6    -0.00  -0.01   0.01    -0.01  -0.00   0.01    -0.16  -0.11   0.12
  18   6     0.01   0.01  -0.01     0.01  -0.01   0.01     0.23   0.04  -0.02
  19   6     0.00   0.00  -0.00     0.00   0.01  -0.01    -0.06   0.07  -0.11
  20   1     0.19  -0.16   0.20     0.53   0.45   0.10    -0.03  -0.02  -0.01
  21   1    -0.61   0.09   0.05     0.27  -0.06  -0.31    -0.01   0.00   0.01
  22   1    -0.12   0.64   0.13    -0.11   0.11   0.48     0.00  -0.00  -0.03
  23   1    -0.04  -0.02   0.00     0.01   0.00   0.00    -0.01  -0.00  -0.00
  24   1    -0.03   0.01   0.00     0.01  -0.00  -0.00    -0.00   0.00   0.00
  25   1    -0.01  -0.01   0.00     0.00  -0.01  -0.00    -0.00   0.00   0.00
  26   1    -0.04  -0.02   0.00     0.00  -0.00   0.00    -0.00  -0.00   0.00
  27   1    -0.03   0.01  -0.00     0.01  -0.00  -0.00    -0.01   0.00   0.00
  28   1    -0.01   0.00  -0.00     0.00  -0.00   0.01     0.09  -0.04   0.07
  29   1    -0.00  -0.00   0.00    -0.00  -0.00   0.00     0.12  -0.00   0.02
  30   1    -0.00  -0.00   0.00     0.01   0.01  -0.01     0.13   0.06  -0.06
  31   1     0.00  -0.01   0.01     0.01   0.01  -0.02     0.06   0.09  -0.12
  32   1     0.01  -0.00   0.01     0.01   0.00   0.00     0.10  -0.02   0.04
  33   1     0.00  -0.00   0.00     0.02   0.00  -0.00     0.14   0.02  -0.00
  34   1     0.03   0.00  -0.01    -0.07  -0.03   0.01     0.05   0.04  -0.04
                     76                     77                     78
                        a                      a                      a 
 Frequencies --  1562.0268              1567.1976              1592.4285
 Red. masses --    11.6370                11.4207                11.4755
 Frc consts  --     0.0000                 0.0000                 0.0000
 IR Inten    --     0.4131                 2.7691               125.3108
 Raman Activ --     0.0000                 0.0000                 0.0000
 Depolar     --     0.0000                 0.0000                 0.0000
 Atom AN      X      Y      Z        X      Y      Z        X      Y      Z
   1   6    -0.01  -0.00   0.00     0.00   0.00   0.00     0.00  -0.00   0.01
   2   6     0.03   0.01  -0.01     0.01  -0.00   0.00     0.04   0.03  -0.07
   3   7     0.03   0.00  -0.00     0.00   0.02  -0.00    -0.06  -0.02   0.06
   4   6    -0.02   0.01   0.00     0.01  -0.43  -0.01     0.22   0.03  -0.02
   5   6    -0.02  -0.00   0.00     0.13   0.26  -0.00    -0.41  -0.11   0.02
   6   6     0.02  -0.00  -0.00     0.14  -0.33  -0.02     0.41  -0.11  -0.02
   7   6    -0.01  -0.01   0.00    -0.02   0.58   0.02    -0.20  -0.04   0.01
   8   6     0.02   0.02  -0.00    -0.07  -0.30  -0.01     0.42   0.15  -0.02
   9   6    -0.01  -0.01   0.00    -0.20   0.27   0.02    -0.38   0.07   0.03
  10   6    -0.16  -0.19   0.25    -0.00  -0.01   0.00    -0.09  -0.05   0.05
  11   6    -0.17   0.09  -0.16    -0.01   0.00  -0.00     0.18  -0.01   0.05
  12   6     0.13  -0.05   0.10     0.01  -0.00   0.00    -0.22  -0.02  -0.01
  13   6    -0.09   0.20  -0.30    -0.00   0.00  -0.01     0.09   0.01  -0.00
  14   6    -0.07  -0.12   0.16    -0.00  -0.00   0.00    -0.01   0.01  -0.02
  15   6     0.05   0.21  -0.28     0.00   0.00  -0.01    -0.01  -0.02   0.03
  16   6     0.26  -0.14   0.24     0.00  -0.00   0.00    -0.01   0.01  -0.02
  17   6    -0.18   0.07  -0.13    -0.00   0.00  -0.00     0.03   0.00  -0.00
  18   6     0.02  -0.21   0.30     0.00  -0.00   0.01    -0.10  -0.00  -0.02
  19   6     0.21   0.15  -0.17     0.00   0.00  -0.00     0.14   0.04  -0.04
  20   1     0.01   0.01   0.00    -0.00  -0.00   0.00    -0.01  -0.01   0.00
  21   1     0.02  -0.00  -0.01    -0.00   0.00  -0.00    -0.00   0.00   0.01
  22   1    -0.00  -0.00  -0.00     0.00   0.00  -0.01     0.00   0.00  -0.01
  23   1    -0.00   0.00  -0.00    -0.08  -0.01   0.00     0.06   0.07   0.00
  24   1    -0.00   0.01   0.00    -0.08  -0.02   0.01    -0.08   0.07   0.01
  25   1    -0.00   0.00   0.00    -0.00  -0.16  -0.00    -0.05   0.01   0.00
  26   1    -0.01  -0.00   0.00     0.06  -0.03  -0.00    -0.08  -0.07   0.00
  27   1    -0.00  -0.00   0.00     0.09  -0.02  -0.01     0.05  -0.07  -0.01
  28   1     0.01  -0.01   0.01    -0.00  -0.00   0.00    -0.01   0.03  -0.04
  29   1    -0.03  -0.03   0.04    -0.00  -0.00   0.00     0.04   0.02  -0.02
  30   1     0.05  -0.01   0.03     0.00  -0.00   0.00     0.00   0.00  -0.01
  31   1    -0.02  -0.04   0.05    -0.00  -0.00   0.00     0.00   0.01  -0.01
  32   1    -0.05   0.03  -0.05    -0.00   0.00  -0.00     0.00   0.00  -0.00
  33   1     0.02   0.03  -0.05     0.00   0.00  -0.00    -0.01  -0.00   0.00
  34   1    -0.11  -0.00  -0.02    -0.00  -0.00  -0.00    -0.04  -0.01   0.00
                     79                     80                     81
                        a                      a                      a 
 Frequencies --  1600.3247              1607.0615              1697.2013
 Red. masses --    11.5150                11.3921                12.7874
 Frc consts  --     0.0000                 0.0000                 0.0000
 IR Inten    --     0.3321                 0.5207               260.2274
 Raman Activ --     0.0000                 0.0000                 0.0000
 Depolar     --     0.0000                 0.0000                 0.0000
 Atom AN      X      Y      Z        X      Y      Z        X      Y      Z
   1   6    -0.01  -0.01   0.01     0.00  -0.00   0.00    -0.00  -0.01   0.04
   2   6     0.06   0.03  -0.04    -0.01   0.01  -0.01     0.43   0.26  -0.50
   3   7    -0.00  -0.01   0.02    -0.02  -0.01   0.01    -0.50  -0.20   0.39
   4   6    -0.10  -0.02   0.01     0.01   0.00  -0.00     0.11  -0.01   0.00
   5   6     0.18   0.05  -0.01     0.00  -0.00  -0.00     0.07   0.02  -0.01
   6   6    -0.17   0.04   0.01    -0.00   0.00   0.00    -0.06   0.01   0.00
   7   6     0.08   0.02  -0.00     0.00  -0.00  -0.00     0.02   0.00  -0.00
   8   6    -0.17  -0.06   0.01    -0.00  -0.00   0.00    -0.05  -0.01   0.00
   9   6     0.16  -0.03  -0.01     0.00  -0.00   0.00     0.05  -0.01   0.00
  10   6    -0.28  -0.11   0.12     0.08   0.02  -0.02     0.02  -0.01   0.02
  11   6     0.40  -0.04   0.12    -0.09   0.01  -0.03    -0.04   0.02  -0.03
  12   6    -0.48  -0.05  -0.02     0.04  -0.02   0.03     0.04  -0.00   0.01
  13   6     0.21   0.04  -0.02     0.22   0.04  -0.02    -0.03  -0.00  -0.00
  14   6    -0.02   0.02  -0.03    -0.44  -0.17   0.17     0.01   0.00  -0.00
  15   6    -0.02  -0.03   0.04     0.29   0.19  -0.21    -0.00  -0.00   0.00
  16   6    -0.01   0.01  -0.02    -0.40   0.01  -0.09     0.00  -0.00   0.00
  17   6     0.06   0.02  -0.01     0.49   0.06  -0.00    -0.01  -0.00   0.00
  18   6    -0.24  -0.02  -0.02    -0.18  -0.07   0.07     0.05  -0.00   0.01
  19   6     0.38   0.12  -0.10    -0.03  -0.02   0.03    -0.08  -0.01   0.01
  20   1     0.01   0.00   0.01     0.00  -0.00   0.00    -0.00  -0.05   0.03
  21   1     0.01  -0.00   0.00     0.00   0.00   0.00    -0.01   0.00   0.05
  22   1    -0.00   0.00  -0.01     0.00  -0.00   0.00     0.01   0.01  -0.05
  23   1    -0.03  -0.03  -0.00     0.00  -0.00  -0.00    -0.00  -0.01   0.00
  24   1     0.03  -0.03  -0.00     0.00  -0.00  -0.00     0.00  -0.01   0.00
  25   1     0.02  -0.01  -0.00     0.00   0.00  -0.00     0.01  -0.00  -0.00
  26   1     0.03   0.03  -0.00     0.00   0.00  -0.00     0.00   0.01  -0.00
  27   1    -0.02   0.03   0.00     0.00   0.00  -0.00    -0.00   0.01  -0.01
  28   1    -0.02   0.06  -0.09     0.01  -0.02   0.03     0.01  -0.00   0.01
  29   1     0.09   0.05  -0.05     0.01  -0.01   0.01    -0.00  -0.00   0.00
  30   1     0.01   0.01  -0.01     0.12   0.01   0.01    -0.00  -0.00   0.00
  31   1    -0.00   0.01  -0.01     0.04  -0.06   0.09    -0.00   0.00  -0.00
  32   1    -0.00   0.00  -0.00     0.03  -0.06   0.10    -0.00   0.00  -0.00
  33   1    -0.03  -0.01   0.00    -0.09  -0.05   0.05     0.01   0.00  -0.00
  34   1    -0.11  -0.02   0.00     0.00  -0.00   0.01     0.02   0.00  -0.00
                     82                     83                     84
                        a                      a                      a 
 Frequencies --  3006.4130              3022.3033              3033.1349
 Red. masses --     1.8468                 1.6803                 1.6155
 Frc consts  --     0.0000                 0.0000                 0.0000
 IR Inten    --    13.7137                19.9857                22.9381
 Raman Activ --     0.0000                 0.0000                 0.0000
 Depolar     --     0.0000                 0.0000                 0.0000
 Atom AN      X      Y      Z        X      Y      Z        X      Y      Z
   1   6     0.04   0.27   0.04     0.16  -0.05  -0.18    -0.23  -0.02  -0.05
   2   6     0.00   0.01  -0.00     0.01   0.00  -0.01    -0.01   0.00  -0.00
   3   7    -0.00  -0.00   0.00    -0.00  -0.00   0.00     0.00  -0.00   0.00
   4   6    -0.00   0.00   0.00    -0.00   0.00  -0.00     0.00  -0.00  -0.00
   5   6     0.00  -0.00  -0.00    -0.00   0.00   0.00    -0.00   0.00   0.00
   6   6    -0.00   0.00  -0.00     0.00   0.00   0.00    -0.00  -0.00   0.00
   7   6     0.00  -0.00  -0.00     0.00  -0.00  -0.00    -0.00   0.00   0.00
   8   6     0.00  -0.00  -0.00     0.00  -0.00  -0.00    -0.00   0.00   0.00
   9   6    -0.00  -0.00   0.00     0.00   0.00  -0.00    -0.00  -0.01   0.00
  10   6     0.00  -0.00  -0.00     0.00   0.00   0.00     0.00  -0.00  -0.00
  11   6    -0.00  -0.00   0.00    -0.00  -0.00  -0.00     0.00   0.00  -0.00
  12   6     0.00  -0.00   0.00     0.00  -0.00   0.00    -0.00   0.00  -0.00
  13   6     0.00  -0.00   0.00     0.00  -0.00   0.00     0.00   0.00  -0.00
  14   6     0.00  -0.00   0.00     0.00  -0.00   0.00    -0.00   0.00  -0.00
  15   6     0.00  -0.00   0.00     0.00  -0.00   0.00    -0.00   0.00  -0.00
  16   6     0.00   0.00  -0.00     0.00   0.00  -0.00    -0.00  -0.00   0.00
  17   6     0.00  -0.00   0.00     0.00  -0.00   0.00    -0.00   0.00  -0.00
  18   6    -0.00  -0.00   0.00    -0.00  -0.00   0.00     0.00   0.00  -0.00
  19   6     0.00  -0.00   0.00     0.00  -0.00   0.01    -0.00   0.00  -0.00
  20   1     0.12  -0.06  -0.15    -0.49   0.41   0.69    -0.07   0.03   0.06
  21   1    -0.17  -0.92   0.01    -0.01  -0.21  -0.02    -0.05  -0.12  -0.00
  22   1    -0.09   0.02  -0.01    -0.08  -0.03  -0.04     0.94   0.16   0.13
  23   1    -0.00   0.00   0.00     0.00  -0.00  -0.00     0.00  -0.00  -0.00
  24   1    -0.00  -0.00   0.00    -0.00  -0.00  -0.00     0.00   0.00  -0.00
  25   1    -0.00  -0.00  -0.00    -0.00   0.00   0.00     0.00  -0.00  -0.00
  26   1    -0.00   0.00   0.00    -0.00   0.00   0.00     0.00  -0.01  -0.00
  27   1     0.01   0.01  -0.00    -0.01  -0.01   0.00     0.01   0.02  -0.00
  28   1     0.00   0.00  -0.00     0.00   0.00  -0.00    -0.00  -0.00   0.00
  29   1    -0.00   0.00  -0.00    -0.00   0.00  -0.00     0.00  -0.00   0.00
  30   1    -0.00   0.00  -0.00    -0.00   0.00  -0.00     0.00  -0.00   0.00
  31   1    -0.00   0.00  -0.00    -0.00   0.00  -0.00     0.00  -0.00   0.00
  32   1    -0.00  -0.00   0.00    -0.00  -0.00   0.00     0.00   0.00  -0.00
  33   1    -0.00   0.00  -0.00    -0.00   0.00  -0.00     0.00  -0.00   0.00
  34   1    -0.01   0.01  -0.01    -0.01   0.01  -0.02     0.00  -0.00   0.00
                     85                     86                     87
                        a                      a                      a 
 Frequencies --  3060.7309              3064.3301              3064.7989
 Red. masses --     1.7591                 1.7722                 1.7713
 Frc consts  --     0.0000                 0.0000                 0.0000
 IR Inten    --    18.3548                12.5656                14.8730
 Raman Activ --     0.0000                 0.0000                 0.0000
 Depolar     --     0.0000                 0.0000                 0.0000
 Atom AN      X      Y      Z        X      Y      Z        X      Y      Z
   1   6    -0.01   0.00   0.00    -0.00   0.00  -0.00    -0.00   0.00   0.00
   2   6    -0.00   0.00   0.00     0.00   0.00  -0.00     0.00   0.00  -0.00
   3   7     0.00  -0.00  -0.00    -0.00  -0.00  -0.00    -0.00  -0.00   0.00
   4   6     0.00   0.00  -0.00     0.00   0.00   0.00    -0.00   0.00   0.00
   5   6    -0.00   0.00   0.00    -0.00   0.00   0.00    -0.04   0.07   0.00
   6   6     0.00   0.01   0.00    -0.00  -0.00   0.00    -0.11  -0.20   0.00
   7   6    -0.06  -0.00   0.00     0.00  -0.00  -0.00     0.08  -0.00  -0.00
   8   6     0.11  -0.19  -0.01     0.00  -0.00  -0.00     0.01  -0.01  -0.00
   9   6     0.07   0.12   0.00     0.00   0.00   0.00     0.02   0.04   0.00
  10   6     0.00   0.00  -0.00    -0.00  -0.00   0.00    -0.00  -0.00   0.00
  11   6     0.00   0.00  -0.00     0.00   0.00  -0.00    -0.00  -0.00   0.00
  12   6     0.00  -0.00   0.00     0.00  -0.00   0.01    -0.00   0.00  -0.00
  13   6     0.00  -0.00   0.00    -0.00  -0.00   0.00    -0.00   0.00  -0.00
  14   6     0.00  -0.00   0.00     0.01  -0.02   0.03    -0.00   0.00  -0.00
  15   6     0.00  -0.00   0.00    -0.04   0.00  -0.01     0.00  -0.00   0.00
  16   6     0.00   0.00  -0.00     0.08   0.06  -0.06    -0.00  -0.00   0.00
  17   6    -0.00   0.00  -0.00     0.07  -0.12   0.18    -0.00   0.00  -0.00
  18   6    -0.00   0.00  -0.00     0.01  -0.00   0.00    -0.00   0.00  -0.00
  19   6     0.00  -0.00   0.00    -0.00   0.01  -0.02     0.00  -0.00   0.00
  20   1     0.00  -0.00  -0.01    -0.00   0.00   0.00     0.00  -0.00  -0.00
  21   1    -0.00  -0.01   0.00    -0.00  -0.00   0.00    -0.00  -0.00   0.00
  22   1     0.02   0.00   0.00     0.00   0.00   0.00     0.00   0.00   0.00
  23   1     0.01  -0.01  -0.00     0.00  -0.00  -0.00     0.16  -0.27  -0.02
  24   1    -0.03  -0.05   0.00     0.01   0.02  -0.00     0.41   0.73  -0.00
  25   1     0.25   0.00  -0.01    -0.01   0.00   0.00    -0.32  -0.00   0.02
  26   1    -0.39   0.68   0.04    -0.00   0.00   0.00    -0.03   0.05   0.00
  27   1    -0.25  -0.44  -0.00    -0.00  -0.01  -0.00    -0.08  -0.14  -0.00
  28   1    -0.00  -0.00   0.00    -0.00  -0.00   0.00     0.00   0.00  -0.00
  29   1    -0.00   0.00  -0.01    -0.01   0.02  -0.02     0.00  -0.01   0.01
  30   1    -0.00   0.00  -0.00    -0.04   0.07  -0.11     0.00  -0.00   0.00
  31   1    -0.00   0.00  -0.00     0.17  -0.01   0.04    -0.00   0.00  -0.00
  32   1     0.00   0.00  -0.00    -0.31  -0.21   0.24     0.01   0.01  -0.01
  33   1     0.00  -0.00   0.00    -0.24   0.43  -0.66     0.00  -0.01   0.01
  34   1    -0.00   0.00  -0.00     0.02  -0.04   0.06    -0.00   0.00  -0.00
                     88                     89                     90
                        a                      a                      a 
 Frequencies --  3066.2203              3069.7379              3072.5524
 Red. masses --     1.7944                 1.7958                 1.8507
 Frc consts  --     0.0000                 0.0000                 0.0000
 IR Inten    --     1.8287                27.3577                91.3921
 Raman Activ --     0.0000                 0.0000                 0.0000
 Depolar     --     0.0000                 0.0000                 0.0000
 Atom AN      X      Y      Z        X      Y      Z        X      Y      Z
   1   6    -0.00  -0.00   0.00    -0.00  -0.00   0.00     0.01  -0.00  -0.00
   2   6    -0.00   0.00  -0.00    -0.00  -0.00   0.00     0.00  -0.00   0.00
   3   7    -0.00   0.00  -0.00     0.00  -0.00   0.00     0.00   0.00  -0.00
   4   6     0.00  -0.00  -0.00    -0.00   0.00   0.00    -0.01   0.00   0.00
   5   6     0.00  -0.00   0.00    -0.00   0.00   0.00    -0.01   0.03   0.00
   6   6     0.00   0.00   0.00    -0.00  -0.00  -0.00    -0.03  -0.05   0.00
   7   6    -0.00  -0.00   0.00     0.00   0.00  -0.00    -0.10   0.00   0.01
   8   6     0.00  -0.00  -0.00     0.00  -0.00  -0.00     0.06  -0.10  -0.01
   9   6    -0.00  -0.00   0.00    -0.00  -0.00  -0.00    -0.11  -0.19  -0.00
  10   6    -0.00  -0.00   0.00     0.00   0.00  -0.00    -0.00   0.00  -0.00
  11   6    -0.01  -0.01   0.01     0.02   0.01  -0.02    -0.00  -0.00   0.00
  12   6    -0.04   0.07  -0.11     0.07  -0.12   0.18     0.00   0.00   0.00
  13   6    -0.00  -0.00   0.00     0.01  -0.00   0.01    -0.00   0.00  -0.00
  14   6     0.05  -0.10   0.16     0.03  -0.05   0.08    -0.00   0.00  -0.00
  15   6    -0.10   0.00  -0.02    -0.08   0.00  -0.02     0.00  -0.00   0.00
  16   6     0.00   0.00  -0.00     0.00   0.00  -0.00     0.00   0.00  -0.00
  17   6    -0.02   0.03  -0.04    -0.01   0.02  -0.04     0.00  -0.00   0.00
  18   6    -0.00   0.00  -0.00    -0.00   0.00  -0.00    -0.00   0.00  -0.00
  19   6     0.00  -0.00   0.01     0.00  -0.01   0.01    -0.00   0.00  -0.00
  20   1     0.00  -0.00  -0.00     0.00  -0.00  -0.00    -0.01   0.00   0.01
  21   1     0.00   0.00  -0.00    -0.00   0.00  -0.00     0.00   0.01  -0.00
  22   1    -0.00  -0.00  -0.00     0.00   0.00   0.00    -0.02  -0.00  -0.00
  23   1    -0.00   0.00   0.00     0.00  -0.01  -0.00     0.05  -0.09  -0.01
  24   1    -0.00  -0.00  -0.00     0.00   0.01  -0.00     0.11   0.18  -0.00
  25   1     0.00   0.00  -0.00    -0.01  -0.00   0.00     0.35   0.00  -0.02
  26   1    -0.00   0.00   0.00     0.00  -0.00  -0.00    -0.20   0.34   0.02
  27   1     0.00   0.00   0.00     0.00   0.01   0.00     0.38   0.66   0.01
  28   1     0.05   0.04  -0.04    -0.10  -0.06   0.07     0.00   0.00  -0.00
  29   1     0.14  -0.25   0.38    -0.23   0.43  -0.65     0.00  -0.00   0.00
  30   1    -0.20   0.37  -0.57    -0.10   0.19  -0.28     0.00  -0.00   0.00
  31   1     0.38  -0.02   0.09     0.30  -0.01   0.07    -0.01   0.00  -0.00
  32   1    -0.02  -0.01   0.01    -0.01  -0.01   0.01    -0.00  -0.00   0.00
  33   1     0.06  -0.10   0.16     0.05  -0.09   0.13    -0.00   0.00  -0.00
  34   1    -0.01   0.02  -0.02    -0.01   0.02  -0.03     0.00  -0.00   0.00
                     91                     92                     93
                        a                      a                      a 
 Frequencies --  3076.1731              3079.8142              3084.4142
 Red. masses --     1.8525                 1.8521                 1.8283
 Frc consts  --     0.0000                 0.0000                 0.0000
 IR Inten    --    93.0448               114.9465                44.9403
 Raman Activ --     0.0000                 0.0000                 0.0000
 Depolar     --     0.0000                 0.0000                 0.0000
 Atom AN      X      Y      Z        X      Y      Z        X      Y      Z
   1   6     0.00  -0.00   0.00    -0.00  -0.00  -0.00    -0.01  -0.00   0.00
   2   6    -0.00   0.00   0.00    -0.00  -0.00   0.00    -0.00  -0.00   0.00
   3   7    -0.00   0.00  -0.00    -0.00   0.00  -0.00    -0.00   0.00  -0.00
   4   6    -0.00   0.00  -0.00     0.01  -0.00  -0.00     0.00  -0.00   0.00
   5   6    -0.00   0.00   0.00     0.11  -0.18  -0.01    -0.00   0.00   0.00
   6   6     0.00   0.00   0.00    -0.02  -0.03  -0.00     0.00   0.00  -0.00
   7   6    -0.00  -0.00   0.00     0.15   0.00  -0.01    -0.00   0.00  -0.00
   8   6    -0.00   0.00   0.00     0.04  -0.07  -0.01     0.00  -0.00  -0.00
   9   6    -0.00  -0.00   0.00    -0.03  -0.04   0.00    -0.00  -0.00  -0.00
  10   6     0.00  -0.00   0.00     0.00   0.00   0.00     0.01  -0.00   0.00
  11   6    -0.00  -0.00   0.00    -0.00  -0.00   0.00    -0.01  -0.00   0.00
  12   6    -0.01   0.01  -0.02    -0.00   0.00  -0.00     0.00  -0.00   0.00
  13   6     0.00   0.00  -0.00     0.00   0.00  -0.00    -0.00   0.00  -0.00
  14   6    -0.04   0.07  -0.10    -0.00   0.00  -0.00     0.01  -0.02   0.03
  15   6    -0.13   0.00  -0.03     0.00  -0.00   0.00     0.08  -0.00   0.02
  16   6     0.12   0.08  -0.09     0.00   0.00  -0.00     0.05   0.03  -0.03
  17   6    -0.03   0.06  -0.08    -0.00   0.00  -0.00    -0.00   0.00  -0.00
  18   6    -0.00  -0.00   0.00     0.00  -0.00  -0.00    -0.00  -0.01   0.01
  19   6     0.00  -0.01   0.01    -0.00   0.00  -0.00     0.06  -0.14   0.20
  20   1     0.00  -0.00  -0.00    -0.00   0.00   0.00     0.01  -0.01  -0.02
  21   1     0.00   0.00  -0.00     0.00   0.01  -0.00     0.00   0.02  -0.00
  22   1    -0.00  -0.00  -0.00     0.00  -0.00   0.00     0.01   0.00   0.00
  23   1     0.00  -0.00  -0.00    -0.38   0.64   0.04     0.00  -0.00  -0.00
  24   1    -0.00  -0.00  -0.00     0.05   0.08  -0.00    -0.00  -0.00   0.00
  25   1     0.00   0.00  -0.00    -0.50  -0.00   0.03     0.00  -0.00   0.00
  26   1     0.00  -0.00  -0.00    -0.14   0.24   0.02    -0.00   0.00   0.00
  27   1     0.00   0.00  -0.00     0.08   0.14   0.00     0.00   0.00   0.00
  28   1     0.01   0.01  -0.01     0.00   0.00  -0.00     0.01   0.01  -0.01
  29   1     0.02  -0.04   0.06     0.00  -0.00   0.00    -0.00   0.00  -0.01
  30   1     0.13  -0.23   0.35     0.00  -0.00   0.00    -0.03   0.06  -0.09
  31   1     0.47  -0.02   0.12    -0.00   0.00  -0.00    -0.26   0.01  -0.06
  32   1    -0.42  -0.29   0.33    -0.00  -0.00   0.00    -0.15  -0.10   0.12
  33   1     0.10  -0.18   0.28     0.00  -0.00   0.00     0.00   0.00  -0.00
  34   1    -0.01   0.03  -0.04     0.00  -0.00   0.00    -0.24   0.48  -0.71
                     94                     95                     96
                        a                      a                      a 
 Frequencies --  3086.6814              3087.2096              3103.5419
 Red. masses --     1.9028                 1.9081                 1.8492
 Frc consts  --     0.0000                 0.0000                 0.0000
 IR Inten    --   182.6798                 5.9668                17.5339
 Raman Activ --     0.0000                 0.0000                 0.0000
 Depolar     --     0.0000                 0.0000                 0.0000
 Atom AN      X      Y      Z        X      Y      Z        X      Y      Z
   1   6     0.00   0.00  -0.00    -0.00  -0.00   0.00    -0.00  -0.00   0.00
   2   6    -0.00   0.00  -0.00     0.00  -0.00   0.00    -0.00  -0.00   0.00
   3   7     0.00  -0.00  -0.00     0.00   0.00  -0.00    -0.00   0.00  -0.00
   4   6    -0.00   0.00   0.00    -0.01   0.00   0.00     0.00  -0.00   0.00
   5   6    -0.04   0.07   0.00    -0.06   0.11   0.01     0.00  -0.00  -0.00
   6   6     0.03   0.06  -0.00     0.05   0.09  -0.00    -0.00  -0.00  -0.00
   7   6     0.10  -0.00  -0.01     0.15  -0.00  -0.01    -0.00  -0.00   0.00
   8   6     0.02  -0.04  -0.00     0.04  -0.06  -0.00    -0.00   0.00   0.00
   9   6    -0.01  -0.02  -0.00    -0.02  -0.04  -0.00     0.00   0.00   0.00
  10   6    -0.00   0.00  -0.00     0.00  -0.00   0.00    -0.01  -0.00   0.00
  11   6     0.01   0.00  -0.00    -0.01  -0.00   0.00    -0.19  -0.12   0.14
  12   6     0.00  -0.01   0.01    -0.00   0.00  -0.01     0.02  -0.03   0.04
  13   6    -0.00  -0.00   0.00     0.00   0.00  -0.00     0.00   0.00  -0.00
  14   6     0.02  -0.04   0.06    -0.01   0.03  -0.04     0.00  -0.00   0.00
  15   6     0.14  -0.01   0.03    -0.09   0.00  -0.02     0.00  -0.00   0.00
  16   6     0.10   0.07  -0.08    -0.06  -0.04   0.05     0.00   0.00  -0.00
  17   6    -0.02   0.03  -0.05     0.01  -0.02   0.03    -0.00   0.00  -0.00
  18   6    -0.00   0.00  -0.00     0.00  -0.00   0.00     0.00   0.00  -0.00
  19   6    -0.02   0.04  -0.07     0.01  -0.03   0.04    -0.00   0.00  -0.01
  20   1    -0.00   0.00   0.00     0.00  -0.00  -0.01     0.00  -0.00  -0.00
  21   1    -0.00  -0.00   0.00     0.00   0.01  -0.00    -0.00   0.00  -0.00
  22   1    -0.00  -0.00   0.00    -0.00  -0.00  -0.00     0.00   0.00   0.00
  23   1     0.14  -0.24  -0.01     0.22  -0.37  -0.02    -0.00   0.00   0.00
  24   1    -0.11  -0.19   0.00    -0.17  -0.30   0.00     0.00   0.00   0.00
  25   1    -0.34  -0.00   0.02    -0.52  -0.00   0.03     0.01   0.00  -0.00
  26   1    -0.07   0.13   0.01    -0.12   0.20   0.01     0.00  -0.00  -0.00
  27   1     0.05   0.08   0.00     0.08   0.13   0.00    -0.00  -0.01   0.00
  28   1    -0.02  -0.01   0.02     0.02   0.01  -0.02     0.67   0.44  -0.51
  29   1    -0.01   0.02  -0.03     0.01  -0.02   0.03    -0.04   0.08  -0.12
  30   1    -0.07   0.12  -0.19     0.04  -0.08   0.12    -0.00   0.01  -0.01
  31   1    -0.47   0.02  -0.12     0.30  -0.01   0.07    -0.02   0.00  -0.00
  32   1    -0.32  -0.22   0.26     0.21   0.14  -0.17    -0.01  -0.01   0.01
  33   1     0.06  -0.11   0.17    -0.04   0.07  -0.11     0.00  -0.00   0.01
  34   1     0.08  -0.16   0.24    -0.05   0.10  -0.15     0.01  -0.01   0.02
