34
MMFF starting geometry; not quantum validated
C 1.2585730211 -0.2129944720 1.5826762733
C 0.7815299533 0.1390071589 0.1848248202
N 1.5785558796 0.3998493681 -0.8119757912
C 2.9664473113 0.3477984532 -0.6374227040
C 3.6855931533 1.5180243965 -0.3830088229
C 5.0727802430 1.4766309324 -0.2289024458
C 5.7496390529 0.2627792992 -0.3430344368
C 5.0414429492 -0.9064630852 -0.6185238451
C 3.6543194013 -0.8610146604 -0.7718170108
C -0.6935700270 0.1764779506 -0.0634318413
C -1.1877276897 1.0013158170 -1.0784903071
C -2.5592135453 1.0568660143 -1.3363843915
C -3.4592466375 0.2823955395 -0.5896450129
C -4.8405365040 0.3272747129 -0.8368794055
C -5.7242731073 -0.4537242865 -0.0907405486
C -5.2386320859 -1.2896391340 0.9101875274
C -3.8679787111 -1.3459997733 1.1683889595
C -2.9645153313 -0.5650541089 0.4288739704
C -1.5814437198 -0.6117954077 0.6785033322
H 0.4790380383 -0.0436746253 2.3298350893
H 1.5594926905 -1.2641017870 1.6081988194
H 2.1067873541 0.4131217552 1.8717978848
H 3.1580057285 2.4643388259 -0.3065667248
H 5.6232668222 2.3914288117 -0.0271739802
H 6.8299372959 0.2297664508 -0.2276580159
H 5.5677045311 -1.8513982196 -0.7221067457
H 3.1032497581 -1.7682451758 -1.0020789349
H -0.5075813862 1.6068186255 -1.6741907766
H -2.9175771671 1.7090210132 -2.1298751956
H -5.2390996406 0.9723384791 -1.6168980280
H -6.7912614240 -0.4096302554 -0.2933351062
H -5.9262145518 -1.8993861161 1.4906524055
H -3.5103149016 -2.0068619207 1.9549268116
H -1.2071767536 -1.2852705759 1.4446233090
