58
MMFF starting geometry; not quantum validated
O 0.6555987481 3.3939228031 -0.3347095101
P 0.0424313297 2.2153571235 0.3546999770
O -0.7890472878 2.6591232635 1.6589404326
O -1.0439430943 1.4140630549 -0.5233228564
C -1.5315529900 0.2167600128 -0.0477521001
C -2.8870761343 0.1954343336 0.3278520236
C -3.4182359289 -1.0152740444 0.7744129562
C -2.6284250832 -2.1636812418 0.8842248996
C -3.2050886265 -3.3433238273 1.3855061635
C -2.4452230010 -4.4945188796 1.5703173691
C -1.0932249937 -4.4736556410 1.2703275803
C -0.5115023171 -3.3082165244 0.7634684273
C -1.2562844634 -2.1262184684 0.5160646471
C -0.6811961897 -0.9163535451 -0.0210680840
C 0.6804390673 -0.8162457810 -0.5088524786
C 1.5477561890 0.1799821981 0.0086528733
O 1.0555391177 1.0946722679 0.9146557909
C 2.9180752750 0.2539875045 -0.2915985123
C 3.4408184912 -0.6689210616 -1.1985771608
C 2.6285670198 -1.6227482309 -1.8183854232
C 3.1940176010 -2.4913284403 -2.7674862375
C 2.4137170587 -3.4235645159 -3.4452603099
C 1.0534787968 -3.4882480741 -3.1907097974
C 0.4822451452 -2.6344247722 -2.2431288379
C 1.2460345282 -1.6978970521 -1.5003312139
C -3.7346844288 1.3987605536 0.2807441918
C -4.2503014202 1.9568296304 1.4623324514
C -5.0412943123 3.1075768299 1.4270137849
C -5.3298712510 3.7171396158 0.2084073176
C -4.8290620866 3.1772244212 -0.9739773056
C -4.0383730131 2.0262184209 -0.9376431358
C 3.8068673257 1.2473873945 0.3240363190
C 3.8997653790 2.5489670215 -0.1896833442
C 4.7505222863 3.4888870611 0.3964775917
C 5.5233876533 3.1377766646 1.5011413476
C 5.4450117780 1.8480549073 2.0220280839
C 4.5923310644 0.9090536431 1.4370192173
H -1.3148767871 3.4563676109 1.4651908583
H -4.4688948008 -1.0533011337 1.0610489918
H -4.2599214968 -3.3711008477 1.6530815070
H -2.9053051636 -5.3960957755 1.9653240471
H -0.4818347131 -5.3574197558 1.4334437448
H 0.5600161747 -3.3358973054 0.5734274936
H 4.5019907998 -0.6190111610 -1.4418677494
H 4.2564748936 -2.4384844581 -2.9988358715
H 2.8658070850 -4.0830993419 -4.1809513201
H 0.4283960028 -4.1959618915 -3.7290619672
H -0.5947004426 -2.7053345784 -2.1001095089
H -4.0254509513 1.4993723767 2.4244280909
H -5.4316924886 3.5262037628 2.3511647323
H -5.9468853417 4.6116510576 0.1791989672
H -5.0535319747 3.6500125381 -1.9268129293
H -3.6548684387 1.6181090850 -1.8711885399
H 3.2985788690 2.8437670794 -1.0481070302
H 4.8023945547 4.4960691747 -0.0086894575
H 6.1825565191 3.8708709812 1.9582514023
H 6.0433361501 1.5729836559 2.8864219208
H 4.5361943179 -0.0922596989 1.8588054797
