70
MMFF starting geometry; not quantum validated
O -0.6803412040 1.2375856581 -2.5390648595
P -0.0429974569 1.1237359093 -1.1890849397
O 0.7228087626 2.4880500718 -0.8145447377
O -1.0607585959 0.9239758877 0.0418743029
C -1.5556387037 -0.3469928027 0.2306975408
C -2.9204044720 -0.5448355269 -0.0377325362
C -3.4481800873 -1.8209527497 0.1560643266
C -2.6422965725 -2.8849997031 0.5713214247
C -3.2104324486 -4.1640149088 0.6979973395
C -2.4361539888 -5.2631995443 1.0576511500
C -1.0791099186 -5.0976743331 1.2811695241
C -0.5050394046 -3.8287225623 1.1655925806
C -1.2629085654 -2.6741869697 0.8423006286
C -0.6938416076 -1.3529812155 0.7309637462
C 0.6656703786 -1.0208956206 1.1122159998
C 1.5360391812 -0.3770147136 0.1946919889
O 1.0800089189 -0.0204651544 -1.0562637157
C 2.9004091160 -0.1459713529 0.4464867376
C 3.4158204131 -0.5220207474 1.6864747265
C 2.5999025743 -1.0845279102 2.6709473678
C 3.1569178576 -1.3941925394 3.9235323208
C 2.3733249246 -1.9063632469 4.9531875613
C 1.0179167913 -2.1010332309 4.7454684502
C 0.4554956187 -1.8037622592 3.5009044570
C 1.2228870867 -1.3202628254 2.4096396952
C -3.7896430528 0.5419008536 -0.5042752725
C -4.5293106593 1.3061032619 0.4104355563
C -5.3588446819 2.3543836118 -0.0190741340
C -6.1218680443 3.1833342347 0.9862571510
F -6.5072530898 2.4716072802 2.0815014156
F -7.2622471068 3.7242646845 0.4745746640
F -5.3881566150 4.2288748000 1.4554369094
C -5.4311861656 2.6430548321 -1.3910975080
C -4.7083348171 1.8874657207 -2.3284052541
C -4.7736200750 2.2226098365 -3.8000068424
F -3.8926477100 3.1992655135 -4.1482729384
F -6.0018078675 2.6777402805 -4.1779543077
F -4.5089707124 1.1611273936 -4.6097611540
C -3.8912458771 0.8421549466 -1.8707571156
C 3.7829555925 0.4721104583 -0.5504702374
C 3.9189166563 1.8660772052 -0.6146193223
C 4.7436267750 2.4761837734 -1.5727145335
C 4.8349208938 3.9818635551 -1.6286784759
F 5.7885488021 4.4350951033 -2.4888755687
F 5.1310844977 4.5340375956 -0.4198664664
F 3.6665792862 4.5565423961 -2.0284173558
C 5.4472710169 1.6648401836 -2.4760134688
C 5.3292972955 0.2657928895 -2.4333931965
C 6.1077648427 -0.6026673792 -3.3929018407
F 7.3342661008 -0.9345485226 -2.9047187664
F 5.4855029499 -1.7797133513 -3.6775749773
F 6.3326174706 0.0001898979 -4.5932300166
C 4.4995452478 -0.3169394155 -1.4617322913
H 0.4026283247 3.2086720360 -1.3893578273
H -4.5049591980 -1.9903636440 -0.0492224639
H -4.2698832768 -4.3198365336 0.5017207064
H -2.8898460613 -6.2468301910 1.1445187247
H -0.4585497826 -5.9518634548 1.5399601563
H 0.5698205320 -3.7582397295 1.3236470312
H 4.4711044782 -0.3456195298 1.8931515449
H 4.2151174843 -1.2242216255 4.1147774980
H 2.8184403637 -2.1344313644 5.9179062346
H 0.3894300562 -2.4784284700 5.5481250969
H -0.6189186446 -1.9478251368 3.4007870238
H -4.4521868789 1.0858545635 1.4761406532
H -6.0594026912 3.4666068651 -1.7358534970
H -3.3123044269 0.2621969934 -2.5921577920
H 3.3603250241 2.4900345252 0.0852768263
H 6.0915444212 2.1258445311 -3.2269488349
H 4.4007807253 -1.4025790842 -1.4212273120
