112
MMFF starting geometry; not quantum validated
O -0.5578645431 1.6026348615 1.7640800616
P -0.0005984623 0.4703818209 0.9616814274
O 0.7670638248 -0.5794403898 1.9055291070
O -1.0560193538 -0.4470735092 0.1672649147
C -1.5615631975 0.0446543587 -1.0134408403
C -2.9386787664 0.3319570968 -1.0475561638
C -3.4777715015 0.8059820625 -2.2455725892
C -2.6750718959 1.0462476703 -3.3621792112
C -3.2547570385 1.5999449145 -4.5163520477
C -2.4837332394 1.8993607613 -5.6356159693
C -1.1197733055 1.6585785031 -5.6079517793
C -0.5359607539 1.0980163347 -4.4685293203
C -1.2894589794 0.7405005681 -3.3208360529
C -0.7110119783 0.1406100392 -2.1434263748
C 0.6409819425 -0.3863406643 -2.0927120290
C 1.5377800054 0.0089597257 -1.0677882901
O 1.1212939095 0.8986209503 -0.1052685865
C 2.9009517429 -0.3468805618 -1.0396843591
C 3.3877227455 -1.1506976905 -2.0717916643
C 2.5429525787 -1.6598792563 -3.0591443064
C 3.0722170310 -2.5309167827 -4.0267734110
C 2.2580599587 -3.1118660934 -4.9941573420
C 0.9004299464 -2.8382014936 -4.9948020236
C 0.3671555714 -1.9640363558 -4.0433330431
C 1.1657476964 -1.3138015232 -3.0667250559
C -3.8347166886 0.0965090082 0.1076733972
C -4.3252326641 -1.2148727871 0.3728731786
C -3.9419041701 -2.4241858533 -0.4844305016
C -5.1695603536 -3.0599339911 -1.1469025292
C -3.1594803643 -3.4623261032 0.3265820410
C -5.2036656903 -1.4176419531 1.4570402159
C -5.6290417338 -0.3659091753 2.2715926359
C -6.5849758941 -0.5876944526 3.4301570213
C -7.9384320217 -1.1175168124 2.9496744215
C -5.9804827249 -1.5138746004 4.4885737030
C -5.1518539984 0.9185072415 1.9970475194
C -4.2501344519 1.1744595397 0.9430149438
C -3.7742205979 2.6130147128 0.7175479018
C -4.8367177059 3.4206632493 -0.0353299614
C -3.3976999766 3.3458693068 2.0144441812
C 3.8268908997 0.1252909285 0.0172459347
C 4.2265504540 -0.7443983660 1.0770538593
C 3.7423395222 -2.1960885088 1.1737549803
C 3.3527503206 -2.6249345025 2.5972467507
C 4.8073266045 -3.1555910113 0.6307099554
C 5.1309450266 -0.2714117004 2.0501707317
C 5.6310531343 1.0332900025 2.0271679831
C 6.5977110286 1.5386222748 3.0838889130
C 5.9782202500 1.4941257326 4.4831876515
C 7.9206514306 0.7695380891 3.0474706519
C 5.2318115190 1.8769870971 0.9882326474
C 4.3490294258 1.4499776701 -0.0253373251
C 4.0081959556 2.4321701986 -1.1498303594
C 3.3060737013 3.6859466900 -0.6172139316
C 5.2538692999 2.8074927076 -1.9605541993
H 1.2556921655 -0.0965978646 2.5967002959
H -4.5468849015 1.0099863309 -2.2918903227
H -4.3207880827 1.8183918026 -4.5470626978
H -2.9460377324 2.3343648112 -6.5174220835
H -0.5017619861 1.9077124416 -6.4666316000
H 0.5429422265 0.9526336167 -4.4868909211
H 4.4471675107 -1.4027978532 -2.0825552381
H 4.1320127165 -2.7796827943 -4.0241184141
H 2.6812993701 -3.7896054871 -5.7303646250
H 0.2476002963 -3.3035413528 -5.7287359928
H -0.7096210557 -1.8053934359 -4.0704680164
H -3.2876758959 -2.1189435426 -1.3057532831
H -5.7267114446 -2.3176200046 -1.7292784973
H -5.8568626614 -3.4965355697 -0.4146783060
H -4.8643671429 -3.8606085079 -1.8295515771
H -2.2766898549 -3.0118119714 0.7931951002
H -2.8165686907 -4.2759994425 -0.3218215667
H -3.7667180130 -3.9077250915 1.1217747248
H -5.5694093566 -2.4213416784 1.6642156250
H -6.7733958920 0.3776300590 3.9186000962
H -7.8533638533 -2.1125844865 2.4995760187
H -8.3768668412 -0.4487623413 2.2005588872
H -8.6417692853 -1.1906597577 3.7862595361
H -5.0172148230 -1.1287797537 4.8413707653
H -6.6465256239 -1.5947714705 5.3544542762
H -5.8140949329 -2.5252837708 4.1021119089
H -5.4926656018 1.7416119144 2.6215091085
H -2.8617969889 2.6023674997 0.1116011090
H -4.4723797401 4.4311259783 -0.2501604415
H -5.7594911821 3.5146414077 0.5484200117
H -5.0994121583 2.9526967029 -0.9885065029
H -2.8714747384 4.2786093106 1.7824066233
H -4.2774596506 3.6139438314 2.6092430319
H -2.7429757364 2.7370720932 2.6449466598
H 2.8343014652 -2.3173697040 0.5735751753
H 2.8349069480 -3.5903861523 2.5721911204
H 2.6857747776 -1.8989137800 3.0700038690
H 4.2258179348 -2.7468687492 3.2471991309
H 5.7210993044 -3.1261327924 1.2351781353
H 5.0887255821 -2.9093982972 -0.3970130350
H 4.4361885571 -4.1862180316 0.6361571134
H 5.4642588913 -0.9395717007 2.8411911110
H 6.8305387996 2.5904771001 2.8709184291
H 6.6555146497 1.9430002083 5.2178428164
H 5.7694232556 0.4689209421 4.8076597732
H 5.0354751484 2.0518564674 4.5116195773
H 7.7884271098 -0.2863774427 3.3074170992
H 8.3715662661 0.8135073816 2.0497819376
H 8.6353668227 1.1995157072 3.7575300355
H 5.6277996007 2.8908288977 0.9568609510
H 3.3165987557 1.9730525649 -1.8616013160
H 3.9604074483 4.2850301807 0.0248033407
H 2.4173373178 3.4216320042 -0.0341399718
H 2.9841258474 4.3253602217 -1.4464724330
H 5.9853879926 3.3613647072 -1.3626762051
H 5.7495598532 1.9117635478 -2.3512253860
H 4.9802737784 3.4377851176 -2.8138039393
