24
azobenzene rigid scan CNNC=100 deg
C 4.48264066 0.16895441 -0.09924804
C 3.58429873 0.86278906 -0.89743503
C 2.22751491 0.73297406 -0.68971923
C 1.75290699 -0.10906522 0.32391827
C 2.66402292 -0.81701074 1.11471005
C 4.01934327 -0.66575405 0.90748685
N 0.41374819 -0.35677104 0.54009216
N -0.40868733 0.52059988 0.14305629
C -1.05048466 0.28670654 -1.05478616
C -2.23796361 0.98918349 -1.28520129
C -2.89744890 0.85170782 -2.48890096
C -2.37435035 0.03652920 -3.48225431
C -1.18888981 -0.65162401 -3.26625223
C -0.52873813 -0.53560514 -2.06142878
H 5.54457321 0.27519838 -0.26535580
H 3.94946672 1.50723202 -1.68406917
H 1.50915943 1.25583773 -1.30357600
H 2.28426787 -1.46014685 1.89347046
H 4.72224858 -1.20431200 1.52597284
H -2.62957843 1.61704266 -0.49987774
H -3.82017397 1.38591295 -2.66166282
H -2.88820259 -0.05886140 -4.42747227
H -0.78213879 -1.28078195 -4.04481592
H 0.39959832 -1.05431246 -1.87334586
