24
azobenzene rigid scan CNNC=0 deg
C 4.48264066 0.16895441 -0.09924804
C 3.58429873 0.86278906 -0.89743503
C 2.22751491 0.73297406 -0.68971923
C 1.75290699 -0.10906522 0.32391827
C 2.66402292 -0.81701074 1.11471005
C 4.01934327 -0.66575405 0.90748685
N 0.41374819 -0.35677104 0.54009216
N -0.40868733 0.52059988 0.14305629
C 0.11182720 1.64163312 -0.46832373
C -0.75542447 2.38186906 -1.27863019
C -0.31867828 3.54959078 -1.86887762
C 0.97191286 4.00575450 -1.64262925
C 1.83291956 3.28443466 -0.82783260
C 1.41384413 2.10720065 -0.24528986
H 5.54457321 0.27519838 -0.26535580
H 3.94946672 1.50723202 -1.68406917
H 1.50915943 1.25583773 -1.30357600
H 2.28426787 -1.46014685 1.89347046
H 4.72224858 -1.20431200 1.52597284
H -1.75479572 2.00995589 -1.44367592
H -0.98560703 4.11462931 -2.50337021
H 1.30564967 4.92673541 -2.09759562
H 2.83524457 3.64647598 -0.64973662
H 2.06281550 1.53326635 0.39944002
