36
Literature coordinates 10.1021/acs.inorgchem.3c03822 SI pages 46; not recalculated
C -4.47593605688499 -0.09491196950643 -0.54230541390839
C -3.68479423028924 -1.24191539243776 -0.55495161525160
C -3.91530563173187 1.11599609774983 -0.12796293797883
C -2.57631932516240 1.13555278712805 0.25330377945890
N -1.80677530053684 0.03414315094008 0.23326616302934
C -2.34685969626539 -1.15037315189754 -0.15813110573109
C -1.41856063136135 -2.29372312809282 -0.10658057292895
N -0.19017922859439 -2.00490032984501 0.39805652243879
C -1.73067640291968 -3.59010928816028 -0.52917136263122
H -4.10673872855441 -2.19752066441472 -0.86141436459373
H -5.52126385253871 -0.14739284800556 -0.84701029724187
H -4.50192370450883 2.03328181910972 -0.09816537331012
H -2.09045420928471 2.05288607911532 0.58822875591100
C -0.77286236182304 -4.59443036253363 -0.40678231581774
H -2.70974730582370 -3.81147801051095 -0.95078014575400
C 0.47857139749337 -4.28452157010058 0.13256537811302
H -1.00143620462408 -5.60993574931588 -0.73038162590686
C 0.73446860810635 -2.97185566806693 0.51705610607196
H 1.25090762166831 -5.04331034760424 0.25109839466383
H 1.69678445996852 -2.66061281073778 0.92342499835303
Ni 0.15959912188675 -0.08332345110650 0.73244938912903
C 2.06864801622060 0.09641201248010 0.41509338654978
C 2.51001249176038 -0.05639230842473 -0.92330358140929
C 3.03285703813010 0.31631688283681 1.41204189740980
C 4.39908075989608 0.39478646270080 1.11119152750673
C 4.82455082454725 0.24972071910821 -0.21235130946946
C 3.88028053162511 0.02674609602650 -1.21948419952974
C 1.52293405649694 -0.33343427528994 -2.03530191128564
H 4.21069644756540 -0.08116992174710 -2.25695897577083
H 5.88562938872835 0.31195089011831 -0.46219220153284
H 2.70632876588950 0.42970364744097 2.44898463998124
H 5.12720620742351 0.57155001887274 1.90643523583420
Cl -0.04563715446420 0.19551223857127 2.97639524305248
H 1.93070942248299 -0.05675399218475 -3.01797640896347
H 0.58380865384430 0.22408190817449 -1.88636340893037
H 1.25781621163405 -1.40254457039001 -2.07595328955707
