30
Literature coordinates 10.1021/acs.inorgchem.3c03822 SI pages 49; not recalculated
Ni -0.00234460923189 -0.04128906222233 0.11371342154512
C -0.14894822625261 1.86983554015147 0.14939255069195
N -1.88621944034923 -0.03324552770620 -0.04248196707353
C 0.78910625369256 2.91437592619919 0.25752023994391
N -0.27203541116415 -1.97323732065526 0.04533983768199
C 0.40938188096168 4.26555971496384 0.26493763638459
C -0.94004791274887 4.62251234169919 0.16362287599611
C -1.90979896404278 3.62215324602436 0.05394222327886
C -1.52643727639970 2.27352730226671 0.04694653620720
C -2.50020188757835 1.17124618182494 -0.06335870956375
C -3.89668863323825 1.20558079608942 -0.17942952962521
C -4.59994779653043 -0.00275827016886 -0.26820533733959
C -3.92870314798785 -1.23116002990575 -0.24231242899791
C -2.53418756795815 -1.20929290366336 -0.12538213702732
C -1.59451083509654 -2.34394907469695 -0.07338923896517
C -1.97373222619462 -3.68484883344834 -0.13490631792620
C -0.99914965460617 -4.68085730152242 -0.07434216090817
C 0.34104881632927 -4.30500283163362 0.04655322662339
C 0.65904952602579 -2.95063946969661 0.10207044830446
H 1.85347836215242 2.67683423560917 0.33939890532457
H 1.17065924759271 5.04503409832468 0.35060883117615
H -1.23497332265098 5.67307221809631 0.16956541867563
H -2.96385387251569 3.89980159415833 -0.02484285667762
H -4.43066661907418 2.15528723266492 -0.20012460933842
H -5.68657890751550 0.01294593382687 -0.35892559146249
H -4.47878159971710 -2.16887276920139 -0.31037121784756
H -3.02775042516299 -3.94437183893515 -0.22947785012779
H -1.28201412173899 -5.73249102411070 -0.12100366211043
H 1.13705510513478 -5.04711894291870 0.09773657947011
H 1.69231267166993 -2.61609622212325 0.19606488005792
