31
Literature coordinates 10.1021/acs.inorgchem.3c03822 SI pages 48; not recalculated
Ni -0.03154259606317 -0.04186285185788 0.72949749001053
Cl 1.74369070309274 -0.20543704903873 2.02244683693068
C -0.20548818230462 1.83396067629290 0.10283122056642
N -1.94621818257817 -0.02880203721374 0.35834870643501
C 0.79154540000714 2.80857445819692 -0.01923080275250
N -0.30074389805412 -1.92161677455983 0.04692416789701
C 0.45856241298278 4.16934992807500 -0.07067391958178
C -0.88085731849639 4.57684900426040 0.00656712075486
C -1.89596809193004 3.62653932179040 0.11989510099711
C -1.56492457531795 2.26245963501133 0.14904638032998
C -2.54165517353379 1.16952565590870 0.14679018184916
C -3.90495694683604 1.20883481965833 -0.16799028800168
C -4.59333863300189 0.00482055780579 -0.35039396614564
C -3.91188935981580 -1.21485180203481 -0.28358044313274
C -2.55785289784943 -1.19509724179561 0.06285214393404
C -1.61270593710369 -2.31618514609427 0.02422298561539
C -1.96285783927784 -3.66461080315139 -0.08104917433249
C -0.95682884353248 -4.62175638545702 -0.18619286442216
C 0.38033041697265 -4.20893503935304 -0.17972445817040
C 0.66670627476997 -2.85393987980131 -0.05266546746641
H 1.84329800672120 2.51575997707609 -0.05786975956604
H 1.24778493436328 4.91823303621333 -0.16771793926700
H -1.13063251388379 5.63841613950754 -0.02394357250623
H -2.93869927256595 3.94598397288740 0.18208172699513
H -4.40935522887317 2.16421669315402 -0.30803606083286
H -5.65248497765686 0.01941523994668 -0.60836492327248
H -4.41308920375999 -2.15043749632542 -0.52716413840749
H -3.01285590405990 -3.95534928334402 -0.07586344791954
H -1.21054792912746 -5.67861770079101 -0.26907117728843
H 1.19591156406513 -4.92555181323539 -0.26781073696651
H 1.69053452464797 -2.48235724673145 -0.01822208628295
