 Entering Gaussian System
 *********************************************
 Gaussian 98:
 frequency output generated by the xtb code
 *********************************************
                         Standard orientation:
 --------------------------------------------------------------------
  Center     Atomic     Atomic              Coordinates (Angstroms)
  Number     Number      Type              X           Y           Z
 --------------------------------------------------------------------
    1          6             0       -0.552443   -1.390352   -1.621980
    2          6             0       -0.203006   -0.369688   -0.570327
    3          7             0       -1.059590    0.212007    0.162257
    4          6             0       -2.410419   -0.022373    0.230411
    5          6             0       -2.917749   -1.216098    0.753196
    6          6             0       -4.277700   -1.375750    0.934051
    7          6             0       -5.156364   -0.362017    0.588445
    8          6             0       -4.660515    0.824671    0.070356
    9          6             0       -3.302310    1.002633   -0.098356
   10          6             0        1.206993    0.005787   -0.395812
   11          6             0        2.245535   -0.662679   -1.043822
   12          6             0        3.559378   -0.280516   -0.847518
   13          6             0        3.883457    0.776928   -0.006222
   14          6             0        5.309469    1.175577    0.218702
   15          6             0        2.847521    1.443554    0.642538
   16          6             0        1.535323    1.065690    0.454037
   17          1             0       -0.124055   -1.105428   -2.581381
   18          1             0       -1.633432   -1.468413   -1.724295
   19          1             0       -0.157400   -2.366423   -1.342206
   20          1             0       -2.228974   -2.002806    1.028777
   21          1             0       -4.655398   -2.303117    1.342086
   22          1             0       -6.219789   -0.493916    0.724900
   23          1             0       -5.340151    1.620731   -0.200214
   24          1             0       -2.910844    1.925597   -0.501136
   25          1             0        2.040361   -1.492814   -1.702352
   26          1             0        4.348942   -0.814012   -1.358682
   27          1             0        5.393814    2.252117    0.352300
   28          1             0        5.936689    0.870778   -0.615992
   29          1             0        5.689902    0.695476    1.121502
   30          1             0        3.077935    2.269036    1.301578
   31          1             0        0.734809    1.585816    0.957126
 --------------------------------------------------------------------
     1 basis functions        1 primitive gaussians
     1 alpha electrons        1 beta electrons

 Harmonic frequencies (cm**-1), IR intensities (km*mol⁻¹),
 Raman scattering activities (A**4/amu), Raman depolarization ratios,
 reduced masses (AMU), force constants (mDyne/A) and normal coordinates:
                      1                      2                      3
                        a                      a                      a 
 Frequencies --   -18.2645                25.8102                41.1813
 Red. masses --     1.1936                 9.5480                10.0977
 Frc consts  --     0.0000                 0.0000                 0.0000
 IR Inten    --     0.5757                 0.1114                 0.1329
 Raman Activ --     0.0000                 0.0000                 0.0000
 Depolar     --     0.0000                 0.0000                 0.0000
 Atom AN      X      Y      Z        X      Y      Z        X      Y      Z
   1   6    -0.01   0.05  -0.04     0.02  -0.14   0.12    -0.06   0.21  -0.17
   2   6    -0.00   0.01  -0.00     0.01  -0.06   0.04    -0.03   0.18  -0.15
   3   7     0.01  -0.01   0.02    -0.00  -0.01  -0.01    -0.03   0.15  -0.12
   4   6     0.00  -0.01   0.01    -0.00   0.01  -0.01    -0.01   0.06  -0.05
   5   6    -0.00  -0.01  -0.01    -0.01   0.10   0.19     0.14   0.10   0.20
   6   6    -0.01  -0.01  -0.02    -0.02   0.13   0.17     0.17  -0.01   0.30
   7   6     0.00  -0.00  -0.00    -0.01   0.06  -0.04     0.05  -0.17   0.15
   8   6     0.01   0.01   0.02    -0.00  -0.03  -0.24    -0.10  -0.22  -0.10
   9   6     0.01   0.00   0.02     0.00  -0.06  -0.23    -0.13  -0.10  -0.21
  10   6     0.00  -0.01  -0.00     0.01  -0.03   0.02    -0.03   0.14  -0.13
  11   6    -0.01   0.01  -0.02    -0.01   0.21  -0.26    -0.04   0.06  -0.07
  12   6    -0.00  -0.00  -0.03    -0.02   0.24  -0.28    -0.02  -0.07   0.05
  13   6     0.01  -0.03  -0.01    -0.00   0.02  -0.02     0.01  -0.11   0.10
  14   6    -0.01   0.05   0.00    -0.01   0.06  -0.04     0.04  -0.29   0.26
  15   6     0.01  -0.04   0.03     0.02  -0.23   0.27     0.02  -0.00  -0.01
  16   6     0.01  -0.03   0.03     0.03  -0.25   0.29     0.00   0.12  -0.12
  17   1    -0.00   0.02  -0.01    -0.06  -0.02   0.01    -0.02   0.06  -0.05
  18   1    -0.00   0.02  -0.01     0.00  -0.10   0.09    -0.02   0.07  -0.05
  19   1    -0.01   0.01  -0.02     0.07  -0.02   0.02    -0.02   0.06  -0.05
  20   1    -0.00  -0.01  -0.01    -0.01   0.04   0.10     0.07   0.07   0.09
  21   1    -0.00  -0.00  -0.01    -0.01   0.06   0.10     0.08   0.01   0.14
  22   1    -0.00   0.00  -0.00    -0.00   0.02  -0.02     0.02  -0.07   0.07
  23   1     0.00   0.00   0.01     0.00  -0.02  -0.12    -0.06  -0.10  -0.07
  24   1     0.00   0.00   0.01     0.00  -0.04  -0.11    -0.07  -0.04  -0.12
  25   1    -0.00   0.01  -0.01    -0.01   0.11  -0.14    -0.02   0.02  -0.03
  26   1    -0.00   0.00  -0.02    -0.01   0.13  -0.15    -0.01  -0.04   0.03
  27   1     0.04   0.08  -0.56    -0.01   0.02   0.00     0.04  -0.09   0.07
  28   1     0.10  -0.46   0.26    -0.01   0.04  -0.02     0.03  -0.11   0.10
  29   1    -0.17   0.48   0.32     0.01   0.01  -0.02    -0.04  -0.09   0.09
  30   1     0.01  -0.02   0.02     0.01  -0.12   0.14     0.01  -0.01   0.00
  31   1     0.01  -0.01   0.02     0.01  -0.13   0.15     0.00   0.05  -0.05
                      4                      5                      6
                        a                      a                      a 
 Frequencies --    47.0967                62.2514               106.6667
 Red. masses --    10.4547                10.3940                 9.9916
 Frc consts  --     0.0000                 0.0000                 0.0000
 IR Inten    --     1.4772                 1.6122                 0.5182
 Raman Activ --     0.0000                 0.0000                 0.0000
 Depolar     --     0.0000                 0.0000                 0.0000
 Atom AN      X      Y      Z        X      Y      Z        X      Y      Z
   1   6    -0.11   0.38  -0.10     0.05   0.11  -0.39     0.03   0.17  -0.18
   2   6    -0.02   0.09   0.15     0.04  -0.13  -0.15    -0.00   0.04  -0.04
   3   7     0.04  -0.11   0.39     0.05  -0.36   0.00    -0.06   0.13  -0.18
   4   6     0.01  -0.07   0.21     0.03  -0.19  -0.01    -0.05   0.10  -0.19
   5   6    -0.07  -0.02   0.22    -0.12  -0.07   0.13     0.08   0.08  -0.12
   6   6    -0.10  -0.03  -0.03    -0.13   0.16   0.23     0.11   0.01   0.07
   7   6    -0.05  -0.07  -0.29    -0.00   0.25   0.19     0.01  -0.04   0.17
   8   6     0.03  -0.11  -0.29     0.14   0.12   0.01    -0.12  -0.05   0.04
   9   6     0.07  -0.11  -0.05     0.16  -0.11  -0.09    -0.15   0.03  -0.15
  10   6     0.00   0.03   0.12     0.02  -0.09  -0.08     0.02  -0.13   0.17
  11   6    -0.05  -0.04   0.10     0.09  -0.05  -0.00     0.02  -0.19   0.23
  12   6    -0.03  -0.07  -0.00     0.06   0.03   0.07     0.02  -0.14   0.16
  13   6     0.05  -0.02  -0.09    -0.05   0.08   0.06     0.01  -0.03   0.03
  14   6     0.07  -0.02  -0.24    -0.10   0.18   0.14    -0.01   0.25  -0.33
  15   6     0.11   0.04  -0.05    -0.13   0.03  -0.02     0.03  -0.14   0.17
  16   6     0.08   0.05   0.06    -0.09  -0.05  -0.08     0.03  -0.19   0.24
  17   1    -0.01   0.16  -0.01     0.03   0.09  -0.09     0.07   0.06  -0.02
  18   1    -0.03   0.16  -0.04     0.01   0.04  -0.12     0.01   0.10  -0.11
  19   1    -0.07   0.08  -0.09     0.01   0.01  -0.17    -0.04   0.03  -0.06
  20   1    -0.03   0.00   0.12    -0.06  -0.04   0.05     0.05   0.04  -0.05
  21   1    -0.05   0.00  -0.01    -0.07   0.07   0.10     0.06   0.00   0.05
  22   1    -0.02  -0.02  -0.14    -0.00   0.13   0.08     0.01  -0.02   0.10
  23   1     0.02  -0.04  -0.14     0.07   0.05  -0.01    -0.06  -0.03   0.03
  24   1     0.04  -0.04  -0.02     0.08  -0.06  -0.06    -0.08   0.01  -0.07
  25   1    -0.03  -0.02   0.05     0.05  -0.02   0.00     0.01  -0.06   0.08
  26   1    -0.02  -0.03  -0.01     0.04   0.02   0.04     0.00  -0.04   0.04
  27   1     0.02  -0.01  -0.06    -0.05   0.05   0.06    -0.06   0.08  -0.11
  28   1    -0.01   0.00  -0.09    -0.01   0.08   0.04    -0.05   0.11  -0.14
  29   1     0.05  -0.02  -0.09    -0.03   0.05   0.04     0.10   0.10  -0.12
  30   1     0.05   0.02  -0.03    -0.06   0.02  -0.01     0.01  -0.04   0.05
  31   1     0.04   0.03   0.02    -0.05  -0.03  -0.04     0.01  -0.06   0.08
                      7                      8                      9
                        a                      a                      a 
 Frequencies --   155.7485               203.5365               239.7030
 Red. masses --    10.3512                 1.7756                10.1318
 Frc consts  --     0.0000                 0.0000                 0.0000
 IR Inten    --     1.7500                 0.8076                 0.5438
 Raman Activ --     0.0000                 0.0000                 0.0000
 Depolar     --     0.0000                 0.0000                 0.0000
 Atom AN      X      Y      Z        X      Y      Z        X      Y      Z
   1   6    -0.29  -0.01  -0.03    -0.09  -0.01   0.07     0.19  -0.12  -0.12
   2   6    -0.05  -0.05  -0.08     0.00   0.04  -0.01    -0.00   0.06  -0.22
   3   7     0.15   0.11   0.02     0.01  -0.03   0.05    -0.07  -0.04  -0.22
   4   6     0.15   0.17   0.16     0.01  -0.06  -0.03    -0.07   0.02   0.13
   5   6     0.23   0.15   0.16    -0.01  -0.06  -0.06    -0.14   0.11   0.31
   6   6     0.23   0.00  -0.04    -0.01  -0.00   0.01    -0.17   0.03   0.07
   7   6     0.18  -0.10  -0.22     0.02   0.04   0.07    -0.21  -0.11  -0.24
   8   6     0.13  -0.00  -0.05     0.03  -0.00  -0.02    -0.14  -0.01   0.06
   9   6     0.13   0.15   0.16     0.03  -0.06  -0.07    -0.11   0.07   0.32
  10   6    -0.03  -0.17  -0.12     0.00   0.04  -0.02     0.03   0.10  -0.19
  11   6     0.01  -0.14  -0.06    -0.01   0.05  -0.04     0.10   0.04  -0.05
  12   6    -0.02  -0.06   0.03    -0.01   0.07  -0.07     0.12  -0.07   0.10
  13   6    -0.15  -0.02   0.04     0.00   0.03  -0.02     0.13  -0.07   0.11
  14   6    -0.22   0.19   0.09     0.01  -0.02   0.03     0.12   0.12  -0.06
  15   6    -0.21  -0.10   0.02     0.01  -0.01   0.04     0.10  -0.11   0.09
  16   6    -0.15  -0.17  -0.07     0.01   0.01   0.02     0.08  -0.00  -0.08
  17   1    -0.07  -0.04  -0.01     0.40  -0.35   0.11     0.14  -0.12  -0.02
  18   1    -0.09   0.06  -0.01    -0.02   0.39  -0.32     0.06  -0.02  -0.11
  19   1    -0.14  -0.02  -0.00    -0.50  -0.11   0.33     0.01  -0.02   0.07
  20   1     0.08   0.07   0.07    -0.01  -0.03  -0.03    -0.05   0.04   0.14
  21   1     0.07  -0.01  -0.03    -0.01   0.01   0.01    -0.05   0.01   0.02
  22   1     0.05  -0.07  -0.13     0.01   0.03   0.04    -0.07  -0.07  -0.18
  23   1     0.02  -0.02  -0.03     0.02   0.00  -0.01    -0.03   0.00   0.01
  24   1     0.03   0.06   0.07     0.02  -0.02  -0.03    -0.04   0.04   0.14
  25   1     0.02  -0.04  -0.02    -0.00   0.00   0.01     0.04   0.02  -0.02
  26   1     0.01   0.00   0.02    -0.00   0.03  -0.03     0.03  -0.03   0.04
  27   1    -0.12   0.06   0.04     0.01  -0.01   0.01    -0.01   0.04  -0.04
  28   1    -0.04   0.10   0.03     0.01  -0.01   0.01     0.01   0.06  -0.04
  29   1    -0.05   0.06   0.02    -0.01  -0.01   0.01     0.10   0.07  -0.03
  30   1    -0.08  -0.03   0.01     0.01  -0.02   0.03     0.02  -0.05   0.05
  31   1    -0.07  -0.07  -0.03     0.00  -0.00   0.01     0.02   0.01  -0.03
                     10                     11                     12
                        a                      a                      a 
 Frequencies --   253.1403               271.6209               333.9629
 Red. masses --    10.1286                 9.5055                 9.0931
 Frc consts  --     0.0000                 0.0000                 0.0000
 IR Inten    --     0.1634                 0.5301                 0.1739
 Raman Activ --     0.0000                 0.0000                 0.0000
 Depolar     --     0.0000                 0.0000                 0.0000
 Atom AN      X      Y      Z        X      Y      Z        X      Y      Z
   1   6    -0.06   0.09  -0.05    -0.42   0.04   0.19    -0.41  -0.10  -0.07
   2   6     0.01  -0.15   0.17    -0.04   0.13  -0.03    -0.03  -0.16  -0.11
   3   7    -0.03   0.01   0.02     0.01   0.07   0.13    -0.01  -0.08  -0.15
   4   6    -0.08   0.14  -0.03    -0.02  -0.06   0.00    -0.00  -0.01  -0.05
   5   6    -0.07   0.14   0.01    -0.10  -0.09  -0.12     0.00   0.02   0.03
   6   6    -0.06   0.02   0.02    -0.11  -0.03  -0.06     0.01   0.00   0.01
   7   6    -0.16  -0.08  -0.00    -0.08   0.06   0.14    -0.00  -0.02  -0.05
   8   6    -0.21  -0.04   0.04    -0.04  -0.02  -0.01     0.00   0.01   0.03
   9   6    -0.20   0.08   0.04    -0.04  -0.12  -0.12     0.00   0.02   0.02
  10   6     0.11  -0.32   0.14     0.05   0.06  -0.23    -0.00  -0.08   0.02
  11   6     0.18  -0.13   0.01     0.13   0.02  -0.12     0.13   0.07   0.09
  12   6     0.17   0.12  -0.22     0.18  -0.12   0.10     0.06   0.26   0.19
  13   6     0.14   0.14  -0.21     0.20  -0.13   0.11     0.06   0.28   0.16
  14   6     0.09   0.07   0.30     0.10   0.29   0.08     0.29  -0.23  -0.18
  15   6     0.07   0.06  -0.25     0.13  -0.15   0.03    -0.05   0.19   0.10
  16   6     0.12  -0.19  -0.02     0.13  -0.02  -0.16    -0.02  -0.05   0.03
  17   1     0.02   0.07   0.02    -0.23  -0.02  -0.00    -0.19  -0.04  -0.06
  18   1    -0.02   0.08  -0.05    -0.13   0.00   0.19    -0.13   0.03   0.07
  19   1    -0.07  -0.01  -0.07    -0.08   0.02   0.04    -0.14  -0.05  -0.07
  20   1    -0.01   0.05   0.01    -0.04  -0.05  -0.05     0.00   0.01   0.02
  21   1     0.01  -0.01   0.01    -0.04  -0.01  -0.03     0.00   0.00   0.01
  22   1    -0.04  -0.05  -0.01    -0.02   0.05   0.09    -0.00  -0.01  -0.03
  23   1    -0.07  -0.02   0.01    -0.00   0.00  -0.00     0.00   0.01   0.02
  24   1    -0.10   0.04   0.01    -0.01  -0.05  -0.06    -0.00   0.01   0.01
  25   1     0.07  -0.06   0.02     0.04   0.02  -0.06     0.08   0.02   0.02
  26   1     0.05   0.06  -0.09     0.05  -0.05   0.04     0.03   0.09   0.06
  27   1     0.03   0.01   0.14    -0.09   0.09   0.02     0.25  -0.07  -0.10
  28   1     0.12   0.04   0.15     0.05   0.16   0.01    -0.03  -0.19  -0.10
  29   1    -0.09  -0.02   0.11     0.10   0.12   0.02     0.09  -0.09  -0.07
  30   1    -0.00   0.04  -0.10     0.02  -0.05   0.02    -0.07   0.07   0.03
  31   1     0.03  -0.07   0.01     0.04   0.01  -0.06    -0.02  -0.03   0.01
                     13                     14                     15
                        a                      a                      a 
 Frequencies --   367.9977               369.9203               389.6553
 Red. masses --     8.9209                 9.0678                 9.9312
 Frc consts  --     0.0000                 0.0000                 0.0000
 IR Inten    --     0.1063                 1.5178                 2.1467
 Raman Activ --     0.0000                 0.0000                 0.0000
 Depolar     --     0.0000                 0.0000                 0.0000
 Atom AN      X      Y      Z        X      Y      Z        X      Y      Z
   1   6    -0.01  -0.00   0.00     0.03   0.00  -0.00     0.22   0.06   0.04
   2   6    -0.00   0.03  -0.03     0.01   0.01  -0.01     0.03  -0.07   0.18
   3   7    -0.02   0.02  -0.05     0.02  -0.01   0.01     0.13  -0.04   0.32
   4   6    -0.00  -0.04  -0.01     0.01   0.01   0.01     0.02   0.20   0.11
   5   6    -0.00  -0.06  -0.07     0.03   0.17   0.39    -0.04   0.12  -0.13
   6   6     0.00   0.03   0.09    -0.03  -0.15  -0.38    -0.01   0.01  -0.05
   7   6     0.01   0.00  -0.02    -0.01  -0.00   0.00    -0.09  -0.01   0.14
   8   6     0.02  -0.02  -0.08     0.02   0.15   0.38    -0.13  -0.08  -0.07
   9   6     0.03   0.02   0.10    -0.03  -0.15  -0.38    -0.11   0.06  -0.04
  10   6    -0.01   0.02   0.02     0.01  -0.00  -0.00     0.08  -0.16  -0.15
  11   6    -0.05   0.25  -0.28    -0.00   0.05  -0.07     0.14   0.04  -0.29
  12   6     0.02  -0.27   0.29     0.00  -0.06   0.07     0.06   0.04   0.13
  13   6     0.00   0.00  -0.05    -0.02   0.01  -0.00    -0.09  -0.05   0.30
  14   6    -0.01   0.01   0.02    -0.02  -0.01  -0.01    -0.01  -0.11  -0.15
  15   6    -0.01   0.26  -0.33    -0.02   0.06  -0.07    -0.17   0.06   0.04
  16   6     0.04  -0.26   0.36    -0.00  -0.07   0.08    -0.09  -0.08  -0.22
  17   1     0.00  -0.03  -0.00     0.02  -0.01   0.00     0.14   0.05   0.06
  18   1    -0.00   0.02  -0.01     0.01   0.01  -0.01     0.07   0.00  -0.08
  19   1    -0.02  -0.00   0.02    -0.00   0.00   0.02     0.06   0.01   0.01
  20   1    -0.01  -0.03  -0.04     0.02   0.10   0.22    -0.00   0.02  -0.08
  21   1    -0.00   0.03   0.06    -0.02  -0.10  -0.24     0.03  -0.02  -0.04
  22   1     0.00   0.00  -0.01    -0.00  -0.00  -0.00    -0.02  -0.01   0.08
  23   1     0.01  -0.01  -0.05     0.02   0.09   0.23    -0.05  -0.05  -0.06
  24   1     0.02   0.01   0.06    -0.02  -0.09  -0.23    -0.08   0.03  -0.04
  25   1    -0.03   0.16  -0.19    -0.00   0.03  -0.05     0.09   0.05  -0.15
  26   1     0.01  -0.17   0.18     0.01  -0.03   0.04     0.06   0.05   0.06
  27   1    -0.01   0.00   0.01     0.00  -0.00  -0.00     0.04  -0.03  -0.10
  28   1     0.02   0.01   0.02    -0.01  -0.01  -0.00    -0.11  -0.08  -0.11
  29   1    -0.02   0.00   0.01    -0.01  -0.01  -0.00     0.10   0.00  -0.07
  30   1    -0.00   0.16  -0.20    -0.01   0.04  -0.04    -0.10   0.05  -0.01
  31   1     0.03  -0.16   0.22    -0.00  -0.04   0.05    -0.07  -0.04  -0.12
                     16                     17                     18
                        a                      a                      a 
 Frequencies --   423.5086               463.0425               493.4752
 Red. masses --     9.8742                10.1666                10.9007
 Frc consts  --     0.0000                 0.0000                 0.0000
 IR Inten    --     2.4615                 5.5788                 1.8593
 Raman Activ --     0.0000                 0.0000                 0.0000
 Depolar     --     0.0000                 0.0000                 0.0000
 Atom AN      X      Y      Z        X      Y      Z        X      Y      Z
   1   6     0.09   0.11   0.12    -0.01   0.22   0.19     0.08   0.03  -0.03
   2   6     0.02   0.35  -0.16     0.17   0.05   0.19    -0.24   0.01   0.08
   3   7     0.06   0.26  -0.00    -0.04   0.25  -0.20    -0.26   0.38  -0.20
   4   6     0.07  -0.07   0.13     0.03  -0.26  -0.32    -0.10  -0.09   0.28
   5   6    -0.06  -0.09   0.01    -0.01  -0.11   0.05     0.07  -0.24   0.14
   6   6    -0.11   0.01  -0.04    -0.05   0.09   0.14     0.01  -0.08  -0.10
   7   6    -0.10   0.05   0.06    -0.07  -0.05  -0.23     0.17   0.14   0.08
   8   6    -0.00  -0.04  -0.04     0.04   0.07   0.16     0.06   0.09  -0.14
   9   6     0.02  -0.15   0.05     0.03  -0.15   0.05     0.05  -0.07   0.04
  10   6     0.10   0.00  -0.25     0.18  -0.15   0.10    -0.16  -0.22   0.08
  11   6     0.15  -0.26   0.06     0.10  -0.06  -0.15    -0.04   0.01   0.00
  12   6     0.06   0.03   0.04     0.04   0.01  -0.07    -0.04   0.12  -0.00
  13   6    -0.13   0.31  -0.24    -0.12  -0.14   0.18     0.15  -0.05   0.17
  14   6    -0.07  -0.11  -0.03    -0.15  -0.06  -0.05     0.21   0.05   0.03
  15   6    -0.11   0.02   0.07    -0.07   0.08   0.02    -0.03  -0.03  -0.12
  16   6    -0.01  -0.24   0.06    -0.01   0.03  -0.08    -0.02  -0.13  -0.12
  17   1     0.00  -0.03   0.00    -0.02   0.09   0.06     0.11   0.08   0.05
  18   1     0.03  -0.05   0.05    -0.01   0.13   0.08     0.04  -0.04  -0.12
  19   1     0.10   0.08   0.12    -0.05   0.03  -0.01     0.05   0.02  -0.02
  20   1    -0.05  -0.06  -0.01    -0.03  -0.02   0.12     0.01  -0.09  -0.00
  21   1    -0.04  -0.00  -0.03    -0.03   0.07   0.14    -0.07  -0.02  -0.10
  22   1    -0.03   0.03   0.03    -0.02  -0.02  -0.09     0.05   0.05   0.03
  23   1     0.03  -0.00  -0.05     0.05   0.08   0.14     0.02   0.00  -0.10
  24   1     0.01  -0.05  -0.00     0.04  -0.02   0.11     0.09  -0.07  -0.04
  25   1     0.08  -0.15   0.10     0.02   0.03  -0.10     0.04   0.03  -0.05
  26   1     0.06  -0.01   0.09     0.04   0.08  -0.05    -0.03   0.07  -0.07
  27   1     0.11  -0.05   0.02    -0.06  -0.01  -0.05     0.04   0.02  -0.01
  28   1    -0.01  -0.10   0.02    -0.09  -0.02  -0.05     0.03   0.02  -0.02
  29   1    -0.14  -0.10   0.00     0.02   0.01  -0.03     0.11   0.04  -0.00
  30   1    -0.05  -0.04   0.09    -0.02   0.07  -0.05    -0.07   0.04  -0.08
  31   1    -0.04  -0.17   0.07    -0.04   0.02  -0.10     0.00   0.02  -0.07
                     19                     20                     21
                        a                      a                      a 
 Frequencies --   506.6191               548.0885               588.2498
 Red. masses --    10.5490                 9.0957                11.2358
 Frc consts  --     0.0000                 0.0000                 0.0000
 IR Inten    --     0.4800                 5.3647                 2.8874
 Raman Activ --     0.0000                 0.0000                 0.0000
 Depolar     --     0.0000                 0.0000                 0.0000
 Atom AN      X      Y      Z        X      Y      Z        X      Y      Z
   1   6    -0.07  -0.08  -0.10     0.01   0.01   0.02    -0.00   0.07   0.07
   2   6     0.21  -0.13  -0.07     0.06  -0.42   0.42     0.04   0.01   0.06
   3   7     0.22   0.16  -0.30    -0.05   0.16  -0.16    -0.17   0.01  -0.19
   4   6     0.23   0.08   0.30     0.00  -0.03   0.03    -0.14   0.12  -0.01
   5   6    -0.04   0.06   0.04     0.04  -0.05   0.03    -0.32   0.13   0.06
   6   6    -0.11   0.04  -0.19     0.02   0.03  -0.03    -0.25  -0.42   0.10
   7   6    -0.23   0.08   0.22     0.00   0.04   0.00     0.15  -0.10   0.13
   8   6    -0.05  -0.16  -0.12    -0.04   0.04  -0.02     0.34  -0.19  -0.03
   9   6     0.00  -0.17   0.14    -0.03  -0.05   0.02     0.23   0.36  -0.08
  10   6     0.14   0.02   0.20    -0.03   0.22  -0.26     0.09   0.01  -0.01
  11   6     0.01   0.03   0.03    -0.00   0.09  -0.09     0.08  -0.03  -0.05
  12   6     0.02  -0.03  -0.10     0.03  -0.12   0.14     0.06  -0.03  -0.02
  13   6    -0.09  -0.15   0.06    -0.02   0.17  -0.22    -0.06  -0.00  -0.01
  14   6    -0.17  -0.04  -0.02    -0.00   0.01  -0.02    -0.09  -0.02  -0.02
  15   6     0.03   0.10   0.01     0.01  -0.12   0.13     0.02   0.04   0.05
  16   6     0.01   0.16   0.12    -0.01   0.07  -0.08     0.04   0.02  -0.01
  17   1    -0.07  -0.02  -0.05     0.06   0.21   0.09    -0.01   0.03   0.02
  18   1    -0.04   0.07   0.04     0.00   0.12  -0.07    -0.00   0.05   0.04
  19   1    -0.09  -0.07  -0.10    -0.09  -0.10  -0.23    -0.03   0.00  -0.01
  20   1    -0.07  -0.06  -0.06     0.00  -0.02   0.01    -0.03   0.07  -0.04
  21   1    -0.01  -0.04  -0.15    -0.01   0.01  -0.02    -0.06  -0.14  -0.01
  22   1    -0.06   0.03   0.07     0.00  -0.00   0.01     0.02   0.10  -0.02
  23   1     0.03  -0.05  -0.16    -0.00   0.01  -0.01     0.03  -0.12  -0.03
  24   1    -0.04  -0.07  -0.06     0.01  -0.03  -0.00     0.04   0.09  -0.06
  25   1    -0.06   0.05  -0.02     0.01  -0.06   0.07     0.02  -0.01  -0.01
  26   1     0.01   0.04  -0.07     0.02  -0.14   0.17     0.04   0.01   0.01
  27   1    -0.08  -0.01  -0.01     0.04  -0.00   0.02    -0.02  -0.01  -0.00
  28   1    -0.05   0.01  -0.01     0.03  -0.01   0.02    -0.03  -0.01  -0.00
  29   1    -0.01   0.01  -0.01    -0.07  -0.03   0.01    -0.03  -0.01  -0.01
  30   1     0.06   0.06  -0.05     0.02  -0.14   0.17     0.02   0.01   0.02
  31   1    -0.00   0.08  -0.01     0.01  -0.06   0.08    -0.00  -0.01  -0.01
                     22                     23                     24
                        a                      a                      a 
 Frequencies --   599.0837               609.7736               657.9457
 Red. masses --    11.2683                11.2918                10.0701
 Frc consts  --     0.0000                 0.0000                 0.0000
 IR Inten    --     6.9892                 0.3753                 0.2248
 Raman Activ --     0.0000                 0.0000                 0.0000
 Depolar     --     0.0000                 0.0000                 0.0000
 Atom AN      X      Y      Z        X      Y      Z        X      Y      Z
   1   6     0.03  -0.06  -0.06     0.00  -0.04  -0.04    -0.02  -0.07  -0.07
   2   6    -0.07  -0.07   0.01     0.02  -0.02   0.00    -0.04  -0.02  -0.01
   3   7     0.24   0.31   0.07    -0.00  -0.05  -0.03    -0.04   0.05  -0.03
   4   6     0.25   0.05  -0.06    -0.00  -0.00  -0.00    -0.05   0.17   0.46
   5   6    -0.17   0.17  -0.18     0.02   0.00   0.01    -0.04  -0.17  -0.24
   6   6    -0.17   0.04   0.13     0.01   0.01  -0.02     0.00   0.05   0.35
   7   6    -0.24  -0.15  -0.08     0.00   0.01   0.01     0.06  -0.10  -0.28
   8   6     0.24  -0.22   0.20    -0.02   0.01  -0.02     0.00   0.18   0.30
   9   6     0.19  -0.12  -0.10    -0.01   0.00   0.02    -0.04  -0.04  -0.28
  10   6    -0.19  -0.03  -0.02     0.05  -0.09  -0.07     0.06   0.02  -0.00
  11   6    -0.20   0.03   0.06    -0.27  -0.30  -0.23     0.08  -0.01   0.01
  12   6    -0.19   0.07   0.06    -0.44   0.09   0.12     0.08  -0.01  -0.04
  13   6     0.12   0.02   0.02    -0.04   0.09   0.07    -0.05  -0.03   0.01
  14   6     0.21   0.06   0.05    -0.04   0.06   0.05    -0.12  -0.03  -0.02
  15   6    -0.04  -0.08  -0.09     0.29   0.31   0.23     0.06   0.08   0.04
  16   6    -0.06  -0.08  -0.04     0.45  -0.08  -0.12     0.07   0.03   0.04
  17   1     0.06   0.04   0.02    -0.01  -0.01  -0.01     0.00  -0.01  -0.01
  18   1     0.02  -0.04  -0.08    -0.00   0.00  -0.00    -0.01  -0.02  -0.03
  19   1     0.03  -0.01  -0.04    -0.01  -0.02  -0.02    -0.01  -0.02  -0.03
  20   1    -0.08   0.04   0.01     0.00  -0.00  -0.00    -0.01  -0.10  -0.22
  21   1     0.03   0.01   0.10     0.00   0.00  -0.01    -0.03  -0.01  -0.00
  22   1    -0.08   0.04  -0.03     0.00  -0.01   0.00     0.01  -0.08  -0.21
  23   1     0.11  -0.01   0.10    -0.01  -0.00  -0.01    -0.03  -0.00  -0.01
  24   1    -0.01   0.01   0.01    -0.00  -0.00  -0.00    -0.01  -0.08  -0.23
  25   1    -0.03   0.00   0.02    -0.03  -0.09  -0.07     0.02   0.00  -0.00
  26   1    -0.09  -0.01  -0.01    -0.09   0.05   0.05     0.04   0.02  -0.01
  27   1     0.05   0.02   0.01    -0.05   0.02   0.03    -0.04  -0.01  -0.01
  28   1     0.06   0.02   0.01     0.02   0.04   0.03    -0.03  -0.01  -0.01
  29   1     0.07   0.02   0.01    -0.02   0.02   0.02    -0.03  -0.01  -0.01
  30   1    -0.05  -0.02  -0.02     0.04   0.09   0.07     0.04   0.02   0.00
  31   1     0.01  -0.00   0.01     0.10  -0.05  -0.05     0.02   0.01   0.01
                     25                     26                     27
                        a                      a                      a 
 Frequencies --   673.1989               715.8271               768.4318
 Red. masses --    10.3916                 7.7184                 6.9295
 Frc consts  --     0.0000                 0.0000                 0.0000
 IR Inten    --     1.1512                25.1613                23.2802
 Raman Activ --     0.0000                 0.0000                 0.0000
 Depolar     --     0.0000                 0.0000                 0.0000
 Atom AN      X      Y      Z        X      Y      Z        X      Y      Z
   1   6    -0.01   0.01  -0.03    -0.10  -0.24  -0.24    -0.09  -0.09  -0.08
   2   6    -0.03   0.09  -0.09    -0.24  -0.04  -0.00    -0.22  -0.00   0.05
   3   7     0.00   0.02  -0.01     0.05   0.28   0.21    -0.05   0.12   0.17
   4   6     0.02   0.01   0.03    -0.04  -0.01   0.01    -0.00  -0.14  -0.36
   5   6    -0.01  -0.01  -0.01    -0.03  -0.06  -0.03     0.04   0.11   0.11
   6   6    -0.01   0.01   0.02    -0.05  -0.10  -0.07     0.03   0.12   0.05
   7   6    -0.02  -0.00  -0.01     0.04  -0.01  -0.05    -0.07   0.05   0.15
   8   6     0.02  -0.01   0.02    -0.01  -0.02  -0.11     0.09  -0.05   0.11
   9   6     0.02  -0.02  -0.00    -0.01  -0.02  -0.07     0.07  -0.02   0.16
  10   6     0.02  -0.34   0.41     0.00  -0.00   0.01    -0.08  -0.01  -0.03
  11   6    -0.02   0.19  -0.21     0.16   0.07   0.06     0.10   0.10   0.08
  12   6     0.02  -0.20   0.26     0.19  -0.02  -0.02     0.12   0.03   0.01
  13   6    -0.02   0.26  -0.31    -0.08  -0.03  -0.01    -0.03  -0.02   0.01
  14   6    -0.00   0.03  -0.04    -0.26  -0.07  -0.05    -0.20  -0.06  -0.04
  15   6     0.03  -0.22   0.25     0.14   0.11   0.09     0.11   0.04   0.01
  16   6    -0.02   0.18  -0.22     0.17   0.04   0.03     0.14  -0.03  -0.04
  17   1    -0.01  -0.06  -0.03     0.06  -0.00  -0.01     0.06   0.03   0.03
  18   1    -0.00  -0.03   0.00    -0.01  -0.16  -0.19    -0.00  -0.13  -0.14
  19   1     0.02   0.03   0.07     0.03  -0.04  -0.06     0.05   0.01   0.00
  20   1    -0.01  -0.01  -0.02     0.02   0.09   0.22    -0.02  -0.08  -0.20
  21   1    -0.00  -0.00  -0.01    -0.01   0.07   0.21     0.02  -0.09  -0.26
  22   1    -0.01  -0.00  -0.02     0.03   0.12   0.25    -0.05  -0.14  -0.37
  23   1     0.01  -0.00  -0.01     0.01   0.08   0.21     0.04  -0.10  -0.25
  24   1     0.00  -0.01  -0.02     0.03   0.09   0.23    -0.01  -0.10  -0.19
  25   1    -0.01   0.13  -0.16     0.05   0.03  -0.01     0.06   0.02   0.02
  26   1    -0.00  -0.03   0.04     0.07   0.03  -0.01     0.04   0.01   0.01
  27   1     0.08  -0.01   0.05    -0.07  -0.02  -0.01    -0.06  -0.02  -0.01
  28   1     0.06  -0.02   0.05    -0.07  -0.02  -0.01    -0.06  -0.02  -0.01
  29   1    -0.15  -0.07   0.01    -0.08  -0.02  -0.01    -0.06  -0.02  -0.01
  30   1     0.00  -0.03   0.03     0.08   0.04  -0.00     0.04   0.01   0.00
  31   1    -0.01   0.14  -0.16     0.06   0.04   0.00     0.07   0.01   0.01
                     28                     29                     30
                        a                      a                      a 
 Frequencies --   803.5656               815.9722               852.3413
 Red. masses --     4.3855                10.9824                10.7181
 Frc consts  --     0.0000                 0.0000                 0.0000
 IR Inten    --    15.7817                28.9036                 0.5160
 Raman Activ --     0.0000                 0.0000                 0.0000
 Depolar     --     0.0000                 0.0000                 0.0000
 Atom AN      X      Y      Z        X      Y      Z        X      Y      Z
   1   6    -0.02   0.01  -0.05    -0.01  -0.18  -0.17     0.09   0.07   0.06
   2   6    -0.03   0.06  -0.05     0.11   0.01  -0.02     0.18  -0.04  -0.08
   3   7    -0.01   0.02  -0.00     0.33   0.28   0.20     0.27   0.03  -0.03
   4   6     0.00   0.01   0.02    -0.01  -0.08  -0.19     0.07   0.00  -0.03
   5   6     0.00  -0.01  -0.00    -0.10  -0.10   0.11    -0.08  -0.05   0.04
   6   6    -0.00   0.01  -0.00    -0.14  -0.27   0.15    -0.10  -0.20   0.09
   7   6    -0.01  -0.00  -0.00     0.23   0.06   0.05     0.15   0.03  -0.00
   8   6     0.02  -0.01   0.00    -0.20   0.23  -0.05    -0.16   0.16  -0.06
   9   6     0.01  -0.01  -0.00    -0.12   0.07   0.01    -0.09   0.02  -0.02
  10   6     0.04  -0.20   0.25     0.13   0.03   0.03    -0.12  -0.05   0.00
  11   6    -0.01   0.15  -0.22    -0.06  -0.15  -0.12    -0.03   0.31   0.22
  12   6     0.00   0.10  -0.16    -0.05  -0.09  -0.06    -0.12   0.23   0.17
  13   6    -0.01  -0.08   0.09    -0.01   0.00  -0.02     0.08   0.01   0.03
  14   6     0.01  -0.03   0.05     0.22   0.06   0.04    -0.29  -0.08  -0.05
  15   6    -0.01   0.13  -0.11    -0.10   0.05   0.05     0.08  -0.22  -0.19
  16   6    -0.02   0.15  -0.13    -0.16   0.13   0.12     0.19  -0.22  -0.20
  17   1    -0.02  -0.06  -0.03    -0.02  -0.04  -0.05    -0.05  -0.03  -0.03
  18   1    -0.00  -0.05   0.01    -0.01  -0.02  -0.04     0.01   0.11   0.13
  19   1     0.03   0.03   0.06    -0.03  -0.07  -0.08    -0.03  -0.01  -0.01
  20   1    -0.00  -0.00   0.00    -0.02  -0.05  -0.04    -0.02  -0.02  -0.00
  21   1     0.00   0.00   0.01    -0.13  -0.08  -0.05    -0.08  -0.04   0.01
  22   1    -0.00   0.01   0.01     0.04  -0.05  -0.18     0.04  -0.01  -0.03
  23   1     0.01   0.00   0.00    -0.12  -0.02  -0.07    -0.09   0.01   0.00
  24   1     0.01  -0.00   0.01    -0.01   0.01  -0.01    -0.02   0.02   0.03
  25   1     0.02  -0.28   0.33    -0.07  -0.03  -0.03     0.07   0.04   0.10
  26   1     0.04  -0.28   0.34    -0.01  -0.02  -0.02    -0.08  -0.01   0.06
  27   1    -0.07   0.01  -0.05     0.06   0.02   0.01    -0.10  -0.02  -0.01
  28   1    -0.06   0.03  -0.05     0.07   0.02   0.01    -0.09  -0.03  -0.02
  29   1     0.14   0.07  -0.01     0.07   0.02   0.01    -0.09  -0.02  -0.01
  30   1     0.04  -0.24   0.30    -0.00   0.01   0.01    -0.05  -0.06  -0.04
  31   1     0.01  -0.20   0.25    -0.08   0.01   0.01     0.12   0.00  -0.02
                     31                     32                     33
                        a                      a                      a 
 Frequencies --   867.3266               870.0353               879.5361
 Red. masses --     3.3006                 3.3845                 3.9216
 Frc consts  --     0.0000                 0.0000                 0.0000
 IR Inten    --     2.0360                 1.1600                 1.4491
 Raman Activ --     0.0000                 0.0000                 0.0000
 Depolar     --     0.0000                 0.0000                 0.0000
 Atom AN      X      Y      Z        X      Y      Z        X      Y      Z
   1   6    -0.00   0.00   0.01    -0.01  -0.01   0.00     0.01   0.02   0.01
   2   6    -0.00   0.00   0.00    -0.01  -0.00   0.01     0.00  -0.01  -0.01
   3   7    -0.01  -0.01  -0.01    -0.02  -0.00  -0.00    -0.04  -0.04  -0.04
   4   6    -0.02   0.00   0.01    -0.01  -0.00   0.00    -0.00   0.04   0.11
   5   6     0.02   0.11   0.24     0.01   0.02   0.03    -0.00  -0.09  -0.22
   6   6     0.02   0.09   0.16     0.01   0.02   0.02     0.01   0.04   0.01
   7   6    -0.02  -0.01  -0.01    -0.01  -0.00  -0.00    -0.00   0.12   0.32
   8   6    -0.00  -0.08  -0.16     0.01  -0.02  -0.02     0.02  -0.02   0.01
   9   6    -0.01  -0.10  -0.24     0.00  -0.01  -0.03    -0.01  -0.08  -0.24
  10   6     0.00  -0.00   0.00    -0.00   0.02  -0.03    -0.00  -0.00   0.00
  11   6     0.00  -0.02   0.02    -0.01   0.14  -0.20     0.00  -0.00  -0.00
  12   6     0.00  -0.02   0.02    -0.00   0.09  -0.14     0.00  -0.00  -0.00
  13   6    -0.00  -0.00   0.00    -0.00   0.00  -0.00    -0.00   0.00   0.00
  14   6     0.00   0.00   0.00     0.02   0.01  -0.01     0.00   0.00   0.00
  15   6    -0.00   0.02  -0.02     0.01  -0.14   0.20     0.00   0.00   0.00
  16   6    -0.00   0.02  -0.03     0.01  -0.15   0.20     0.00  -0.00  -0.00
  17   1     0.00   0.00   0.00     0.00   0.01   0.01    -0.01  -0.00  -0.00
  18   1    -0.00   0.00  -0.00    -0.00  -0.01   0.00     0.00   0.02   0.02
  19   1     0.00   0.00  -0.00     0.00  -0.00  -0.01    -0.01   0.00   0.01
  20   1    -0.04  -0.20  -0.48    -0.00  -0.03  -0.07     0.04   0.17   0.41
  21   1    -0.01  -0.13  -0.33     0.00  -0.02  -0.05     0.00  -0.04  -0.10
  22   1    -0.00   0.01   0.02    -0.00   0.00   0.00    -0.05  -0.21  -0.50
  23   1     0.03   0.13   0.33     0.01   0.02   0.05     0.00  -0.03  -0.07
  24   1     0.04   0.18   0.46     0.00   0.02   0.06     0.04   0.18   0.43
  25   1    -0.00   0.04  -0.05     0.03  -0.29   0.35    -0.00  -0.00   0.00
  26   1    -0.00   0.03  -0.04     0.03  -0.21   0.25     0.00   0.00   0.00
  27   1     0.00   0.00  -0.00     0.01   0.00   0.01     0.00   0.00  -0.00
  28   1    -0.00  -0.00  -0.00     0.01   0.00   0.01    -0.00  -0.00  -0.00
  29   1     0.00   0.00  -0.00    -0.01  -0.00   0.00     0.00  -0.00  -0.00
  30   1     0.01  -0.04   0.05    -0.04   0.32  -0.38    -0.00   0.00  -0.00
  31   1     0.00  -0.04   0.05    -0.04   0.29  -0.34    -0.00  -0.00  -0.00
                     34                     35                     36
                        a                      a                      a 
 Frequencies --   917.3678               921.6332               923.9527
 Red. masses --     3.0201                 3.9612                 2.7520
 Frc consts  --     0.0000                 0.0000                 0.0000
 IR Inten    --     0.0146                 0.4316                 0.0200
 Raman Activ --     0.0000                 0.0000                 0.0000
 Depolar     --     0.0000                 0.0000                 0.0000
 Atom AN      X      Y      Z        X      Y      Z        X      Y      Z
   1   6     0.01  -0.01   0.01    -0.00  -0.00  -0.00     0.00  -0.00  -0.01
   2   6    -0.00  -0.00   0.00    -0.00   0.00  -0.00     0.00  -0.00   0.00
   3   7    -0.00  -0.00   0.00     0.00   0.01   0.01     0.00   0.00   0.01
   4   6    -0.00  -0.00  -0.00     0.02  -0.00  -0.01    -0.00  -0.03  -0.08
   5   6     0.00  -0.00  -0.00    -0.02  -0.08  -0.19    -0.01  -0.02  -0.06
   6   6     0.00   0.00   0.00     0.01   0.10   0.27     0.01   0.08   0.21
   7   6    -0.00   0.00   0.00     0.01   0.00   0.00    -0.01  -0.08  -0.21
   8   6     0.00  -0.00  -0.00    -0.03  -0.10  -0.28     0.01   0.09   0.19
   9   6     0.00   0.00   0.00     0.01   0.08   0.20    -0.01  -0.02  -0.05
  10   6    -0.00  -0.01   0.01    -0.00  -0.00   0.00     0.00   0.00  -0.00
  11   6     0.02  -0.17   0.20    -0.00   0.00  -0.01    -0.00  -0.00   0.00
  12   6    -0.03   0.20  -0.24     0.00  -0.01   0.01    -0.00   0.00  -0.00
  13   6    -0.00   0.01  -0.02    -0.00   0.00  -0.00     0.00   0.00   0.00
  14   6     0.00   0.00   0.00     0.00  -0.00   0.00    -0.00   0.00  -0.00
  15   6    -0.00   0.03  -0.04    -0.00   0.00  -0.00    -0.00  -0.00   0.00
  16   6     0.01  -0.06   0.08     0.00  -0.00   0.00     0.00  -0.00  -0.00
  17   1     0.00   0.01   0.01     0.00   0.00   0.00    -0.00  -0.00  -0.00
  18   1     0.00   0.02  -0.01     0.00  -0.00  -0.00    -0.00  -0.00   0.00
  19   1    -0.01  -0.01  -0.01    -0.00  -0.00  -0.00    -0.00  -0.00  -0.00
  20   1     0.00   0.00   0.00     0.02   0.13   0.31     0.02   0.10   0.23
  21   1     0.00  -0.00  -0.00    -0.04  -0.19  -0.44    -0.04  -0.20  -0.47
  22   1    -0.00  -0.00  -0.00     0.00  -0.00  -0.01     0.04   0.18   0.44
  23   1     0.00   0.00   0.01     0.03   0.19   0.47    -0.04  -0.18  -0.45
  24   1    -0.00  -0.00  -0.00    -0.03  -0.13  -0.33     0.02   0.08   0.21
  25   1    -0.03   0.34  -0.42     0.00  -0.01   0.01    -0.00   0.00  -0.00
  26   1     0.05  -0.40   0.49    -0.00   0.01  -0.01     0.00  -0.00   0.00
  27   1    -0.00   0.00  -0.01    -0.00   0.00  -0.00     0.00   0.00  -0.00
  28   1    -0.01   0.00  -0.01    -0.00   0.00  -0.00    -0.00  -0.00  -0.00
  29   1     0.01   0.01  -0.00     0.00   0.00  -0.00    -0.00  -0.00  -0.00
  30   1     0.02  -0.12   0.15     0.00  -0.01   0.01    -0.00   0.00  -0.00
  31   1    -0.02   0.19  -0.22     0.00   0.00  -0.00     0.00   0.00   0.00
                     37                     38                     39
                        a                      a                      a 
 Frequencies --   931.2443               971.3476               991.9983
 Red. masses --     3.8970                 9.7322                 5.5891
 Frc consts  --     0.0000                 0.0000                 0.0000
 IR Inten    --     0.3381                 6.5014                 9.4188
 Raman Activ --     0.0000                 0.0000                 0.0000
 Depolar     --     0.0000                 0.0000                 0.0000
 Atom AN      X      Y      Z        X      Y      Z        X      Y      Z
   1   6     0.00   0.00  -0.01     0.13  -0.22  -0.14    -0.06   0.29  -0.27
   2   6     0.00   0.00   0.00     0.12   0.19   0.07     0.05  -0.31   0.26
   3   7     0.00   0.00  -0.00    -0.04   0.11   0.14     0.04   0.09  -0.05
   4   6    -0.00   0.00   0.00    -0.17  -0.03  -0.01     0.00   0.01  -0.01
   5   6     0.00  -0.00  -0.00     0.20  -0.34   0.13     0.07  -0.15   0.06
   6   6    -0.00   0.00   0.00     0.03   0.17  -0.06    -0.02   0.01   0.00
   7   6    -0.00   0.00   0.00    -0.31  -0.04   0.04    -0.09  -0.01   0.01
   8   6    -0.00  -0.00  -0.01     0.10  -0.15   0.05     0.01  -0.03   0.00
   9   6     0.00   0.00   0.00     0.08   0.38  -0.14     0.02   0.13  -0.05
  10   6     0.00  -0.00   0.01     0.09   0.03   0.03     0.01   0.05  -0.07
  11   6     0.01  -0.09   0.12     0.01  -0.02  -0.02     0.00  -0.01   0.02
  12   6    -0.02   0.11  -0.13    -0.07   0.08   0.07    -0.02   0.01   0.03
  13   6     0.00  -0.01   0.01     0.03   0.03   0.02     0.01  -0.01  -0.01
  14   6    -0.00   0.00   0.00    -0.05   0.01   0.01     0.01  -0.02  -0.02
  15   6     0.02  -0.21   0.24    -0.02  -0.14  -0.12     0.00  -0.00   0.01
  16   6    -0.02   0.21  -0.26     0.00  -0.02  -0.02    -0.01   0.01   0.03
  17   1    -0.00  -0.01  -0.01    -0.12  -0.07  -0.11    -0.06  -0.39  -0.22
  18   1     0.00  -0.00  -0.00    -0.00   0.15   0.12    -0.01  -0.20   0.07
  19   1     0.00   0.01   0.01    -0.14  -0.17  -0.19     0.15   0.28   0.46
  20   1     0.00   0.00   0.01     0.03  -0.12   0.04    -0.01  -0.07   0.02
  21   1    -0.00  -0.00  -0.00    -0.04   0.06  -0.03    -0.04   0.01  -0.01
  22   1    -0.00  -0.00  -0.00    -0.08  -0.01   0.01    -0.03   0.01   0.00
  23   1     0.00   0.00   0.01    -0.02  -0.07   0.03    -0.02  -0.02   0.02
  24   1     0.00  -0.00  -0.01    -0.02   0.11  -0.06    -0.02   0.04  -0.02
  25   1    -0.01   0.11  -0.13    -0.01  -0.01   0.01     0.01   0.01  -0.02
  26   1     0.01  -0.14   0.17    -0.01   0.03   0.02    -0.01   0.01  -0.00
  27   1     0.01   0.00   0.00     0.02  -0.00  -0.01    -0.04  -0.00   0.01
  28   1    -0.01  -0.00  -0.00    -0.05  -0.03  -0.02     0.04   0.02   0.01
  29   1     0.00   0.00   0.00    -0.00  -0.01  -0.01    -0.02   0.01   0.01
  30   1    -0.05   0.36  -0.43    -0.02  -0.04  -0.03     0.01   0.00  -0.01
  31   1     0.04  -0.37   0.44     0.02   0.00   0.01    -0.00   0.03  -0.02
                     40                     41                     42
                        a                      a                      a 
 Frequencies --  1002.2448              1009.4514              1013.2008
 Red. masses --     7.8214                 7.6995                 5.5760
 Frc consts  --     0.0000                 0.0000                 0.0000
 IR Inten    --     3.8666                10.4223                 9.6892
 Raman Activ --     0.0000                 0.0000                 0.0000
 Depolar     --     0.0000                 0.0000                 0.0000
 Atom AN      X      Y      Z        X      Y      Z        X      Y      Z
   1   6     0.10  -0.09  -0.24     0.12   0.04  -0.01    -0.19   0.08   0.16
   2   6     0.05   0.10   0.22    -0.02  -0.04  -0.01    -0.03  -0.09  -0.14
   3   7    -0.21   0.05   0.07     0.04   0.03   0.01     0.15  -0.07  -0.09
   4   6    -0.06  -0.00   0.02     0.01  -0.00  -0.02     0.07   0.01  -0.01
   5   6    -0.13   0.27  -0.10     0.02  -0.05   0.02     0.07  -0.15   0.05
   6   6     0.04   0.00  -0.01    -0.01  -0.00   0.00    -0.03  -0.02   0.01
   7   6     0.18   0.02  -0.02    -0.03  -0.00   0.00    -0.09  -0.01   0.01
   8   6     0.04   0.01  -0.00    -0.01   0.00   0.00    -0.04   0.02  -0.00
   9   6    -0.04  -0.29   0.11     0.01   0.05  -0.02     0.02   0.16  -0.07
  10   6     0.08   0.08   0.03    -0.18  -0.02  -0.00     0.04   0.02   0.03
  11   6     0.01  -0.13  -0.10    -0.09   0.19   0.16    -0.02  -0.12  -0.11
  12   6    -0.05   0.05   0.05     0.18  -0.31  -0.27    -0.06   0.01   0.02
  13   6     0.03   0.07   0.06    -0.13   0.01   0.02     0.02   0.06   0.04
  14   6    -0.12   0.14   0.13     0.03   0.19   0.16    -0.13   0.20   0.19
  15   6     0.03  -0.21  -0.18    -0.02   0.23   0.19     0.09  -0.15  -0.14
  16   6     0.01   0.03   0.03     0.16  -0.21  -0.18    -0.01   0.11   0.09
  17   1    -0.14  -0.21  -0.19    -0.07  -0.07  -0.07     0.17   0.18   0.18
  18   1    -0.00   0.05   0.13     0.01   0.10   0.13    -0.01  -0.16  -0.21
  19   1    -0.08  -0.05   0.00    -0.05  -0.02   0.00     0.13   0.10   0.06
  20   1     0.01   0.11  -0.05    -0.00  -0.02   0.00    -0.01  -0.06   0.03
  21   1     0.08  -0.02   0.01    -0.02   0.00  -0.00    -0.05   0.01   0.00
  22   1     0.05   0.01  -0.01    -0.01   0.00   0.00    -0.03  -0.01   0.01
  23   1     0.07   0.04  -0.02    -0.01  -0.01   0.00    -0.05  -0.02   0.01
  24   1     0.05  -0.11   0.04    -0.01   0.01  -0.01    -0.03   0.06  -0.02
  25   1    -0.01  -0.03  -0.02    -0.21   0.07   0.07     0.03  -0.04  -0.03
  26   1     0.02   0.04   0.03    -0.05  -0.18  -0.14    -0.01   0.01   0.01
  27   1     0.26   0.02  -0.03     0.32   0.03  -0.03     0.34   0.03  -0.04
  28   1    -0.27  -0.15  -0.08    -0.22  -0.13  -0.07    -0.36  -0.19  -0.11
  29   1     0.04  -0.07  -0.06     0.10  -0.06  -0.05     0.08  -0.09  -0.08
  30   1     0.05  -0.06  -0.06    -0.11   0.07   0.07     0.14  -0.06  -0.06
  31   1     0.08   0.08   0.04    -0.02  -0.11  -0.10     0.09   0.11   0.09
                     43                     44                     45
                        a                      a                      a 
 Frequencies --  1027.8583              1079.0761              1095.9575
 Red. masses --     4.7133                 6.6487                 7.4442
 Frc consts  --     0.0000                 0.0000                 0.0000
 IR Inten    --    16.9100                 0.2415                18.4260
 Raman Activ --     0.0000                 0.0000                 0.0000
 Depolar     --     0.0000                 0.0000                 0.0000
 Atom AN      X      Y      Z        X      Y      Z        X      Y      Z
   1   6    -0.00  -0.00  -0.00     0.01   0.00  -0.01    -0.28  -0.13  -0.10
   2   6    -0.00   0.00   0.00    -0.01   0.00   0.01     0.27   0.21   0.19
   3   7    -0.00   0.00   0.00    -0.02  -0.00  -0.00    -0.08  -0.05  -0.05
   4   6    -0.00  -0.00   0.00    -0.01  -0.01   0.01    -0.05  -0.01   0.04
   5   6    -0.00   0.00  -0.00     0.15   0.02  -0.02    -0.02   0.03  -0.02
   6   6     0.00   0.00  -0.00     0.00  -0.32   0.13     0.02   0.02  -0.01
   7   6     0.00   0.00  -0.00    -0.44  -0.07   0.06     0.01  -0.01   0.00
   8   6     0.00  -0.00   0.00    -0.12   0.32  -0.12     0.01  -0.00  -0.00
   9   6    -0.00  -0.00   0.00     0.16   0.04  -0.02    -0.00  -0.02   0.00
  10   6     0.01   0.01  -0.01    -0.01   0.00   0.00     0.40   0.13   0.06
  11   6     0.01  -0.01   0.03     0.00  -0.01  -0.00    -0.02   0.17   0.14
  12   6     0.00  -0.04   0.05     0.00   0.00   0.00    -0.14   0.00   0.01
  13   6    -0.03   0.24  -0.29    -0.00   0.00   0.00     0.01  -0.01  -0.00
  14   6     0.01  -0.29   0.32     0.00  -0.00  -0.00     0.02   0.01  -0.00
  15   6     0.01  -0.04   0.05     0.00  -0.00  -0.00    -0.09  -0.07  -0.05
  16   6     0.01  -0.02   0.02    -0.00   0.00   0.00     0.09  -0.14  -0.12
  17   1    -0.00  -0.00  -0.00    -0.01  -0.01  -0.01     0.11   0.06   0.08
  18   1    -0.00   0.00  -0.00     0.00   0.01   0.01    -0.03  -0.26  -0.29
  19   1    -0.00  -0.00  -0.00    -0.00  -0.00   0.00     0.10   0.05   0.02
  20   1     0.00   0.00  -0.00     0.26   0.16  -0.09     0.01   0.03  -0.00
  21   1     0.00  -0.00  -0.00     0.28  -0.20   0.06     0.03  -0.00   0.00
  22   1     0.00   0.00  -0.00    -0.13  -0.04   0.02     0.00  -0.01   0.01
  23   1     0.00   0.00  -0.00     0.17   0.25  -0.11     0.01   0.00  -0.00
  24   1     0.00  -0.00   0.00     0.36  -0.11   0.01     0.03  -0.01   0.01
  25   1    -0.00   0.04  -0.04     0.00  -0.00  -0.00    -0.18   0.07   0.07
  26   1    -0.01   0.04  -0.05     0.01   0.00   0.00    -0.17  -0.11  -0.07
  27   1    -0.33  -0.00  -0.22    -0.00  -0.00   0.00     0.01   0.00   0.01
  28   1    -0.24   0.10  -0.17     0.00   0.00   0.00    -0.00  -0.01   0.00
  29   1     0.57   0.25   0.00    -0.00   0.00   0.00    -0.01  -0.01   0.00
  30   1    -0.01   0.04  -0.05    -0.00  -0.00   0.00    -0.18  -0.01   0.02
  31   1    -0.00   0.03  -0.05     0.00   0.01   0.00    -0.17  -0.21  -0.18
                     46                     47                     48
                        a                      a                      a 
 Frequencies --  1113.8453              1144.0307              1177.9262
 Red. masses --     4.0484                 2.8638                 1.3808
 Frc consts  --     0.0000                 0.0000                 0.0000
 IR Inten    --     0.6010                10.0740                 0.4356
 Raman Activ --     0.0000                 0.0000                 0.0000
 Depolar     --     0.0000                 0.0000                 0.0000
 Atom AN      X      Y      Z        X      Y      Z        X      Y      Z
   1   6     0.01   0.00  -0.01     0.05   0.01   0.01    -0.00   0.00   0.01
   2   6    -0.00  -0.00  -0.00    -0.04  -0.04  -0.04     0.00  -0.01  -0.01
   3   7     0.01   0.04  -0.01     0.01   0.03   0.03     0.01  -0.00   0.00
   4   6     0.02  -0.16   0.06    -0.07  -0.01   0.00    -0.01  -0.06   0.03
   5   6    -0.23   0.11  -0.03    -0.01   0.01  -0.00     0.09   0.02  -0.02
   6   6     0.08   0.18  -0.08     0.01   0.02  -0.01     0.03  -0.01  -0.00
   7   6     0.06  -0.20   0.07     0.00  -0.00   0.00    -0.01   0.08  -0.03
   8   6    -0.12   0.11  -0.03     0.01  -0.02   0.01    -0.03  -0.04   0.02
   9   6     0.16   0.17  -0.07    -0.00  -0.01   0.01    -0.09  -0.01   0.01
  10   6    -0.01  -0.01   0.00     0.04  -0.11  -0.10     0.01   0.00   0.00
  11   6    -0.00  -0.00  -0.00     0.06   0.11   0.08    -0.00   0.00   0.00
  12   6     0.01  -0.00  -0.00    -0.13   0.07   0.07    -0.00  -0.00  -0.00
  13   6    -0.00   0.00   0.00     0.07  -0.10  -0.09    -0.00   0.00   0.00
  14   6     0.00  -0.00  -0.00    -0.04   0.05   0.04     0.00   0.00  -0.00
  15   6    -0.00   0.00   0.00     0.12   0.08   0.06    -0.00  -0.00  -0.00
  16   6    -0.00   0.00   0.00    -0.15   0.06   0.07     0.00   0.00   0.00
  17   1    -0.00  -0.00  -0.00    -0.02  -0.03  -0.02     0.00   0.00   0.00
  18   1     0.00   0.00   0.01     0.00   0.06   0.07     0.00   0.00   0.00
  19   1    -0.00   0.00   0.00    -0.02  -0.01  -0.02     0.00   0.00   0.00
  20   1    -0.38  -0.20   0.12     0.01   0.02  -0.01    -0.08  -0.07   0.04
  21   1     0.24  -0.03  -0.01     0.01   0.00  -0.00     0.39  -0.14   0.03
  22   1     0.08  -0.41   0.16     0.00  -0.00  -0.00    -0.11   0.66  -0.26
  23   1    -0.26  -0.13   0.07     0.00  -0.00   0.00    -0.36  -0.27   0.14
  24   1     0.42  -0.10  -0.00     0.03  -0.02   0.00     0.18  -0.08   0.02
  25   1     0.00  -0.00  -0.00     0.33  -0.01  -0.03    -0.01   0.00   0.00
  26   1     0.01   0.00   0.00    -0.26  -0.18  -0.12     0.00   0.00   0.00
  27   1    -0.00  -0.00  -0.00     0.06   0.01  -0.01     0.00  -0.00   0.00
  28   1     0.00   0.00   0.00    -0.07  -0.03  -0.02     0.00   0.00   0.00
  29   1     0.00   0.00   0.00     0.01  -0.02  -0.02    -0.00  -0.00   0.00
  30   1    -0.00   0.00   0.00     0.52  -0.03  -0.08    -0.01   0.00   0.00
  31   1     0.01   0.01   0.01    -0.40  -0.30  -0.22     0.00   0.00   0.00
                     49                     50                     51
                        a                      a                      a 
 Frequencies --  1187.8298              1201.4500              1235.6460
 Red. masses --     2.1721                 2.1107                 7.8235
 Frc consts  --     0.0000                 0.0000                 0.0000
 IR Inten    --    21.3594                46.5178                24.6326
 Raman Activ --     0.0000                 0.0000                 0.0000
 Depolar     --     0.0000                 0.0000                 0.0000
 Atom AN      X      Y      Z        X      Y      Z        X      Y      Z
   1   6    -0.01  -0.03  -0.03    -0.04  -0.03  -0.03     0.08   0.08   0.07
   2   6     0.00   0.07   0.07     0.10   0.07   0.06    -0.20  -0.21  -0.18
   3   7    -0.09  -0.03  -0.00    -0.03  -0.01  -0.00     0.11   0.07   0.04
   4   6     0.15   0.00  -0.01     0.02  -0.00   0.01    -0.19  -0.00  -0.00
   5   6    -0.06  -0.07   0.03     0.00   0.00  -0.00    -0.04  -0.01   0.01
   6   6     0.08  -0.11   0.04    -0.00   0.00  -0.00     0.04   0.04  -0.02
   7   6     0.01   0.01  -0.00    -0.00  -0.00   0.00     0.02   0.00  -0.00
   8   6     0.03   0.14  -0.06    -0.00   0.00  -0.00     0.04  -0.04   0.01
   9   6    -0.07   0.05  -0.02     0.00   0.00  -0.00    -0.05  -0.01   0.01
  10   6    -0.03  -0.01  -0.00    -0.03  -0.06  -0.05     0.14   0.06   0.04
  11   6     0.01  -0.00  -0.00     0.11  -0.02  -0.02    -0.05  -0.13  -0.10
  12   6     0.01  -0.00  -0.00    -0.05  -0.07  -0.05     0.09   0.04   0.03
  13   6     0.00  -0.00  -0.00     0.11   0.00  -0.01     0.49   0.12   0.05
  14   6    -0.00  -0.00   0.00    -0.04  -0.00  -0.01    -0.23  -0.05  -0.04
  15   6     0.00   0.01   0.01    -0.08   0.09   0.08     0.11  -0.00  -0.02
  16   6    -0.01  -0.00  -0.00    -0.01   0.08   0.07    -0.06   0.12   0.11
  17   1    -0.01  -0.01  -0.01     0.01  -0.02   0.00    -0.01   0.02   0.00
  18   1    -0.00  -0.01  -0.01    -0.01  -0.00  -0.01     0.01   0.06   0.07
  19   1    -0.01  -0.01  -0.02     0.01  -0.00  -0.02    -0.02   0.01   0.04
  20   1    -0.39  -0.29   0.15     0.02   0.01  -0.01    -0.02  -0.01   0.01
  21   1     0.45  -0.19   0.04    -0.01   0.01  -0.00     0.09  -0.02  -0.00
  22   1    -0.01   0.04  -0.02    -0.00   0.00   0.00     0.01   0.00  -0.00
  23   1     0.28   0.23  -0.12    -0.02  -0.01   0.01     0.11   0.05  -0.03
  24   1    -0.46   0.19  -0.03     0.01  -0.00   0.00     0.02  -0.02  -0.00
  25   1     0.04  -0.01  -0.01     0.49  -0.06  -0.09    -0.27  -0.01   0.02
  26   1    -0.01  -0.01  -0.01    -0.41  -0.37  -0.26    -0.10  -0.11  -0.08
  27   1    -0.00  -0.00  -0.00    -0.03  -0.00   0.01    -0.11  -0.01   0.01
  28   1    -0.00  -0.00  -0.00    -0.03  -0.03  -0.01    -0.11  -0.06  -0.03
  29   1     0.00   0.00  -0.00    -0.02  -0.01  -0.00    -0.08  -0.03  -0.01
  30   1     0.03  -0.00  -0.00    -0.35   0.06   0.09    -0.36   0.05   0.08
  31   1    -0.02  -0.01  -0.01     0.23   0.23   0.17    -0.21  -0.14  -0.10
                     52                     53                     54
                        a                      a                      a 
 Frequencies --  1250.5144              1276.8127              1278.9673
 Red. masses --     9.5587                 4.0345                 3.6845
 Frc consts  --     0.0000                 0.0000                 0.0000
 IR Inten    --   195.6644                 2.7240                17.3500
 Raman Activ --     0.0000                 0.0000                 0.0000
 Depolar     --     0.0000                 0.0000                 0.0000
 Atom AN      X      Y      Z        X      Y      Z        X      Y      Z
   1   6     0.01   0.07   0.06    -0.00  -0.02  -0.01     0.02   0.00   0.00
   2   6    -0.01  -0.21  -0.21    -0.01   0.02   0.02     0.02   0.06   0.05
   3   7     0.23   0.11   0.05    -0.03  -0.06   0.01    -0.06  -0.02  -0.00
   4   6    -0.52  -0.03   0.03     0.01   0.38  -0.15     0.06   0.05  -0.02
   5   6    -0.12  -0.04   0.02     0.12   0.01  -0.01     0.03   0.01  -0.01
   6   6     0.09   0.12  -0.05     0.14  -0.13   0.04     0.01  -0.03   0.01
   7   6     0.07   0.01  -0.01     0.01  -0.08   0.03    -0.01  -0.01   0.01
   8   6     0.12  -0.12   0.04    -0.11  -0.12   0.06    -0.02  -0.00   0.00
   9   6    -0.15  -0.01   0.02    -0.09  -0.02   0.01    -0.00  -0.00  -0.00
  10   6     0.22  -0.01  -0.03    -0.01   0.05   0.03     0.06  -0.22  -0.19
  11   6     0.08   0.10   0.07     0.00   0.00   0.00     0.07  -0.03  -0.03
  12   6    -0.13   0.01   0.02    -0.02  -0.02  -0.01     0.11   0.10   0.07
  13   6    -0.30  -0.07  -0.03    -0.02  -0.02  -0.01     0.08   0.18   0.14
  14   6     0.14   0.03   0.02     0.01   0.01   0.01    -0.03  -0.06  -0.05
  15   6    -0.11  -0.04  -0.02     0.01  -0.01  -0.01    -0.08   0.06   0.06
  16   6     0.09  -0.03  -0.03     0.02  -0.00   0.00    -0.14  -0.06  -0.04
  17   1     0.03   0.02   0.03     0.00   0.01   0.00    -0.03   0.01  -0.01
  18   1     0.00   0.03   0.04    -0.00   0.01   0.00     0.01  -0.04  -0.04
  19   1     0.03   0.03   0.03    -0.00  -0.01  -0.01    -0.03  -0.01   0.01
  20   1     0.00   0.03  -0.00    -0.36  -0.29   0.15    -0.05  -0.04   0.02
  21   1     0.21  -0.03  -0.00    -0.34   0.11  -0.02    -0.07   0.02  -0.00
  22   1     0.02   0.01  -0.01    -0.04   0.21  -0.08    -0.01   0.03  -0.01
  23   1     0.26   0.12  -0.07     0.26   0.17  -0.09     0.01   0.01  -0.01
  24   1     0.08  -0.06   0.01     0.40  -0.17   0.04     0.04  -0.02   0.01
  25   1     0.00   0.03   0.03     0.08  -0.01  -0.01    -0.52   0.05   0.09
  26   1    -0.07  -0.02  -0.01     0.03   0.03   0.02    -0.27  -0.24  -0.17
  27   1     0.06   0.01   0.00     0.01   0.00  -0.00    -0.09  -0.01   0.02
  28   1     0.07   0.03   0.02     0.00  -0.00   0.00     0.02   0.02   0.00
  29   1     0.04   0.02   0.00     0.01  -0.00  -0.00    -0.04   0.02   0.02
  30   1     0.06  -0.02  -0.03    -0.05   0.00   0.01     0.41  -0.03  -0.07
  31   1     0.19   0.13   0.09    -0.03  -0.03  -0.03     0.21   0.21   0.15
                     55                     56                     57
                        a                      a                      a 
 Frequencies --  1304.1785              1316.2174              1331.0826
 Red. masses --    10.5768                11.3670                11.5592
 Frc consts  --     0.0000                 0.0000                 0.0000
 IR Inten    --    49.1512                 4.5373                 7.6545
 Raman Activ --     0.0000                 0.0000                 0.0000
 Depolar     --     0.0000                 0.0000                 0.0000
 Atom AN      X      Y      Z        X      Y      Z        X      Y      Z
   1   6     0.11   0.04   0.03    -0.01  -0.01   0.00    -0.06  -0.02  -0.02
   2   6    -0.46  -0.16  -0.10     0.02   0.02   0.02     0.17   0.03   0.01
   3   7    -0.14   0.00   0.04     0.01  -0.01  -0.01     0.10   0.01  -0.01
   4   6     0.26   0.03  -0.05    -0.07   0.38  -0.14    -0.10  -0.01   0.01
   5   6     0.07   0.02  -0.01    -0.32  -0.27   0.13    -0.05  -0.03   0.01
   6   6    -0.02  -0.09   0.04     0.29  -0.11   0.02     0.01   0.04  -0.02
   7   6    -0.06   0.02  -0.00    -0.07   0.42  -0.16     0.03   0.01  -0.00
   8   6    -0.05   0.08  -0.03    -0.24  -0.19   0.09     0.02  -0.04   0.02
   9   6     0.14  -0.03   0.00     0.38  -0.17   0.04    -0.05   0.02  -0.00
  10   6     0.37   0.22   0.15    -0.02  -0.01  -0.02    -0.28   0.25   0.23
  11   6     0.30   0.02  -0.01    -0.02  -0.00   0.00     0.28  -0.07  -0.09
  12   6    -0.22  -0.03  -0.00     0.02   0.00   0.00    -0.17  -0.23  -0.18
  13   6    -0.26   0.06   0.08     0.01  -0.00  -0.00    -0.02   0.33   0.28
  14   6     0.10   0.00  -0.01    -0.01  -0.00   0.00    -0.02  -0.06  -0.05
  15   6     0.04  -0.12  -0.10    -0.01   0.01   0.01     0.36  -0.01  -0.04
  16   6     0.04  -0.06  -0.05    -0.00   0.00   0.00    -0.29  -0.22  -0.16
  17   1    -0.05   0.00  -0.03    -0.00   0.00   0.00     0.03   0.01   0.02
  18   1     0.01   0.08   0.11    -0.00   0.00  -0.01    -0.01  -0.02  -0.03
  19   1    -0.06  -0.02   0.01     0.01  -0.00  -0.01     0.03   0.02   0.01
  20   1    -0.04  -0.05   0.02     0.05   0.03  -0.01     0.03   0.03  -0.01
  21   1    -0.09   0.00   0.00     0.14  -0.05   0.01     0.05  -0.01  -0.00
  22   1    -0.01  -0.03   0.01     0.02  -0.11   0.04     0.01   0.00  -0.00
  23   1    -0.14  -0.07   0.04    -0.10  -0.08   0.04     0.05   0.02  -0.01
  24   1    -0.10   0.05  -0.01    -0.02   0.00   0.00     0.04  -0.02   0.00
  25   1    -0.04   0.02   0.02     0.00  -0.00  -0.00     0.04  -0.02  -0.02
  26   1    -0.17  -0.10  -0.06     0.01   0.00   0.00     0.01  -0.02  -0.02
  27   1     0.01   0.00   0.01    -0.00  -0.00  -0.00    -0.08  -0.01   0.03
  28   1     0.06   0.04   0.02    -0.00  -0.00  -0.00     0.04   0.04   0.01
  29   1     0.01   0.03   0.02    -0.00  -0.00  -0.00    -0.04   0.05   0.04
  30   1    -0.07  -0.02  -0.01     0.01   0.00  -0.00     0.09   0.00  -0.01
  31   1     0.01  -0.02  -0.02     0.00   0.00   0.00    -0.03  -0.01  -0.00
                     58                     59                     60
                        a                      a                      a 
 Frequencies --  1377.2648              1401.6371              1407.9085
 Red. masses --     3.2740                 3.1789                 9.6766
 Frc consts  --     0.0000                 0.0000                 0.0000
 IR Inten    --    19.2928                 4.9279                 5.9128
 Raman Activ --     0.0000                 0.0000                 0.0000
 Depolar     --     0.0000                 0.0000                 0.0000
 Atom AN      X      Y      Z        X      Y      Z        X      Y      Z
   1   6     0.05   0.31   0.30     0.00  -0.00  -0.00     0.02  -0.04  -0.03
   2   6    -0.01  -0.03  -0.03     0.00   0.00   0.00     0.03   0.04   0.03
   3   7     0.00   0.01   0.00    -0.00  -0.00   0.00    -0.06   0.01   0.02
   4   6    -0.01  -0.00   0.00     0.00  -0.00   0.00     0.02   0.01   0.00
   5   6    -0.00   0.00  -0.00    -0.00   0.00  -0.00     0.01   0.01  -0.00
   6   6     0.01  -0.00   0.00     0.00  -0.00   0.00     0.01  -0.01   0.00
   7   6    -0.00  -0.00   0.00    -0.00  -0.00   0.00    -0.01   0.00   0.00
   8   6    -0.01  -0.00   0.00    -0.00   0.00  -0.00     0.00   0.01  -0.01
   9   6     0.00   0.00  -0.00     0.00  -0.00  -0.00     0.01  -0.01   0.00
  10   6     0.01  -0.02  -0.01    -0.00  -0.01  -0.01     0.08  -0.26  -0.22
  11   6     0.04   0.02   0.01    -0.00  -0.01  -0.01     0.30   0.17   0.11
  12   6    -0.05  -0.01  -0.01     0.00   0.01   0.01    -0.37  -0.05  -0.01
  13   6     0.01  -0.02  -0.02     0.04   0.01  -0.00     0.11  -0.24  -0.21
  14   6    -0.01   0.01   0.01    -0.41  -0.09  -0.11    -0.04   0.08   0.07
  15   6     0.05   0.01   0.00     0.01  -0.01  -0.01     0.32   0.15   0.10
  16   6    -0.04   0.00   0.01    -0.01   0.01   0.01    -0.34  -0.00   0.03
  17   1    -0.10  -0.49  -0.17    -0.00   0.01   0.00    -0.02   0.07   0.01
  18   1     0.07  -0.36  -0.32     0.00   0.00   0.00    -0.00   0.03   0.02
  19   1    -0.13  -0.17  -0.49    -0.00   0.00   0.01    -0.01   0.01   0.07
  20   1    -0.01  -0.00   0.00    -0.00   0.00  -0.00    -0.01  -0.01   0.00
  21   1    -0.00   0.00  -0.00    -0.00   0.00  -0.00    -0.01   0.00   0.00
  22   1    -0.00   0.01  -0.00    -0.00   0.00  -0.00    -0.00  -0.00   0.00
  23   1     0.00   0.00  -0.00    -0.00   0.00  -0.00    -0.01  -0.01   0.00
  24   1    -0.00   0.00  -0.00    -0.00   0.00  -0.00    -0.01   0.00   0.00
  25   1    -0.00   0.01   0.01    -0.02   0.00   0.00    -0.16   0.08   0.08
  26   1     0.01   0.02   0.02    -0.02  -0.02  -0.01     0.10   0.17   0.13
  27   1     0.01   0.00  -0.00     0.47  -0.07   0.19     0.04   0.02  -0.06
  28   1    -0.00  -0.00   0.00     0.39   0.09   0.27    -0.03  -0.06   0.02
  29   1     0.01  -0.00  -0.01     0.48   0.27  -0.08     0.04  -0.09  -0.06
  30   1    -0.04   0.01   0.01    -0.02   0.00   0.00    -0.19   0.08   0.08
  31   1    -0.00   0.01   0.01    -0.01  -0.00  -0.00     0.04   0.12   0.10
                     61                     62                     63
                        a                      a                      a 
 Frequencies --  1432.6525              1464.4896              1475.7648
 Red. masses --     9.0245                 8.7044                 1.7862
 Frc consts  --     0.0000                 0.0000                 0.0000
 IR Inten    --     6.3324                19.0871                 8.4849
 Raman Activ --     0.0000                 0.0000                 0.0000
 Depolar     --     0.0000                 0.0000                 0.0000
 Atom AN      X      Y      Z        X      Y      Z        X      Y      Z
   1   6     0.00  -0.00  -0.00    -0.05  -0.01   0.01     0.08   0.14  -0.15
   2   6    -0.02  -0.01  -0.00     0.09  -0.04  -0.05     0.04   0.03  -0.01
   3   7     0.01   0.05  -0.02     0.06   0.04   0.02     0.04  -0.00  -0.01
   4   6     0.04  -0.34   0.13    -0.42  -0.03   0.05    -0.08  -0.01   0.01
   5   6    -0.31   0.09  -0.01     0.16   0.25  -0.12     0.01   0.03  -0.01
   6   6     0.40   0.05  -0.05     0.24  -0.20   0.06     0.05  -0.03   0.01
   7   6     0.03  -0.23   0.09    -0.24  -0.02   0.02    -0.03  -0.00   0.00
   8   6    -0.39  -0.03   0.04     0.18   0.24  -0.11     0.02   0.03  -0.01
   9   6     0.28   0.15  -0.08     0.23  -0.21   0.07     0.04  -0.03   0.01
  10   6     0.00  -0.00   0.01     0.04   0.01   0.01    -0.03  -0.00   0.01
  11   6     0.01  -0.00  -0.00    -0.08   0.02   0.02     0.00  -0.00  -0.00
  12   6    -0.00   0.00   0.00    -0.00  -0.05  -0.04     0.01   0.01   0.00
  13   6    -0.01  -0.00   0.00     0.08   0.04   0.02    -0.01  -0.00  -0.00
  14   6     0.00   0.00   0.00    -0.02  -0.01  -0.02     0.00  -0.01   0.01
  15   6     0.00  -0.00  -0.00    -0.03   0.03   0.03     0.01  -0.00  -0.00
  16   6     0.00   0.00   0.00    -0.05  -0.05  -0.04     0.01   0.00   0.00
  17   1    -0.02   0.00  -0.01     0.05  -0.06   0.01     0.18   0.22   0.13
  18   1     0.00   0.02  -0.01    -0.01   0.08   0.01     0.01  -0.58   0.34
  19   1     0.01   0.01   0.02     0.11   0.03  -0.05    -0.57  -0.18   0.12
  20   1     0.04   0.13  -0.05    -0.22  -0.12   0.08    -0.02  -0.01   0.00
  21   1    -0.19   0.13  -0.04    -0.23   0.05  -0.00    -0.03   0.01  -0.00
  22   1    -0.06   0.33  -0.13    -0.07  -0.02   0.01    -0.01   0.01  -0.00
  23   1     0.12   0.16  -0.08    -0.21  -0.12   0.06    -0.02  -0.01   0.01
  24   1    -0.10   0.12  -0.04    -0.24   0.05  -0.01    -0.04   0.01  -0.00
  25   1    -0.00  -0.00   0.00     0.05  -0.00  -0.01     0.03   0.00  -0.01
  26   1    -0.00  -0.00  -0.00     0.05   0.03   0.02    -0.00  -0.01  -0.00
  27   1     0.00   0.00  -0.00    -0.02  -0.01   0.03     0.01   0.00  -0.02
  28   1     0.00   0.00  -0.00    -0.02  -0.02  -0.00     0.00   0.03  -0.01
  29   1    -0.00   0.00   0.00    -0.00   0.02   0.01    -0.01  -0.00   0.00
  30   1    -0.00  -0.00   0.00     0.05   0.00  -0.00    -0.01  -0.00   0.00
  31   1    -0.00  -0.00  -0.00     0.04   0.03   0.02    -0.01  -0.01  -0.00
                     64                     65                     66
                        a                      a                      a 
 Frequencies --  1477.1295              1478.7147              1479.5484
 Red. masses --     2.3841                 1.8721                 1.8008
 Frc consts  --     0.0000                 0.0000                 0.0000
 IR Inten    --    12.2896                 5.1286                 5.0760
 Raman Activ --     0.0000                 0.0000                 0.0000
 Depolar     --     0.0000                 0.0000                 0.0000
 Atom AN      X      Y      Z        X      Y      Z        X      Y      Z
   1   6    -0.12   0.04  -0.07     0.13  -0.03   0.07     0.04  -0.00   0.01
   2   6    -0.05  -0.01  -0.02     0.01  -0.01   0.01    -0.01   0.00   0.00
   3   7    -0.05   0.01   0.02     0.06  -0.01  -0.03    -0.01  -0.00  -0.00
   4   6     0.08   0.00  -0.01    -0.06  -0.00   0.01     0.02   0.00  -0.00
   5   6    -0.03  -0.03   0.01     0.02   0.02  -0.01    -0.00  -0.01   0.00
   6   6    -0.03   0.03  -0.01     0.01  -0.02   0.01    -0.01   0.01  -0.00
   7   6     0.03  -0.01  -0.00    -0.02   0.00  -0.00     0.01   0.00  -0.00
   8   6    -0.03  -0.03   0.01     0.02   0.02  -0.01    -0.01  -0.01   0.00
   9   6    -0.02   0.03  -0.01     0.01  -0.02   0.01    -0.01   0.01  -0.00
  10   6     0.11   0.06   0.04    -0.06   0.06   0.06     0.04  -0.06  -0.05
  11   6    -0.06   0.01   0.02     0.02  -0.03  -0.03    -0.01   0.05   0.04
  12   6    -0.02  -0.04  -0.03     0.03   0.02   0.01    -0.06  -0.05  -0.03
  13   6     0.10   0.03  -0.01    -0.04   0.02  -0.01    -0.00  -0.00  -0.03
  14   6    -0.02   0.14  -0.04    -0.00   0.15  -0.00     0.11   0.00  -0.19
  15   6    -0.09   0.04   0.05    -0.04  -0.01   0.00     0.00   0.00   0.00
  16   6    -0.04  -0.09  -0.07     0.03  -0.02  -0.02     0.00   0.02   0.02
  17   1     0.41  -0.20   0.12    -0.42   0.22  -0.12    -0.09   0.06  -0.02
  18   1    -0.04   0.01   0.34     0.05  -0.04  -0.33     0.01  -0.03  -0.06
  19   1     0.14   0.00  -0.23    -0.19  -0.01   0.24    -0.07  -0.01   0.06
  20   1     0.03   0.02  -0.01    -0.02  -0.01   0.01     0.01   0.00  -0.00
  21   1     0.02  -0.00  -0.00    -0.01   0.00   0.00     0.01  -0.00   0.00
  22   1     0.01   0.01  -0.00    -0.00  -0.01   0.00     0.00   0.00  -0.00
  23   1     0.03   0.02  -0.01    -0.01  -0.01   0.01     0.01   0.00  -0.00
  24   1     0.03  -0.00   0.00    -0.02   0.00  -0.00     0.01  -0.00   0.00
  25   1     0.02   0.01  -0.01     0.04  -0.02  -0.01     0.03   0.01   0.01
  26   1     0.05   0.03   0.02    -0.02  -0.02  -0.01     0.05   0.05   0.03
  27   1    -0.28   0.02   0.13    -0.27   0.03   0.00    -0.09  -0.07   0.66
  28   1     0.07  -0.43   0.21     0.14  -0.37   0.24    -0.28  -0.33  -0.11
  29   1     0.22  -0.18  -0.20     0.23  -0.27  -0.24     0.01   0.44   0.22
  30   1     0.09   0.00  -0.01     0.02  -0.01  -0.01     0.01   0.00   0.00
  31   1     0.06   0.04   0.02    -0.00  -0.01  -0.01     0.00   0.01   0.01
                     67                     68                     69
                        a                      a                      a 
 Frequencies --  1492.4956              1566.8955              1570.5962
 Red. masses --     8.9392                11.4215                11.4110
 Frc consts  --     0.0000                 0.0000                 0.0000
 IR Inten    --     0.6911                 2.5609                 2.7951
 Raman Activ --     0.0000                 0.0000                 0.0000
 Depolar     --     0.0000                 0.0000                 0.0000
 Atom AN      X      Y      Z        X      Y      Z        X      Y      Z
   1   6    -0.06   0.00  -0.02    -0.00   0.00  -0.00     0.02  -0.00  -0.00
   2   6     0.14   0.03   0.01    -0.01  -0.00  -0.00    -0.00   0.00  -0.00
   3   7     0.01   0.01   0.01    -0.00   0.02  -0.00    -0.06   0.01   0.02
   4   6    -0.07  -0.00   0.01     0.06  -0.40   0.15     0.03   0.00  -0.00
   5   6     0.01   0.03  -0.01     0.15   0.27  -0.12     0.01   0.00  -0.00
   6   6     0.05  -0.03   0.01     0.12  -0.27   0.10    -0.01   0.00   0.00
   7   6    -0.04   0.00   0.00    -0.08   0.54  -0.21     0.01   0.01  -0.00
   8   6     0.04   0.04  -0.02    -0.08  -0.32   0.13    -0.01  -0.01   0.00
   9   6     0.01  -0.03   0.01    -0.18   0.22  -0.07     0.01   0.00  -0.00
  10   6    -0.37  -0.14  -0.08     0.00   0.00   0.01     0.19  -0.34  -0.30
  11   6     0.27  -0.09  -0.09     0.00  -0.00  -0.00    -0.26   0.17   0.16
  12   6     0.08   0.17   0.13    -0.00   0.00   0.00    -0.04  -0.27  -0.21
  13   6    -0.38  -0.05  -0.01     0.00  -0.00  -0.00    -0.12   0.39   0.34
  14   6     0.12   0.06  -0.01    -0.00   0.00   0.00    -0.00  -0.02  -0.02
  15   6     0.20  -0.14  -0.13    -0.00   0.00   0.00     0.18  -0.17  -0.15
  16   6     0.18   0.25   0.19    -0.00  -0.00  -0.00     0.06   0.22   0.18
  17   1     0.14  -0.08   0.04     0.00  -0.00  -0.00    -0.01   0.01  -0.00
  18   1    -0.01   0.02   0.08    -0.00   0.00   0.01     0.00   0.00   0.01
  19   1     0.10   0.02  -0.08     0.00   0.00   0.00    -0.01  -0.00   0.01
  20   1    -0.03  -0.01   0.01    -0.09  -0.03   0.02     0.00  -0.00  -0.00
  21   1    -0.03   0.01  -0.00    -0.06  -0.04   0.02     0.00  -0.00   0.00
  22   1    -0.01  -0.00   0.00     0.03  -0.15   0.06     0.00  -0.00   0.00
  23   1    -0.03  -0.02   0.01     0.08  -0.01  -0.00     0.00   0.00  -0.00
  24   1    -0.03   0.00   0.00     0.08   0.00  -0.01     0.00   0.00  -0.00
  25   1    -0.24   0.01   0.02    -0.00  -0.00   0.00     0.11   0.02   0.01
  26   1    -0.16  -0.10  -0.07    -0.00   0.00   0.00     0.09   0.02   0.01
  27   1    -0.07   0.01   0.08     0.00  -0.00   0.00    -0.08   0.01  -0.05
  28   1     0.03  -0.12   0.05    -0.00   0.00  -0.00     0.08   0.01   0.05
  29   1     0.07  -0.01  -0.03    -0.00   0.00   0.00     0.01  -0.06  -0.04
  30   1    -0.20  -0.01   0.01     0.00   0.00   0.00    -0.05  -0.03  -0.02
  31   1    -0.16  -0.12  -0.08     0.00   0.00   0.00    -0.06  -0.01  -0.00
                     70                     71                     72
                        a                      a                      a 
 Frequencies --  1592.4041              1599.7059              1699.6293
 Red. masses --    11.4757                11.4932                12.7807
 Frc consts  --     0.0000                 0.0000                 0.0000
 IR Inten    --   193.0599                19.6949               261.2404
 Raman Activ --     0.0000                 0.0000                 0.0000
 Depolar     --     0.0000                 0.0000                 0.0000
 Atom AN      X      Y      Z        X      Y      Z        X      Y      Z
   1   6    -0.00  -0.00  -0.01    -0.00   0.01   0.01    -0.01   0.03   0.04
   2   6    -0.04   0.05   0.06     0.06  -0.03  -0.04     0.46  -0.33  -0.42
   3   7     0.08  -0.03  -0.06    -0.03   0.02   0.02    -0.52   0.24   0.34
   4   6    -0.22  -0.00   0.02    -0.11   0.00   0.01     0.11   0.03  -0.01
   5   6     0.35   0.11  -0.08     0.19   0.06  -0.04     0.04   0.01  -0.00
   6   6    -0.41   0.08   0.00    -0.22   0.04   0.00    -0.05   0.01   0.00
   7   6     0.19  -0.01  -0.01     0.10  -0.00  -0.01     0.02   0.00  -0.00
   8   6    -0.37  -0.15   0.09    -0.20  -0.08   0.05    -0.05  -0.02   0.01
   9   6     0.40  -0.05  -0.01     0.22  -0.03  -0.00     0.06  -0.01  -0.00
  10   6     0.07   0.01   0.00    -0.19  -0.04  -0.01     0.01   0.04   0.04
  11   6    -0.17  -0.02  -0.00     0.36   0.03  -0.01    -0.08  -0.01  -0.00
  12   6     0.17   0.11   0.07    -0.33  -0.20  -0.13     0.06   0.04   0.02
  13   6    -0.14  -0.05  -0.03     0.26   0.08   0.04    -0.03  -0.02  -0.01
  14   6     0.02   0.01  -0.00    -0.04  -0.02   0.00     0.01   0.00   0.00
  15   6     0.23   0.01  -0.01    -0.42  -0.02   0.02     0.05   0.01   0.00
  16   6    -0.17  -0.08  -0.05     0.33   0.16   0.10    -0.04  -0.05  -0.04
  17   1     0.01  -0.01   0.00     0.00   0.01   0.00    -0.01   0.06   0.01
  18   1    -0.00   0.01   0.01     0.00  -0.01  -0.00     0.01  -0.03  -0.04
  19   1     0.00  -0.00  -0.01     0.00   0.00   0.01    -0.01   0.01   0.05
  20   1    -0.04  -0.07   0.03    -0.02  -0.04   0.02    -0.00  -0.01  -0.00
  21   1     0.09  -0.05   0.01     0.05  -0.03   0.01     0.01  -0.01   0.00
  22   1     0.05   0.01  -0.01     0.02   0.01  -0.00     0.00   0.00  -0.00
  23   1     0.06   0.07  -0.04     0.03   0.04  -0.02     0.00   0.01  -0.00
  24   1    -0.07   0.05  -0.02    -0.04   0.03  -0.01    -0.01   0.01  -0.00
  25   1     0.03  -0.01  -0.01    -0.07   0.02   0.03     0.01  -0.01  -0.01
  26   1    -0.03  -0.04  -0.03     0.05   0.07   0.05    -0.01  -0.01  -0.01
  27   1     0.00  -0.00   0.02     0.00   0.00  -0.03     0.00  -0.00   0.00
  28   1    -0.00  -0.01   0.00    -0.00   0.02  -0.01    -0.00  -0.00  -0.00
  29   1     0.01   0.01   0.00    -0.02  -0.01  -0.00     0.00   0.00  -0.00
  30   1    -0.06   0.02   0.02     0.10  -0.03  -0.03    -0.00   0.00   0.00
  31   1     0.01   0.03   0.03    -0.02  -0.06  -0.05     0.02   0.01   0.01
                     73                     74                     75
                        a                      a                      a 
 Frequencies --  2992.5508              3007.2247              3020.8827
 Red. masses --     1.8040                 1.8576                 1.6749
 Frc consts  --     0.0000                 0.0000                 0.0000
 IR Inten    --    25.5709                15.7515                21.0066
 Raman Activ --     0.0000                 0.0000                 0.0000
 Depolar     --     0.0000                 0.0000                 0.0000
 Atom AN      X      Y      Z        X      Y      Z        X      Y      Z
   1   6     0.00   0.00   0.00    -0.09   0.23  -0.12    -0.15  -0.01   0.19
   2   6    -0.00  -0.00   0.00    -0.00   0.01  -0.00    -0.01   0.00   0.01
   3   7     0.00   0.00  -0.00     0.00  -0.00  -0.00     0.00  -0.00  -0.00
   4   6    -0.00  -0.00   0.00     0.00   0.00  -0.00     0.00   0.00   0.00
   5   6    -0.00   0.00  -0.00     0.00  -0.00   0.00    -0.00   0.00  -0.00
   6   6     0.00   0.00  -0.00    -0.00  -0.00   0.00    -0.00  -0.00   0.00
   7   6     0.00   0.00  -0.00    -0.00  -0.00   0.00    -0.00  -0.00   0.00
   8   6     0.00  -0.00   0.00     0.00   0.00  -0.00    -0.00   0.00  -0.00
   9   6     0.00  -0.00   0.00    -0.00  -0.00   0.00     0.00   0.00  -0.00
  10   6    -0.00  -0.00  -0.00    -0.00  -0.00   0.00    -0.00   0.00  -0.00
  11   6     0.00  -0.00  -0.00    -0.00  -0.00  -0.00    -0.00  -0.01  -0.00
  12   6    -0.00  -0.00  -0.00    -0.00   0.00   0.00    -0.00   0.00   0.00
  13   6     0.01  -0.00   0.01    -0.00  -0.00  -0.00    -0.00  -0.00  -0.00
  14   6     0.07  -0.14   0.22     0.00   0.00  -0.00     0.00   0.00  -0.00
  15   6    -0.00  -0.00  -0.00    -0.00  -0.00  -0.00    -0.00  -0.00  -0.00
  16   6    -0.00   0.00   0.00     0.00  -0.00  -0.00     0.00  -0.00  -0.00
  17   1     0.00   0.00  -0.00    -0.12  -0.04   0.21     0.36   0.26  -0.82
  18   1    -0.00  -0.00  -0.00     0.07   0.04  -0.01     0.10   0.00   0.04
  19   1     0.00  -0.00   0.00     0.34  -0.83   0.24     0.07  -0.22   0.09
  20   1     0.00  -0.00   0.00    -0.01   0.01  -0.00     0.01  -0.01   0.00
  21   1    -0.00  -0.00   0.00     0.00   0.00  -0.00     0.00   0.00  -0.00
  22   1    -0.00  -0.00   0.00     0.00  -0.00   0.00     0.00   0.00  -0.00
  23   1    -0.00   0.00  -0.00     0.00  -0.00   0.00     0.00  -0.00   0.00
  24   1     0.00   0.00  -0.00     0.00   0.00  -0.00    -0.00  -0.00   0.00
  25   1    -0.00   0.00   0.00     0.00   0.01   0.01     0.01   0.02   0.01
  26   1     0.00  -0.00  -0.00     0.00  -0.00  -0.00     0.00  -0.00  -0.00
  27   1     0.02   0.12   0.05    -0.00  -0.00  -0.00    -0.00  -0.00  -0.00
  28   1     0.06  -0.05  -0.04    -0.00   0.00   0.00    -0.00   0.00   0.00
  29   1    -0.32   0.42  -0.79     0.00  -0.00   0.00     0.00  -0.00   0.00
  30   1     0.00   0.00   0.00    -0.00   0.00   0.00     0.00   0.00   0.00
  31   1     0.00  -0.00  -0.00    -0.00   0.00   0.00    -0.00   0.00   0.00
                     76                     77                     78
                        a                      a                      a 
 Frequencies --  3031.8547              3032.2742              3036.9292
 Red. masses --     1.7052                 1.6210                 1.6191
 Frc consts  --     0.0000                 0.0000                 0.0000
 IR Inten    --    31.7918                14.8063                25.8620
 Raman Activ --     0.0000                 0.0000                 0.0000
 Depolar     --     0.0000                 0.0000                 0.0000
 Atom AN      X      Y      Z        X      Y      Z        X      Y      Z
   1   6     0.07   0.01   0.01     0.22   0.03   0.03    -0.00  -0.00  -0.00
   2   6     0.00   0.00   0.00     0.01   0.00   0.00    -0.00  -0.00  -0.00
   3   7     0.00  -0.00  -0.00    -0.00  -0.00  -0.00     0.00   0.00   0.00
   4   6    -0.00  -0.00   0.00    -0.00  -0.00   0.00    -0.00  -0.00   0.00
   5   6     0.00  -0.00   0.00     0.00  -0.00   0.00    -0.00   0.00  -0.00
   6   6     0.00   0.00  -0.00     0.00   0.00  -0.00     0.00   0.00  -0.00
   7   6     0.00   0.00  -0.00     0.00   0.00  -0.00     0.00   0.00  -0.00
   8   6     0.00  -0.00   0.00     0.00  -0.00   0.00     0.00  -0.00   0.00
   9   6     0.00   0.00  -0.00     0.00   0.00  -0.00    -0.00  -0.00   0.00
  10   6    -0.00  -0.00  -0.00    -0.00  -0.00   0.00    -0.00  -0.00   0.00
  11   6    -0.00   0.00   0.00     0.00   0.00   0.00     0.00  -0.00  -0.00
  12   6     0.01  -0.00  -0.00    -0.00   0.00   0.00    -0.01   0.01   0.01
  13   6     0.00   0.01   0.00    -0.00  -0.00  -0.00     0.01  -0.00  -0.00
  14   6     0.01   0.23   0.07    -0.00  -0.07  -0.03     0.15  -0.06  -0.17
  15   6    -0.00  -0.01  -0.01     0.00   0.00   0.00     0.00   0.00   0.00
  16   6    -0.00   0.00   0.00    -0.00   0.00   0.00     0.00  -0.00  -0.00
  17   1     0.02   0.01  -0.02     0.07   0.03  -0.08    -0.00  -0.00   0.01
  18   1    -0.27  -0.02  -0.02    -0.91  -0.06  -0.08     0.02   0.00   0.00
  19   1     0.02  -0.03   0.01     0.07  -0.09   0.03    -0.00   0.00  -0.00
  20   1    -0.00   0.00  -0.00    -0.02   0.02  -0.01     0.00  -0.00   0.00
  21   1    -0.00  -0.00   0.00    -0.00  -0.01   0.00    -0.00  -0.00   0.00
  22   1    -0.00  -0.00   0.00    -0.00  -0.00   0.00    -0.00  -0.00   0.00
  23   1    -0.00   0.00  -0.00    -0.00   0.00  -0.00    -0.00   0.00  -0.00
  24   1    -0.00  -0.00   0.00    -0.00  -0.00   0.00     0.00   0.00  -0.00
  25   1    -0.00  -0.00  -0.00    -0.00  -0.00  -0.00     0.00   0.00   0.00
  26   1    -0.02   0.01   0.01     0.00  -0.00  -0.00     0.04  -0.03  -0.03
  27   1    -0.06  -0.90  -0.10     0.02   0.27   0.03     0.01  -0.10  -0.04
  28   1     0.05   0.00  -0.07    -0.03   0.01   0.04    -0.54   0.27   0.74
  29   1    -0.04   0.09  -0.09     0.01  -0.03   0.03    -0.02   0.04  -0.11
  30   1     0.01   0.04   0.03    -0.00  -0.02  -0.01    -0.00  -0.01  -0.01
  31   1     0.00  -0.00  -0.00     0.00  -0.00  -0.00    -0.00   0.00   0.00
                     79                     80                     81
                        a                      a                      a 
 Frequencies --  3060.0258              3063.5015              3067.3486
 Red. masses --     1.7564                 1.7724                 1.8040
 Frc consts  --     0.0000                 0.0000                 0.0000
 IR Inten    --    17.3455                14.8144                51.3742
 Raman Activ --     0.0000                 0.0000                 0.0000
 Depolar     --     0.0000                 0.0000                 0.0000
 Atom AN      X      Y      Z        X      Y      Z        X      Y      Z
   1   6    -0.00  -0.00   0.00     0.00   0.00  -0.00    -0.00   0.00   0.00
   2   6    -0.00  -0.00   0.00    -0.00   0.00   0.00    -0.00  -0.00  -0.00
   3   7     0.00   0.00  -0.00     0.00  -0.00   0.00     0.00   0.00  -0.00
   4   6     0.01  -0.00   0.00    -0.00   0.00  -0.00    -0.00  -0.00   0.00
   5   6     0.09  -0.10   0.03    -0.03   0.04  -0.01    -0.00   0.00  -0.00
   6   6     0.07   0.18  -0.08    -0.01  -0.02   0.01     0.00   0.00  -0.00
   7   6    -0.07  -0.01   0.01    -0.08  -0.01   0.01     0.00   0.00  -0.00
   8   6     0.01  -0.02   0.01     0.14  -0.17   0.06    -0.00   0.00  -0.00
   9   6    -0.00  -0.00   0.00     0.03   0.07  -0.03    -0.00  -0.00   0.00
  10   6     0.00   0.00   0.00     0.00   0.00  -0.00     0.00   0.00   0.00
  11   6     0.00   0.00   0.00    -0.00   0.00   0.00     0.01   0.04   0.03
  12   6     0.00  -0.00  -0.00     0.00  -0.00  -0.00     0.18  -0.12  -0.12
  13   6     0.00   0.00   0.00     0.00   0.00  -0.00     0.01  -0.00  -0.00
  14   6    -0.00  -0.00   0.00    -0.00  -0.00  -0.00     0.01  -0.01  -0.01
  15   6     0.00   0.00   0.00     0.00   0.00   0.00    -0.02  -0.06  -0.04
  16   6     0.00  -0.00  -0.00     0.00  -0.00  -0.00    -0.01   0.00   0.00
  17   1     0.00   0.00  -0.01    -0.00  -0.00   0.00     0.00   0.00  -0.01
  18   1     0.02   0.00   0.00    -0.00   0.00  -0.00     0.00   0.00   0.00
  19   1    -0.00   0.01  -0.00     0.00  -0.00   0.00     0.00  -0.01   0.00
  20   1    -0.33   0.37  -0.13     0.11  -0.13   0.05     0.00  -0.01   0.00
  21   1    -0.27  -0.66   0.29     0.03   0.07  -0.03    -0.00  -0.00   0.00
  22   1     0.26   0.03  -0.03     0.32   0.04  -0.04    -0.01  -0.00   0.00
  23   1    -0.05   0.06  -0.02    -0.52   0.61  -0.21     0.00  -0.00   0.00
  24   1     0.00   0.00  -0.00    -0.11  -0.26   0.11     0.00   0.00  -0.00
  25   1    -0.00  -0.00  -0.00    -0.00  -0.00  -0.00    -0.04  -0.16  -0.13
  26   1    -0.00   0.00   0.00    -0.01   0.00   0.00    -0.66   0.44   0.43
  27   1    -0.00   0.00   0.00     0.00   0.00   0.00     0.00   0.03   0.00
  28   1     0.00  -0.00  -0.00     0.00  -0.00  -0.00    -0.04   0.02   0.05
  29   1     0.00  -0.00   0.00     0.00  -0.00   0.00    -0.00  -0.00  -0.01
  30   1    -0.00  -0.00  -0.00    -0.00  -0.00  -0.00     0.06   0.20   0.16
  31   1    -0.00   0.00   0.00    -0.00   0.00   0.00     0.03  -0.02  -0.02
                     82                     83                     84
                        a                      a                      a 
 Frequencies --  3070.8681              3071.5356              3078.9715
 Red. masses --     1.8083                 1.8495                 1.8546
 Frc consts  --     0.0000                 0.0000                 0.0000
 IR Inten    --    43.6373                97.6966               125.0486
 Raman Activ --     0.0000                 0.0000                 0.0000
 Depolar     --     0.0000                 0.0000                 0.0000
 Atom AN      X      Y      Z        X      Y      Z        X      Y      Z
   1   6    -0.00   0.00   0.00    -0.00  -0.00   0.00    -0.00   0.00  -0.00
   2   6    -0.00   0.00   0.00    -0.00  -0.00  -0.00    -0.00   0.00   0.00
   3   7     0.00   0.00   0.00    -0.00   0.00   0.00    -0.00  -0.00   0.00
   4   6    -0.00  -0.00   0.00     0.01   0.00  -0.00     0.00   0.00  -0.00
   5   6    -0.01   0.01  -0.00     0.14  -0.16   0.06    -0.04   0.04  -0.01
   6   6     0.00   0.00  -0.00    -0.04  -0.10   0.04     0.03   0.08  -0.04
   7   6     0.00   0.00  -0.00     0.10   0.01  -0.01     0.15   0.02  -0.02
   8   6    -0.00   0.00  -0.00     0.04  -0.05   0.02    -0.01   0.02  -0.01
   9   6    -0.00  -0.00   0.00     0.01   0.03  -0.01     0.07   0.18  -0.08
  10   6     0.00  -0.00  -0.00     0.00   0.00  -0.00     0.00  -0.00   0.00
  11   6     0.00   0.01   0.01     0.00   0.00   0.00    -0.00  -0.00  -0.00
  12   6     0.05  -0.04  -0.04     0.00  -0.00  -0.00    -0.00   0.00   0.00
  13   6     0.01   0.01   0.00     0.00   0.00   0.00    -0.00  -0.00  -0.00
  14   6     0.00   0.01   0.00     0.00   0.00   0.00    -0.00   0.00   0.00
  15   6     0.05   0.20   0.16     0.00   0.01   0.00    -0.00  -0.00  -0.00
  16   6     0.03  -0.02  -0.02     0.00  -0.00  -0.00    -0.00   0.00   0.00
  17   1     0.00   0.00  -0.00     0.00   0.00  -0.01    -0.00  -0.00   0.00
  18   1     0.01   0.00   0.00     0.02   0.00   0.00     0.00   0.00  -0.00
  19   1     0.00  -0.00   0.00    -0.01   0.01  -0.00     0.00  -0.00   0.00
  20   1     0.02  -0.02   0.01    -0.47   0.55  -0.19     0.12  -0.13   0.05
  21   1    -0.00  -0.01   0.01     0.14   0.34  -0.15    -0.11  -0.27   0.12
  22   1    -0.00  -0.00   0.00    -0.37  -0.05   0.05    -0.51  -0.06   0.06
  23   1     0.01  -0.01   0.00    -0.14   0.17  -0.06     0.04  -0.05   0.02
  24   1     0.00   0.01  -0.00    -0.04  -0.10   0.04    -0.26  -0.62   0.27
  25   1    -0.01  -0.06  -0.04    -0.00  -0.01  -0.00     0.00   0.00   0.00
  26   1    -0.19   0.13   0.12    -0.01   0.01   0.01     0.00  -0.00  -0.00
  27   1    -0.00  -0.04  -0.00    -0.00  -0.00  -0.00     0.00   0.00   0.00
  28   1     0.00  -0.00  -0.00    -0.00   0.00   0.00     0.00  -0.00  -0.00
  29   1    -0.01   0.01  -0.01    -0.00   0.00  -0.00     0.00  -0.00   0.00
  30   1    -0.19  -0.69  -0.55    -0.01  -0.02  -0.02     0.00   0.00   0.00
  31   1    -0.12   0.08   0.08    -0.01   0.01   0.01     0.00  -0.00  -0.00
                     85                     86                     87
                        a                      a                      a 
 Frequencies --  3086.0966              3094.4528              3100.8198
 Red. masses --     1.9101                 1.8462                 1.8485
 Frc consts  --     0.0000                 0.0000                 0.0000
 IR Inten    --    72.7048                46.8184                15.3379
 Raman Activ --     0.0000                 0.0000                 0.0000
 Depolar     --     0.0000                 0.0000                 0.0000
 Atom AN      X      Y      Z        X      Y      Z        X      Y      Z
   1   6    -0.00   0.00  -0.00    -0.00   0.00   0.00    -0.00   0.00  -0.00
   2   6     0.00  -0.00  -0.00     0.00   0.00   0.00    -0.00   0.00   0.00
   3   7    -0.00   0.00   0.00    -0.00  -0.00  -0.00     0.00  -0.00  -0.00
   4   6     0.01   0.00  -0.00     0.00   0.00  -0.00     0.00   0.00  -0.00
   5   6     0.04  -0.04   0.01    -0.00   0.00  -0.00     0.00  -0.00   0.00
   6   6    -0.03  -0.07   0.03     0.00   0.00  -0.00    -0.00  -0.00   0.00
   7   6    -0.17  -0.02   0.02     0.00   0.00  -0.00    -0.00  -0.00   0.00
   8   6    -0.08   0.09  -0.03     0.00  -0.00   0.00    -0.00   0.00  -0.00
   9   6     0.06   0.14  -0.06    -0.00  -0.00   0.00     0.00   0.00  -0.00
  10   6     0.00   0.00   0.00     0.01   0.00   0.00    -0.01  -0.00  -0.00
  11   6     0.00   0.01   0.00     0.05   0.20   0.16    -0.00  -0.02  -0.01
  12   6     0.00  -0.00  -0.00    -0.05   0.04   0.03     0.00  -0.00  -0.00
  13   6     0.00   0.00   0.00    -0.00  -0.00  -0.00     0.00  -0.00  -0.00
  14   6     0.00   0.00  -0.00    -0.00   0.00   0.00    -0.00   0.00   0.00
  15   6     0.00   0.00   0.00     0.00   0.00   0.00     0.01   0.04   0.03
  16   6     0.00  -0.00  -0.00    -0.02   0.01   0.01    -0.20   0.13   0.13
  17   1    -0.00  -0.00   0.00     0.01   0.00  -0.02    -0.00   0.00  -0.00
  18   1     0.00   0.00  -0.00     0.01   0.00   0.00     0.00   0.00   0.00
  19   1    -0.00   0.00  -0.00     0.01  -0.01   0.00    -0.00  -0.00   0.00
  20   1    -0.12   0.14  -0.05     0.00  -0.00   0.00    -0.00   0.01  -0.00
  21   1     0.10   0.24  -0.10    -0.00  -0.01   0.00     0.00   0.00  -0.00
  22   1     0.57   0.07  -0.07    -0.01  -0.00   0.00     0.01   0.00  -0.00
  23   1     0.26  -0.30   0.10    -0.01   0.01  -0.00     0.00  -0.00   0.00
  24   1    -0.20  -0.47   0.20     0.00   0.01  -0.00    -0.00  -0.00   0.00
  25   1    -0.00  -0.02  -0.01    -0.18  -0.72  -0.57     0.01   0.06   0.05
  26   1    -0.00   0.00   0.00     0.16  -0.11  -0.10    -0.01   0.01   0.01
  27   1    -0.00  -0.00  -0.00     0.00  -0.00   0.00    -0.00  -0.00  -0.00
  28   1    -0.00   0.00   0.00     0.01  -0.00  -0.01     0.00  -0.00  -0.00
  29   1    -0.00   0.00  -0.00     0.00  -0.00   0.00    -0.00   0.00  -0.00
  30   1    -0.00  -0.01  -0.01    -0.00  -0.00  -0.00    -0.03  -0.13  -0.10
  31   1    -0.01   0.00   0.00     0.06  -0.04  -0.04     0.70  -0.46  -0.44
