31
 xtb: 6.7.1 (edcfbbe)
C           -0.55624203038223       -1.37822243686528       -1.63180292754090
C           -0.20350733577924       -0.36773602960520       -0.57133955855045
N           -1.05816897116131        0.20846887555864        0.16787028186929
C           -2.40960713601635       -0.02389258316702        0.23345462631908
C           -2.91873215935983       -1.21929783507256        0.75055812206140
C           -4.27903457687634       -1.37829037812272        0.92931596488367
C           -5.15626787944705       -0.36204301112454        0.58738195647832
C           -4.65861463181093        0.82626809586384        0.07479325748655
C           -3.30002756297279        1.00348223732294       -0.09183475897124
C            1.20734625791716        0.00393328779064       -0.39586939687499
C            2.24291752054473       -0.66030532113231       -1.05040529101440
C            3.55919915714377       -0.28076902213159       -0.85479908416940
C            3.88586156850813        0.76879363940568       -0.00792896601302
C            5.30568825886624        1.18858591349910        0.21905811458148
C            2.85068021166923        1.43185187978729        0.65019646342160
C            1.53885336577638        1.05755247343380        0.46253164928735
H           -0.12515116485284       -1.09979837286521       -2.58359234498182
H           -1.63461711730976       -1.46384320946205       -1.72708960927715
H           -0.15917195389571       -2.36391510064004       -1.34761144157445
H           -2.22958591349662       -2.00433424691271        1.02711112998596
H           -4.65618517333564       -2.30426043374701        1.33941130789025
H           -6.21984270256337       -0.49376984079268        0.72409731639001
H           -5.33926571457514        1.62173805085619       -0.19816948368277
H           -2.90979771067572        1.92621338058232       -0.49802728747800
H            2.03908738917030       -1.49079330072367       -1.70577645801329
H            4.34770570523051       -0.81380727915744       -1.36290149036915
H            5.40427933998881        2.27387305040819        0.20376889431786
H            5.96393259733973        0.74808409300509       -0.54804329941587
H            5.64444503978791        0.82319695000411        1.20599194591326
H            3.08040599460389        2.26374601151959        1.30566028596840
H            0.73622996022630        1.58231053096346        0.96140783731577
