      -----------------------------------------------------------      
     |                   =====================                   |     
     |                           x T B                           |     
     |                   =====================                   |     
     |                         S. Grimme                         |     
     |          Mulliken Center for Theoretical Chemistry        |     
     |                    University of Bonn                     |     
      -----------------------------------------------------------      

   * xtb version 6.7.1 (edcfbbe) compiled by 'VssAdministrator@runnervm171ch' on 2026-06-10

   xtb is free software: you can redistribute it and/or modify it under
   the terms of the GNU Lesser General Public License as published by
   the Free Software Foundation, either version 3 of the License, or
   (at your option) any later version.
   
   xtb is distributed in the hope that it will be useful,
   but WITHOUT ANY WARRANTY; without even the implied warranty of
   MERCHANTABILITY or FITNESS FOR A PARTICULAR PURPOSE.  See the
   GNU Lesser General Public License for more details.
   
   Cite this work as:
   * C. Bannwarth, E. Caldeweyher, S. Ehlert, A. Hansen, P. Pracht,
     J. Seibert, S. Spicher, S. Grimme, WIREs Comput. Mol. Sci., 2020, 11,
     e01493. DOI: 10.1002/wcms.1493
   
   for GFN2-xTB:
   * C. Bannwarth, S. Ehlert and S. Grimme., J. Chem. Theory Comput., 2019,
     15, 1652-1671. DOI: 10.1021/acs.jctc.8b01176
   for GFN1-xTB:
   * S. Grimme, C. Bannwarth, P. Shushkov, J. Chem. Theory Comput., 2017,
     13, 1989-2009. DOI: 10.1021/acs.jctc.7b00118
   for GFN0-xTB:
   * P. Pracht, E. Caldeweyher, S. Ehlert, S. Grimme, ChemRxiv, 2019, preprint.
     DOI: 10.26434/chemrxiv.8326202.v1
   for GFN-FF:
   * S. Spicher and S. Grimme, Angew. Chem. Int. Ed., 2020, 59, 15665-15673.
     DOI: 10.1002/anie.202004239
   
   for ALPB and GBSA implicit solvation:
   * S. Ehlert, M. Stahn, S. Spicher, S. Grimme, J. Chem. Theory Comput.,
     2021, 17, 4250-4261. DOI: 10.1021/acs.jctc.1c00471
   
   for ddCOSMO and CPCM-X implicit solvation:
   * M. Stahn, S. Ehlert, S. Grimme, J. Phys. Chem. A,
     2023, XX, XXXX-XXXX. DOI: 10.1021/acs.jpca.3c04382
   
   for DFT-D4:
   * E. Caldeweyher, C. Bannwarth and S. Grimme, J. Chem. Phys., 2017,
     147, 034112. DOI: 10.1063/1.4993215
   * E. Caldeweyher, S. Ehlert, A. Hansen, H. Neugebauer, S. Spicher,
     C. Bannwarth and S. Grimme, J. Chem. Phys., 2019, 150, 154122.
     DOI: 10.1063/1.5090222
   * E. Caldeweyher, J.-M. Mewes, S. Ehlert and S. Grimme, Phys. Chem. Chem. Phys.
     2020, 22, 8499-8512. DOI: 10.1039/D0CP00502A
   
   for sTDA-xTB:
   * S. Grimme and C. Bannwarth, J. Chem. Phys., 2016, 145, 054103.
     DOI: 10.1063/1.4959605
   
   in the mass-spec context:
   * V. Asgeirsson, C. Bauer and S. Grimme, Chem. Sci., 2017, 8, 4879.
     DOI: 10.1039/c7sc00601b
   * J. Koopman and S. Grimme, ACS Omega 2019, 4, 12, 15120-15133.
     DOI: 10.1021/acsomega.9b02011
   
   for metadynamics refer to:
   * S. Grimme, J. Chem. Theory Comput., 2019, 155, 2847-2862
     DOI: 10.1021/acs.jctc.9b00143
   
   for SPH calculations refer to:
   * S. Spicher and S. Grimme, J. Chem. Theory Comput., 2021, 17, 1701-1714
     DOI: 10.1021/acs.jctc.0c01306
   
   for ONIOM refer to:
   * C. Plett, A. Katbashev, S. Ehlert, S. Grimme, M. Bursch,
     Phys. Chem. Chem. Phys., 2023, 25, 17860-17868. DOI: 10.1039/D3CP02178E
   
   for DIPRO refer to:
   * J. Kohn, N. Gildemeister, S. Grimme, D. Fazzi, A. Hansen,
     J. Chem. Phys., 2023, just accepted.
   
   for PTB refer to:
   * S. Grimme, M. Mueller, A. Hansen, J. Chem. Phys., 2023, 158, 124111.
     DOI: 10.1063/5.0137838
   
   with help from (in alphabetical order)
   P. Atkinson, C. Bannwarth, F. Bohle, G. Brandenburg, E. Caldeweyher
   M. Checinski, S. Dohm, S. Ehlert, S. Ehrlich, I. Gerasimov, C. Hölzer
   A. Katbashev, J. Kohn, J. Koopman, C. Lavigne, S. Lehtola, F. März, M. Müller,
   F. Musil, H. Neugebauer, J. Pisarek, C. Plett, P. Pracht, F. Pultar,
   J. Seibert, P. Shushkov, S. Spicher, M. Stahn, M. Steiner, T. Strunk,
   J. Stückrath, T. Rose, and J. Unsleber
   
 * started run on 2026/09/10 at 22:57:43.781     
   ID    Z sym.   atoms
    1    6 C      1, 2, 4-19
    2    7 N      3
    3    1 H      20-34

           -------------------------------------------------
          |                Calculation Setup                |
           -------------------------------------------------

          program call               : C:\Users\HUIWEI\miniconda3\envs\phase2ff\Library\bin\xtb.exe xtbopt.xyz --gfn 2 --chrg 0 --uhf 0 --alpb toluene --acc 0.2 --hess --strict
          coordinate file            : xtbopt.xyz
          omp threads                :                     1


           -------------------------------------------------
          |                 G F N 2 - x T B                 |
           -------------------------------------------------

        Reference                      10.1021/acs.jctc.8b01176
      * Hamiltonian:
        H0-scaling (s, p, d)           1.850000    2.230000    2.230000
        zeta-weighting                 0.500000
      * Dispersion:
        s8                             2.700000
        a1                             0.520000
        a2                             5.000000
        s9                             5.000000
      * Repulsion:
        kExp                           1.500000    1.000000
        rExp                           1.000000
      * Coulomb:
        alpha                          2.000000
        third order                    shell-resolved
        anisotropic                    true
        a3                             3.000000
        a5                             4.000000
        cn-shift                       1.200000
        cn-exp                         4.000000
        max-rad                        5.000000

      * Solvation model:               ALPB
        Solvent                        toluene
        Parameter file                 internal GFN2-xTB/ALPB
        Dielectric constant                7.0000E+00
        Reference state                gsolv [1 M gas/solution]
        Free energy shift                  2.2081E-03 Eh       1.3856E+00 kcal/mol
        Temperature                        2.9815E+02 K
        Density                            8.6700E-01 kg/L
        Solvent mass                       7.8110E+01 g/mol
        Interaction kernel             P16
        Born radius scaling (c1)           1.7172E+00
        Born radii integrator          GBOBC
        Born offset                        0.0000E+00 a0       0.0000E+00 AA
        H-bond correction              false
        Ion screening                  false
        Surface tension                    1.0000E-05 Eh       1.5569E+01 dyn/cm
        Grid points                               230 per atom
q/qsh data taken from xtbrestart
CAMM data taken from xtbrestart

          ...................................................
          :                      SETUP                      :
          :.................................................:
          :  # basis functions                  91          :
          :  # atomic orbitals                  91          :
          :  # shells                           53          :
          :  # electrons                        92          :
          :  max. iterations                   250          :
          :  Hamiltonian                  GFN2-xTB          :
          :  restarted?                       true          :
          :  GBSA solvation                   true          :
          :  PC potential                    false          :
          :  electronic temp.          300.0000000     K    :
          :  accuracy                    0.2000000          :
          :  -> integral cutoff          0.3198970E+02      :
          :  -> integral neglect         0.2000000E-08      :
          :  -> SCF convergence          0.2000000E-06 Eh   :
          :  -> wf. convergence          0.2000000E-04 e    :
          :  Broyden damping             0.4000000          :
          :  net charge                          0          :
          :  unpaired electrons                  0          :
          ...................................................

 iter      E             dE          RMSdq      gap      omega  full diag
   1    -50.0412859 -0.500413E+02  0.780E-07    2.18       0.0  T
   2    -50.0412859 -0.113687E-12  0.530E-07    2.18   32355.3  T
   3    -50.0412859  0.568434E-13  0.230E-07    2.18   74664.0  T

   *** convergence criteria satisfied after 3 iterations ***

         #    Occupation            Energy/Eh            Energy/eV
      -------------------------------------------------------------
         1        2.0000           -0.6533770             -17.7793
       ...           ...                  ...                  ...
        40        2.0000           -0.4155306             -11.3072
        41        2.0000           -0.4135870             -11.2543
        42        2.0000           -0.4077762             -11.0962
        43        2.0000           -0.3965952             -10.7919
        44        2.0000           -0.3942068             -10.7269
        45        2.0000           -0.3802901             -10.3482
        46        2.0000           -0.3547497              -9.6532 (HOMO)
        47                         -0.2746121              -7.4726 (LUMO)
        48                         -0.2486202              -6.7653
        49                         -0.2147206              -5.8428
        50                         -0.2137661              -5.8169
        51                         -0.1989074              -5.4125
       ...                                ...                  ...
        91                          0.7125156              19.3885
      -------------------------------------------------------------
                  HL-Gap            0.0801376 Eh            2.1807 eV
             Fermi-level           -0.3146809 Eh           -8.5629 eV

 SCC (total)                   0 d,  0 h,  0 min,  0.028 sec
 SCC setup                      ...        0 min,  0.001 sec (  3.429%)
 Dispersion                     ...        0 min,  0.000 sec (  1.220%)
 classical contributions        ...        0 min,  0.000 sec (  0.276%)
 integral evaluation            ...        0 min,  0.005 sec ( 16.551%)
 iterations                     ...        0 min,  0.007 sec ( 25.704%)
 molecular gradient             ...        0 min,  0.015 sec ( 51.675%)
 printout                       ...        0 min,  0.000 sec (  1.088%)

         :::::::::::::::::::::::::::::::::::::::::::::::::::::
         ::                     SUMMARY                     ::
         :::::::::::::::::::::::::::::::::::::::::::::::::::::
         :: total energy             -49.112958821033 Eh    ::
         :: total w/o Gsasa/hb       -49.091939381503 Eh    ::
         :: gradient norm              0.000053552385 Eh/a0 ::
         :: HOMO-LUMO gap              2.180655276326 eV    ::
         ::.................................................::
         :: SCC energy               -50.041541912050 Eh    ::
         :: -> isotropic ES            0.010280491294 Eh    ::
         :: -> anisotropic ES          0.005943197565 Eh    ::
         :: -> anisotropic XC          0.035015297294 Eh    ::
         :: -> dispersion             -0.036279202102 Eh    ::
         :: -> Gsolv                  -0.021291965812 Eh    ::
         ::    -> Gelec               -0.000272526282 Eh    ::
         ::    -> Gsasa               -0.023227582669 Eh    ::
         ::    -> Ghb                  0.000000000000 Eh    ::
         ::    -> Gshift               0.002208143139 Eh    ::
         :: repulsion energy           0.928583091016 Eh    ::
         :: add. restraining           0.000000000000 Eh    ::
         :: total charge               0.000000000000 e     ::
         :::::::::::::::::::::::::::::::::::::::::::::::::::::

           ------------------------------------------------- 
          |                Numerical Hessian                |
           ------------------------------------------------- 
step length          :   0.00500
SCC accuracy         :   0.30000
Hessian scale factor :   1.00000
frozen atoms in %    :   0.00000    0
RMS gradient         :   0.00005
estimated CPU  time      0.01 min
estimated wall time      0.11 min

writing file <hessian>.

 projected vibrational frequencies (cm⁻¹)
eigval :       -0.00    -0.00    -0.00    -0.00     0.00     0.00
eigval :       17.45    36.65    47.35    65.30    95.52   148.49
eigval :      162.69   201.01   211.62   223.18   256.46   330.22
eigval :      350.32   369.85   394.42   436.77   445.97   471.60
eigval :      486.64   499.78   505.84   539.82   581.00   589.46
eigval :      605.21   626.50   655.95   700.87   723.69   755.78
eigval :      761.80   801.74   813.86   838.95   865.97   867.11
eigval :      869.35   879.24   880.43   915.83   920.15   923.55
eigval :      926.72   929.58   931.37   975.77   992.24  1007.04
eigval :     1078.08  1079.73  1095.53  1115.40  1139.75  1166.12
eigval :     1179.16  1179.67  1188.87  1207.12  1224.07  1251.34
eigval :     1264.94  1277.83  1286.46  1316.07  1327.71  1372.85
eigval :     1377.20  1401.06  1425.37  1432.87  1448.54  1467.00
eigval :     1475.48  1477.72  1499.39  1562.03  1567.20  1592.43
eigval :     1600.32  1607.06  1697.20  3006.41  3022.30  3033.13
eigval :     3060.73  3064.33  3064.80  3066.22  3069.74  3072.55
eigval :     3076.17  3079.81  3084.41  3086.68  3087.21  3103.54
           -------------------------------------------------
          |                Property Printout                |
           -------------------------------------------------

    * Orbital Energies and Occupations

         #    Occupation            Energy/Eh            Energy/eV
      -------------------------------------------------------------
         1        2.0000           -0.6533770             -17.7793
       ...           ...                  ...                  ...
        34        2.0000           -0.4566764             -12.4268
        35        2.0000           -0.4434294             -12.0663
        36        2.0000           -0.4390825             -11.9480
        37        2.0000           -0.4290592             -11.6753
        38        2.0000           -0.4278918             -11.6435
        39        2.0000           -0.4227698             -11.5042
        40        2.0000           -0.4155306             -11.3072
        41        2.0000           -0.4135870             -11.2543
        42        2.0000           -0.4077762             -11.0962
        43        2.0000           -0.3965952             -10.7919
        44        2.0000           -0.3942068             -10.7269
        45        2.0000           -0.3802901             -10.3482
        46        2.0000           -0.3547497              -9.6532 (HOMO)
        47                         -0.2746121              -7.4726 (LUMO)
        48                         -0.2486202              -6.7653
        49                         -0.2147206              -5.8428
        50                         -0.2137661              -5.8169
        51                         -0.1989074              -5.4125
        52                         -0.1845393              -5.0216
        53                         -0.1311033              -3.5675
        54                         -0.0809653              -2.2032
        55                         -0.0544637              -1.4820
        56                          0.0748365               2.0364
        57                          0.1034039               2.8138
       ...                                ...                  ...
        91                          0.7125156              19.3885
      -------------------------------------------------------------
                  HL-Gap            0.0801376 Eh            2.1807 eV
             Fermi-level           -0.3146809 Eh           -8.5629 eV

     #   Z          covCN         q      C6AA      α(0)
     1   6 C        3.755    -0.116    22.780     6.806
     2   6 C        2.898     0.112    25.539     8.286
     3   7 N        1.849    -0.215    26.519     7.632
     4   6 C        2.923     0.084    26.122     8.382
     5   6 C        2.924    -0.048    29.194     8.861
     6   6 C        2.919    -0.031    28.780     8.797
     7   6 C        2.919    -0.042    29.044     8.838
     8   6 C        2.918    -0.032    28.793     8.799
     9   6 C        2.922    -0.051    29.263     8.871
    10   6 C        2.978     0.003    27.962     8.674
    11   6 C        2.920    -0.029    28.733     8.790
    12   6 C        2.915    -0.034    28.857     8.809
    13   6 C        2.987     0.015    27.663     8.628
    14   6 C        2.917    -0.034    28.858     8.809
    15   6 C        2.916    -0.029    28.713     8.787
    16   6 C        2.915    -0.030    28.743     8.792
    17   6 C        2.918    -0.035    28.864     8.810
    18   6 C        2.985     0.013    27.725     8.637
    19   6 C        2.922    -0.038    28.944     8.823
    20   1 H        0.925     0.052     2.297     2.370
    21   1 H        0.925     0.055     2.263     2.353
    22   1 H        0.925     0.045     2.388     2.417
    23   1 H        0.926     0.029     2.595     2.519
    24   1 H        0.926     0.026     2.650     2.546
    25   1 H        0.926     0.023     2.692     2.566
    26   1 H        0.925     0.024     2.668     2.554
    27   1 H        0.925     0.023     2.690     2.565
    28   1 H        0.926     0.054     2.269     2.355
    29   1 H        0.926     0.036     2.500     2.473
    30   1 H        0.926     0.034     2.534     2.489
    31   1 H        0.926     0.033     2.550     2.497
    32   1 H        0.926     0.032     2.554     2.499
    33   1 H        0.925     0.033     2.547     2.496
    34   1 H        0.926     0.040     2.447     2.446

 Mol. C6AA /au·bohr⁶  :      15399.430448
 Mol. C8AA /au·bohr⁸  :     382863.768197
 Mol. α(0) /au        :        199.973866


Wiberg/Mayer (AO) data.
largest (>0.10) Wiberg bond orders for each atom

 ---------------------------------------------------------------------------
     #   Z sym  total        # sym  WBO       # sym  WBO       # sym  WBO
 ---------------------------------------------------------------------------
     1   6 C    3.996 --     2 C    1.006    22 H    0.981    20 H    0.971
                            21 H    0.963
     2   6 C    3.964 --     3 N    1.761    10 C    1.060     1 C    1.006
     3   7 N    3.211 --     2 C    1.761     4 C    1.138
     4   6 C    3.976 --     5 C    1.341     9 C    1.339     3 N    1.138
     5   6 C    3.984 --     6 C    1.464     4 C    1.341    23 H    0.971
                             8 C    0.105
     6   6 C    3.992 --     5 C    1.464     7 C    1.424    24 H    0.971
                             9 C    0.103
     7   6 C    3.989 --     8 C    1.431     6 C    1.424    25 H    0.972
     8   6 C    3.992 --     9 C    1.457     7 C    1.431    26 H    0.970
                             5 C    0.105
     9   6 C    3.983 --     8 C    1.457     4 C    1.339    27 H    0.971
                             6 C    0.103
    10   6 C    3.988 --    19 C    1.488    11 C    1.262     2 C    1.060
    11   6 C    3.989 --    12 C    1.584    10 C    1.262    28 H    0.965
    12   6 C    3.992 --    11 C    1.584    13 C    1.266    29 H    0.967
                            19 C    0.106
    13   6 C    3.988 --    14 C    1.287    12 C    1.266    18 C    1.248
    14   6 C    3.991 --    15 C    1.551    13 C    1.287    30 H    0.968
                            17 C    0.117
    15   6 C    3.983 --    14 C    1.551    16 C    1.322    31 H    0.971
    16   6 C    3.992 --    17 C    1.557    15 C    1.322    32 H    0.971
    17   6 C    3.984 --    16 C    1.557    18 C    1.276    33 H    0.968
                            14 C    0.117
    18   6 C    3.990 --    19 C    1.291    17 C    1.276    13 C    1.248
    19   6 C    3.982 --    10 C    1.488    18 C    1.291    34 H    0.964
                            12 C    0.106
    20   1 H    0.997 --     1 C    0.971
    21   1 H    0.996 --     1 C    0.963
    22   1 H    0.998 --     1 C    0.981
    23   1 H    0.999 --     5 C    0.971
    24   1 H    0.998 --     6 C    0.971
    25   1 H    0.999 --     7 C    0.972
    26   1 H    0.999 --     8 C    0.970
    27   1 H    0.999 --     9 C    0.971
    28   1 H    0.997 --    11 C    0.965
    29   1 H    0.998 --    12 C    0.967
    30   1 H    0.998 --    14 C    0.968
    31   1 H    0.998 --    15 C    0.971
    32   1 H    0.998 --    16 C    0.971
    33   1 H    0.998 --    17 C    0.968
    34   1 H    0.998 --    19 C    0.964
 ---------------------------------------------------------------------------

Topologies differ in total number of bonds
Writing topology from bond orders to xtbtopo.mol

molecular dipole:
                 x           y           z       tot (Debye)
 q only:       -0.846      -0.189       0.396
   full:       -0.748      -0.350       0.648       2.668
molecular quadrupole (traceless):
                xx          xy          yy          xz          yz          zz
 q only:       -1.217      -0.580       0.030       2.385      -2.328       1.187
  q+dip:        3.998      -0.185      -1.149       3.062      -6.150      -2.849
   full:        0.486      -0.855       0.091       3.033      -2.848      -0.577

           -------------------------------------------------
          |               Frequency Printout                |
           -------------------------------------------------
 projected vibrational frequencies (cm⁻¹)
eigval :       -0.00    -0.00    -0.00    -0.00     0.00     0.00
eigval :       17.45    36.65    47.35    65.30    95.52   148.49
eigval :      162.69   201.01   211.62   223.18   256.46   330.22
eigval :      350.32   369.85   394.42   436.77   445.97   471.60
eigval :      486.64   499.78   505.84   539.82   581.00   589.46
eigval :      605.21   626.50   655.95   700.87   723.69   755.78
eigval :      761.80   801.74   813.86   838.95   865.97   867.11
eigval :      869.35   879.24   880.43   915.83   920.15   923.55
eigval :      926.72   929.58   931.37   975.77   992.24  1007.04
eigval :     1078.08  1079.73  1095.53  1115.40  1139.75  1166.12
eigval :     1179.16  1179.67  1188.87  1207.12  1224.07  1251.34
eigval :     1264.94  1277.83  1286.46  1316.07  1327.71  1372.85
eigval :     1377.20  1401.06  1425.37  1432.87  1448.54  1467.00
eigval :     1475.48  1477.72  1499.39  1562.03  1567.20  1592.43
eigval :     1600.32  1607.06  1697.20  3006.41  3022.30  3033.13
eigval :     3060.73  3064.33  3064.80  3066.22  3069.74  3072.55
eigval :     3076.17  3079.81  3084.41  3086.68  3087.21  3103.54
 reduced masses (amu)
   1: 10.84   2: 11.16   3: 11.35   4: 10.96   5: 11.43   6: 10.54   7: 10.08   8: 10.36
   9: 10.69  10: 10.28  11: 10.53  12: 10.49  13:  9.28  14:  2.34  15: 10.73  16: 10.38
  17:  9.58  18: 10.00  19:  9.27  20:  9.07  21: 10.37  22:  9.90  23:  8.72  24: 10.71
  25: 11.20  26: 11.20  27: 10.56  28:  9.83  29: 11.37  30: 11.24  31: 11.29  32:  9.74
  33: 10.28  34:  8.44  35: 11.26  36:  3.76  37:  6.29  38: 10.51  39: 11.03  40:  4.66
  41:  3.32  42:  4.77  43:  9.37  44:  3.96  45:  3.88  46:  3.85  47:  3.96  48:  2.82
  49:  3.67  50:  4.17  51:  9.59  52:  8.82  53:  5.92  54:  8.01  55:  6.92  56:  6.65
  57:  6.94  58:  4.06  59:  5.26  60:  2.22  61:  1.65  62:  1.38  63:  2.24  64:  5.30
  65:  5.50  66:  9.84  67:  4.61  68:  4.22  69:  9.78  70: 11.38  71:  7.40  72: 10.53
  73:  3.24  74:  9.45  75: 10.39  76:  9.00  77:  9.63  78:  8.91  79:  1.88  80:  1.76
  81: 10.69  82: 11.64  83: 11.42  84: 11.48  85: 11.51  86: 11.39  87: 12.79  88:  1.85
  89:  1.68  90:  1.62  91:  1.76  92:  1.77  93:  1.77  94:  1.79  95:  1.80  96:  1.85
  97:  1.85  98:  1.85  99:  1.83 100:  1.90 101:  1.91 102:  1.85
 IR intensities (km·mol⁻¹)
   1:  0.09   2:  0.07   3:  0.02   4:  0.16   5:  0.01   6:  0.20   7:  0.22   8:  0.18
Molecule has no symmetry elements
It seems to be the C1 point group
   9:  0.42  10:  2.61  11:  0.27  12:  2.38  13:  0.21  14:  0.80  15:  0.15  16:  0.14
  17:  0.86  18:  0.44  19:  0.07  20:  2.02  21:  1.84  22:  3.60  23:  3.83  24:  3.37
  25:  2.19  26:  0.61  27:  0.46  28:  0.90  29:  4.31  30:  0.41  31:  2.64  32:  0.94
  33:  1.80  34: 27.61  35:  0.05  36: 10.97  37: 21.82  38:  0.29  39: 28.60  40: 32.00
  41:  3.36  42:  1.64  43:  0.64  44:  0.25  45:  1.27  46:  0.64  47:  0.64  48:  0.01
  49:  0.32  50:  0.28  51:  2.98  52: 11.82  53:  9.04  54:  6.51  55:  2.60  56:  0.15
  57: 13.21  58:  0.56  59: 23.10  60:  6.34  61:  0.75  62:  0.43  63: 24.06  64: 59.43
  65:  3.04  66:181.25  67:  2.51  68:  5.03  69: 14.31  70:  3.85  71:  3.22  72:  8.78
  73: 19.32  74:  0.38  75: 13.17  76:  5.66  77: 15.51  78: 12.74  79:  8.94  80:  8.58
  81:  4.79  82:  0.41  83:  2.77  84:125.31  85:  0.33  86:  0.52  87:260.23  88: 13.71
  89: 19.99  90: 22.94  91: 18.35  92: 12.57  93: 14.87  94:  1.83  95: 27.36  96: 91.39
  97: 93.04  98:114.95  99: 44.94 100:182.68 101:  5.97 102: 17.53
 Raman intensities (Ä⁴*amu⁻¹)
   1:  0.00   2:  0.00   3:  0.00   4:  0.00   5:  0.00   6:  0.00   7:  0.00   8:  0.00
   9:  0.00  10:  0.00  11:  0.00  12:  0.00  13:  0.00  14:  0.00  15:  0.00  16:  0.00
  17:  0.00  18:  0.00  19:  0.00  20:  0.00  21:  0.00  22:  0.00  23:  0.00  24:  0.00
  25:  0.00  26:  0.00  27:  0.00  28:  0.00  29:  0.00  30:  0.00  31:  0.00  32:  0.00
  33:  0.00  34:  0.00  35:  0.00  36:  0.00  37:  0.00  38:  0.00  39:  0.00  40:  0.00
  41:  0.00  42:  0.00  43:  0.00  44:  0.00  45:  0.00  46:  0.00  47:  0.00  48:  0.00
  49:  0.00  50:  0.00  51:  0.00  52:  0.00  53:  0.00  54:  0.00  55:  0.00  56:  0.00
  57:  0.00  58:  0.00  59:  0.00  60:  0.00  61:  0.00  62:  0.00  63:  0.00  64:  0.00
  65:  0.00  66:  0.00  67:  0.00  68:  0.00  69:  0.00  70:  0.00  71:  0.00  72:  0.00
  73:  0.00  74:  0.00  75:  0.00  76:  0.00  77:  0.00  78:  0.00  79:  0.00  80:  0.00
  81:  0.00  82:  0.00  83:  0.00  84:  0.00  85:  0.00  86:  0.00  87:  0.00  88:  0.00
  89:  0.00  90:  0.00  91:  0.00  92:  0.00  93:  0.00  94:  0.00  95:  0.00  96:  0.00
  97:  0.00  98:  0.00  99:  0.00 100:  0.00 101:  0.00 102:  0.00
 output can be read by thermo (or use thermo option).
 writing <g98.out> molden fake output.
 recommended (thermochemical) frequency scaling factor: 1.0
           -------------------------------------------------
          |             Thermodynamic Functions             |
           -------------------------------------------------

c1  symmetry found (for desy threshold:  0.10E+00) used in thermo

          ...................................................
          :                      SETUP                      :
          :.................................................:
          :  # frequencies                          96      :
          :  # imaginary freq.                       0      :
          :  linear?                             false      :
          :  only rotor calc.                    false      :
          :  symmetry                               c1      :
          :  rotational number                       1      :
          :  scaling factor                  1.0000000      :
          :  rotor cutoff                   50.0000000 cm⁻¹ :
          :  imag. cutoff                  -20.0000000 cm⁻¹ :
          :.................................................:

    mode    ω/cm⁻¹     T·S(HO)/kcal·mol⁻¹    T·S(FR)/kcal·mol⁻¹   T·S(vib)
   ------------------------------------------------------------------------
       1     17.45    -2.05870 (  1.46%)    -1.36826 ( 98.54%)    -1.37836
       2     36.65    -1.61970 ( 22.40%)    -1.14853 ( 77.60%)    -1.25406
       3     47.35    -1.46843 ( 44.57%)    -1.07265 ( 55.43%)    -1.24906
       4     65.30    -1.27912 ( 74.42%)    -0.97742 ( 25.58%)    -1.20195
       5     95.52    -1.05654 ( 93.02%)    -0.86476 (  6.98%)    -1.04315
       6    148.49    -0.80248 ( 98.73%)    -0.73409 (  1.27%)    -0.80161
Note: The following floating-point exceptions are signalling: IEEE_DIVIDE_BY_ZERO IEEE_UNDERFLOW_FLAG IEEE_DENORMAL
normal termination of xtb
       7    162.69    -0.75083 ( 99.12%)    -0.70703 (  0.88%)    -0.75045
       8    201.01    -0.63322 ( 99.62%)    -0.64437 (  0.38%)    -0.63326
       9    211.62    -0.60514 ( 99.69%)    -0.62913 (  0.31%)    -0.60521
      10    223.18    -0.57636 ( 99.75%)    -0.61337 (  0.25%)    -0.57645
      11    256.46    -0.50261 ( 99.86%)    -0.57220 (  0.14%)    -0.50271
   ------------------------------------------------------------------------

   temp. (K)  partition function   enthalpy   heat capacity  entropy
                                   cal/mol     cal/K/mol   cal/K/mol   J/K/mol
 298.15  VIB  0.644E+06             8203.262     54.919     49.544
         ROT  0.491E+07              888.752      2.981     33.600
         INT  0.316E+13             9092.014     57.899     83.143
         TR   0.372E+28             1481.254      4.968     42.374
         TOT                       10573.2681    62.8676   125.5172   525.1639

       T/K    H(0)-H(T)+PV         H(T)/Eh          T*S/Eh         G(T)/Eh
   ------------------------------------------------------------------------
    298.15    0.168496E-01    0.285664E+00    0.596373E-01    0.226026E+00
   ------------------------------------------------------------------------

         :::::::::::::::::::::::::::::::::::::::::::::::::::::
         ::                  THERMODYNAMIC                  ::
         :::::::::::::::::::::::::::::::::::::::::::::::::::::
         :: total free energy         -48.886932333046 Eh   ::
         ::.................................................::
         :: total energy              -49.112958820827 Eh   ::
         :: zero point energy           0.268814176943 Eh   ::
         :: G(RRHO) w/o ZPVE           -0.042787689162 Eh   ::
         :: G(RRHO) contrib.            0.226026487781 Eh   ::
         :::::::::::::::::::::::::::::::::::::::::::::::::::::

           -------------------------------------------------
          | TOTAL ENERGY              -49.112958820827 Eh   |
          | TOTAL ENTHALPY            -48.827295068717 Eh   |
          | TOTAL FREE ENERGY         -48.886932333046 Eh   |
          | GRADIENT NORM               0.000053551414 Eh/α |
          | HOMO-LUMO GAP               2.180655223597 eV   |
           -------------------------------------------------

------------------------------------------------------------------------
 * finished run on 2026/09/10 at 22:57:50.157     
------------------------------------------------------------------------
 total:
 * wall-time:     0 d,  0 h,  0 min,  6.376 sec
 *  cpu-time:     0 d,  0 h,  0 min,  0.781 sec
 * ratio c/w:     0.123 speedup
 SCF:
 * wall-time:     0 d,  0 h,  0 min,  0.029 sec
 *  cpu-time:     0 d,  0 h,  0 min,  0.000 sec
 * ratio c/w:     0.000 speedup
 analytical hessian:
 * wall-time:     0 d,  0 h,  0 min,  6.291 sec
 *  cpu-time:     0 d,  0 h,  0 min,  0.734 sec
 * ratio c/w:     0.117 speedup

