      -----------------------------------------------------------      
     |                   =====================                   |     
     |                           x T B                           |     
     |                   =====================                   |     
     |                         S. Grimme                         |     
     |          Mulliken Center for Theoretical Chemistry        |     
     |                    University of Bonn                     |     
      -----------------------------------------------------------      

   * xtb version 6.7.1 (edcfbbe) compiled by 'VssAdministrator@runnervm171ch' on 2026-06-10

   xtb is free software: you can redistribute it and/or modify it under
   the terms of the GNU Lesser General Public License as published by
   the Free Software Foundation, either version 3 of the License, or
   (at your option) any later version.
   
   xtb is distributed in the hope that it will be useful,
   but WITHOUT ANY WARRANTY; without even the implied warranty of
   MERCHANTABILITY or FITNESS FOR A PARTICULAR PURPOSE.  See the
   GNU Lesser General Public License for more details.
   
   Cite this work as:
   * C. Bannwarth, E. Caldeweyher, S. Ehlert, A. Hansen, P. Pracht,
     J. Seibert, S. Spicher, S. Grimme, WIREs Comput. Mol. Sci., 2020, 11,
     e01493. DOI: 10.1002/wcms.1493
   
   for GFN2-xTB:
   * C. Bannwarth, S. Ehlert and S. Grimme., J. Chem. Theory Comput., 2019,
     15, 1652-1671. DOI: 10.1021/acs.jctc.8b01176
   for GFN1-xTB:
   * S. Grimme, C. Bannwarth, P. Shushkov, J. Chem. Theory Comput., 2017,
     13, 1989-2009. DOI: 10.1021/acs.jctc.7b00118
   for GFN0-xTB:
   * P. Pracht, E. Caldeweyher, S. Ehlert, S. Grimme, ChemRxiv, 2019, preprint.
     DOI: 10.26434/chemrxiv.8326202.v1
   for GFN-FF:
   * S. Spicher and S. Grimme, Angew. Chem. Int. Ed., 2020, 59, 15665-15673.
     DOI: 10.1002/anie.202004239
   
   for ALPB and GBSA implicit solvation:
   * S. Ehlert, M. Stahn, S. Spicher, S. Grimme, J. Chem. Theory Comput.,
     2021, 17, 4250-4261. DOI: 10.1021/acs.jctc.1c00471
   
   for ddCOSMO and CPCM-X implicit solvation:
   * M. Stahn, S. Ehlert, S. Grimme, J. Phys. Chem. A,
     2023, XX, XXXX-XXXX. DOI: 10.1021/acs.jpca.3c04382
   
   for DFT-D4:
   * E. Caldeweyher, C. Bannwarth and S. Grimme, J. Chem. Phys., 2017,
     147, 034112. DOI: 10.1063/1.4993215
   * E. Caldeweyher, S. Ehlert, A. Hansen, H. Neugebauer, S. Spicher,
     C. Bannwarth and S. Grimme, J. Chem. Phys., 2019, 150, 154122.
     DOI: 10.1063/1.5090222
   * E. Caldeweyher, J.-M. Mewes, S. Ehlert and S. Grimme, Phys. Chem. Chem. Phys.
     2020, 22, 8499-8512. DOI: 10.1039/D0CP00502A
   
   for sTDA-xTB:
   * S. Grimme and C. Bannwarth, J. Chem. Phys., 2016, 145, 054103.
     DOI: 10.1063/1.4959605
   
   in the mass-spec context:
   * V. Asgeirsson, C. Bauer and S. Grimme, Chem. Sci., 2017, 8, 4879.
     DOI: 10.1039/c7sc00601b
   * J. Koopman and S. Grimme, ACS Omega 2019, 4, 12, 15120-15133.
     DOI: 10.1021/acsomega.9b02011
   
   for metadynamics refer to:
   * S. Grimme, J. Chem. Theory Comput., 2019, 155, 2847-2862
     DOI: 10.1021/acs.jctc.9b00143
   
   for SPH calculations refer to:
   * S. Spicher and S. Grimme, J. Chem. Theory Comput., 2021, 17, 1701-1714
     DOI: 10.1021/acs.jctc.0c01306
   
   for ONIOM refer to:
   * C. Plett, A. Katbashev, S. Ehlert, S. Grimme, M. Bursch,
     Phys. Chem. Chem. Phys., 2023, 25, 17860-17868. DOI: 10.1039/D3CP02178E
   
   for DIPRO refer to:
   * J. Kohn, N. Gildemeister, S. Grimme, D. Fazzi, A. Hansen,
     J. Chem. Phys., 2023, just accepted.
   
   for PTB refer to:
   * S. Grimme, M. Mueller, A. Hansen, J. Chem. Phys., 2023, 158, 124111.
     DOI: 10.1063/5.0137838
   
   with help from (in alphabetical order)
   P. Atkinson, C. Bannwarth, F. Bohle, G. Brandenburg, E. Caldeweyher
   M. Checinski, S. Dohm, S. Ehlert, S. Ehrlich, I. Gerasimov, C. Hölzer
   A. Katbashev, J. Kohn, J. Koopman, C. Lavigne, S. Lehtola, F. März, M. Müller,
   F. Musil, H. Neugebauer, J. Pisarek, C. Plett, P. Pracht, F. Pultar,
   J. Seibert, P. Shushkov, S. Spicher, M. Stahn, M. Steiner, T. Strunk,
   J. Stückrath, T. Rose, and J. Unsleber
   
 * started run on 2026/09/10 at 22:57:42.046     
   ID    Z sym.   atoms
    1    6 C      1, 2, 4-19
    2    7 N      3
    3    1 H      20-34

           -------------------------------------------------
          |                Calculation Setup                |
           -------------------------------------------------

          program call               : C:\Users\HUIWEI\miniconda3\envs\phase2ff\Library\bin\xtb.exe input.xyz --gfn 2 --chrg 0 --uhf 0 --alpb toluene --acc 0.2 --opt vtight
          coordinate file            : input.xyz
          omp threads                :                     1


           -------------------------------------------------
          |                 G F N 2 - x T B                 |
           -------------------------------------------------

        Reference                      10.1021/acs.jctc.8b01176
      * Hamiltonian:
        H0-scaling (s, p, d)           1.850000    2.230000    2.230000
        zeta-weighting                 0.500000
      * Dispersion:
        s8                             2.700000
        a1                             0.520000
        a2                             5.000000
        s9                             5.000000
      * Repulsion:
        kExp                           1.500000    1.000000
        rExp                           1.000000
      * Coulomb:
        alpha                          2.000000
        third order                    shell-resolved
        anisotropic                    true
        a3                             3.000000
        a5                             4.000000
        cn-shift                       1.200000
        cn-exp                         4.000000
        max-rad                        5.000000

      * Solvation model:               ALPB
        Solvent                        toluene
        Parameter file                 internal GFN2-xTB/ALPB
        Dielectric constant                7.0000E+00
        Reference state                gsolv [1 M gas/solution]
        Free energy shift                  2.2081E-03 Eh       1.3856E+00 kcal/mol
        Temperature                        2.9815E+02 K
        Density                            8.6700E-01 kg/L
        Solvent mass                       7.8110E+01 g/mol
        Interaction kernel             P16
        Born radius scaling (c1)           1.7172E+00
        Born radii integrator          GBOBC
        Born offset                        0.0000E+00 a0       0.0000E+00 AA
        H-bond correction              false
        Ion screening                  false
        Surface tension                    1.0000E-05 Eh       1.5569E+01 dyn/cm
        Grid points                               230 per atom

          ...................................................
          :                      SETUP                      :
          :.................................................:
          :  # basis functions                  91          :
          :  # atomic orbitals                  91          :
          :  # shells                           53          :
          :  # electrons                        92          :
          :  max. iterations                   250          :
          :  Hamiltonian                  GFN2-xTB          :
          :  restarted?                      false          :
          :  GBSA solvation                   true          :
          :  PC potential                    false          :
          :  electronic temp.          300.0000000     K    :
          :  accuracy                    0.2000000          :
          :  -> integral cutoff          0.3198970E+02      :
          :  -> integral neglect         0.2000000E-08      :
          :  -> SCF convergence          0.2000000E-06 Eh   :
          :  -> wf. convergence          0.2000000E-04 e    :
          :  Broyden damping             0.4000000          :
          :  net charge                          0          :
          :  unpaired electrons                  0          :
          ...................................................

 iter      E             dE          RMSdq      gap      omega  full diag
   1    -49.9498573 -0.499499E+02  0.426E+00    2.45       0.0  T
   2    -49.9749627 -0.251055E-01  0.255E+00    2.45       1.0  T
   3    -49.9655244  0.943835E-02  0.796E-01    2.23       1.0  T
   4    -49.9781194 -0.125950E-01  0.272E-01    2.27       1.0  T
   5    -49.9793289 -0.120949E-02  0.610E-02    2.24       1.0  T
   6    -49.9794137 -0.848260E-04  0.373E-02    2.26       1.0  T
   7    -49.9794284 -0.146184E-04  0.155E-02    2.25       1.1  T
   8    -49.9794305 -0.211549E-05  0.535E-03    2.26       3.2  T
   9    -49.9794312 -0.708879E-06  0.163E-03    2.26      10.5  T
  10    -49.9794312 -0.411561E-07  0.953E-04    2.26      18.0  T
  11    -49.9794312 -0.587238E-08  0.329E-04    2.26      52.1  T
  12    -49.9794312 -0.201690E-08  0.133E-04    2.26     129.2  T
  13    -49.9794312 -0.624141E-10  0.531E-05    2.26     323.3  T

   *** convergence criteria satisfied after 13 iterations ***

         #    Occupation            Energy/Eh            Energy/eV
      -------------------------------------------------------------
         1        2.0000           -0.6529520             -17.7677
       ...           ...                  ...                  ...
        40        2.0000           -0.4185562             -11.3895
        41        2.0000           -0.4143064             -11.2739
        42        2.0000           -0.4066702             -11.0661
        43        2.0000           -0.3982038             -10.8357
        44        2.0000           -0.3957698             -10.7694
        45        2.0000           -0.3765537             -10.2465
        46        2.0000           -0.3599714              -9.7953 (HOMO)
        47                         -0.2770883              -7.5400 (LUMO)
        48                         -0.2524397              -6.8692
        49                         -0.2196038              -5.9757
        50                         -0.2143269              -5.8321
        51                         -0.2090717              -5.6891
       ...                                ...                  ...
        91                          0.6877693              18.7152
      -------------------------------------------------------------
                  HL-Gap            0.0828831 Eh            2.2554 eV
             Fermi-level           -0.3185298 Eh           -8.6676 eV

 SCC (total)                   0 d,  0 h,  0 min,  0.043 sec
 SCC setup                      ...        0 min,  0.001 sec (  2.438%)
 Dispersion                     ...        0 min,  0.000 sec (  0.917%)
 classical contributions        ...        0 min,  0.000 sec (  0.211%)
 integral evaluation            ...        0 min,  0.006 sec ( 14.014%)
 iterations                     ...        0 min,  0.020 sec ( 46.106%)
 molecular gradient             ...        0 min,  0.015 sec ( 35.647%)
 printout                       ...        0 min,  0.000 sec (  0.625%)

         :::::::::::::::::::::::::::::::::::::::::::::::::::::
         ::                     SUMMARY                     ::
         :::::::::::::::::::::::::::::::::::::::::::::::::::::
         :: total energy             -49.104230124185 Eh    ::
         :: total w/o Gsasa/hb       -49.082859819510 Eh    ::
         :: gradient norm              0.090526932461 Eh/a0 ::
         :: HOMO-LUMO gap              2.255363008520 eV    ::
         ::.................................................::
         :: SCC energy               -49.979659530039 Eh    ::
         :: -> isotropic ES            0.010790876489 Eh    ::
         :: -> anisotropic ES          0.006681042561 Eh    ::
         :: -> anisotropic XC          0.037236510550 Eh    ::
         :: -> dispersion             -0.036219528309 Eh    ::
         :: -> Gsolv                  -0.021689164178 Eh    ::
         ::    -> Gelec               -0.000318859504 Eh    ::
         ::    -> Gsasa               -0.023578447813 Eh    ::
         ::    -> Ghb                  0.000000000000 Eh    ::
         ::    -> Gshift               0.002208143139 Eh    ::
         :: repulsion energy           0.875429405855 Eh    ::
         :: add. restraining           0.000000000000 Eh    ::
         :: total charge               0.000000000000 e     ::
         :::::::::::::::::::::::::::::::::::::::::::::::::::::

      ----------------------------------------------------------- 
     |                   =====================                   |
     |                        A N C O P T                        |
     |                   =====================                   |
     |               Approximate Normal Coordinate               |
     |                Rational Function Optimizer                |
      ----------------------------------------------------------- 
      ----------------------------------------------------------- 
     |                   =====================                   |
     |                        A N C O P T                        |
     |                   =====================                   |
     |               Approximate Normal Coordinate               |
     |                Rational Function Optimizer                |
      ----------------------------------------------------------- 

          ...................................................
          :                      SETUP                      :
          :.................................................:
          :   optimization level         verytight          :
          :   max. optcycles                   680          :
          :   ANC micro-cycles                  20          :
          :   degrees of freedom                96          :
          :.................................................:
          :   RF solver                   davidson          :
          :   write xtbopt.log                true          :
          :   linear?                        false          :
          :   energy convergence         0.1000000E-06 Eh   :
          :   grad. convergence          0.2000000E-03 Eh/α :
          :   maxmium RF displ.          1.0000000          :
          :   Hlow (freq-cutoff)         0.1000000E-01      :
          :   Hmax (freq-cutoff)         5.0000000          :
          :   S6 in model hess.         20.0000000          :
          ...................................................

generating ANC from exact Hessian ...
Using Lindh-Hessian (1995)
 Shifting diagonal of input Hessian by    9.6048441522510984E-003
 Lowest  eigenvalues of input Hessian
    0.000000    0.000000    0.000000    0.000000    0.000000    0.000000
    0.010000    0.010389    0.010498    0.011441    0.012645    0.014266
    0.015583    0.017427    0.018597    0.020673    0.021362    0.023994
 Highest eigenvalues
    1.882512    1.913888    1.947746    2.006531    2.056686    2.091341


........................................................................
.............................. CYCLE    1 ..............................
........................................................................

 iter      E             dE          RMSdq      gap      omega  full diag
   1    -49.9794312 -0.499794E+02  0.163E-05    2.26       0.0  T
   2    -49.9794312 -0.256506E-11  0.120E-05    2.26    1434.6  T
   3    -49.9794312 -0.375167E-11  0.532E-06    2.26    3221.9  T
     SCC iter.                  ...        0 min,  0.005 sec
     gradient                   ...        0 min,  0.016 sec
 * total energy  :   -49.1042301 Eh     change       -0.3044676E-10 Eh
   gradient norm :     0.0905270 Eh/α   predicted     0.0000000E+00 (-100.00%)
   displ. norm   :     0.2046817 α      lambda       -0.8634165E-02
   maximum displ.:     0.0813696 α      in ANC's #11, #10, #22, ...

........................................................................
.............................. CYCLE    2 ..............................
........................................................................

 iter      E             dE          RMSdq      gap      omega  full diag
   1    -50.0218323 -0.500218E+02  0.137E-01    2.29       0.0  T
   2    -50.0218880 -0.557055E-04  0.888E-02    2.31       1.0  T
   3    -50.0218635  0.245415E-04  0.422E-02    2.31       1.0  T
   4    -50.0219058 -0.423705E-04  0.938E-03    2.31       1.8  T
   5    -50.0219080 -0.213343E-05  0.304E-03    2.31       5.6  T
   6    -50.0219081 -0.103473E-06  0.156E-03    2.31      11.0  T
   7    -50.0219081 -0.152510E-07  0.672E-04    2.31      25.5  T
   8    -50.0219081 -0.963773E-08  0.197E-04    2.31      86.8  T
   9    -50.0219081 -0.384397E-09  0.744E-05    2.31     230.5  T
     SCC iter.                  ...        0 min,  0.012 sec
     gradient                   ...        0 min,  0.017 sec
 * total energy  :   -49.1099763 Eh     change       -0.5746133E-02 Eh
   gradient norm :     0.0347165 Eh/α   predicted    -0.4499135E-02 ( -21.70%)
   displ. norm   :     0.1667047 α      lambda       -0.1877869E-02
   maximum displ.:     0.0839970 α      in ANC's #11, #10, #8, ...

........................................................................
.............................. CYCLE    3 ..............................
........................................................................

 iter      E             dE          RMSdq      gap      omega  full diag
   1    -50.0406774 -0.500407E+02  0.799E-02    2.31       0.0  T
   2    -50.0406977 -0.203348E-04  0.503E-02    2.32       1.0  T
   3    -50.0406936  0.415068E-05  0.264E-02    2.32       1.0  T
   4    -50.0407046 -0.110568E-04  0.485E-03    2.32       3.5  T
   5    -50.0407053 -0.629791E-06  0.158E-03    2.32      10.9  T
   6    -50.0407053 -0.381618E-07  0.670E-04    2.32      25.6  T
   7    -50.0407053 -0.101546E-08  0.320E-04    2.32      53.7  T
   8    -50.0407053 -0.188763E-08  0.120E-04    2.32     142.7  T
   9    -50.0407053 -0.135628E-09  0.370E-05    2.32     463.1  T
     SCC iter.                  ...        0 min,  0.013 sec
     gradient                   ...        0 min,  0.019 sec
 * total energy  :   -49.1110270 Eh     change       -0.1050786E-02 Eh
   gradient norm :     0.0094277 Eh/α   predicted    -0.9653452E-03 (  -8.13%)
   displ. norm   :     0.1153546 α      lambda       -0.2563226E-03
   maximum displ.:     0.0619554 α      in ANC's #3, #8, #2, ...

........................................................................
.............................. CYCLE    4 ..............................
........................................................................

 iter      E             dE          RMSdq      gap      omega  full diag
   1    -50.0411432 -0.500411E+02  0.399E-02    2.31       0.0  T
   2    -50.0411454 -0.219337E-05  0.249E-02    2.31       1.0  T
   3    -50.0411436  0.188916E-05  0.137E-02    2.31       1.3  T
   4    -50.0411471 -0.357387E-05  0.126E-03    2.31      13.7  T
   5    -50.0411472 -0.432181E-07  0.496E-04    2.31      34.6  T
   6    -50.0411472 -0.400337E-08  0.224E-04    2.31      76.5  T
   7    -50.0411472 -0.124842E-09  0.101E-04    2.31     169.2  T
   8    -50.0411472 -0.134108E-09  0.417E-05    2.31     411.6  T
     SCC iter.                  ...        0 min,  0.013 sec
     gradient                   ...        0 min,  0.016 sec
 * total energy  :   -49.1112291 Eh     change       -0.2020437E-03 Eh
   gradient norm :     0.0053721 Eh/α   predicted    -0.1298800E-03 ( -35.72%)
   displ. norm   :     0.2389171 α      lambda       -0.3187645E-03
   maximum displ.:     0.1405107 α      in ANC's #3, #2, #8, ...

........................................................................
.............................. CYCLE    5 ..............................
........................................................................

 iter      E             dE          RMSdq      gap      omega  full diag
   1    -50.0393682 -0.500394E+02  0.717E-02    2.29       0.0  T
   2    -50.0393727 -0.442239E-05  0.438E-02    2.29       1.0  T
   3    -50.0393642  0.848678E-05  0.230E-02    2.28       1.0  T
   4    -50.0393762 -0.120462E-04  0.194E-03    2.29       8.9  T
   5    -50.0393763 -0.894091E-07  0.838E-04    2.29      20.5  T
   6    -50.0393763 -0.949552E-08  0.424E-04    2.29      40.5  T
   7    -50.0393763 -0.755414E-09  0.164E-04    2.29     104.5  T
   8    -50.0393763 -0.439393E-09  0.603E-05    2.29     284.4  T
     SCC iter.                  ...        0 min,  0.012 sec
     gradient                   ...        0 min,  0.022 sec
 * total energy  :   -49.1114461 Eh     change       -0.2170329E-03 Eh
   gradient norm :     0.0053471 Eh/α   predicted    -0.1684839E-03 ( -22.37%)
   displ. norm   :     0.2113852 α      lambda       -0.1653422E-03
   maximum displ.:     0.1300937 α      in ANC's #3, #2, #8, ...

........................................................................
.............................. CYCLE    6 ..............................
........................................................................

 iter      E             dE          RMSdq      gap      omega  full diag
   1    -50.0383672 -0.500384E+02  0.564E-02    2.28       0.0  T
   2    -50.0383686 -0.133589E-05  0.335E-02    2.28       1.0  T
   3    -50.0383644  0.420023E-05  0.138E-02    2.27       1.2  T
   4    -50.0383694 -0.503363E-05  0.131E-03    2.28      13.0  T
   5    -50.0383694 -0.380868E-07  0.584E-04    2.28      29.4  T
   6    -50.0383694 -0.334613E-08  0.318E-04    2.28      53.9  T
   7    -50.0383694 -0.960121E-09  0.910E-05    2.28     188.4  T
   8    -50.0383694 -0.137575E-09  0.376E-05    2.28     455.9  T
     SCC iter.                  ...        0 min,  0.012 sec
     gradient                   ...        0 min,  0.016 sec
 * total energy  :   -49.1115849 Eh     change       -0.1387824E-03 Eh
   gradient norm :     0.0070856 Eh/α   predicted    -0.8637431E-04 ( -37.76%)
   displ. norm   :     0.3158956 α      lambda       -0.2586026E-03
   maximum displ.:     0.1917422 α      in ANC's #3, #2, #8, ...

........................................................................
.............................. CYCLE    7 ..............................
........................................................................

 iter      E             dE          RMSdq      gap      omega  full diag
   1    -50.0375032 -0.500375E+02  0.800E-02    2.26       0.0  T
   2    -50.0375047 -0.147751E-05  0.471E-02    2.27       1.0  T
   3    -50.0375012  0.345636E-05  0.121E-02    2.26       1.4  T
   4    -50.0375052 -0.401330E-05  0.181E-03    2.26       9.5  T
   5    -50.0375053 -0.687593E-07  0.804E-04    2.26      21.3  T
   6    -50.0375053 -0.400774E-08  0.428E-04    2.26      40.1  T
   7    -50.0375053 -0.246155E-08  0.104E-04    2.26     165.2  T
   8    -50.0375053 -0.183327E-09  0.489E-05    2.26     350.7  T
     SCC iter.                  ...        0 min,  0.013 sec
     gradient                   ...        0 min,  0.017 sec
 * total energy  :   -49.1118021 Eh     change       -0.2172208E-03 Eh
   gradient norm :     0.0072182 Eh/α   predicted    -0.1422053E-03 ( -34.53%)
   displ. norm   :     0.4039454 α      lambda       -0.3189767E-03
   maximum displ.:     0.2531005 α      in ANC's #3, #2, #8, ...

........................................................................
.............................. CYCLE    8 ..............................
........................................................................

 iter      E             dE          RMSdq      gap      omega  full diag
   1    -50.0372046 -0.500372E+02  0.101E-01    2.25       0.0  T
   2    -50.0372063 -0.171704E-05  0.595E-02    2.26       1.0  T
   3    -50.0372041  0.220747E-05  0.965E-03    2.25       1.8  T
   4    -50.0372068 -0.267329E-05  0.222E-03    2.26       7.7  T
   5    -50.0372069 -0.102610E-06  0.101E-03    2.26      17.0  T
   6    -50.0372069 -0.622918E-08  0.466E-04    2.26      36.8  T
   7    -50.0372069 -0.311082E-08  0.116E-04    2.26     147.5  T
   8    -50.0372069 -0.178147E-09  0.605E-05    2.26     283.6  T
     SCC iter.                  ...        0 min,  0.012 sec
     gradient                   ...        0 min,  0.016 sec
 * total energy  :   -49.1120422 Eh     change       -0.2400727E-03 Eh
   gradient norm :     0.0065169 Eh/α   predicted    -0.1855135E-03 ( -22.73%)
   displ. norm   :     0.3218764 α      lambda       -0.2306657E-03
   maximum displ.:     0.2175572 α      in ANC's #3, #2, #8, ...

........................................................................
.............................. CYCLE    9 ..............................
........................................................................

 iter      E             dE          RMSdq      gap      omega  full diag
   1    -50.0388837 -0.500389E+02  0.826E-02    2.25       0.0  T
   2    -50.0388846 -0.912780E-06  0.485E-02    2.25       1.0  T
   3    -50.0388836  0.101064E-05  0.646E-03    2.25       2.7  T
   4    -50.0388849 -0.132173E-05  0.162E-03    2.25      10.6  T
   5    -50.0388850 -0.412283E-07  0.845E-04    2.25      20.3  T
   6    -50.0388850 -0.426569E-08  0.318E-04    2.25      53.9  T
   7    -50.0388850 -0.197237E-08  0.893E-05    2.25     192.1  T
   8    -50.0388850 -0.598561E-10  0.490E-05    2.25     349.7  T
     SCC iter.                  ...        0 min,  0.011 sec
     gradient                   ...        0 min,  0.017 sec
 * total energy  :   -49.1122086 Eh     change       -0.1664406E-03 Eh
   gradient norm :     0.0043225 Eh/α   predicted    -0.1272826E-03 ( -23.53%)
   displ. norm   :     0.2963216 α      lambda       -0.1380054E-03
   maximum displ.:     0.2017253 α      in ANC's #3, #2, #8, ...

........................................................................
.............................. CYCLE   10 ..............................
........................................................................

 iter      E             dE          RMSdq      gap      omega  full diag
   1    -50.0398150 -0.500398E+02  0.768E-02    2.24       0.0  T
   2    -50.0398159 -0.955621E-06  0.451E-02    2.24       1.0  T
   3    -50.0398135  0.248159E-05  0.972E-03    2.24       1.8  T
   4    -50.0398164 -0.293325E-05  0.142E-03    2.24      12.1  T
   5    -50.0398164 -0.267865E-07  0.736E-04    2.24      23.3  T
   6    -50.0398164 -0.253267E-08  0.365E-04    2.24      47.0  T
   7    -50.0398164 -0.261789E-08  0.866E-05    2.24     197.9  T
   8    -50.0398164 -0.744436E-10  0.454E-05    2.24     377.6  T
     SCC iter.                  ...        0 min,  0.012 sec
     gradient                   ...        0 min,  0.015 sec
 * total energy  :   -49.1123119 Eh     change       -0.1032941E-03 Eh
   gradient norm :     0.0042823 Eh/α   predicted    -0.7506288E-04 ( -27.33%)
   displ. norm   :     0.2890289 α      lambda       -0.1586123E-03
   maximum displ.:     0.2045848 α      in ANC's #3, #2, #4, ...

........................................................................
.............................. CYCLE   11 ..............................
........................................................................

 iter      E             dE          RMSdq      gap      omega  full diag
   1    -50.0429883 -0.500430E+02  0.844E-02    2.24       0.0  T
   2    -50.0429897 -0.139384E-05  0.494E-02    2.24       1.0  T
   3    -50.0429872  0.252859E-05  0.102E-02    2.23       1.7  T
   4    -50.0429902 -0.306946E-05  0.164E-03    2.24      10.5  T
   5    -50.0429903 -0.281414E-07  0.879E-04    2.24      19.5  T
   6    -50.0429903 -0.729855E-09  0.426E-04    2.24      40.3  T
   7    -50.0429903 -0.426582E-08  0.106E-04    2.24     161.3  T
   8    -50.0429903 -0.137135E-09  0.543E-05    2.24     316.0  T
     SCC iter.                  ...        0 min,  0.013 sec
     gradient                   ...        0 min,  0.016 sec
 * total energy  :   -49.1124088 Eh     change       -0.9691768E-04 Eh
   gradient norm :     0.0041276 Eh/α   predicted    -0.8593225E-04 ( -11.33%)
   displ. norm   :     0.4188427 α      lambda       -0.1466034E-03
   maximum displ.:     0.2813444 α      in ANC's #3, #2, #8, ...

........................................................................
.............................. CYCLE   12 ..............................
........................................................................

 iter      E             dE          RMSdq      gap      omega  full diag
   1    -50.0400123 -0.500400E+02  0.115E-01    2.22       0.0  T
   2    -50.0400156 -0.324917E-05  0.676E-02    2.22       1.0  T
   3    -50.0400091  0.648456E-05  0.161E-02    2.22       1.1  T
   4    -50.0400168 -0.771586E-05  0.262E-03    2.22       6.6  T
   5    -50.0400169 -0.103541E-06  0.120E-03    2.22      14.3  T
   6    -50.0400169 -0.327482E-09  0.651E-04    2.22      26.3  T
   7    -50.0400169 -0.949627E-08  0.152E-04    2.22     112.8  T
   8    -50.0400169 -0.241378E-09  0.791E-05    2.22     216.9  T
     SCC iter.                  ...        0 min,  0.013 sec
     gradient                   ...        0 min,  0.016 sec
 * total energy  :   -49.1124819 Eh     change       -0.7304582E-04 Eh
   gradient norm :     0.0056679 Eh/α   predicted    -0.8616456E-04 (  17.96%)
   displ. norm   :     0.0744882 α      lambda       -0.7920511E-04
   maximum displ.:     0.0556329 α      in ANC's #4, #3, #1, ...

........................................................................
.............................. CYCLE   13 ..............................
........................................................................

 iter      E             dE          RMSdq      gap      omega  full diag
   1    -50.0415403 -0.500415E+02  0.279E-02    2.22       0.0  T
   2    -50.0415407 -0.406447E-06  0.163E-02    2.22       1.1  T
   3    -50.0415404  0.332770E-06  0.364E-03    2.22       4.7  T
   4    -50.0415408 -0.409838E-06  0.828E-04    2.22      20.7  T
   5    -50.0415408 -0.139455E-07  0.355E-04    2.22      48.3  T
   6    -50.0415408 -0.287585E-09  0.167E-04    2.22     102.6  T
   7    -50.0415408 -0.557066E-09  0.401E-05    2.22     427.7  T
     SCC iter.                  ...        0 min,  0.014 sec
     gradient                   ...        0 min,  0.015 sec
 * total energy  :   -49.1125435 Eh     change       -0.6157754E-04 Eh
   gradient norm :     0.0029790 Eh/α   predicted    -0.3982328E-04 ( -35.33%)
   displ. norm   :     0.2507119 α      lambda       -0.9442690E-04
   maximum displ.:     0.1477039 α      in ANC's #3, #4, #2, ...

........................................................................
.............................. CYCLE   14 ..............................
........................................................................

 iter      E             dE          RMSdq      gap      omega  full diag
   1    -50.0418266 -0.500418E+02  0.800E-02    2.21       0.0  T
   2    -50.0418275 -0.946120E-06  0.469E-02    2.21       1.0  T
   3    -50.0418257  0.181375E-05  0.815E-03    2.21       2.1  T
   4    -50.0418280 -0.229111E-05  0.144E-03    2.21      11.9  T
   5    -50.0418280 -0.152309E-08  0.723E-04    2.21      23.7  T
   6    -50.0418280 -0.809047E-08  0.209E-04    2.21      82.2  T
   7    -50.0418280 -0.793953E-09  0.885E-05    2.21     193.8  T
   8    -50.0418280 -0.456950E-10  0.511E-05    2.21     335.4  T
     SCC iter.                  ...        0 min,  0.014 sec
     gradient                   ...        0 min,  0.018 sec
 * total energy  :   -49.1126097 Eh     change       -0.6618477E-04 Eh
   gradient norm :     0.0020097 Eh/α   predicted    -0.5018188E-04 ( -24.18%)
   displ. norm   :     0.1580517 α      lambda       -0.3783878E-04
   maximum displ.:     0.0964238 α      in ANC's #4, #3, #2, ...

........................................................................
.............................. CYCLE   15 ..............................
........................................................................

 iter      E             dE          RMSdq      gap      omega  full diag
   1    -50.0418982 -0.500419E+02  0.515E-02    2.21       0.0  T
   2    -50.0418986 -0.402371E-06  0.301E-02    2.21       1.0  T
   3    -50.0418981  0.478037E-06  0.441E-03    2.21       3.9  T
   4    -50.0418988 -0.654510E-06  0.967E-04    2.21      17.7  T
   5    -50.0418988 -0.132889E-08  0.420E-04    2.21      40.9  T
   6    -50.0418988 -0.295265E-08  0.116E-04    2.21     147.7  T
   7    -50.0418988 -0.280593E-09  0.503E-05    2.21     341.3  T
     SCC iter.                  ...        0 min,  0.012 sec
     gradient                   ...        0 min,  0.016 sec
 * total energy  :   -49.1126406 Eh     change       -0.3091512E-04 Eh
   gradient norm :     0.0018991 Eh/α   predicted    -0.1939702E-04 ( -37.26%)
   displ. norm   :     0.1661642 α      lambda       -0.3257509E-04
   maximum displ.:     0.1231064 α      in ANC's #4, #1, #3, ...

........................................................................
.............................. CYCLE   16 ..............................
........................................................................

 iter      E             dE          RMSdq      gap      omega  full diag
   1    -50.0425435 -0.500425E+02  0.581E-02    2.20       0.0  T
   2    -50.0425443 -0.861525E-06  0.338E-02    2.21       1.0  T
   3    -50.0425432  0.116350E-05  0.720E-03    2.21       2.4  T
   4    -50.0425447 -0.149955E-05  0.135E-03    2.21      12.7  T
   5    -50.0425447 -0.998836E-08  0.626E-04    2.21      27.4  T
   6    -50.0425447 -0.425679E-08  0.258E-04    2.21      66.5  T
   7    -50.0425447 -0.152539E-08  0.724E-05    2.21     236.9  T
   8    -50.0425447 -0.479261E-10  0.425E-05    2.21     403.6  T
     SCC iter.                  ...        0 min,  0.018 sec
     gradient                   ...        0 min,  0.016 sec
 * total energy  :   -49.1126798 Eh     change       -0.3925843E-04 Eh
   gradient norm :     0.0017202 Eh/α   predicted    -0.1648930E-04 ( -58.00%)
   displ. norm   :     0.1895723 α      lambda       -0.3473613E-04
   maximum displ.:     0.1357311 α      in ANC's #4, #1, #5, ...

........................................................................
.............................. CYCLE   17 ..............................
........................................................................

 iter      E             dE          RMSdq      gap      omega  full diag
   1    -50.0418410 -0.500418E+02  0.661E-02    2.20       0.0  T
   2    -50.0418421 -0.111127E-05  0.383E-02    2.20       1.0  T
   3    -50.0418411  0.103468E-05  0.739E-03    2.20       2.3  T
   4    -50.0418425 -0.144630E-05  0.167E-03    2.20      10.3  T
   5    -50.0418425 -0.120608E-07  0.740E-04    2.20      23.2  T
   6    -50.0418425 -0.620189E-08  0.308E-04    2.20      55.6  T
   7    -50.0418425 -0.257248E-08  0.749E-05    2.20     228.9  T
   8    -50.0418425 -0.254090E-10  0.446E-05    2.20     384.9  T
     SCC iter.                  ...        0 min,  0.012 sec
     gradient                   ...        0 min,  0.015 sec
 * total energy  :   -49.1127238 Eh     change       -0.4400357E-04 Eh
   gradient norm :     0.0017407 Eh/α   predicted    -0.1764645E-04 ( -59.90%)
   displ. norm   :     0.5511771 α      lambda       -0.1016930E-03
   maximum displ.:     0.4208607 α      in ANC's #4, #1, #5, ...

........................................................................
.............................. CYCLE   18 ..............................
........................................................................

 iter      E             dE          RMSdq      gap      omega  full diag
   1    -50.0411691 -0.500412E+02  0.190E-01    2.20       0.0  T
   2    -50.0411835 -0.143113E-04  0.110E-01    2.20       1.0  T
   3    -50.0411684  0.150167E-04  0.276E-02    2.20       1.0  T
   4    -50.0411882 -0.197435E-04  0.554E-03    2.20       3.1  T
   5    -50.0411884 -0.240936E-06  0.258E-03    2.20       6.7  T
   6    -50.0411885 -0.501190E-07  0.123E-03    2.20      14.0  T
   7    -50.0411885 -0.359724E-07  0.242E-04    2.20      70.8  T
   8    -50.0411885 -0.682519E-09  0.135E-04    2.20     126.7  T
   9    -50.0411885 -0.144681E-09  0.505E-05    2.20     339.5  T
     SCC iter.                  ...        0 min,  0.025 sec
     gradient                   ...        0 min,  0.024 sec
 * total energy  :   -49.1128180 Eh     change       -0.9413531E-04 Eh
   gradient norm :     0.0034368 Eh/α   predicted    -0.5771269E-04 ( -38.69%)
   displ. norm   :     0.1819143 α      lambda       -0.4345124E-04
   maximum displ.:     0.1239102 α      in ANC's #4, #1, #5, ...

........................................................................
.............................. CYCLE   19 ..............................
........................................................................

 iter      E             dE          RMSdq      gap      omega  full diag
   1    -50.0403638 -0.500404E+02  0.631E-02    2.19       0.0  T
   2    -50.0403650 -0.124327E-05  0.362E-02    2.19       1.0  T
   3    -50.0403637  0.128783E-05  0.800E-03    2.19       2.1  T
   4    -50.0403655 -0.176758E-05  0.190E-03    2.19       9.0  T
   5    -50.0403655 -0.190408E-07  0.853E-04    2.19      20.1  T
   6    -50.0403655 -0.102730E-07  0.332E-04    2.19      51.6  T
   7    -50.0403655 -0.267573E-08  0.757E-05    2.19     226.5  T
   8    -50.0403655 -0.339355E-10  0.441E-05    2.19     389.1  T
     SCC iter.                  ...        0 min,  0.018 sec
     gradient                   ...        0 min,  0.017 sec
 * total energy  :   -49.1128507 Eh     change       -0.3270238E-04 Eh
   gradient norm :     0.0027160 Eh/α   predicted    -0.2244781E-04 ( -31.36%)
   displ. norm   :     0.1521084 α      lambda       -0.4692929E-04
   maximum displ.:     0.0861887 α      in ANC's #1, #4, #5, ...

........................................................................
.............................. CYCLE   20 ..............................
........................................................................

 iter      E             dE          RMSdq      gap      omega  full diag
   1    -50.0412759 -0.500413E+02  0.491E-02    2.19       0.0  T
   2    -50.0412767 -0.841627E-06  0.281E-02    2.19       1.0  T
   3    -50.0412756  0.109675E-05  0.691E-03    2.19       2.5  T
   4    -50.0412771 -0.144609E-05  0.162E-03    2.19      10.6  T
   5    -50.0412771 -0.193946E-07  0.697E-04    2.19      24.6  T
   6    -50.0412771 -0.602236E-08  0.279E-04    2.19      61.5  T
   7    -50.0412771 -0.194969E-08  0.645E-05    2.19     266.0  T
   8    -50.0412771 -0.404867E-10  0.347E-05    2.19     494.3  T
     SCC iter.                  ...        0 min,  0.011 sec
     gradient                   ...        0 min,  0.016 sec
 * total energy  :   -49.1128852 Eh     change       -0.3449641E-04 Eh
   gradient norm :     0.0018110 Eh/α   predicted    -0.2401266E-04 ( -30.39%)
   displ. norm   :     0.2235272 α      lambda       -0.3390454E-04
   maximum displ.:     0.1323244 α      in ANC's #1, #5, #4, ...
 * RMSD in coord.:     0.5872806 α      energy gain  -0.8655043E-02 Eh

generating ANC from exact Hessian ...
Using Lindh-Hessian (1995)
 Shifting diagonal of input Hessian by    9.5487050314723501E-003
 Lowest  eigenvalues of input Hessian
    0.000000    0.000000    0.000000    0.000000    0.000000    0.000000
    0.010000    0.010415    0.010560    0.011496    0.013264    0.014586
    0.015701    0.018354    0.019468    0.022013    0.022558    0.025124
 Highest eigenvalues
    1.965906    1.997160    2.011885    2.033874    2.120209    2.237304


........................................................................
.............................. CYCLE   21 ..............................
........................................................................

 iter      E             dE          RMSdq      gap      omega  full diag
   1    -50.0406328 -0.500406E+02  0.779E-02    2.18       0.0  T
   2    -50.0406352 -0.245096E-05  0.444E-02    2.18       1.0  T
   3    -50.0406331  0.213724E-05  0.100E-02    2.18       1.7  T
   4    -50.0406361 -0.300218E-05  0.252E-03    2.18       6.8  T
   5    -50.0406361 -0.462635E-07  0.114E-03    2.18      15.0  T
   6    -50.0406361 -0.119929E-07  0.494E-04    2.18      34.7  T
   7    -50.0406362 -0.586720E-08  0.988E-05    2.18     173.7  T
   8    -50.0406362 -0.869136E-10  0.566E-05    2.18     303.0  T
     SCC iter.                  ...        0 min,  0.015 sec
     gradient                   ...        0 min,  0.015 sec
 * total energy  :   -49.1129122 Eh     change       -0.2708033E-04 Eh
   gradient norm :     0.0023051 Eh/α   predicted     0.0000000E+00 (-100.00%)
   displ. norm   :     0.0204828 α      lambda       -0.8714154E-05
   maximum displ.:     0.0122772 α      in ANC's #4, #1, #5, ...

........................................................................
.............................. CYCLE   22 ..............................
........................................................................

 iter      E             dE          RMSdq      gap      omega  full diag
   1    -50.0411451 -0.500411E+02  0.925E-03    2.18       0.0  T
   2    -50.0411451 -0.569868E-07  0.545E-03    2.18       3.1  T
   3    -50.0411451  0.525158E-07  0.157E-03    2.18      10.9  T
   4    -50.0411451 -0.611607E-07  0.376E-04    2.18      45.6  T
   5    -50.0411451 -0.423716E-08  0.118E-04    2.18     145.6  T
   6    -50.0411451 -0.115712E-09  0.648E-05    2.18     264.7  T
     SCC iter.                  ...        0 min,  0.009 sec
     gradient                   ...        0 min,  0.014 sec
 * total energy  :   -49.1129214 Eh     change       -0.9113901E-05 Eh
   gradient norm :     0.0008497 Eh/α   predicted    -0.6243448E-05 ( -31.50%)
   displ. norm   :     0.0595651 α      lambda       -0.1015257E-04
   maximum displ.:     0.0378712 α      in ANC's #4, #1, #5, ...

........................................................................
.............................. CYCLE   23 ..............................
........................................................................

 iter      E             dE          RMSdq      gap      omega  full diag
   1    -50.0416653 -0.500417E+02  0.217E-02    2.19       0.0  T
   2    -50.0416654 -0.109404E-06  0.127E-02    2.19       1.3  T
   3    -50.0416652  0.166481E-06  0.259E-03    2.19       6.6  T
   4    -50.0416654 -0.196114E-06  0.517E-04    2.19      33.1  T
   5    -50.0416654 -0.697850E-08  0.201E-04    2.19      85.4  T
   6    -50.0416654 -0.237783E-09  0.102E-04    2.19     168.9  T
   7    -50.0416654 -0.116430E-09  0.265E-05    2.19     646.7  T
     SCC iter.                  ...        0 min,  0.011 sec
     gradient                   ...        0 min,  0.014 sec
 * total energy  :   -49.1129298 Eh     change       -0.8421423E-05 Eh
   gradient norm :     0.0014831 Eh/α   predicted    -0.5084989E-05 ( -39.62%)
   displ. norm   :     0.0358974 α      lambda       -0.4332911E-05
   maximum displ.:     0.0216812 α      in ANC's #1, #4, #5, ...

........................................................................
.............................. CYCLE   24 ..............................
........................................................................

 iter      E             dE          RMSdq      gap      omega  full diag
   1    -50.0414421 -0.500414E+02  0.118E-02    2.19       0.0  T
   2    -50.0414421 -0.189630E-07  0.688E-03    2.19       2.5  T
   3    -50.0414421  0.200751E-08  0.533E-04    2.19      32.2  T
   4    -50.0414421 -0.675163E-08  0.179E-04    2.19      96.0  T
   5    -50.0414421 -0.292367E-09  0.897E-05    2.19     191.3  T
     SCC iter.                  ...        0 min,  0.008 sec
     gradient                   ...        0 min,  0.015 sec
 * total energy  :   -49.1129352 Eh     change       -0.5444139E-05 Eh
   gradient norm :     0.0010568 Eh/α   predicted    -0.2167883E-05 ( -60.18%)
   displ. norm   :     0.0588449 α      lambda       -0.5596627E-05
   maximum displ.:     0.0381882 α      in ANC's #1, #4, #5, ...

........................................................................
.............................. CYCLE   25 ..............................
........................................................................

 iter      E             dE          RMSdq      gap      omega  full diag
   1    -50.0411825 -0.500412E+02  0.179E-02    2.18       0.0  T
   2    -50.0411825 -0.524073E-07  0.105E-02    2.18       1.6  T
   3    -50.0411825  0.307803E-07  0.140E-03    2.18      12.2  T
   4    -50.0411826 -0.463411E-07  0.304E-04    2.18      56.5  T
   5    -50.0411826 -0.665423E-09  0.144E-04    2.18     119.0  T
   6    -50.0411826 -0.490488E-10  0.601E-05    2.18     285.2  T
     SCC iter.                  ...        0 min,  0.010 sec
     gradient                   ...        0 min,  0.016 sec
 * total energy  :   -49.1129412 Eh     change       -0.5992658E-05 Eh
   gradient norm :     0.0004309 Eh/α   predicted    -0.2803009E-05 ( -53.23%)
   displ. norm   :     0.0467426 α      lambda       -0.2415331E-05
   maximum displ.:     0.0330775 α      in ANC's #1, #4, #3, ...

........................................................................
.............................. CYCLE   26 ..............................
........................................................................

 iter      E             dE          RMSdq      gap      omega  full diag
   1    -50.0411507 -0.500412E+02  0.130E-02    2.18       0.0  T
   2    -50.0411507 -0.317891E-07  0.761E-03    2.18       2.3  T
   3    -50.0411506  0.429845E-07  0.142E-03    2.18      12.1  T
   4    -50.0411507 -0.550108E-07  0.255E-04    2.18      67.3  T
   5    -50.0411507 -0.560014E-09  0.116E-04    2.18     147.3  T
   6    -50.0411507 -0.846825E-10  0.551E-05    2.18     311.5  T
     SCC iter.                  ...        0 min,  0.010 sec
     gradient                   ...        0 min,  0.016 sec
 * total energy  :   -49.1129440 Eh     change       -0.2731659E-05 Eh
   gradient norm :     0.0004298 Eh/α   predicted    -0.1209065E-05 ( -55.74%)
   displ. norm   :     0.0272895 α      lambda       -0.1297152E-05
   maximum displ.:     0.0214170 α      in ANC's #1, #4, #3, ...

........................................................................
.............................. CYCLE   27 ..............................
........................................................................

 iter      E             dE          RMSdq      gap      omega  full diag
   1    -50.0412514 -0.500413E+02  0.660E-03    2.18       0.0  T
   2    -50.0412514 -0.147069E-07  0.385E-03    2.18       4.5  T
   3    -50.0412513  0.303709E-07  0.112E-03    2.18      15.3  T
   4    -50.0412514 -0.368512E-07  0.193E-04    2.18      88.7  T
   5    -50.0412514 -0.453710E-09  0.917E-05    2.18     187.1  T
     SCC iter.                  ...        0 min,  0.009 sec
     gradient                   ...        0 min,  0.016 sec
 * total energy  :   -49.1129456 Eh     change       -0.1672099E-05 Eh
   gradient norm :     0.0002921 Eh/α   predicted    -0.6496080E-06 ( -61.15%)
   displ. norm   :     0.0239238 α      lambda       -0.1271468E-05
   maximum displ.:     0.0189743 α      in ANC's #1, #3, #5, ...

........................................................................
.............................. CYCLE   28 ..............................
........................................................................

 iter      E             dE          RMSdq      gap      omega  full diag
   1    -50.0413603 -0.500414E+02  0.533E-03    2.18       0.0  T
   2    -50.0413603 -0.112154E-07  0.310E-03    2.18       5.5  T
   3    -50.0413603  0.211090E-07  0.917E-04    2.18      18.7  T
   4    -50.0413603 -0.260755E-07  0.180E-04    2.18      95.2  T
   5    -50.0413603 -0.352671E-09  0.827E-05    2.18     207.4  T
     SCC iter.                  ...        0 min,  0.009 sec
     gradient                   ...        0 min,  0.015 sec
 * total energy  :   -49.1129473 Eh     change       -0.1675656E-05 Eh
   gradient norm :     0.0002282 Eh/α   predicted    -0.6361563E-06 ( -62.04%)
   displ. norm   :     0.0286789 α      lambda       -0.1355423E-05
   maximum displ.:     0.0217742 α      in ANC's #1, #5, #3, ...

........................................................................
.............................. CYCLE   29 ..............................
........................................................................

 iter      E             dE          RMSdq      gap      omega  full diag
   1    -50.0414128 -0.500414E+02  0.667E-03    2.18       0.0  T
   2    -50.0414128 -0.113363E-07  0.388E-03    2.18       4.4  T
   3    -50.0414128  0.152268E-07  0.763E-04    2.18      22.5  T
   4    -50.0414128 -0.202200E-07  0.196E-04    2.18      87.7  T
   5    -50.0414128 -0.160647E-09  0.940E-05    2.18     182.5  T
     SCC iter.                  ...        0 min,  0.008 sec
     gradient                   ...        0 min,  0.016 sec
 * total energy  :   -49.1129491 Eh     change       -0.1771144E-05 Eh
   gradient norm :     0.0002818 Eh/α   predicted    -0.6808559E-06 ( -61.56%)
   displ. norm   :     0.0288503 α      lambda       -0.1146422E-05
   maximum displ.:     0.0221205 α      in ANC's #1, #5, #3, ...

........................................................................
.............................. CYCLE   30 ..............................
........................................................................

 iter      E             dE          RMSdq      gap      omega  full diag
   1    -50.0414262 -0.500414E+02  0.683E-03    2.18       0.0  T
   2    -50.0414263 -0.108131E-07  0.396E-03    2.18       4.3  T
   3    -50.0414262  0.962573E-08  0.656E-04    2.18      26.2  T
   4    -50.0414263 -0.143796E-07  0.166E-04    2.18     103.4  T
   5    -50.0414263 -0.416378E-10  0.452E-05    2.18     379.5  T
     SCC iter.                  ...        0 min,  0.008 sec
     gradient                   ...        0 min,  0.016 sec
 * total energy  :   -49.1129505 Eh     change       -0.1458447E-05 Eh
   gradient norm :     0.0002556 Eh/α   predicted    -0.5741239E-06 ( -60.63%)
   displ. norm   :     0.0218506 α      lambda       -0.7480093E-06
   maximum displ.:     0.0178278 α      in ANC's #1, #2, #5, ...

........................................................................
.............................. CYCLE   31 ..............................
........................................................................

 iter      E             dE          RMSdq      gap      omega  full diag
   1    -50.0414004 -0.500414E+02  0.520E-03    2.18       0.0  T
   2    -50.0414004 -0.604588E-08  0.303E-03    2.18       5.7  T
   3    -50.0414004  0.836889E-08  0.598E-04    2.18      28.7  T
   4    -50.0414004 -0.111358E-07  0.116E-04    2.18     147.3  T
   5    -50.0414004 -0.589750E-12  0.606E-05    2.18     283.1  T
     SCC iter.                  ...        0 min,  0.007 sec
     gradient                   ...        0 min,  0.014 sec
 * total energy  :   -49.1129515 Eh     change       -0.9618565E-06 Eh
   gradient norm :     0.0001583 Eh/α   predicted    -0.3751237E-06 ( -61.00%)
   displ. norm   :     0.0143153 α      lambda       -0.4746449E-06
   maximum displ.:     0.0127377 α      in ANC's #1, #2, #3, ...

........................................................................
.............................. CYCLE   32 ..............................
........................................................................

 iter      E             dE          RMSdq      gap      omega  full diag
   1    -50.0413775 -0.500414E+02  0.356E-03    2.18       0.0  T
   2    -50.0413775 -0.353109E-08  0.209E-03    2.18       8.2  T
   3    -50.0413775  0.781645E-08  0.561E-04    2.18      30.6  T
   4    -50.0413775 -0.945687E-08  0.718E-05    2.18     238.9  T
   5    -50.0413775 -0.510454E-10  0.412E-05    2.18     416.0  T
     SCC iter.                  ...        0 min,  0.009 sec
     gradient                   ...        0 min,  0.015 sec
 * total energy  :   -49.1129521 Eh     change       -0.6500148E-06 Eh
   gradient norm :     0.0000931 Eh/α   predicted    -0.2390577E-06 ( -63.22%)
   displ. norm   :     0.0106300 α      lambda       -0.3824577E-06
   maximum displ.:     0.0098942 α      in ANC's #1, #2, #8, ...

........................................................................
.............................. CYCLE   33 ..............................
........................................................................

 iter      E             dE          RMSdq      gap      omega  full diag
   1    -50.0413547 -0.500414E+02  0.285E-03    2.18       0.0  T
   2    -50.0413547 -0.195065E-08  0.167E-03    2.18      10.2  T
   3    -50.0413547  0.536196E-08  0.456E-04    2.18      37.6  T
   4    -50.0413547 -0.628908E-08  0.503E-05    2.18     341.0  T
   5    -50.0413547 -0.497593E-10  0.241E-05    2.18     710.9  T
     SCC iter.                  ...        0 min,  0.008 sec
     gradient                   ...        0 min,  0.015 sec
 * total energy  :   -49.1129527 Eh     change       -0.5444397E-06 Eh
   gradient norm :     0.0000966 Eh/α   predicted    -0.1922307E-06 ( -64.69%)
   displ. norm   :     0.0114465 α      lambda       -0.4232508E-06
   maximum displ.:     0.0101220 α      in ANC's #1, #5, #8, ...

........................................................................
.............................. CYCLE   34 ..............................
........................................................................

 iter      E             dE          RMSdq      gap      omega  full diag
   1    -50.0413323 -0.500413E+02  0.333E-03    2.18       0.0  T
   2    -50.0413323 -0.248478E-08  0.194E-03    2.18       8.8  T
   3    -50.0413323  0.542817E-08  0.464E-04    2.18      36.9  T
   4    -50.0413323 -0.652040E-08  0.708E-05    2.18     242.3  T
   5    -50.0413323 -0.617959E-10  0.353E-05    2.18     486.3  T
     SCC iter.                  ...        0 min,  0.008 sec
     gradient                   ...        0 min,  0.014 sec
 * total energy  :   -49.1129533 Eh     change       -0.6067677E-06 Eh
   gradient norm :     0.0001225 Eh/α   predicted    -0.2120760E-06 ( -65.05%)
   displ. norm   :     0.0150109 α      lambda       -0.5323826E-06
   maximum displ.:     0.0124281 α      in ANC's #1, #5, #4, ...

........................................................................
.............................. CYCLE   35 ..............................
........................................................................

 iter      E             dE          RMSdq      gap      omega  full diag
   1    -50.0413186 -0.500413E+02  0.457E-03    2.18       0.0  T
   2    -50.0413186 -0.514714E-08  0.265E-03    2.18       6.5  T
   3    -50.0413186  0.778240E-08  0.579E-04    2.18      29.6  T
   4    -50.0413186 -0.978859E-08  0.107E-04    2.18     160.8  T
   5    -50.0413186 -0.100023E-09  0.509E-05    2.18     337.2  T
     SCC iter.                  ...        0 min,  0.007 sec
     gradient                   ...        0 min,  0.015 sec
 * total energy  :   -49.1129540 Eh     change       -0.7444017E-06 Eh
   gradient norm :     0.0001284 Eh/α   predicted    -0.2666409E-06 ( -64.18%)
   displ. norm   :     0.0193642 α      lambda       -0.6249516E-06
   maximum displ.:     0.0155843 α      in ANC's #1, #5, #4, ...

........................................................................
.............................. CYCLE   36 ..............................
........................................................................

 iter      E             dE          RMSdq      gap      omega  full diag
   1    -50.0413052 -0.500413E+02  0.611E-03    2.18       0.0  T
   2    -50.0413052 -0.924401E-08  0.353E-03    2.18       4.9  T
   3    -50.0413052  0.105453E-07  0.700E-04    2.18      24.5  T
   4    -50.0413052 -0.140050E-07  0.150E-04    2.18     114.1  T
   5    -50.0413052 -0.156383E-09  0.685E-05    2.18     250.5  T
     SCC iter.                  ...        0 min,  0.008 sec
     gradient                   ...        0 min,  0.015 sec
 * total energy  :   -49.1129549 Eh     change       -0.8476856E-06 Eh
   gradient norm :     0.0001100 Eh/α   predicted    -0.3132278E-06 ( -63.05%)
   displ. norm   :     0.0204604 α      lambda       -0.5836055E-06
   maximum displ.:     0.0166252 α      in ANC's #1, #4, #5, ...

........................................................................
.............................. CYCLE   37 ..............................
........................................................................

 iter      E             dE          RMSdq      gap      omega  full diag
   1    -50.0412939 -0.500413E+02  0.658E-03    2.18       0.0  T
   2    -50.0412939 -0.106738E-07  0.380E-03    2.18       4.5  T
   3    -50.0412939  0.120983E-07  0.758E-04    2.18      22.6  T
   4    -50.0412939 -0.159332E-07  0.154E-04    2.18     111.3  T
   5    -50.0412939 -0.172030E-09  0.685E-05    2.18     250.4  T
     SCC iter.                  ...        0 min,  0.009 sec
     gradient                   ...        0 min,  0.014 sec
 * total energy  :   -49.1129557 Eh     change       -0.7809282E-06 Eh
   gradient norm :     0.0000794 Eh/α   predicted    -0.2951869E-06 ( -62.20%)
   displ. norm   :     0.0173705 α      lambda       -0.4360138E-06
   maximum displ.:     0.0144658 α      in ANC's #1, #4, #5, ...

........................................................................
.............................. CYCLE   38 ..............................
........................................................................

 iter      E             dE          RMSdq      gap      omega  full diag
   1    -50.0412907 -0.500413E+02  0.572E-03    2.18       0.0  T
   2    -50.0412907 -0.736460E-08  0.332E-03    2.18       5.2  T
   3    -50.0412907  0.831822E-08  0.630E-04    2.18      27.2  T
   4    -50.0412907 -0.109629E-07  0.128E-04    2.18     134.2  T
   5    -50.0412907 -0.113637E-09  0.566E-05    2.18     302.9  T
     SCC iter.                  ...        0 min,  0.007 sec
     gradient                   ...        0 min,  0.014 sec
 * total energy  :   -49.1129563 Eh     change       -0.6068542E-06 Eh
   gradient norm :     0.0000613 Eh/α   predicted    -0.2196688E-06 ( -63.80%)
   displ. norm   :     0.0136749 α      lambda       -0.3265757E-06
   maximum displ.:     0.0116520 α      in ANC's #1, #4, #2, ...

........................................................................
.............................. CYCLE   39 ..............................
........................................................................

 iter      E             dE          RMSdq      gap      omega  full diag
   1    -50.0412917 -0.500413E+02  0.458E-03    2.18       0.0  T
   2    -50.0412917 -0.375203E-08  0.266E-03    2.18       6.4  T
   3    -50.0412917  0.463749E-08  0.466E-04    2.18      36.8  T
   4    -50.0412917 -0.599178E-08  0.883E-05    2.18     194.2  T
   5    -50.0412917 -0.562395E-10  0.394E-05    2.18     435.2  T
     SCC iter.                  ...        0 min,  0.008 sec
     gradient                   ...        0 min,  0.016 sec
 * total energy  :   -49.1129567 Eh     change       -0.4746967E-06 Eh
   gradient norm :     0.0000539 Eh/α   predicted    -0.1668286E-06 ( -64.86%)
   displ. norm   :     0.0119149 α      lambda       -0.2921635E-06
   maximum displ.:     0.0101119 α      in ANC's #1, #4, #2, ...

........................................................................
.............................. CYCLE   40 ..............................
........................................................................

 iter      E             dE          RMSdq      gap      omega  full diag
   1    -50.0412950 -0.500413E+02  0.408E-03    2.18       0.0  T
   2    -50.0412950 -0.198891E-08  0.238E-03    2.18       7.2  T
   3    -50.0412950  0.243142E-08  0.334E-04    2.18      51.3  T
   4    -50.0412950 -0.317488E-08  0.649E-05    2.18     264.4  T
   5    -50.0412950 -0.277751E-10  0.297E-05    2.18     577.2  T
     SCC iter.                  ...        0 min,  0.007 sec
     gradient                   ...        0 min,  0.016 sec
 * total energy  :   -49.1129572 Eh     change       -0.4276055E-06 Eh
   gradient norm :     0.0000593 Eh/α   predicted    -0.1485202E-06 ( -65.27%)
   displ. norm   :     0.0127588 α      lambda       -0.3144951E-06
   maximum displ.:     0.0104872 α      in ANC's #1, #2, #4, ...

........................................................................
.............................. CYCLE   41 ..............................
........................................................................

 iter      E             dE          RMSdq      gap      omega  full diag
   1    -50.0412959 -0.500413E+02  0.440E-03    2.18       0.0  T
   2    -50.0412959 -0.129560E-08  0.257E-03    2.18       6.7  T
   3    -50.0412959  0.141157E-08  0.255E-04    2.18      67.2  T
   4    -50.0412959 -0.194627E-08  0.519E-05    2.18     330.3  T
   5    -50.0412959 -0.132090E-10  0.248E-05    2.18     690.6  T
     SCC iter.                  ...        0 min,  0.008 sec
     gradient                   ...        0 min,  0.015 sec
 * total energy  :   -49.1129576 Eh     change       -0.4610012E-06 Eh
   gradient norm :     0.0000625 Eh/α   predicted    -0.1600168E-06 ( -65.29%)
   displ. norm   :     0.0156055 α      lambda       -0.3749435E-06
   maximum displ.:     0.0123639 α      in ANC's #1, #2, #3, ...

........................................................................
.............................. CYCLE   42 ..............................
........................................................................

 iter      E             dE          RMSdq      gap      omega  full diag
   1    -50.0412951 -0.500413E+02  0.541E-03    2.18       0.0  T
   2    -50.0412951 -0.117402E-08  0.317E-03    2.18       5.4  T
   3    -50.0412951  0.545917E-09  0.189E-04    2.18      90.6  T
   4    -50.0412951 -0.109603E-08  0.535E-05    2.18     320.6  T
     SCC iter.                  ...        0 min,  0.007 sec
     gradient                   ...        0 min,  0.014 sec
 * total energy  :   -49.1129582 Eh     change       -0.5458016E-06 Eh
   gradient norm :     0.0000639 Eh/α   predicted    -0.1912268E-06 ( -64.96%)
   displ. norm   :     0.0191797 α      lambda       -0.4439303E-06
   maximum displ.:     0.0147793 α      in ANC's #1, #2, #3, ...
 * RMSD in coord.:     0.0695386 α      energy gain  -0.7301351E-04 Eh

generating ANC from exact Hessian ...
Using Lindh-Hessian (1995)
 Shifting diagonal of input Hessian by    9.5467377112289902E-003
 Lowest  eigenvalues of input Hessian
    0.000000    0.000000    0.000000    0.000000    0.000000    0.000000
    0.010000    0.010416    0.010553    0.011490    0.013263    0.014599
    0.015712    0.018362    0.019495    0.021994    0.022576    0.025131
 Highest eigenvalues
    1.966556    1.997464    2.011952    2.034482    2.120600    2.239773


........................................................................
.............................. CYCLE   43 ..............................
........................................................................

 iter      E             dE          RMSdq      gap      omega  full diag
   1    -50.0412947 -0.500413E+02  0.665E-03    2.18       0.0  T
   2    -50.0412947 -0.129420E-08  0.390E-03    2.18       4.4  T
   3    -50.0412947  0.345288E-09  0.177E-04    2.18      96.7  T
   4    -50.0412947 -0.103799E-08  0.574E-05    2.18     299.0  T
     SCC iter.                  ...        0 min,  0.007 sec
     gradient                   ...        0 min,  0.015 sec
 * total energy  :   -49.1129588 Eh     change       -0.6368997E-06 Eh
   gradient norm :     0.0000600 Eh/α   predicted     0.0000000E+00 (-100.00%)
   displ. norm   :     0.0000900 α      lambda        0.0000000E+00
   maximum displ.:     0.0000522 α      in ANC's #1, #93, #69, ...

........................................................................
.............................. CYCLE   44 ..............................
........................................................................

 iter      E             dE          RMSdq      gap      omega  full diag
   1    -50.0412859 -0.500413E+02  0.853E-05    2.18       0.0  T
   2    -50.0412859 -0.654410E-10  0.552E-05    2.18     310.4  T
   3    -50.0412859 -0.146656E-10  0.316E-05    2.18     542.4  T
     SCC iter.                  ...        0 min,  0.006 sec
     gradient                   ...        0 min,  0.014 sec
 * total energy  :   -49.1129588 Eh     change       -0.3682814E-08 Eh
   gradient norm :     0.0000510 Eh/α   predicted    -0.2428078E-08 ( -34.07%)
   displ. norm   :     0.0000900 α      lambda        0.0000000E+00
   maximum displ.:     0.0000522 α      in ANC's #1, #93, #69, ...

   *** GEOMETRY OPTIMIZATION CONVERGED AFTER 44 ITERATIONS ***

------------------------------------------------------------------------
 total energy gain   :        -0.0087287 Eh       -5.4773 kcal/mol
 total RMSD          :         0.6115891 a0        0.3236 Å
 total power (kW/mol):        -0.5208452 (step)  -14.8325 (real)
------------------------------------------------------------------------

 ANCopt (total)                0 d,  0 h,  0 min,  1.545 sec
 optimizer setup                ...        0 min,  0.000 sec (  0.031%)
 model hessian                  ...        0 min,  0.019 sec (  1.233%)
 ANC generation                 ...        0 min,  0.003 sec (  0.222%)
 coordinate transformation      ...        0 min,  0.001 sec (  0.048%)
 single point calculation       ...        0 min,  1.501 sec ( 97.128%)
 optimization log               ...        0 min,  0.011 sec (  0.702%)
 hessian update                 ...        0 min,  0.001 sec (  0.096%)
 rational function              ...        0 min,  0.006 sec (  0.368%)

================
 final structure:
================
34
 xtb: 6.7.1 (edcfbbe)
C            1.18929176817439       -0.56873086042285        1.70432488164157
C            0.76938453123975        0.00659178803408        0.37717174362456
N            1.57749231265063        0.47120641903139       -0.48303394768093
C            2.95000380786309        0.44885315021024       -0.44366567063471
C            3.65582851823422        1.65504315730223       -0.46503755172817
C            5.03435776235859        1.65339062576626       -0.53340399492770
C            5.73443020172441        0.45881490521774       -0.60708021500034
C            5.04072456043347       -0.74029305939871       -0.60757913311730
C            3.66235225611003       -0.75197317372873       -0.51999907934578
C           -0.66494744308743        0.06738549629046        0.05953553558891
C           -1.08162314072041        0.80687094534581       -1.07439490721843
C           -2.39767303759160        0.88640676432890       -1.41772784551076
C           -3.38813160047658        0.22711060907422       -0.65577011691370
C           -4.75755079410507        0.28441677120542       -0.98420449944289
C           -5.68614829675987       -0.37229517782549       -0.22424207881339
C           -5.28703976563042       -1.11486108779110        0.89864965786993
C           -3.96637347872185       -1.18835152822948        1.24380069664227
C           -2.98311031979307       -0.52211170014792        0.48024541695383
C           -1.61594038864966       -0.58137442157104        0.81541690598313
H            0.62596837143503       -0.10497035499413        2.51208692038188
H            1.00262501694004       -1.64199099246675        1.72310377106208
H            2.25216570606618       -0.39875769562005        1.86701938596035
H            3.10561751571602        2.58304726760873       -0.40790334478532
H            5.56907935843797        2.59292697071479       -0.53481622364525
H            6.81290435801765        0.46314561401945       -0.66741599753746
H            5.57831148555440       -1.67637616449188       -0.66912007966210
H            3.11767152705874       -1.68599896676834       -0.52845077290071
H           -0.32161316126573        1.30662964217776       -1.65458796393394
H           -2.70485100238939        1.45690619746960       -2.28318654500979
H           -5.06040109464197        0.85672437172083       -1.84997226244831
H           -6.73435884096402       -0.32536826892799       -0.48243128296667
H           -6.03409668111777       -1.62792098509523        1.48710608358808
H           -3.65559894341556       -1.75873332453316        2.10823731371507
H           -1.33875106878394       -1.16536293330327        1.68067433141268

 Bond Distances (Angstroems)
 ---------------------------
C1-C2=1.5062         C1-H20=1.0885        C1-H21=1.0895        C1-H22=1.0886        C2-C1=1.5062         C2-N3=1.2684         
C2-C10=1.4703        N3-C2=1.2684         N3-C4=1.3733         C4-N3=1.3733         C4-C5=1.3977         C4-C9=1.3983         
C5-C4=1.3977         C5-C6=1.3802         C5-H23=1.0804        C6-C5=1.3802         C6-C7=1.3866         C6-H24=1.0810        
C7-C6=1.3866         C7-C8=1.3853         C7-H25=1.0802        C8-C7=1.3853         C8-C9=1.3812         C8-H26=1.0812        
C9-C4=1.3983         C9-C8=1.3812         C9-H27=1.0813        C10-C2=1.4703        C10-C11=1.4164       C10-C19=1.3772       
C11-C10=1.4164       C11-C12=1.3624       C11-H28=1.0789       C12-C11=1.3624       C12-C13=1.4129       C12-H29=1.0811       
C13-C12=1.4129       C13-C14=1.4094       C13-C18=1.4198       C14-C13=1.4094       C14-C15=1.3679       C14-H30=1.0811       
C15-C14=1.3679       C15-C16=1.4041       C15-H31=1.0806       C16-C15=1.4041       C16-C17=1.3670       C16-H32=1.0806       
C17-C16=1.3670       C17-C18=1.4120       C17-H33=1.0813       C18-C13=1.4198       C18-C17=1.4120       C18-C19=1.4089       
C19-C10=1.3772       C19-C18=1.4089       C19-H34=1.0801       H20-C1=1.0885        H21-C1=1.0895        H22-C1=1.0886        
H23-C5=1.0804        H24-C6=1.0810        H25-C7=1.0802        H26-C8=1.0812        H27-C9=1.0813        H28-C11=1.0789       
H29-C12=1.0811       H30-C14=1.0811       H31-C15=1.0806       H32-C16=1.0806       H33-C17=1.0813       H34-C19=1.0801       
 C  H  Rav=1.0823 sigma=0.0034  Rmin=1.0789  Rmax=1.0895    15
 C  C  Rav=1.4034 sigma=0.0343  Rmin=1.3624  Rmax=1.5062    19
 N  C  Rav=1.3208 sigma=0.0524  Rmin=1.2684  Rmax=1.3733     2

 selected bond angles (degree)
 --------------------
H20-C1-C2=110.29               H21-C1-C2=110.10               H21-C1-H20=108.56              H22-C1-C2=110.14               
H22-C1-H20=109.14              H22-C1-H21=108.57              N3-C2-C1=124.05                C10-C2-C1=118.56               
C10-C2-N3=117.38               C4-N3-C2=127.69                C5-C4-N3=119.36                C9-C4-N3=121.44                
C9-C4-C5=118.88                C6-C5-C4=120.27                H23-C5-C4=118.90               H23-C5-C6=120.82               
C7-C6-C5=120.53                H24-C6-C5=119.54               H24-C6-C7=119.93               C8-C7-C6=119.53                
H25-C7-C6=120.24               H25-C7-C8=120.23               C9-C8-C7=120.47                H26-C8-C7=120.03               
H26-C8-C9=119.50               C8-C9-C4=120.30                H27-C9-C4=119.05               H27-C9-C8=120.63               
C11-C10-C2=118.78              C19-C10-C2=122.38              C19-C10-C11=118.83             

 selected dihedral angles (degree)
 ---------------------------------
N3-C2-C1-H20=128.40           N3-C2-C1-H21=248.18           N3-C2-C1-H22=  7.88           C10-C2-C1-H20=309.86          
C10-C2-C1-H21= 69.64          C10-C2-C1-H22=189.34          C4-N3-C2-C1=  5.78            C4-N3-C2-C10=184.33           
C5-C4-N3-C2=239.65            C9-C4-N3-C2= 66.26            C6-C5-C4-N3=185.15            C6-C5-C4-C9=358.72            
H23-C5-C4-N3=  6.33           H23-C5-C4-C9=179.89           C7-C6-C5-C4=  1.22            C7-C6-C5-H23=180.03           
H24-C6-C5-C4=180.88           H24-C6-C5-H23=359.69          C8-C7-C6-C5=359.80            C8-C7-C6-H24=180.14           
H25-C7-C6-C5=179.57           H25-C7-C6-H24=359.91          C9-C8-C7-C6=359.26            C9-C8-C7-H25=179.49           
H26-C8-C7-C6=179.73           H26-C8-C7-H25=359.96          C8-C9-C4-N3=173.77            C8-C9-C4-C5=  0.35            
H27-C9-C4-N3=354.93           H27-C9-C4-C5=181.50           C4-C9-C8-C7=  0.66            C4-C9-C8-H26=180.19           
H27-C9-C8-C7=179.49           H27-C9-C8-H26=359.02          C11-C10-C2-C1=169.39          C11-C10-C2-N3=350.75          
C19-C10-C2-C1=348.61          C19-C10-C2-N3=169.97          
           -------------------------------------------------
          |                Final Singlepoint                |
           -------------------------------------------------

          ...................................................
          :                      SETUP                      :
          :.................................................:
          :  # basis functions                  91          :
          :  # atomic orbitals                  91          :
          :  # shells                           53          :
          :  # electrons                        92          :
          :  max. iterations                   250          :
          :  Hamiltonian                  GFN2-xTB          :
          :  restarted?                      false          :
          :  GBSA solvation                   true          :
          :  PC potential                    false          :
          :  electronic temp.          300.0000000     K    :
          :  accuracy                    0.2000000          :
          :  -> integral cutoff          0.3198970E+02      :
          :  -> integral neglect         0.2000000E-08      :
          :  -> SCF convergence          0.2000000E-06 Eh   :
          :  -> wf. convergence          0.2000000E-04 e    :
          :  Broyden damping             0.4000000          :
          :  net charge                          0          :
          :  unpaired electrons                  0          :
          ...................................................

 iter      E             dE          RMSdq      gap      omega  full diag
   1    -50.0412859 -0.500413E+02  0.135E-05    2.18       0.0  T
   2    -50.0412859 -0.101608E-11  0.109E-05    2.18    1578.5  T
   3    -50.0412859 -0.364508E-11  0.349E-06    2.18    4912.2  T

   *** convergence criteria satisfied after 3 iterations ***

         #    Occupation            Energy/Eh            Energy/eV
      -------------------------------------------------------------
         1        2.0000           -0.6533770             -17.7793
       ...           ...                  ...                  ...
        40        2.0000           -0.4155306             -11.3072
        41        2.0000           -0.4135871             -11.2543
        42        2.0000           -0.4077762             -11.0962
        43        2.0000           -0.3965952             -10.7919
        44        2.0000           -0.3942068             -10.7269
        45        2.0000           -0.3802901             -10.3482
        46        2.0000           -0.3547497              -9.6532 (HOMO)
        47                         -0.2746121              -7.4726 (LUMO)
        48                         -0.2486201              -6.7653
        49                         -0.2147206              -5.8428
        50                         -0.2137661              -5.8169
        51                         -0.1989074              -5.4125
       ...                                ...                  ...
        91                          0.7125156              19.3885
      -------------------------------------------------------------
                  HL-Gap            0.0801376 Eh            2.1807 eV
             Fermi-level           -0.3146809 Eh           -8.5629 eV

 SCC (total)                   0 d,  0 h,  0 min,  0.026 sec
 SCC setup                      ...        0 min,  0.001 sec (  3.799%)
 Dispersion                     ...        0 min,  0.000 sec (  1.408%)
 classical contributions        ...        0 min,  0.000 sec (  0.359%)
 integral evaluation            ...        0 min,  0.005 sec ( 19.078%)
 iterations                     ...        0 min,  0.005 sec ( 18.790%)
 molecular gradient             ...        0 min,  0.015 sec ( 55.386%)
 printout                       ...        0 min,  0.000 sec (  1.060%)

         :::::::::::::::::::::::::::::::::::::::::::::::::::::
         ::                     SUMMARY                     ::
         :::::::::::::::::::::::::::::::::::::::::::::::::::::
         :: total energy             -49.112958821033 Eh    ::
         :: total w/o Gsasa/hb       -49.091939381503 Eh    ::
         :: gradient norm              0.000053552967 Eh/a0 ::
         :: HOMO-LUMO gap              2.180655175354 eV    ::
         ::.................................................::
         :: SCC energy               -50.041541912050 Eh    ::
         :: -> isotropic ES            0.010280486037 Eh    ::
         :: -> anisotropic ES          0.005943197275 Eh    ::
         :: -> anisotropic XC          0.035015298148 Eh    ::
         :: -> dispersion             -0.036279202097 Eh    ::
         :: -> Gsolv                  -0.021291965649 Eh    ::
         ::    -> Gelec               -0.000272526119 Eh    ::
         ::    -> Gsasa               -0.023227582669 Eh    ::
         ::    -> Ghb                  0.000000000000 Eh    ::
         ::    -> Gshift               0.002208143139 Eh    ::
         :: repulsion energy           0.928583091016 Eh    ::
         :: add. restraining           0.000000000000 Eh    ::
         :: total charge               0.000000000000 e     ::
         :::::::::::::::::::::::::::::::::::::::::::::::::::::

           -------------------------------------------------
          |                Property Printout                |
           -------------------------------------------------

    * Orbital Energies and Occupations

         #    Occupation            Energy/Eh            Energy/eV
      -------------------------------------------------------------
         1        2.0000           -0.6533770             -17.7793
       ...           ...                  ...                  ...
        34        2.0000           -0.4566764             -12.4268
        35        2.0000           -0.4434294             -12.0663
        36        2.0000           -0.4390825             -11.9480
        37        2.0000           -0.4290592             -11.6753
        38        2.0000           -0.4278918             -11.6435
        39        2.0000           -0.4227698             -11.5042
        40        2.0000           -0.4155306             -11.3072
        41        2.0000           -0.4135871             -11.2543
        42        2.0000           -0.4077762             -11.0962
        43        2.0000           -0.3965952             -10.7919
        44        2.0000           -0.3942068             -10.7269
        45        2.0000           -0.3802901             -10.3482
        46        2.0000           -0.3547497              -9.6532 (HOMO)
        47                         -0.2746121              -7.4726 (LUMO)
        48                         -0.2486201              -6.7653
        49                         -0.2147206              -5.8428
        50                         -0.2137661              -5.8169
        51                         -0.1989074              -5.4125
        52                         -0.1845393              -5.0216
        53                         -0.1311033              -3.5675
        54                         -0.0809653              -2.2032
        55                         -0.0544637              -1.4820
        56                          0.0748365               2.0364
        57                          0.1034039               2.8138
       ...                                ...                  ...
        91                          0.7125156              19.3885
      -------------------------------------------------------------
                  HL-Gap            0.0801376 Eh            2.1807 eV
             Fermi-level           -0.3146809 Eh           -8.5629 eV

     #   Z          covCN         q      C6AA      α(0)
     1   6 C        3.755    -0.116    22.780     6.806
     2   6 C        2.898     0.112    25.539     8.286
     3   7 N        1.849    -0.215    26.519     7.632
     4   6 C        2.923     0.084    26.122     8.382
     5   6 C        2.924    -0.048    29.194     8.861
     6   6 C        2.919    -0.031    28.780     8.797
     7   6 C        2.919    -0.042    29.044     8.838
     8   6 C        2.918    -0.032    28.793     8.799
     9   6 C        2.922    -0.051    29.263     8.871
    10   6 C        2.978     0.003    27.962     8.674
    11   6 C        2.920    -0.029    28.733     8.790
    12   6 C        2.915    -0.034    28.857     8.809
    13   6 C        2.987     0.015    27.663     8.628
    14   6 C        2.917    -0.034    28.858     8.809
    15   6 C        2.916    -0.029    28.713     8.787
    16   6 C        2.915    -0.030    28.743     8.792
    17   6 C        2.918    -0.035    28.864     8.810
    18   6 C        2.985     0.013    27.725     8.637
    19   6 C        2.922    -0.038    28.944     8.823
    20   1 H        0.925     0.052     2.297     2.370
    21   1 H        0.925     0.055     2.263     2.353
    22   1 H        0.925     0.045     2.388     2.417
    23   1 H        0.926     0.029     2.595     2.519
    24   1 H        0.926     0.026     2.650     2.546
    25   1 H        0.926     0.023     2.692     2.566
    26   1 H        0.925     0.024     2.668     2.554
    27   1 H        0.925     0.023     2.690     2.565
    28   1 H        0.926     0.054     2.269     2.355
    29   1 H        0.926     0.036     2.500     2.473
    30   1 H        0.926     0.034     2.534     2.489
    31   1 H        0.926     0.033     2.550     2.497
    32   1 H        0.926     0.032     2.554     2.499
    33   1 H        0.925     0.033     2.547     2.496
    34   1 H        0.926     0.040     2.447     2.446

 Mol. C6AA /au·bohr⁶  :      15399.430447
 Mol. C8AA /au·bohr⁸  :     382863.768168
 Mol. α(0) /au        :        199.973866


Wiberg/Mayer (AO) data.
largest (>0.10) Wiberg bond orders for each atom

 ---------------------------------------------------------------------------
     #   Z sym  total        # sym  WBO       # sym  WBO       # sym  WBO
 ---------------------------------------------------------------------------
     1   6 C    3.996 --     2 C    1.006    22 H    0.981    20 H    0.971
                            21 H    0.963
     2   6 C    3.964 --     3 N    1.761    10 C    1.060     1 C    1.006
     3   7 N    3.211 --     2 C    1.761     4 C    1.138
     4   6 C    3.976 --     5 C    1.341     9 C    1.339     3 N    1.138
     5   6 C    3.984 --     6 C    1.464     4 C    1.341    23 H    0.971
                             8 C    0.105
     6   6 C    3.992 --     5 C    1.464     7 C    1.424    24 H    0.971
                             9 C    0.103
     7   6 C    3.989 --     8 C    1.431     6 C    1.424    25 H    0.972
     8   6 C    3.992 --     9 C    1.457     7 C    1.431    26 H    0.970
                             5 C    0.105
     9   6 C    3.983 --     8 C    1.457     4 C    1.339    27 H    0.971
                             6 C    0.103
    10   6 C    3.988 --    19 C    1.488    11 C    1.262     2 C    1.060
    11   6 C    3.989 --    12 C    1.584    10 C    1.262    28 H    0.965
    12   6 C    3.992 --    11 C    1.584    13 C    1.266    29 H    0.967
                            19 C    0.106
    13   6 C    3.988 --    14 C    1.287    12 C    1.266    18 C    1.248
    14   6 C    3.991 --    15 C    1.551    13 C    1.287    30 H    0.968
                            17 C    0.117
    15   6 C    3.983 --    14 C    1.551    16 C    1.322    31 H    0.971
    16   6 C    3.992 --    17 C    1.557    15 C    1.322    32 H    0.971
    17   6 C    3.984 --    16 C    1.557    18 C    1.276    33 H    0.968
                            14 C    0.117
    18   6 C    3.990 --    19 C    1.291    17 C    1.276    13 C    1.248
    19   6 C    3.982 --    10 C    1.488    18 C    1.291    34 H    0.964
                            12 C    0.106
    20   1 H    0.997 --     1 C    0.971
    21   1 H    0.996 --     1 C    0.963
    22   1 H    0.998 --     1 C    0.981
    23   1 H    0.999 --     5 C    0.971
    24   1 H    0.998 --     6 C    0.971
    25   1 H    0.999 --     7 C    0.972
    26   1 H    0.999 --     8 C    0.970
    27   1 H    0.999 --     9 C    0.971
    28   1 H    0.997 --    11 C    0.965
    29   1 H    0.998 --    12 C    0.967
    30   1 H    0.998 --    14 C    0.968
    31   1 H    0.998 --    15 C    0.971
    32   1 H    0.998 --    16 C    0.971
    33   1 H    0.998 --    17 C    0.968
    34   1 H    0.998 --    19 C    0.964
 ---------------------------------------------------------------------------

Topologies differ in total number of bonds
Writing topology from bond orders to xtbtopo.mol

molecular dipole:
                 x           y           z       tot (Debye)
 q only:       -0.846      -0.189       0.396
   full:       -0.748      -0.350       0.648       2.668
molecular quadrupole (traceless):
                xx          xy          yy          xz          yz          zz
 q only:       -1.217      -0.580       0.030       2.385      -2.328       1.187
  q+dip:        3.998      -0.185      -1.149       3.062      -6.150      -2.849
   full:        0.486      -0.855       0.091       3.033      -2.848      -0.577

           -------------------------------------------------
          |                Geometry Summary                 |
           -------------------------------------------------

      molecular mass/u    :      245.3190607
   center of mass at/Å    :       -0.0864954       0.0543405      -0.1137931
  moments of inertia/u·Å² :        0.3366454E+03   0.3404913E+04   0.3609147E+04
rotational constants/cm⁻¹ :        0.5007533E-01   0.4950973E-02   0.4670807E-02

 * 34 selected distances

     #   Z          #   Z                                           value/Å
     2   6 C        3   7 N                                       1.2684081
     3   7 N        4   6 C                                       1.3732581
     4   6 C        5   6 C                                       1.3976909
     5   6 C        6   6 C                                       1.3802246
     6   6 C        7   6 C                                       1.3865573
     7   6 C        8   6 C                                       1.3853115
     4   6 C        9   6 C                                       1.3983030
     8   6 C        9   6 C                                       1.3812014
    10   6 C       11   6 C                                       1.4164237
    11   6 C       12   6 C                                       1.3624211
    12   6 C       13   6 C                                       1.4128905
    13   6 C       14   6 C                                       1.4094192
    14   6 C       15   6 C                                       1.3678842
    15   6 C       16   6 C                                       1.4041289
    16   6 C       17   6 C                                       1.3670003
    13   6 C       18   6 C                                       1.4198267 (max)
    17   6 C       18   6 C                                       1.4119841
    10   6 C       19   6 C                                       1.3771834
    18   6 C       19   6 C                                       1.4089024
     1   6 C       20   1 H                                       1.0885251
     1   6 C       21   1 H                                       1.0895341
     1   6 C       22   1 H                                       1.0886053
     5   6 C       23   1 H                                       1.0803649
     6   6 C       24   1 H                                       1.0810448
     7   6 C       25   1 H                                       1.0801694
     8   6 C       26   1 H                                       1.0812210
     9   6 C       27   1 H                                       1.0812738
    11   6 C       28   1 H                                       1.0788874 (min)
    12   6 C       29   1 H                                       1.0811322
    14   6 C       30   1 H                                       1.0811144
    15   6 C       31   1 H                                       1.0805597
    16   6 C       32   1 H                                       1.0805580
Note: The following floating-point exceptions are signalling: IEEE_DIVIDE_BY_ZERO IEEE_UNDERFLOW_FLAG IEEE_DENORMAL
normal termination of xtb
    17   6 C       33   1 H                                       1.0812803
    19   6 C       34   1 H                                       1.0800681

 * 3 distinct bonds (by element types)

   Z      Z             #   av. dist./Å        max./Å        min./Å
   1 H    6 C          15     1.0822892     1.0895341     1.0788874
   6 C    6 C          17     1.3933737     1.4198267     1.3624211
   6 C    7 N           2     1.3208331     1.3732581     1.2684081


optimized geometry written to: xtbopt.xyz


           -------------------------------------------------
          | TOTAL ENERGY              -49.112958821033 Eh   |
          | GRADIENT NORM               0.000053552967 Eh/α |
          | HOMO-LUMO GAP               2.180655175354 eV   |
           -------------------------------------------------

------------------------------------------------------------------------
 * finished run on 2026/09/10 at 22:57:43.697     
------------------------------------------------------------------------
 total:
 * wall-time:     0 d,  0 h,  0 min,  1.652 sec
 *  cpu-time:     0 d,  0 h,  0 min,  0.188 sec
 * ratio c/w:     0.114 speedup
 SCF:
 * wall-time:     0 d,  0 h,  0 min,  0.044 sec
 *  cpu-time:     0 d,  0 h,  0 min,  0.000 sec
 * ratio c/w:     0.000 speedup
 ANC optimizer:
 * wall-time:     0 d,  0 h,  0 min,  1.575 sec
 *  cpu-time:     0 d,  0 h,  0 min,  0.188 sec
 * ratio c/w:     0.119 speedup

