34
 energy: -49.112958821033 gnorm: 0.000053552967 xtb: 6.7.1 (edcfbbe)
C            1.18929176817439       -0.56873086042285        1.70432488164157
C            0.76938453123975        0.00659178803408        0.37717174362456
N            1.57749231265063        0.47120641903139       -0.48303394768093
C            2.95000380786309        0.44885315021024       -0.44366567063471
C            3.65582851823422        1.65504315730223       -0.46503755172817
C            5.03435776235859        1.65339062576626       -0.53340399492770
C            5.73443020172441        0.45881490521774       -0.60708021500034
C            5.04072456043347       -0.74029305939871       -0.60757913311730
C            3.66235225611003       -0.75197317372873       -0.51999907934578
C           -0.66494744308743        0.06738549629046        0.05953553558891
C           -1.08162314072041        0.80687094534581       -1.07439490721843
C           -2.39767303759160        0.88640676432890       -1.41772784551076
C           -3.38813160047658        0.22711060907422       -0.65577011691370
C           -4.75755079410507        0.28441677120542       -0.98420449944289
C           -5.68614829675987       -0.37229517782549       -0.22424207881339
C           -5.28703976563042       -1.11486108779110        0.89864965786993
C           -3.96637347872185       -1.18835152822948        1.24380069664227
C           -2.98311031979307       -0.52211170014792        0.48024541695383
C           -1.61594038864966       -0.58137442157104        0.81541690598313
H            0.62596837143503       -0.10497035499413        2.51208692038188
H            1.00262501694004       -1.64199099246675        1.72310377106208
H            2.25216570606618       -0.39875769562005        1.86701938596035
H            3.10561751571602        2.58304726760873       -0.40790334478532
H            5.56907935843797        2.59292697071479       -0.53481622364525
H            6.81290435801765        0.46314561401945       -0.66741599753746
H            5.57831148555440       -1.67637616449188       -0.66912007966210
H            3.11767152705874       -1.68599896676834       -0.52845077290071
H           -0.32161316126573        1.30662964217776       -1.65458796393394
H           -2.70485100238939        1.45690619746960       -2.28318654500979
H           -5.06040109464197        0.85672437172083       -1.84997226244831
H           -6.73435884096402       -0.32536826892799       -0.48243128296667
H           -6.03409668111777       -1.62792098509523        1.48710608358808
H           -3.65559894341556       -1.75873332453316        2.10823731371507
H           -1.33875106878394       -1.16536293330327        1.68067433141268
