      -----------------------------------------------------------      
     |                   =====================                   |     
     |                           x T B                           |     
     |                   =====================                   |     
     |                         S. Grimme                         |     
     |          Mulliken Center for Theoretical Chemistry        |     
     |                    University of Bonn                     |     
      -----------------------------------------------------------      

   * xtb version 6.7.1 (edcfbbe) compiled by 'VssAdministrator@runnervm171ch' on 2026-06-10

   xtb is free software: you can redistribute it and/or modify it under
   the terms of the GNU Lesser General Public License as published by
   the Free Software Foundation, either version 3 of the License, or
   (at your option) any later version.
   
   xtb is distributed in the hope that it will be useful,
   but WITHOUT ANY WARRANTY; without even the implied warranty of
   MERCHANTABILITY or FITNESS FOR A PARTICULAR PURPOSE.  See the
   GNU Lesser General Public License for more details.
   
   Cite this work as:
   * C. Bannwarth, E. Caldeweyher, S. Ehlert, A. Hansen, P. Pracht,
     J. Seibert, S. Spicher, S. Grimme, WIREs Comput. Mol. Sci., 2020, 11,
     e01493. DOI: 10.1002/wcms.1493
   
   for GFN2-xTB:
   * C. Bannwarth, S. Ehlert and S. Grimme., J. Chem. Theory Comput., 2019,
     15, 1652-1671. DOI: 10.1021/acs.jctc.8b01176
   for GFN1-xTB:
   * S. Grimme, C. Bannwarth, P. Shushkov, J. Chem. Theory Comput., 2017,
     13, 1989-2009. DOI: 10.1021/acs.jctc.7b00118
   for GFN0-xTB:
   * P. Pracht, E. Caldeweyher, S. Ehlert, S. Grimme, ChemRxiv, 2019, preprint.
     DOI: 10.26434/chemrxiv.8326202.v1
   for GFN-FF:
   * S. Spicher and S. Grimme, Angew. Chem. Int. Ed., 2020, 59, 15665-15673.
     DOI: 10.1002/anie.202004239
   
   for ALPB and GBSA implicit solvation:
   * S. Ehlert, M. Stahn, S. Spicher, S. Grimme, J. Chem. Theory Comput.,
     2021, 17, 4250-4261. DOI: 10.1021/acs.jctc.1c00471
   
   for ddCOSMO and CPCM-X implicit solvation:
   * M. Stahn, S. Ehlert, S. Grimme, J. Phys. Chem. A,
     2023, XX, XXXX-XXXX. DOI: 10.1021/acs.jpca.3c04382
   
   for DFT-D4:
   * E. Caldeweyher, C. Bannwarth and S. Grimme, J. Chem. Phys., 2017,
     147, 034112. DOI: 10.1063/1.4993215
   * E. Caldeweyher, S. Ehlert, A. Hansen, H. Neugebauer, S. Spicher,
     C. Bannwarth and S. Grimme, J. Chem. Phys., 2019, 150, 154122.
     DOI: 10.1063/1.5090222
   * E. Caldeweyher, J.-M. Mewes, S. Ehlert and S. Grimme, Phys. Chem. Chem. Phys.
     2020, 22, 8499-8512. DOI: 10.1039/D0CP00502A
   
   for sTDA-xTB:
   * S. Grimme and C. Bannwarth, J. Chem. Phys., 2016, 145, 054103.
     DOI: 10.1063/1.4959605
   
   in the mass-spec context:
   * V. Asgeirsson, C. Bauer and S. Grimme, Chem. Sci., 2017, 8, 4879.
     DOI: 10.1039/c7sc00601b
   * J. Koopman and S. Grimme, ACS Omega 2019, 4, 12, 15120-15133.
     DOI: 10.1021/acsomega.9b02011
   
   for metadynamics refer to:
   * S. Grimme, J. Chem. Theory Comput., 2019, 155, 2847-2862
     DOI: 10.1021/acs.jctc.9b00143
   
   for SPH calculations refer to:
   * S. Spicher and S. Grimme, J. Chem. Theory Comput., 2021, 17, 1701-1714
     DOI: 10.1021/acs.jctc.0c01306
   
   for ONIOM refer to:
   * C. Plett, A. Katbashev, S. Ehlert, S. Grimme, M. Bursch,
     Phys. Chem. Chem. Phys., 2023, 25, 17860-17868. DOI: 10.1039/D3CP02178E
   
   for DIPRO refer to:
   * J. Kohn, N. Gildemeister, S. Grimme, D. Fazzi, A. Hansen,
     J. Chem. Phys., 2023, just accepted.
   
   for PTB refer to:
   * S. Grimme, M. Mueller, A. Hansen, J. Chem. Phys., 2023, 158, 124111.
     DOI: 10.1063/5.0137838
   
   with help from (in alphabetical order)
   P. Atkinson, C. Bannwarth, F. Bohle, G. Brandenburg, E. Caldeweyher
   M. Checinski, S. Dohm, S. Ehlert, S. Ehrlich, I. Gerasimov, C. Hölzer
   A. Katbashev, J. Kohn, J. Koopman, C. Lavigne, S. Lehtola, F. März, M. Müller,
   F. Musil, H. Neugebauer, J. Pisarek, C. Plett, P. Pracht, F. Pultar,
   J. Seibert, P. Shushkov, S. Spicher, M. Stahn, M. Steiner, T. Strunk,
   J. Stückrath, T. Rose, and J. Unsleber
   
 * started run on 2026/09/10 at 22:57:13.224     
   ID    Z sym.   atoms
    1    6 C      1, 2, 4-16
    2    7 N      3
    3    1 H      17-31

           -------------------------------------------------
          |                Calculation Setup                |
           -------------------------------------------------

          program call               : C:\Users\HUIWEI\miniconda3\envs\phase2ff\Library\bin\xtb.exe xtbopt.xyz --gfn 2 --chrg 0 --uhf 0 --alpb toluene --acc 0.2 --hess --strict
          coordinate file            : xtbopt.xyz
          omp threads                :                     1


           -------------------------------------------------
          |                 G F N 2 - x T B                 |
           -------------------------------------------------

        Reference                      10.1021/acs.jctc.8b01176
      * Hamiltonian:
        H0-scaling (s, p, d)           1.850000    2.230000    2.230000
        zeta-weighting                 0.500000
      * Dispersion:
        s8                             2.700000
        a1                             0.520000
        a2                             5.000000
        s9                             5.000000
      * Repulsion:
        kExp                           1.500000    1.000000
        rExp                           1.000000
      * Coulomb:
        alpha                          2.000000
        third order                    shell-resolved
        anisotropic                    true
        a3                             3.000000
        a5                             4.000000
        cn-shift                       1.200000
        cn-exp                         4.000000
        max-rad                        5.000000

      * Solvation model:               ALPB
        Solvent                        toluene
        Parameter file                 internal GFN2-xTB/ALPB
        Dielectric constant                7.0000E+00
        Reference state                gsolv [1 M gas/solution]
        Free energy shift                  2.2081E-03 Eh       1.3856E+00 kcal/mol
        Temperature                        2.9815E+02 K
        Density                            8.6700E-01 kg/L
        Solvent mass                       7.8110E+01 g/mol
        Interaction kernel             P16
        Born radius scaling (c1)           1.7172E+00
        Born radii integrator          GBOBC
        Born offset                        0.0000E+00 a0       0.0000E+00 AA
        H-bond correction              false
        Ion screening                  false
        Surface tension                    1.0000E-05 Eh       1.5569E+01 dyn/cm
        Grid points                               230 per atom
q/qsh data taken from xtbrestart
CAMM data taken from xtbrestart

          ...................................................
          :                      SETUP                      :
          :.................................................:
          :  # basis functions                  79          :
          :  # atomic orbitals                  79          :
          :  # shells                           47          :
          :  # electrons                        80          :
          :  max. iterations                   250          :
          :  Hamiltonian                  GFN2-xTB          :
          :  restarted?                       true          :
          :  GBSA solvation                   true          :
          :  PC potential                    false          :
          :  electronic temp.          300.0000000     K    :
          :  accuracy                    0.2000000          :
          :  -> integral cutoff          0.3198970E+02      :
          :  -> integral neglect         0.2000000E-08      :
          :  -> SCF convergence          0.2000000E-06 Eh   :
          :  -> wf. convergence          0.2000000E-04 e    :
          :  Broyden damping             0.4000000          :
          :  net charge                          0          :
          :  unpaired electrons                  0          :
          ...................................................

 iter      E             dE          RMSdq      gap      omega  full diag
   1    -43.4729647 -0.434730E+02  0.189E-06    2.43       0.0  T
   2    -43.4729647 -0.284217E-13  0.127E-06    2.43   14101.0  T
   3    -43.4729647 -0.497380E-13  0.495E-07    2.43   36248.4  T

   *** convergence criteria satisfied after 3 iterations ***

         #    Occupation            Energy/Eh            Energy/eV
      -------------------------------------------------------------
         1        2.0000           -0.6498242             -17.6826
       ...           ...                  ...                  ...
        34        2.0000           -0.4174477             -11.3593
        35        2.0000           -0.4129698             -11.2375
        36        2.0000           -0.4066000             -11.0641
        37        2.0000           -0.4040092             -10.9937
        38        2.0000           -0.3950966             -10.7511
        39        2.0000           -0.3858782             -10.5003
        40        2.0000           -0.3524487              -9.5906 (HOMO)
        41                         -0.2632667              -7.1639 (LUMO)
        42                         -0.2210154              -6.0141
        43                         -0.2127608              -5.7895
        44                         -0.2055147              -5.5923
        45                         -0.1791972              -4.8762
       ...                                ...                  ...
        79                          0.7041531              19.1610
      -------------------------------------------------------------
                  HL-Gap            0.0891820 Eh            2.4268 eV
             Fermi-level           -0.3078577 Eh           -8.3772 eV

 SCC (total)                   0 d,  0 h,  0 min,  0.023 sec
 SCC setup                      ...        0 min,  0.001 sec (  4.182%)
 Dispersion                     ...        0 min,  0.000 sec (  1.332%)
 classical contributions        ...        0 min,  0.000 sec (  0.335%)
 integral evaluation            ...        0 min,  0.004 sec ( 18.655%)
 iterations                     ...        0 min,  0.005 sec ( 20.358%)
 molecular gradient             ...        0 min,  0.012 sec ( 53.979%)
 printout                       ...        0 min,  0.000 sec (  1.089%)

         :::::::::::::::::::::::::::::::::::::::::::::::::::::
         ::                     SUMMARY                     ::
         :::::::::::::::::::::::::::::::::::::::::::::::::::::
         :: total energy             -42.686277558166 Eh    ::
         :: total w/o Gsasa/hb       -42.667819205552 Eh    ::
         :: gradient norm              0.000099928831 Eh/a0 ::
         :: HOMO-LUMO gap              2.426766269398 eV    ::
         ::.................................................::
         :: SCC energy               -43.473120266116 Eh    ::
         :: -> isotropic ES            0.011337315570 Eh    ::
         :: -> anisotropic ES          0.006343768639 Eh    ::
         :: -> anisotropic XC          0.030995633513 Eh    ::
         :: -> dispersion             -0.029876069762 Eh    ::
         :: -> Gsolv                  -0.018834831648 Eh    ::
         ::    -> Gelec               -0.000376479034 Eh    ::
         ::    -> Gsasa               -0.020666495753 Eh    ::
         ::    -> Ghb                  0.000000000000 Eh    ::
         ::    -> Gshift               0.002208143139 Eh    ::
         :: repulsion energy           0.786842707949 Eh    ::
         :: add. restraining           0.000000000000 Eh    ::
         :: total charge              -0.000000000000 e     ::
         :::::::::::::::::::::::::::::::::::::::::::::::::::::

           ------------------------------------------------- 
          |                Numerical Hessian                |
           ------------------------------------------------- 
step length          :   0.00500
SCC accuracy         :   0.30000
Hessian scale factor :   1.00000
frozen atoms in %    :   0.00000    0
RMS gradient         :   0.00010
estimated CPU  time      0.01 min
estimated wall time      0.08 min

writing file <hessian>.

 projected vibrational frequencies (cm⁻¹)
eigval :       -0.00    -0.00    -0.00     0.00     0.00     0.00
eigval :      -18.26    25.81    41.18    47.10    62.25   106.67
eigval :      155.75   203.54   239.70   253.14   271.62   333.96
eigval :      368.00   369.92   389.66   423.51   463.04   493.48
eigval :      506.62   548.09   588.25   599.08   609.77   657.95
eigval :      673.20   715.83   768.43   803.57   815.97   852.34
eigval :      867.33   870.04   879.54   917.37   921.63   923.95
eigval :      931.24   971.35   992.00  1002.24  1009.45  1013.20
eigval :     1027.86  1079.08  1095.96  1113.85  1144.03  1177.93
eigval :     1187.83  1201.45  1235.65  1250.51  1276.81  1278.97
eigval :     1304.18  1316.22  1331.08  1377.26  1401.64  1407.91
eigval :     1432.65  1464.49  1475.76  1477.13  1478.71  1479.55
eigval :     1492.50  1566.90  1570.60  1592.40  1599.71  1699.63
eigval :     2992.55  3007.22  3020.88  3031.85  3032.27  3036.93
eigval :     3060.03  3063.50  3067.35  3070.87  3071.54  3078.97
eigval :     3086.10  3094.45  3100.82
           -------------------------------------------------
          |                Property Printout                |
           -------------------------------------------------

    * Orbital Energies and Occupations

         #    Occupation            Energy/Eh            Energy/eV
      -------------------------------------------------------------
         1        2.0000           -0.6498242             -17.6826
       ...           ...                  ...                  ...
        28        2.0000           -0.4647724             -12.6471
        29        2.0000           -0.4598131             -12.5122
        30        2.0000           -0.4573760             -12.4458
        31        2.0000           -0.4401467             -11.9770
        32        2.0000           -0.4304998             -11.7145
        33        2.0000           -0.4280721             -11.6484
        34        2.0000           -0.4174477             -11.3593
        35        2.0000           -0.4129698             -11.2375
        36        2.0000           -0.4066000             -11.0641
        37        2.0000           -0.4040092             -10.9937
        38        2.0000           -0.3950965             -10.7511
        39        2.0000           -0.3858782             -10.5003
        40        2.0000           -0.3524487              -9.5906 (HOMO)
        41                         -0.2632667              -7.1639 (LUMO)
        42                         -0.2210154              -6.0141
        43                         -0.2127608              -5.7895
        44                         -0.2055147              -5.5923
        45                         -0.1791972              -4.8762
        46                         -0.0831080              -2.2615
        47                         -0.0778703              -2.1190
        48                          0.0782995               2.1306
        49                          0.1055226               2.8714
        50                          0.1136035               3.0913
        51                          0.1326087               3.6085
       ...                                ...                  ...
        79                          0.7041531              19.1610
      -------------------------------------------------------------
                  HL-Gap            0.0891820 Eh            2.4268 eV
             Fermi-level           -0.3078577 Eh           -8.3772 eV

     #   Z          covCN         q      C6AA      α(0)
     1   6 C        3.755    -0.116    22.768     6.804
     2   6 C        2.898     0.112    25.539     8.286
     3   7 N        1.848    -0.217    26.567     7.639
     4   6 C        2.922     0.085    26.117     8.381
     5   6 C        2.922    -0.051    29.279     8.873
     6   6 C        2.918    -0.032    28.799     8.800
     7   6 C        2.919    -0.043    29.064     8.841
     8   6 C        2.919    -0.032    28.787     8.798
     9   6 C        2.924    -0.049    29.214     8.864
    10   6 C        2.982    -0.002    28.074     8.691
    11   6 C        2.921    -0.034    28.845     8.807
    12   6 C        2.923    -0.040    29.005     8.832
    13   6 C        2.966     0.023    27.500     8.602
    14   6 C        3.757    -0.111    22.673     6.789
    15   6 C        2.922    -0.038    28.945     8.823
    16   6 C        2.924    -0.028    28.692     8.784
    17   1 H        0.925     0.052     2.300     2.372
    18   1 H        0.925     0.043     2.408     2.427
    19   1 H        0.925     0.054     2.274     2.358
    20   1 H        0.925     0.022     2.702     2.570
    21   1 H        0.925     0.023     2.682     2.561
    22   1 H        0.926     0.022     2.708     2.573
    23   1 H        0.926     0.025     2.665     2.553
    24   1 H        0.926     0.028     2.612     2.527
    25   1 H        0.926     0.038     2.482     2.464
    26   1 H        0.925     0.033     2.540     2.492
    27   1 H        0.925     0.048     2.349     2.397
    28   1 H        0.925     0.046     2.372     2.408
    29   1 H        0.924     0.053     2.288     2.365
    30   1 H        0.926     0.036     2.509     2.477
    31   1 H        0.926     0.053     2.285     2.364

 Mol. C6AA /au·bohr⁶  :      11522.426514
 Mol. C8AA /au·bohr⁸  :     279790.178745
 Mol. α(0) /au        :        171.522424


Wiberg/Mayer (AO) data.
largest (>0.10) Wiberg bond orders for each atom

 ---------------------------------------------------------------------------
     #   Z sym  total        # sym  WBO       # sym  WBO       # sym  WBO
 ---------------------------------------------------------------------------
     1   6 C    3.996 --     2 C    1.006    18 H    0.982    17 H    0.970
                            19 H    0.964
     2   6 C    3.965 --     3 N    1.760    10 C    1.063     1 C    1.006
     3   7 N    3.225 --     2 C    1.760     4 C    1.140
     4   6 C    3.976 --     9 C    1.340     5 C    1.338     3 N    1.140
     5   6 C    3.984 --     6 C    1.457     4 C    1.338    20 H    0.971
                             8 C    0.103
     6   6 C    3.992 --     5 C    1.457     7 C    1.431    21 H    0.970
                             9 C    0.105
     7   6 C    3.989 --     6 C    1.431     8 C    1.424    22 H    0.972
     8   6 C    3.992 --     9 C    1.465     7 C    1.424    23 H    0.971
                             5 C    0.103
     9   6 C    3.986 --     8 C    1.465     4 C    1.340    24 H    0.971
                             6 C    0.105
    10   6 C    3.988 --    11 C    1.381    16 C    1.365     2 C    1.063
    11   6 C    3.986 --    12 C    1.458    10 C    1.381    25 H    0.967
                            15 C    0.101
    12   6 C    3.991 --    11 C    1.458    13 C    1.405    26 H    0.969
                            16 C    0.102
    13   6 C    3.984 --    12 C    1.405    15 C    1.392    14 C    1.029
    14   6 C    3.995 --    13 C    1.029    28 H    0.983    27 H    0.979
                            29 H    0.965
    15   6 C    3.992 --    16 C    1.475    13 C    1.392    30 H    0.969
                            11 C    0.101
    16   6 C    3.989 --    15 C    1.475    10 C    1.365    31 H    0.966
                            12 C    0.102
    17   1 H    0.997 --     1 C    0.970
    18   1 H    0.998 --     1 C    0.982
    19   1 H    0.997 --     1 C    0.964
    20   1 H    0.999 --     5 C    0.971
    21   1 H    0.999 --     6 C    0.970
    22   1 H    0.999 --     7 C    0.972
    23   1 H    0.998 --     8 C    0.971
    24   1 H    0.999 --     9 C    0.971
    25   1 H    0.998 --    11 C    0.967
    26   1 H    0.998 --    12 C    0.969
    27   1 H    0.997 --    14 C    0.979
    28   1 H    0.997 --    14 C    0.983
    29   1 H    0.995 --    14 C    0.965
    30   1 H    0.998 --    15 C    0.969
    31   1 H    0.997 --    16 C    0.966
 ---------------------------------------------------------------------------

Topologies differ in total number of bonds
Writing topology from bond orders to xtbtopo.mol

molecular dipole:
                 x           y           z       tot (Debye)
 q only:        1.165      -0.078      -0.317
   full:        1.083      -0.323      -0.494       3.133
molecular quadrupole (traceless):
                xx          xy          yy          xz          yz          zz
 q only:        2.262       1.868      -0.378       1.517       2.051      -1.884
  q+dip:        5.355       1.808       0.565       0.901       2.788      -5.920
   full:        2.947       1.910       0.086       1.595       1.674      -3.033

           -------------------------------------------------
          |               Frequency Printout                |
           -------------------------------------------------
 projected vibrational frequencies (cm⁻¹)
eigval :       -0.00    -0.00    -0.00     0.00     0.00     0.00
eigval :      -18.26    25.81    41.18    47.10    62.25   106.67
eigval :      155.75   203.54   239.70   253.14   271.62   333.96
eigval :      368.00   369.92   389.66   423.51   463.04   493.48
eigval :      506.62   548.09   588.25   599.08   609.77   657.95
eigval :      673.20   715.83   768.43   803.57   815.97   852.34
eigval :      867.33   870.04   879.54   917.37   921.63   923.95
eigval :      931.24   971.35   992.00  1002.24  1009.45  1013.20
eigval :     1027.86  1079.08  1095.96  1113.85  1144.03  1177.93
eigval :     1187.83  1201.45  1235.65  1250.51  1276.81  1278.97
eigval :     1304.18  1316.22  1331.08  1377.26  1401.64  1407.91
eigval :     1432.65  1464.49  1475.76  1477.13  1478.71  1479.55
eigval :     1492.50  1566.90  1570.60  1592.40  1599.71  1699.63
eigval :     2992.55  3007.22  3020.88  3031.85  3032.27  3036.93
eigval :     3060.03  3063.50  3067.35  3070.87  3071.54  3078.97
eigval :     3086.10  3094.45  3100.82
 reduced masses (amu)
   1: 10.34   2: 10.87   3: 11.15   4: 10.65   5: 11.15   6: 10.94   7:  1.19   8:  9.55
   9: 10.10  10: 10.45  11: 10.39  12:  9.99  13: 10.35  14:  1.78  15: 10.13  16: 10.13
  17:  9.51  18:  9.09  19:  8.92  20:  9.07  21:  9.93  22:  9.87  23: 10.17  24: 10.90
  25: 10.55  26:  9.10  27: 11.24  28: 11.27  29: 11.29  30: 10.07  31: 10.39  32:  7.72
  33:  6.93  34:  4.39  35: 10.98  36: 10.72  37:  3.30  38:  3.38  39:  3.92  40:  3.02
  41:  3.96  42:  2.75  43:  3.90  44:  9.73  45:  5.59  46:  7.82  47:  7.70  48:  5.58
  49:  4.71  50:  6.65  51:  7.44  52:  4.05  53:  2.86  54:  1.38  55:  2.17  56:  2.11
  57:  7.82  58:  9.56  59:  4.03  60:  3.68  61: 10.58  62: 11.37  63: 11.56  64:  3.27
  65:  3.18  66:  9.68  67:  9.02  68:  8.70  69:  1.79  70:  2.38  71:  1.87  72:  1.80
  73:  8.94  74: 11.42  75: 11.41  76: 11.48  77: 11.49  78: 12.78  79:  1.80  80:  1.86
  81:  1.67  82:  1.71  83:  1.62  84:  1.62  85:  1.76  86:  1.77  87:  1.80  88:  1.81
  89:  1.85  90:  1.85  91:  1.91  92:  1.85  93:  1.85
 IR intensities (km·mol⁻¹)
   1:  0.11   2:  0.09   3:  0.01   4:  0.27   5:  0.09   6:  0.16   7:  0.58   8:  0.11
   9:  0.13  10:  1.48  11:  1.61  12:  0.52  13:  1.75  14:  0.81  15:  0.54  16:  0.16
  17:  0.53  18:  0.17  19:  0.11  20:  1.52  21:  2.15  22:  2.46  23:  5.58  24:  1.86
  25:  0.48  26:  5.36  27:  2.89  28:  6.99  29:  0.38  30:  0.22  31:  1.15  32: 25.16
  33: 23.28  34: 15.78  35: 28.90  36:  0.52  37:  2.04  38:  1.16  39:  1.45  40:  0.01
  41:  0.43  42:  0.02  43:  0.34  44:  6.50  45:  9.42  46:  3.87  47: 10.42  48:  9.69
  49: 16.91  50:  0.24  51: 18.43  52:  0.60  53: 10.07  54:  0.44  55: 21.36  56: 46.52
Molecule has no symmetry elements
It seems to be the C1 point group
  57: 24.63  58:195.66  59:  2.72  60: 17.35  61: 49.15  62:  4.54  63:  7.65  64: 19.29
  65:  4.93  66:  5.91  67:  6.33  68: 19.09  69:  8.48  70: 12.29  71:  5.13  72:  5.08
  73:  0.69  74:  2.56  75:  2.80  76:193.06  77: 19.69  78:261.24  79: 25.57  80: 15.75
  81: 21.01  82: 31.79  83: 14.81  84: 25.86  85: 17.35  86: 14.81  87: 51.37  88: 43.64
  89: 97.70  90:125.05  91: 72.70  92: 46.82  93: 15.34
 Raman intensities (Ä⁴*amu⁻¹)
   1:  0.00   2:  0.00   3:  0.00   4:  0.00   5:  0.00   6:  0.00   7:  0.00   8:  0.00
   9:  0.00  10:  0.00  11:  0.00  12:  0.00  13:  0.00  14:  0.00  15:  0.00  16:  0.00
  17:  0.00  18:  0.00  19:  0.00  20:  0.00  21:  0.00  22:  0.00  23:  0.00  24:  0.00
  25:  0.00  26:  0.00  27:  0.00  28:  0.00  29:  0.00  30:  0.00  31:  0.00  32:  0.00
  33:  0.00  34:  0.00  35:  0.00  36:  0.00  37:  0.00  38:  0.00  39:  0.00  40:  0.00
  41:  0.00  42:  0.00  43:  0.00  44:  0.00  45:  0.00  46:  0.00  47:  0.00  48:  0.00
  49:  0.00  50:  0.00  51:  0.00  52:  0.00  53:  0.00  54:  0.00  55:  0.00  56:  0.00
  57:  0.00  58:  0.00  59:  0.00  60:  0.00  61:  0.00  62:  0.00  63:  0.00  64:  0.00
  65:  0.00  66:  0.00  67:  0.00  68:  0.00  69:  0.00  70:  0.00  71:  0.00  72:  0.00
  73:  0.00  74:  0.00  75:  0.00  76:  0.00  77:  0.00  78:  0.00  79:  0.00  80:  0.00
  81:  0.00  82:  0.00  83:  0.00  84:  0.00  85:  0.00  86:  0.00  87:  0.00  88:  0.00
  89:  0.00  90:  0.00  91:  0.00  92:  0.00  93:  0.00
 output can be read by thermo (or use thermo option).
 writing <g98.out> molden fake output.
 recommended (thermochemical) frequency scaling factor: 1.0
           -------------------------------------------------
          |             Thermodynamic Functions             |
           -------------------------------------------------

c1  symmetry found (for desy threshold:  0.10E+00) used in thermo
 inverting freq            1   18.264520966497770     

          ...................................................
          :                      SETUP                      :
          :.................................................:
          :  # frequencies                          87      :
          :  # imaginary freq.                       0      :
          :  linear?                             false      :
          :  only rotor calc.                    false      :
          :  symmetry                               c1      :
          :  rotational number                       1      :
          :  scaling factor                  1.0000000      :
          :  rotor cutoff                   50.0000000 cm⁻¹ :
          :  imag. cutoff                  -20.0000000 cm⁻¹ :
          :.................................................:

    mode    ω/cm⁻¹     T·S(HO)/kcal·mol⁻¹    T·S(FR)/kcal·mol⁻¹   T·S(vib)
   ------------------------------------------------------------------------
       1     18.26    -2.03173 (  1.75%)    -1.35472 ( 98.25%)    -1.36657
       2     25.81    -1.82703 (  6.63%)    -1.25233 ( 93.37%)    -1.29043
       3     41.18    -1.55081 ( 31.51%)    -1.11396 ( 68.49%)    -1.25163
       4     47.10    -1.47158 ( 44.05%)    -1.07421 ( 55.95%)    -1.24924
       5     62.25    -1.30724 ( 70.61%)    -0.99158 ( 29.39%)    -1.21448
       6    106.67    -0.99245 ( 95.39%)    -0.83206 (  4.61%)    -0.98506
       7    155.75    -0.77543 ( 98.95%)    -0.71994 (  1.05%)    -0.77484
       8    203.54    -0.62638 ( 99.64%)    -0.64066 (  0.36%)    -0.62643
       9    239.70    -0.53818 ( 99.81%)    -0.59221 (  0.19%)    -0.53829
      10    253.14    -0.50942 ( 99.85%)    -0.57606 (  0.15%)    -0.50952
      11    271.62    -0.47283 ( 99.89%)    -0.55518 (  0.11%)    -0.47292
   ------------------------------------------------------------------------

   temp. (K)  partition function   enthalpy   heat capacity  entropy
                                   cal/mol     cal/K/mol   cal/K/mol   J/K/mol
 298.15  VIB  0.142E+07             7692.608     47.901     47.834
Note: The following floating-point exceptions are signalling: IEEE_DIVIDE_BY_ZERO IEEE_UNDERFLOW_FLAG IEEE_DENORMAL
normal termination of xtb
         ROT  0.304E+07              888.752      2.981     32.645
         INT  0.431E+13             8581.360     50.882     80.479
         TR   0.293E+28             1481.254      4.968     41.900
         TOT                       10062.6141    55.8500   122.3795   512.0360

       T/K    H(0)-H(T)+PV         H(T)/Eh          T*S/Eh         G(T)/Eh
   ------------------------------------------------------------------------
    298.15    0.160358E-01    0.266768E+00    0.581465E-01    0.208621E+00
   ------------------------------------------------------------------------

         :::::::::::::::::::::::::::::::::::::::::::::::::::::
         ::                  THERMODYNAMIC                  ::
         :::::::::::::::::::::::::::::::::::::::::::::::::::::
         :: total free energy         -42.477656330064 Eh   ::
         ::.................................................::
         :: total energy              -42.686277558224 Eh   ::
         :: zero point energy           0.250731905128 Eh   ::
         :: G(RRHO) w/o ZPVE           -0.042110676968 Eh   ::
         :: G(RRHO) contrib.            0.208621228160 Eh   ::
         :::::::::::::::::::::::::::::::::::::::::::::::::::::
imag cut-off (cm-1) :    5.00
 found            1  significant imaginary frequency
 writing imag mode distorted coords to xtbhess.xyz
 for further optimization.

           -------------------------------------------------
          | TOTAL ENERGY              -42.686277558224 Eh   |
          | TOTAL ENTHALPY            -42.419509856877 Eh   |
          | TOTAL FREE ENERGY         -42.477656330064 Eh   |
          | GRADIENT NORM               0.000099914770 Eh/α |
          | HOMO-LUMO GAP               2.426765650870 eV   |
           -------------------------------------------------

------------------------------------------------------------------------
 * finished run on 2026/09/10 at 22:57:17.896     
------------------------------------------------------------------------
 total:
 * wall-time:     0 d,  0 h,  0 min,  4.672 sec
 *  cpu-time:     0 d,  0 h,  0 min,  0.641 sec
 * ratio c/w:     0.137 speedup
 SCF:
 * wall-time:     0 d,  0 h,  0 min,  0.023 sec
 *  cpu-time:     0 d,  0 h,  0 min,  0.000 sec
 * ratio c/w:     0.000 speedup
 analytical hessian:
 * wall-time:     0 d,  0 h,  0 min,  4.606 sec
 *  cpu-time:     0 d,  0 h,  0 min,  0.641 sec
 * ratio c/w:     0.139 speedup

