      -----------------------------------------------------------      
     |                   =====================                   |     
     |                           x T B                           |     
     |                   =====================                   |     
     |                         S. Grimme                         |     
     |          Mulliken Center for Theoretical Chemistry        |     
     |                    University of Bonn                     |     
      -----------------------------------------------------------      

   * xtb version 6.7.1 (edcfbbe) compiled by 'VssAdministrator@runnervm171ch' on 2026-06-10

   xtb is free software: you can redistribute it and/or modify it under
   the terms of the GNU Lesser General Public License as published by
   the Free Software Foundation, either version 3 of the License, or
   (at your option) any later version.
   
   xtb is distributed in the hope that it will be useful,
   but WITHOUT ANY WARRANTY; without even the implied warranty of
   MERCHANTABILITY or FITNESS FOR A PARTICULAR PURPOSE.  See the
   GNU Lesser General Public License for more details.
   
   Cite this work as:
   * C. Bannwarth, E. Caldeweyher, S. Ehlert, A. Hansen, P. Pracht,
     J. Seibert, S. Spicher, S. Grimme, WIREs Comput. Mol. Sci., 2020, 11,
     e01493. DOI: 10.1002/wcms.1493
   
   for GFN2-xTB:
   * C. Bannwarth, S. Ehlert and S. Grimme., J. Chem. Theory Comput., 2019,
     15, 1652-1671. DOI: 10.1021/acs.jctc.8b01176
   for GFN1-xTB:
   * S. Grimme, C. Bannwarth, P. Shushkov, J. Chem. Theory Comput., 2017,
     13, 1989-2009. DOI: 10.1021/acs.jctc.7b00118
   for GFN0-xTB:
   * P. Pracht, E. Caldeweyher, S. Ehlert, S. Grimme, ChemRxiv, 2019, preprint.
     DOI: 10.26434/chemrxiv.8326202.v1
   for GFN-FF:
   * S. Spicher and S. Grimme, Angew. Chem. Int. Ed., 2020, 59, 15665-15673.
     DOI: 10.1002/anie.202004239
   
   for ALPB and GBSA implicit solvation:
   * S. Ehlert, M. Stahn, S. Spicher, S. Grimme, J. Chem. Theory Comput.,
     2021, 17, 4250-4261. DOI: 10.1021/acs.jctc.1c00471
   
   for ddCOSMO and CPCM-X implicit solvation:
   * M. Stahn, S. Ehlert, S. Grimme, J. Phys. Chem. A,
     2023, XX, XXXX-XXXX. DOI: 10.1021/acs.jpca.3c04382
   
   for DFT-D4:
   * E. Caldeweyher, C. Bannwarth and S. Grimme, J. Chem. Phys., 2017,
     147, 034112. DOI: 10.1063/1.4993215
   * E. Caldeweyher, S. Ehlert, A. Hansen, H. Neugebauer, S. Spicher,
     C. Bannwarth and S. Grimme, J. Chem. Phys., 2019, 150, 154122.
     DOI: 10.1063/1.5090222
   * E. Caldeweyher, J.-M. Mewes, S. Ehlert and S. Grimme, Phys. Chem. Chem. Phys.
     2020, 22, 8499-8512. DOI: 10.1039/D0CP00502A
   
   for sTDA-xTB:
   * S. Grimme and C. Bannwarth, J. Chem. Phys., 2016, 145, 054103.
     DOI: 10.1063/1.4959605
   
   in the mass-spec context:
   * V. Asgeirsson, C. Bauer and S. Grimme, Chem. Sci., 2017, 8, 4879.
     DOI: 10.1039/c7sc00601b
   * J. Koopman and S. Grimme, ACS Omega 2019, 4, 12, 15120-15133.
     DOI: 10.1021/acsomega.9b02011
   
   for metadynamics refer to:
   * S. Grimme, J. Chem. Theory Comput., 2019, 155, 2847-2862
     DOI: 10.1021/acs.jctc.9b00143
   
   for SPH calculations refer to:
   * S. Spicher and S. Grimme, J. Chem. Theory Comput., 2021, 17, 1701-1714
     DOI: 10.1021/acs.jctc.0c01306
   
   for ONIOM refer to:
   * C. Plett, A. Katbashev, S. Ehlert, S. Grimme, M. Bursch,
     Phys. Chem. Chem. Phys., 2023, 25, 17860-17868. DOI: 10.1039/D3CP02178E
   
   for DIPRO refer to:
   * J. Kohn, N. Gildemeister, S. Grimme, D. Fazzi, A. Hansen,
     J. Chem. Phys., 2023, just accepted.
   
   for PTB refer to:
   * S. Grimme, M. Mueller, A. Hansen, J. Chem. Phys., 2023, 158, 124111.
     DOI: 10.1063/5.0137838
   
   with help from (in alphabetical order)
   P. Atkinson, C. Bannwarth, F. Bohle, G. Brandenburg, E. Caldeweyher
   M. Checinski, S. Dohm, S. Ehlert, S. Ehrlich, I. Gerasimov, C. Hölzer
   A. Katbashev, J. Kohn, J. Koopman, C. Lavigne, S. Lehtola, F. März, M. Müller,
   F. Musil, H. Neugebauer, J. Pisarek, C. Plett, P. Pracht, F. Pultar,
   J. Seibert, P. Shushkov, S. Spicher, M. Stahn, M. Steiner, T. Strunk,
   J. Stückrath, T. Rose, and J. Unsleber
   
 * started run on 2026/09/10 at 22:57:11.964     
   ID    Z sym.   atoms
    1    6 C      1, 2, 4-16
    2    7 N      3
    3    1 H      17-31

           -------------------------------------------------
          |                Calculation Setup                |
           -------------------------------------------------

          program call               : C:\Users\HUIWEI\miniconda3\envs\phase2ff\Library\bin\xtb.exe input.xyz --gfn 2 --chrg 0 --uhf 0 --alpb toluene --acc 0.2 --opt vtight
          coordinate file            : input.xyz
          omp threads                :                     1


           -------------------------------------------------
          |                 G F N 2 - x T B                 |
           -------------------------------------------------

        Reference                      10.1021/acs.jctc.8b01176
      * Hamiltonian:
        H0-scaling (s, p, d)           1.850000    2.230000    2.230000
        zeta-weighting                 0.500000
      * Dispersion:
        s8                             2.700000
        a1                             0.520000
        a2                             5.000000
        s9                             5.000000
      * Repulsion:
        kExp                           1.500000    1.000000
        rExp                           1.000000
      * Coulomb:
        alpha                          2.000000
        third order                    shell-resolved
        anisotropic                    true
        a3                             3.000000
        a5                             4.000000
        cn-shift                       1.200000
        cn-exp                         4.000000
        max-rad                        5.000000

      * Solvation model:               ALPB
        Solvent                        toluene
        Parameter file                 internal GFN2-xTB/ALPB
        Dielectric constant                7.0000E+00
        Reference state                gsolv [1 M gas/solution]
        Free energy shift                  2.2081E-03 Eh       1.3856E+00 kcal/mol
        Temperature                        2.9815E+02 K
        Density                            8.6700E-01 kg/L
        Solvent mass                       7.8110E+01 g/mol
        Interaction kernel             P16
        Born radius scaling (c1)           1.7172E+00
        Born radii integrator          GBOBC
        Born offset                        0.0000E+00 a0       0.0000E+00 AA
        H-bond correction              false
        Ion screening                  false
        Surface tension                    1.0000E-05 Eh       1.5569E+01 dyn/cm
        Grid points                               230 per atom

          ...................................................
          :                      SETUP                      :
          :.................................................:
          :  # basis functions                  79          :
          :  # atomic orbitals                  79          :
          :  # shells                           47          :
          :  # electrons                        80          :
          :  max. iterations                   250          :
          :  Hamiltonian                  GFN2-xTB          :
          :  restarted?                      false          :
          :  GBSA solvation                   true          :
          :  PC potential                    false          :
          :  electronic temp.          300.0000000     K    :
          :  accuracy                    0.2000000          :
          :  -> integral cutoff          0.3198970E+02      :
          :  -> integral neglect         0.2000000E-08      :
          :  -> SCF convergence          0.2000000E-06 Eh   :
          :  -> wf. convergence          0.2000000E-04 e    :
          :  Broyden damping             0.4000000          :
          :  net charge                          0          :
          :  unpaired electrons                  0          :
          ...................................................

 iter      E             dE          RMSdq      gap      omega  full diag
   1    -43.3817252 -0.433817E+02  0.394E+00    3.00       0.0  T
   2    -43.4089207 -0.271955E-01  0.236E+00    2.83       1.0  T
   3    -43.3977010  0.112197E-01  0.884E-01    2.57       1.0  T
   4    -43.4128771 -0.151760E-01  0.276E-01    2.61       1.0  T
   5    -43.4142131 -0.133607E-02  0.586E-02    2.59       1.0  T
   6    -43.4142634 -0.502492E-04  0.370E-02    2.60       1.0  T
   7    -43.4142802 -0.168641E-04  0.153E-02    2.59       1.2  T
   8    -43.4142821 -0.185085E-05  0.423E-03    2.60       4.2  T
   9    -43.4142824 -0.327926E-06  0.132E-03    2.60      13.6  T
  10    -43.4142824 -0.939512E-08  0.556E-04    2.60      32.3  T
  11    -43.4142824 -0.174817E-08  0.221E-04    2.60      81.2  T
  12    -43.4142824 -0.566374E-09  0.911E-05    2.60     197.1  T
  13    -43.4142824 -0.153833E-10  0.472E-05    2.60     380.9  T

   *** convergence criteria satisfied after 13 iterations ***

         #    Occupation            Energy/Eh            Energy/eV
      -------------------------------------------------------------
         1        2.0000           -0.6459627             -17.5775
       ...           ...                  ...                  ...
        34        2.0000           -0.4209591             -11.4549
        35        2.0000           -0.4130777             -11.2404
        36        2.0000           -0.4056368             -11.0379
        37        2.0000           -0.4023477             -10.9484
        38        2.0000           -0.3947934             -10.7429
        39        2.0000           -0.3878186             -10.5531
        40        2.0000           -0.3580537              -9.7431 (HOMO)
        41                         -0.2626761              -7.1478 (LUMO)
        42                         -0.2261734              -6.1545
        43                         -0.2185133              -5.9461
        44                         -0.2099732              -5.7137
        45                         -0.1936748              -5.2702
       ...                                ...                  ...
        79                          0.6505870              17.7034
      -------------------------------------------------------------
                  HL-Gap            0.0953776 Eh            2.5954 eV
             Fermi-level           -0.3103649 Eh           -8.4455 eV

 SCC (total)                   0 d,  0 h,  0 min,  0.034 sec
 SCC setup                      ...        0 min,  0.001 sec (  2.561%)
 Dispersion                     ...        0 min,  0.000 sec (  0.952%)
 classical contributions        ...        0 min,  0.000 sec (  0.200%)
 integral evaluation            ...        0 min,  0.004 sec ( 11.854%)
 iterations                     ...        0 min,  0.015 sec ( 43.373%)
 molecular gradient             ...        0 min,  0.014 sec ( 40.258%)
 printout                       ...        0 min,  0.000 sec (  0.739%)

         :::::::::::::::::::::::::::::::::::::::::::::::::::::
         ::                     SUMMARY                     ::
         :::::::::::::::::::::::::::::::::::::::::::::::::::::
         :: total energy             -42.679648099955 Eh    ::
         :: total w/o Gsasa/hb       -42.660859435452 Eh    ::
         :: gradient norm              0.063212500939 Eh/a0 ::
         :: HOMO-LUMO gap              2.595357905166 eV    ::
         ::.................................................::
         :: SCC energy               -43.414418288375 Eh    ::
         :: -> isotropic ES            0.011741598642 Eh    ::
         :: -> anisotropic ES          0.007110716679 Eh    ::
         :: -> anisotropic XC          0.033254692389 Eh    ::
         :: -> dispersion             -0.029856183875 Eh    ::
         :: -> Gsolv                  -0.019197665540 Eh    ::
         ::    -> Gelec               -0.000409001037 Eh    ::
         ::    -> Gsasa               -0.020996807642 Eh    ::
         ::    -> Ghb                  0.000000000000 Eh    ::
         ::    -> Gshift               0.002208143139 Eh    ::
         :: repulsion energy           0.734770188420 Eh    ::
         :: add. restraining           0.000000000000 Eh    ::
         :: total charge               0.000000000000 e     ::
         :::::::::::::::::::::::::::::::::::::::::::::::::::::

      ----------------------------------------------------------- 
     |                   =====================                   |
     |                        A N C O P T                        |
     |                   =====================                   |
     |               Approximate Normal Coordinate               |
     |                Rational Function Optimizer                |
      ----------------------------------------------------------- 
      ----------------------------------------------------------- 
     |                   =====================                   |
     |                        A N C O P T                        |
     |                   =====================                   |
     |               Approximate Normal Coordinate               |
     |                Rational Function Optimizer                |
      ----------------------------------------------------------- 

          ...................................................
          :                      SETUP                      :
          :.................................................:
          :   optimization level         verytight          :
          :   max. optcycles                   620          :
          :   ANC micro-cycles                  20          :
          :   degrees of freedom                87          :
          :.................................................:
          :   RF solver                   davidson          :
          :   write xtbopt.log                true          :
          :   linear?                        false          :
          :   energy convergence         0.1000000E-06 Eh   :
          :   grad. convergence          0.2000000E-03 Eh/α :
          :   maxmium RF displ.          1.0000000          :
          :   Hlow (freq-cutoff)         0.1000000E-01      :
          :   Hmax (freq-cutoff)         5.0000000          :
          :   S6 in model hess.         20.0000000          :
          ...................................................

generating ANC from exact Hessian ...
Using Lindh-Hessian (1995)
 Shifting diagonal of input Hessian by    9.4760607908350274E-003
 Lowest  eigenvalues of input Hessian
    0.000000    0.000000    0.000000    0.000000    0.000000    0.000000
    0.010000    0.010421    0.010570    0.011359    0.012670    0.014321
    0.017168    0.017747    0.018456    0.021632    0.022405    0.023883
 Highest eigenvalues
    1.843989    1.855294    1.925155    1.947567    1.953044    2.065837


........................................................................
.............................. CYCLE    1 ..............................
........................................................................

 iter      E             dE          RMSdq      gap      omega  full diag
   1    -43.4142824 -0.434143E+02  0.148E-05    2.60       0.0  T
   2    -43.4142824 -0.162714E-11  0.942E-06    2.60    1905.9  T
   3    -43.4142824 -0.139977E-11  0.557E-06    2.60    3222.7  T
     SCC iter.                  ...        0 min,  0.005 sec
     gradient                   ...        0 min,  0.013 sec
 * total energy  :   -42.6796481 Eh     change       -0.1777067E-10 Eh
   gradient norm :     0.0632124 Eh/α   predicted     0.0000000E+00 (-100.00%)
   displ. norm   :     0.2075506 α      lambda       -0.6722295E-02
   maximum displ.:     0.0911169 α      in ANC's #11, #47, #16, ...

........................................................................
.............................. CYCLE    2 ..............................
........................................................................

 iter      E             dE          RMSdq      gap      omega  full diag
   1    -43.4565302 -0.434565E+02  0.154E-01    2.65       0.0  T
   2    -43.4565805 -0.502542E-04  0.952E-02    2.65       1.0  T
   3    -43.4565610  0.195409E-04  0.405E-02    2.66       1.0  T
   4    -43.4565892 -0.282795E-04  0.863E-03    2.65       2.1  T
   5    -43.4565905 -0.129681E-05  0.246E-03    2.65       7.3  T
   6    -43.4565905  0.445247E-08  0.145E-03    2.65      12.4  T
   7    -43.4565906 -0.398606E-07  0.390E-04    2.65      46.0  T
   8    -43.4565906 -0.953534E-09  0.179E-04    2.65     100.5  T
   9    -43.4565906 -0.409372E-09  0.690E-05    2.65     260.3  T
     SCC iter.                  ...        0 min,  0.011 sec
     gradient                   ...        0 min,  0.013 sec
 * total energy  :   -42.6839256 Eh     change       -0.4277540E-02 Eh
   gradient norm :     0.0208370 Eh/α   predicted    -0.3506716E-02 ( -18.02%)
   displ. norm   :     0.1433076 α      lambda       -0.1008476E-02
   maximum displ.:     0.0755068 α      in ANC's #11, #2, #7, ...

........................................................................
.............................. CYCLE    3 ..............................
........................................................................

 iter      E             dE          RMSdq      gap      omega  full diag
   1    -43.4718430 -0.434718E+02  0.724E-02    2.64       0.0  T
   2    -43.4718570 -0.140814E-04  0.444E-02    2.64       1.0  T
   3    -43.4718539  0.312265E-05  0.234E-02    2.64       1.0  T
   4    -43.4718608 -0.689933E-05  0.384E-03    2.65       4.7  T
   5    -43.4718611 -0.317211E-06  0.121E-03    2.65      14.9  T
   6    -43.4718612 -0.113744E-07  0.606E-04    2.65      29.6  T
   7    -43.4718612 -0.264689E-08  0.206E-04    2.65      87.0  T
   8    -43.4718612 -0.225263E-09  0.790E-05    2.65     227.5  T
   9    -43.4718612 -0.140545E-09  0.295E-05    2.65     609.1  T
     SCC iter.                  ...        0 min,  0.014 sec
     gradient                   ...        0 min,  0.012 sec
 * total energy  :   -42.6845128 Eh     change       -0.5871291E-03 Eh
   gradient norm :     0.0081742 Eh/α   predicted    -0.5150386E-03 ( -12.28%)
   displ. norm   :     0.1197553 α      lambda       -0.2048344E-03
   maximum displ.:     0.0817623 α      in ANC's #2, #7, #4, ...

........................................................................
.............................. CYCLE    4 ..............................
........................................................................

 iter      E             dE          RMSdq      gap      omega  full diag
   1    -43.4734400 -0.434734E+02  0.398E-02    2.62       0.0  T
   2    -43.4734428 -0.277900E-05  0.246E-02    2.62       1.0  T
   3    -43.4734417  0.111976E-05  0.140E-02    2.62       1.3  T
   4    -43.4734446 -0.293866E-05  0.153E-03    2.62      11.7  T
   5    -43.4734447 -0.560481E-07  0.560E-04    2.62      32.1  T
   6    -43.4734447 -0.417383E-08  0.255E-04    2.62      70.3  T
   7    -43.4734447 -0.270376E-09  0.870E-05    2.62     206.4  T
   8    -43.4734447 -0.441602E-10  0.318E-05    2.62     565.4  T
     SCC iter.                  ...        0 min,  0.009 sec
     gradient                   ...        0 min,  0.012 sec
 * total energy  :   -42.6846786 Eh     change       -0.1658631E-03 Eh
   gradient norm :     0.0046915 Eh/α   predicted    -0.1038868E-03 ( -37.37%)
   displ. norm   :     0.2477166 α      lambda       -0.2939629E-03
   maximum displ.:     0.1677430 α      in ANC's #2, #7, #4, ...

........................................................................
.............................. CYCLE    5 ..............................
........................................................................

 iter      E             dE          RMSdq      gap      omega  full diag
   1    -43.4724497 -0.434724E+02  0.729E-02    2.58       0.0  T
   2    -43.4724560 -0.630073E-05  0.443E-02    2.58       1.0  T
   3    -43.4724497  0.639313E-05  0.245E-02    2.58       1.0  T
   4    -43.4724606 -0.109061E-04  0.244E-03    2.58       7.3  T
   5    -43.4724607 -0.129981E-06  0.951E-04    2.58      18.9  T
   6    -43.4724607 -0.100742E-07  0.480E-04    2.58      37.4  T
   7    -43.4724607 -0.103599E-08  0.139E-04    2.58     129.6  T
   8    -43.4724607 -0.150067E-09  0.532E-05    2.58     337.7  T
     SCC iter.                  ...        0 min,  0.010 sec
     gradient                   ...        0 min,  0.012 sec
 * total energy  :   -42.6848963 Eh     change       -0.2176775E-03 Eh
   gradient norm :     0.0052523 Eh/α   predicted    -0.1560018E-03 ( -28.33%)
   displ. norm   :     0.2557792 α      lambda       -0.2028469E-03
   maximum displ.:     0.1748663 α      in ANC's #2, #7, #4, ...

........................................................................
.............................. CYCLE    6 ..............................
........................................................................

 iter      E             dE          RMSdq      gap      omega  full diag
   1    -43.4708378 -0.434708E+02  0.691E-02    2.56       0.0  T
   2    -43.4708408 -0.301054E-05  0.411E-02    2.56       1.0  T
   3    -43.4708345  0.635158E-05  0.191E-02    2.55       1.0  T
   4    -43.4708425 -0.807083E-05  0.196E-03    2.56       9.2  T
   5    -43.4708426 -0.812647E-07  0.749E-04    2.56      24.0  T
   6    -43.4708426 -0.342063E-08  0.420E-04    2.56      42.8  T
   7    -43.4708426 -0.147696E-08  0.102E-04    2.56     176.4  T
   8    -43.4708426 -0.840217E-10  0.450E-05    2.56     399.1  T
     SCC iter.                  ...        0 min,  0.009 sec
     gradient                   ...        0 min,  0.011 sec
 * total energy  :   -42.6850593 Eh     change       -0.1630252E-03 Eh
   gradient norm :     0.0081448 Eh/α   predicted    -0.1080636E-03 ( -33.71%)
   displ. norm   :     0.2672568 α      lambda       -0.2104405E-03
   maximum displ.:     0.1845485 α      in ANC's #2, #7, #4, ...

........................................................................
.............................. CYCLE    7 ..............................
........................................................................

 iter      E             dE          RMSdq      gap      omega  full diag
   1    -43.4696954 -0.434697E+02  0.682E-02    2.55       0.0  T
   2    -43.4696965 -0.115632E-05  0.402E-02    2.55       1.0  T
   3    -43.4696944  0.213217E-05  0.102E-02    2.55       1.8  T
   4    -43.4696969 -0.251371E-05  0.159E-03    2.55      11.3  T
   5    -43.4696970 -0.475100E-07  0.631E-04    2.55      28.5  T
   6    -43.4696970 -0.293149E-09  0.303E-04    2.55      59.2  T
   7    -43.4696970 -0.181592E-08  0.726E-05    2.55     247.4  T
   8    -43.4696970 -0.318892E-10  0.390E-05    2.55     460.1  T
     SCC iter.                  ...        0 min,  0.010 sec
     gradient                   ...        0 min,  0.014 sec
 * total energy  :   -42.6852349 Eh     change       -0.1755336E-03 Eh
   gradient norm :     0.0078230 Eh/α   predicted    -0.1127381E-03 ( -35.77%)
   displ. norm   :     0.3039817 α      lambda       -0.2455569E-03
   maximum displ.:     0.2202804 α      in ANC's #2, #7, #4, ...

........................................................................
.............................. CYCLE    8 ..............................
........................................................................

 iter      E             dE          RMSdq      gap      omega  full diag
   1    -43.4696355 -0.434696E+02  0.765E-02    2.55       0.0  T
   2    -43.4696362 -0.773660E-06  0.451E-02    2.55       1.0  T
   3    -43.4696359  0.347142E-06  0.472E-03    2.55       3.8  T
   4    -43.4696364 -0.560558E-06  0.124E-03    2.55      14.5  T
   5    -43.4696365 -0.120896E-07  0.583E-04    2.55      30.8  T
   6    -43.4696365 -0.720313E-09  0.175E-04    2.55     102.4  T
   7    -43.4696365 -0.457732E-09  0.661E-05    2.55     271.8  T
     SCC iter.                  ...        0 min,  0.009 sec
     gradient                   ...        0 min,  0.013 sec
 * total energy  :   -42.6854258 Eh     change       -0.1909236E-03 Eh
   gradient norm :     0.0049168 Eh/α   predicted    -0.1341242E-03 ( -29.75%)
   displ. norm   :     0.2720951 α      lambda       -0.1772946E-03
   maximum displ.:     0.2108958 α      in ANC's #2, #7, #3, ...

........................................................................
.............................. CYCLE    9 ..............................
........................................................................

 iter      E             dE          RMSdq      gap      omega  full diag
   1    -43.4707104 -0.434707E+02  0.695E-02    2.56       0.0  T
   2    -43.4707109 -0.524554E-06  0.409E-02    2.56       1.0  T
   3    -43.4707105  0.456565E-06  0.490E-03    2.56       3.7  T
   4    -43.4707111 -0.650971E-06  0.118E-03    2.56      15.2  T
   5    -43.4707111 -0.829301E-08  0.588E-04    2.56      30.5  T
   6    -43.4707111 -0.159278E-08  0.190E-04    2.56      94.7  T
   7    -43.4707111 -0.553541E-09  0.651E-05    2.56     275.8  T
     SCC iter.                  ...        0 min,  0.009 sec
     gradient                   ...        0 min,  0.011 sec
 * total energy  :   -42.6855592 Eh     change       -0.1334523E-03 Eh
   gradient norm :     0.0032595 Eh/α   predicted    -0.9521025E-04 ( -28.66%)
   displ. norm   :     0.2358006 α      lambda       -0.1179236E-03
   maximum displ.:     0.1888620 α      in ANC's #2, #7, #3, ...

........................................................................
.............................. CYCLE   10 ..............................
........................................................................

 iter      E             dE          RMSdq      gap      omega  full diag
   1    -43.4719740 -0.434720E+02  0.617E-02    2.56       0.0  T
   2    -43.4719743 -0.316709E-06  0.363E-02    2.57       1.0  T
   3    -43.4719741  0.144782E-06  0.337E-03    2.56       5.3  T
   4    -43.4719744 -0.266827E-06  0.975E-04    2.56      18.4  T
   5    -43.4719744 -0.336208E-08  0.449E-04    2.56      40.0  T
   6    -43.4719744 -0.246867E-08  0.136E-04    2.56     132.3  T
   7    -43.4719744 -0.393854E-09  0.544E-05    2.56     329.9  T
     SCC iter.                  ...        0 min,  0.007 sec
     gradient                   ...        0 min,  0.011 sec
 * total energy  :   -42.6856537 Eh     change       -0.9441632E-04 Eh
   gradient norm :     0.0038439 Eh/α   predicted    -0.6224085E-04 ( -34.08%)
   displ. norm   :     0.2758958 α      lambda       -0.1243597E-03
   maximum displ.:     0.2207268 α      in ANC's #2, #7, #3, ...

........................................................................
.............................. CYCLE   11 ..............................
........................................................................

 iter      E             dE          RMSdq      gap      omega  full diag
   1    -43.4730840 -0.434731E+02  0.745E-02    2.56       0.0  T
   2    -43.4730844 -0.483700E-06  0.437E-02    2.56       1.0  T
   3    -43.4730835  0.985826E-06  0.655E-03    2.56       2.7  T
   4    -43.4730847 -0.124764E-05  0.123E-03    2.56      14.6  T
   5    -43.4730847 -0.256396E-08  0.555E-04    2.56      32.3  T
   6    -43.4730847 -0.454144E-08  0.161E-04    2.56     111.9  T
   7    -43.4730847 -0.482167E-09  0.675E-05    2.56     266.0  T
     SCC iter.                  ...        0 min,  0.009 sec
     gradient                   ...        0 min,  0.011 sec
 * total energy  :   -42.6857549 Eh     change       -0.1012323E-03 Eh
   gradient norm :     0.0040377 Eh/α   predicted    -0.6691365E-04 ( -33.90%)
   displ. norm   :     0.3603358 α      lambda       -0.1355517E-03
   maximum displ.:     0.2830607 α      in ANC's #2, #3, #7, ...

........................................................................
.............................. CYCLE   12 ..............................
........................................................................

 iter      E             dE          RMSdq      gap      omega  full diag
   1    -43.4727708 -0.434728E+02  0.994E-02    2.54       0.0  T
   2    -43.4727721 -0.125357E-05  0.583E-02    2.54       1.0  T
   3    -43.4727681  0.391264E-05  0.125E-02    2.54       1.4  T
   4    -43.4727728 -0.465431E-05  0.179E-03    2.54      10.0  T
   5    -43.4727728 -0.137366E-07  0.834E-04    2.54      21.5  T
   6    -43.4727728 -0.572351E-08  0.311E-04    2.54      57.8  T
   7    -43.4727728 -0.195963E-08  0.927E-05    2.54     193.8  T
   8    -43.4727728 -0.106155E-10  0.375E-05    2.54     478.4  T
     SCC iter.                  ...        0 min,  0.011 sec
     gradient                   ...        0 min,  0.012 sec
 * total energy  :   -42.6858570 Eh     change       -0.1020820E-03 Eh
   gradient norm :     0.0038905 Eh/α   predicted    -0.7658108E-04 ( -24.98%)
   displ. norm   :     0.3510808 α      lambda       -0.1548272E-03
   maximum displ.:     0.2687394 α      in ANC's #2, #4, #3, ...

........................................................................
.............................. CYCLE   13 ..............................
........................................................................

 iter      E             dE          RMSdq      gap      omega  full diag
   1    -43.4750860 -0.434751E+02  0.107E-01    2.51       0.0  T
   2    -43.4750890 -0.300226E-05  0.624E-02    2.51       1.0  T
   3    -43.4750841  0.497304E-05  0.144E-02    2.51       1.2  T
   4    -43.4750901 -0.599450E-05  0.256E-03    2.52       7.0  T
   5    -43.4750901 -0.656228E-07  0.122E-03    2.51      14.7  T
   6    -43.4750901 -0.631971E-09  0.490E-04    2.51      36.7  T
   7    -43.4750901 -0.604103E-08  0.130E-04    2.51     138.0  T
   8    -43.4750901 -0.559055E-10  0.573E-05    2.51     313.3  T
     SCC iter.                  ...        0 min,  0.015 sec
     gradient                   ...        0 min,  0.020 sec
 * total energy  :   -42.6858977 Eh     change       -0.4072244E-04 Eh
   gradient norm :     0.0061275 Eh/α   predicted    -0.8695896E-04 ( 113.54%)
   displ. norm   :     0.3257979 α      lambda       -0.1464592E-03
   maximum displ.:     0.2401677 α      in ANC's #2, #7, #3, ...

........................................................................
.............................. CYCLE   14 ..............................
........................................................................

 iter      E             dE          RMSdq      gap      omega  full diag
   1    -43.4714880 -0.434715E+02  0.965E-02    2.49       0.0  T
   2    -43.4714917 -0.368463E-05  0.563E-02    2.49       1.0  T
   3    -43.4714877  0.396346E-05  0.138E-02    2.49       1.3  T
   4    -43.4714925 -0.477507E-05  0.319E-03    2.49       5.6  T
   5    -43.4714927 -0.183810E-06  0.124E-03    2.49      14.5  T
   6    -43.4714927  0.989665E-09  0.509E-04    2.49      35.3  T
   7    -43.4714927 -0.525540E-08  0.133E-04    2.49     135.3  T
   8    -43.4714927 -0.737543E-10  0.485E-05    2.49     370.4  T
     SCC iter.                  ...        0 min,  0.011 sec
     gradient                   ...        0 min,  0.011 sec
 * total energy  :   -42.6859365 Eh     change       -0.3884168E-04 Eh
   gradient norm :     0.0044231 Eh/α   predicted    -0.8101906E-04 ( 108.59%)
   displ. norm   :     0.1878623 α      lambda       -0.6887964E-04
   maximum displ.:     0.1534771 α      in ANC's #2, #3, #7, ...

........................................................................
.............................. CYCLE   15 ..............................
........................................................................

 iter      E             dE          RMSdq      gap      omega  full diag
   1    -43.4745638 -0.434746E+02  0.503E-02    2.50       0.0  T
   2    -43.4745645 -0.687969E-06  0.295E-02    2.50       1.0  T
   3    -43.4745639  0.562466E-06  0.519E-03    2.50       3.5  T
   4    -43.4745646 -0.693160E-06  0.136E-03    2.50      13.2  T
   5    -43.4745646 -0.349078E-07  0.540E-04    2.50      33.2  T
   6    -43.4745646  0.238465E-09  0.226E-04    2.50      79.4  T
   7    -43.4745646 -0.119785E-08  0.572E-05    2.50     313.8  T
   8    -43.4745646 -0.143032E-10  0.226E-05    2.50     793.0  T
     SCC iter.                  ...        0 min,  0.010 sec
     gradient                   ...        0 min,  0.016 sec
 * total energy  :   -42.6859701 Eh     change       -0.3358607E-04 Eh
   gradient norm :     0.0015151 Eh/α   predicted    -0.3565715E-04 (   6.17%)
   displ. norm   :     0.0670351 α      lambda       -0.1623569E-04
   maximum displ.:     0.0489917 α      in ANC's #4, #5, #3, ...

........................................................................
.............................. CYCLE   16 ..............................
........................................................................

 iter      E             dE          RMSdq      gap      omega  full diag
   1    -43.4743460 -0.434743E+02  0.290E-02    2.50       0.0  T
   2    -43.4743461 -0.126550E-06  0.168E-02    2.50       1.1  T
   3    -43.4743460  0.631239E-07  0.203E-03    2.50       8.9  T
   4    -43.4743462 -0.109440E-06  0.689E-04    2.50      26.0  T
   5    -43.4743462 -0.242453E-08  0.221E-04    2.50      81.4  T
   6    -43.4743462 -0.470507E-09  0.714E-05    2.50     251.5  T
   7    -43.4743462 -0.106283E-09  0.256E-05    2.50     700.9  T
     SCC iter.                  ...        0 min,  0.009 sec
     gradient                   ...        0 min,  0.015 sec
 * total energy  :   -42.6859914 Eh     change       -0.2128532E-04 Eh
   gradient norm :     0.0011071 Eh/α   predicted    -0.8142368E-05 ( -61.75%)
   displ. norm   :     0.2506918 α      lambda       -0.5575854E-04
   maximum displ.:     0.1883345 α      in ANC's #4, #5, #1, ...

........................................................................
.............................. CYCLE   17 ..............................
........................................................................

 iter      E             dE          RMSdq      gap      omega  full diag
   1    -43.4734475 -0.434734E+02  0.109E-01    2.48       0.0  T
   2    -43.4734494 -0.187664E-05  0.630E-02    2.48       1.0  T
   3    -43.4734486  0.746815E-06  0.748E-03    2.48       2.4  T
   4    -43.4734500 -0.140967E-05  0.262E-03    2.48       6.8  T
   5    -43.4734500 -0.342760E-07  0.781E-04    2.48      23.0  T
   6    -43.4734501 -0.560016E-08  0.224E-04    2.48      80.1  T
   7    -43.4734501 -0.115810E-08  0.898E-05    2.48     200.0  T
   8    -43.4734501 -0.179838E-10  0.409E-05    2.48     438.7  T
     SCC iter.                  ...        0 min,  0.010 sec
     gradient                   ...        0 min,  0.014 sec
 * total energy  :   -42.6860555 Eh     change       -0.6409355E-04 Eh
   gradient norm :     0.0026106 Eh/α   predicted    -0.2865745E-04 ( -55.29%)
   displ. norm   :     0.1831550 α      lambda       -0.4858540E-04
   maximum displ.:     0.1336547 α      in ANC's #4, #5, #1, ...

........................................................................
.............................. CYCLE   18 ..............................
........................................................................

 iter      E             dE          RMSdq      gap      omega  full diag
   1    -43.4723303 -0.434723E+02  0.802E-02    2.47       0.0  T
   2    -43.4723315 -0.121832E-05  0.462E-02    2.47       1.0  T
   3    -43.4723308  0.712503E-06  0.681E-03    2.47       2.6  T
   4    -43.4723319 -0.114243E-05  0.202E-03    2.47       8.9  T
   5    -43.4723319 -0.188620E-07  0.641E-04    2.47      28.0  T
   6    -43.4723320 -0.261969E-08  0.180E-04    2.47     100.0  T
   7    -43.4723320 -0.692275E-09  0.671E-05    2.47     267.5  T
     SCC iter.                  ...        0 min,  0.009 sec
     gradient                   ...        0 min,  0.012 sec
 * total energy  :   -42.6860972 Eh     change       -0.4170870E-04 Eh
   gradient norm :     0.0026182 Eh/α   predicted    -0.2510785E-04 ( -39.80%)
   displ. norm   :     0.2656373 α      lambda       -0.6571261E-04
   maximum displ.:     0.1919463 α      in ANC's #4, #5, #1, ...

........................................................................
.............................. CYCLE   19 ..............................
........................................................................

 iter      E             dE          RMSdq      gap      omega  full diag
   1    -43.4713085 -0.434713E+02  0.117E-01    2.46       0.0  T
   2    -43.4713118 -0.328173E-05  0.671E-02    2.46       1.0  T
   3    -43.4713087  0.306919E-05  0.129E-02    2.46       1.4  T
   4    -43.4713129 -0.422109E-05  0.311E-03    2.46       5.8  T
   5    -43.4713130 -0.538319E-07  0.116E-03    2.46      15.4  T
   6    -43.4713130 -0.610216E-08  0.365E-04    2.46      49.2  T
   7    -43.4713130 -0.297392E-08  0.103E-04    2.46     173.9  T
   8    -43.4713130 -0.399396E-10  0.499E-05    2.46     360.0  T
     SCC iter.                  ...        0 min,  0.010 sec
     gradient                   ...        0 min,  0.011 sec
 * total energy  :   -42.6861514 Eh     change       -0.5422986E-04 Eh
   gradient norm :     0.0029187 Eh/α   predicted    -0.3517720E-04 ( -35.13%)
   displ. norm   :     0.3640277 α      lambda       -0.7568021E-04
   maximum displ.:     0.2611188 α      in ANC's #4, #5, #1, ...

........................................................................
.............................. CYCLE   20 ..............................
........................................................................

 iter      E             dE          RMSdq      gap      omega  full diag
   1    -43.4701253 -0.434701E+02  0.161E-01    2.44       0.0  T
   2    -43.4701321 -0.683633E-05  0.925E-02    2.44       1.0  T
   3    -43.4701244  0.768502E-05  0.197E-02    2.44       1.0  T
   4    -43.4701346 -0.101813E-04  0.440E-03    2.44       4.1  T
   5    -43.4701347 -0.110327E-06  0.172E-03    2.44      10.5  T
   6    -43.4701347 -0.131965E-07  0.561E-04    2.44      32.0  T
   7    -43.4701347 -0.681693E-08  0.146E-04    2.44     122.8  T
   8    -43.4701347 -0.832685E-10  0.728E-05    2.44     246.7  T
     SCC iter.                  ...        0 min,  0.009 sec
     gradient                   ...        0 min,  0.012 sec
 * total energy  :   -42.6862013 Eh     change       -0.4981248E-04 Eh
   gradient norm :     0.0035144 Eh/α   predicted    -0.4285024E-04 ( -13.98%)
   displ. norm   :     0.1437586 α      lambda       -0.3524162E-04
   maximum displ.:     0.0914095 α      in ANC's #4, #5, #1, ...
 * RMSD in coord.:     0.5638601 α      energy gain  -0.6553155E-02 Eh

generating ANC from exact Hessian ...
Using Lindh-Hessian (1995)
 Shifting diagonal of input Hessian by    9.3969741874561120E-003
 Lowest  eigenvalues of input Hessian
    0.000000    0.000000    0.000000    0.000000    0.000000    0.000000
    0.010000    0.010504    0.010605    0.011392    0.013292    0.014547
    0.018036    0.018253    0.019283    0.022964    0.024289    0.024926
 Highest eigenvalues
    1.891885    1.947469    1.997501    2.014584    2.043592    2.234357


........................................................................
.............................. CYCLE   21 ..............................
........................................................................

 iter      E             dE          RMSdq      gap      omega  full diag
   1    -43.4714833 -0.434715E+02  0.620E-02    2.44       0.0  T
   2    -43.4714845 -0.120462E-05  0.356E-02    2.44       1.0  T
   3    -43.4714826  0.189213E-05  0.949E-03    2.44       1.9  T
   4    -43.4714850 -0.238984E-05  0.180E-03    2.44      10.0  T
   5    -43.4714850 -0.221293E-07  0.704E-04    2.44      25.5  T
   6    -43.4714851 -0.188547E-08  0.287E-04    2.44      62.6  T
   7    -43.4714851 -0.184225E-08  0.584E-05    2.44     307.6  T
   8    -43.4714851 -0.154898E-10  0.301E-05    2.44     597.2  T
     SCC iter.                  ...        0 min,  0.010 sec
     gradient                   ...        0 min,  0.012 sec
 * total energy  :   -42.6862261 Eh     change       -0.2489406E-04 Eh
   gradient norm :     0.0023045 Eh/α   predicted     0.0000000E+00 (-100.00%)
   displ. norm   :     0.0204563 α      lambda       -0.1184624E-04
   maximum displ.:     0.0101976 α      in ANC's #1, #5, #6, ...

........................................................................
.............................. CYCLE   22 ..............................
........................................................................

 iter      E             dE          RMSdq      gap      omega  full diag
   1    -43.4727848 -0.434728E+02  0.856E-03    2.44       0.0  T
   2    -43.4727848 -0.304769E-07  0.507E-03    2.44       3.5  T
   3    -43.4727848  0.511027E-07  0.137E-03    2.44      13.1  T
   4    -43.4727848 -0.608955E-07  0.293E-04    2.44      61.4  T
   5    -43.4727848 -0.129690E-08  0.115E-04    2.44     156.0  T
   6    -43.4727848  0.238742E-11  0.486E-05    2.44     369.8  T
     SCC iter.                  ...        0 min,  0.008 sec
     gradient                   ...        0 min,  0.013 sec
 * total energy  :   -42.6862362 Eh     change       -0.1006379E-04 Eh
   gradient norm :     0.0007956 Eh/α   predicted    -0.6899491E-05 ( -31.44%)
   displ. norm   :     0.0545210 α      lambda       -0.9877203E-05
   maximum displ.:     0.0298832 α      in ANC's #1, #5, #6, ...

........................................................................
.............................. CYCLE   23 ..............................
........................................................................

 iter      E             dE          RMSdq      gap      omega  full diag
   1    -43.4740331 -0.434740E+02  0.191E-02    2.45       0.0  T
   2    -43.4740332 -0.598233E-07  0.112E-02    2.45       1.6  T
   3    -43.4740331  0.635474E-07  0.156E-03    2.45      11.5  T
   4    -43.4740332 -0.820960E-07  0.421E-04    2.45      42.6  T
   5    -43.4740332 -0.243681E-08  0.180E-04    2.45      99.6  T
   6    -43.4740332 -0.191349E-10  0.653E-05    2.45     275.2  T
     SCC iter.                  ...        0 min,  0.006 sec
     gradient                   ...        0 min,  0.011 sec
 * total energy  :   -42.6862442 Eh     change       -0.8009919E-05 Eh
   gradient norm :     0.0012998 Eh/α   predicted    -0.4945431E-05 ( -38.26%)
   displ. norm   :     0.0346153 α      lambda       -0.4143512E-05
   maximum displ.:     0.0215891 α      in ANC's #1, #5, #2, ...

........................................................................
.............................. CYCLE   24 ..............................
........................................................................

 iter      E             dE          RMSdq      gap      omega  full diag
   1    -43.4735697 -0.434736E+02  0.110E-02    2.45       0.0  T
   2    -43.4735697 -0.100014E-07  0.643E-03    2.45       2.8  T
   3    -43.4735697  0.120416E-07  0.764E-04    2.45      23.5  T
   4    -43.4735697 -0.168794E-07  0.158E-04    2.45     113.4  T
   5    -43.4735697 -0.553939E-10  0.798E-05    2.45     225.1  T
     SCC iter.                  ...        0 min,  0.007 sec
     gradient                   ...        0 min,  0.015 sec
 * total energy  :   -42.6862495 Eh     change       -0.5237878E-05 Eh
   gradient norm :     0.0009619 Eh/α   predicted    -0.2095000E-05 ( -60.00%)
   displ. norm   :     0.0631744 α      lambda       -0.6094936E-05
   maximum displ.:     0.0413145 α      in ANC's #1, #2, #5, ...

........................................................................
.............................. CYCLE   25 ..............................
........................................................................

 iter      E             dE          RMSdq      gap      omega  full diag
   1    -43.4728410 -0.434728E+02  0.191E-02    2.44       0.0  T
   2    -43.4728410 -0.322152E-07  0.112E-02    2.44       1.6  T
   3    -43.4728409  0.546168E-07  0.154E-03    2.44      11.7  T
   4    -43.4728410 -0.705708E-07  0.285E-04    2.44      63.0  T
   5    -43.4728410 -0.365894E-09  0.144E-04    2.44     124.8  T
   6    -43.4728410 -0.129347E-09  0.517E-05    2.44     347.4  T
     SCC iter.                  ...        0 min,  0.011 sec
     gradient                   ...        0 min,  0.013 sec
 * total energy  :   -42.6862558 Eh     change       -0.6347146E-05 Eh
   gradient norm :     0.0003139 Eh/α   predicted    -0.3053350E-05 ( -51.89%)
   displ. norm   :     0.0454016 α      lambda       -0.2622237E-05
   maximum displ.:     0.0322877 α      in ANC's #1, #2, #7, ...

........................................................................
.............................. CYCLE   26 ..............................
........................................................................

 iter      E             dE          RMSdq      gap      omega  full diag
   1    -43.4726752 -0.434727E+02  0.138E-02    2.44       0.0  T
   2    -43.4726752 -0.129286E-07  0.808E-03    2.44       2.2  T
   3    -43.4726752  0.269875E-07  0.105E-03    2.44      17.2  T
   4    -43.4726753 -0.345605E-07  0.189E-04    2.44      95.1  T
   5    -43.4726753 -0.168328E-10  0.913E-05    2.44     196.7  T
     SCC iter.                  ...        0 min,  0.006 sec
     gradient                   ...        0 min,  0.011 sec
 * total energy  :   -42.6862590 Eh     change       -0.3173545E-05 Eh
   gradient norm :     0.0004477 Eh/α   predicted    -0.1312890E-05 ( -58.63%)
   displ. norm   :     0.0427654 α      lambda       -0.2562215E-05
   maximum displ.:     0.0305506 α      in ANC's #1, #2, #3, ...

........................................................................
.............................. CYCLE   27 ..............................
........................................................................

 iter      E             dE          RMSdq      gap      omega  full diag
   1    -43.4727651 -0.434728E+02  0.138E-02    2.44       0.0  T
   2    -43.4727651 -0.123753E-07  0.808E-03    2.44       2.2  T
   3    -43.4727651  0.287410E-07  0.104E-03    2.44      17.3  T
   4    -43.4727651 -0.363288E-07  0.190E-04    2.44      94.5  T
   5    -43.4727651  0.734417E-10  0.993E-05    2.44     180.8  T
     SCC iter.                  ...        0 min,  0.011 sec
     gradient                   ...        0 min,  0.013 sec
 * total energy  :   -42.6862623 Eh     change       -0.3303405E-05 Eh
   gradient norm :     0.0004394 Eh/α   predicted    -0.1284663E-05 ( -61.11%)
   displ. norm   :     0.0590606 α      lambda       -0.3311428E-05
   maximum displ.:     0.0410260 α      in ANC's #1, #2, #3, ...

........................................................................
.............................. CYCLE   28 ..............................
........................................................................

 iter      E             dE          RMSdq      gap      omega  full diag
   1    -43.4729942 -0.434730E+02  0.201E-02    2.44       0.0  T
   2    -43.4729942 -0.280261E-07  0.118E-02    2.44       1.5  T
   3    -43.4729942  0.439178E-07  0.133E-03    2.44      13.5  T
   4    -43.4729943 -0.584910E-07  0.282E-04    2.44      63.8  T
   5    -43.4729943  0.354063E-10  0.129E-04    2.44     139.0  T
   6    -43.4729943 -0.294719E-09  0.371E-05    2.44     483.6  T
     SCC iter.                  ...        0 min,  0.009 sec
     gradient                   ...        0 min,  0.014 sec
 * total energy  :   -42.6862663 Eh     change       -0.3983691E-05 Eh
   gradient norm :     0.0003248 Eh/α   predicted    -0.1661140E-05 ( -58.30%)
   displ. norm   :     0.0614311 α      lambda       -0.2677139E-05
   maximum displ.:     0.0427350 α      in ANC's #1, #2, #4, ...

........................................................................
.............................. CYCLE   29 ..............................
........................................................................

 iter      E             dE          RMSdq      gap      omega  full diag
   1    -43.4731562 -0.434732E+02  0.218E-02    2.43       0.0  T
   2    -43.4731562 -0.416792E-07  0.128E-02    2.43       1.4  T
   3    -43.4731562  0.626046E-07  0.164E-03    2.43      11.0  T
   4    -43.4731562 -0.818538E-07  0.313E-04    2.43      57.5  T
   5    -43.4731562 -0.197609E-09  0.137E-04    2.43     131.4  T
   6    -43.4731562 -0.122157E-09  0.495E-05    2.43     362.9  T
     SCC iter.                  ...        0 min,  0.007 sec
     gradient                   ...        0 min,  0.013 sec
 * total energy  :   -42.6862695 Eh     change       -0.3195776E-05 Eh
   gradient norm :     0.0002523 Eh/α   predicted    -0.1343599E-05 ( -57.96%)
   displ. norm   :     0.0504329 α      lambda       -0.1845297E-05
   maximum displ.:     0.0353391 α      in ANC's #1, #4, #2, ...

........................................................................
.............................. CYCLE   30 ..............................
........................................................................

 iter      E             dE          RMSdq      gap      omega  full diag
   1    -43.4732184 -0.434732E+02  0.187E-02    2.43       0.0  T
   2    -43.4732184 -0.388757E-07  0.109E-02    2.43       1.6  T
   3    -43.4732183  0.724685E-07  0.175E-03    2.43      10.3  T
   4    -43.4732184 -0.901516E-07  0.276E-04    2.43      65.0  T
   5    -43.4732184 -0.271562E-09  0.129E-04    2.43     139.6  T
   6    -43.4732184 -0.886189E-10  0.489E-05    2.43     367.0  T
     SCC iter.                  ...        0 min,  0.007 sec
     gradient                   ...        0 min,  0.014 sec
 * total energy  :   -42.6862718 Eh     change       -0.2328475E-05 Eh
   gradient norm :     0.0002217 Eh/α   predicted    -0.9256255E-06 ( -60.25%)
   displ. norm   :     0.0458808 α      lambda       -0.1550862E-05
   maximum displ.:     0.0323472 α      in ANC's #1, #4, #2, ...

........................................................................
.............................. CYCLE   31 ..............................
........................................................................

 iter      E             dE          RMSdq      gap      omega  full diag
   1    -43.4731754 -0.434732E+02  0.177E-02    2.43       0.0  T
   2    -43.4731754 -0.416359E-07  0.104E-02    2.43       1.7  T
   3    -43.4731754  0.833947E-07  0.186E-03    2.43       9.6  T
   4    -43.4731755 -0.101905E-06  0.276E-04    2.43      65.1  T
   5    -43.4731755 -0.400412E-09  0.132E-04    2.43     136.2  T
   6    -43.4731755 -0.822098E-10  0.535E-05    2.43     335.9  T
     SCC iter.                  ...        0 min,  0.008 sec
     gradient                   ...        0 min,  0.012 sec
 * total energy  :   -42.6862737 Eh     change       -0.1946055E-05 Eh
   gradient norm :     0.0001694 Eh/α   predicted    -0.7768607E-06 ( -60.08%)
   displ. norm   :     0.0456759 α      lambda       -0.1265666E-05
   maximum displ.:     0.0322257 α      in ANC's #1, #4, #3, ...

........................................................................
.............................. CYCLE   32 ..............................
........................................................................

 iter      E             dE          RMSdq      gap      omega  full diag
   1    -43.4730766 -0.434731E+02  0.183E-02    2.43       0.0  T
   2    -43.4730767 -0.464710E-07  0.107E-02    2.43       1.7  T
   3    -43.4730766  0.918557E-07  0.197E-03    2.43       9.1  T
   4    -43.4730767 -0.112007E-06  0.296E-04    2.43      60.7  T
   5    -43.4730767 -0.510042E-09  0.139E-04    2.43     129.2  T
   6    -43.4730767 -0.854641E-10  0.561E-05    2.43     320.1  T
     SCC iter.                  ...        0 min,  0.008 sec
     gradient                   ...        0 min,  0.016 sec
 * total energy  :   -42.6862753 Eh     change       -0.1512109E-05 Eh
   gradient norm :     0.0001122 Eh/α   predicted    -0.6351209E-06 ( -58.00%)
   displ. norm   :     0.0391414 α      lambda       -0.7999573E-06
   maximum displ.:     0.0275650 α      in ANC's #1, #4, #5, ...

........................................................................
.............................. CYCLE   33 ..............................
........................................................................

 iter      E             dE          RMSdq      gap      omega  full diag
   1    -43.4730123 -0.434730E+02  0.162E-02    2.43       0.0  T
   2    -43.4730124 -0.353073E-07  0.946E-03    2.43       1.9  T
   3    -43.4730123  0.572392E-07  0.158E-03    2.43      11.3  T
   4    -43.4730124 -0.716588E-07  0.284E-04    2.43      63.2  T
   5    -43.4730124 -0.437211E-09  0.125E-04    2.43     143.5  T
   6    -43.4730124 -0.655760E-10  0.475E-05    2.43     378.3  T
     SCC iter.                  ...        0 min,  0.012 sec
     gradient                   ...        0 min,  0.013 sec
 * total energy  :   -42.6862762 Eh     change       -0.9166530E-06 Eh
   gradient norm :     0.0000964 Eh/α   predicted    -0.4023041E-06 ( -56.11%)
   displ. norm   :     0.0318720 α      lambda       -0.5264770E-06
   maximum displ.:     0.0223526 α      in ANC's #1, #4, #5, ...

........................................................................
.............................. CYCLE   34 ..............................
........................................................................

 iter      E             dE          RMSdq      gap      omega  full diag
   1    -43.4729727 -0.434730E+02  0.136E-02    2.43       0.0  T
   2    -43.4729728 -0.250594E-07  0.789E-03    2.43       2.3  T
   3    -43.4729727  0.359098E-07  0.129E-03    2.43      13.9  T
   4    -43.4729728 -0.455454E-07  0.247E-04    2.43      72.7  T
   5    -43.4729728 -0.355449E-09  0.105E-04    2.43     171.2  T
   6    -43.4729728 -0.395559E-10  0.384E-05    2.43     467.3  T
     SCC iter.                  ...        0 min,  0.007 sec
     gradient                   ...        0 min,  0.011 sec
 * total energy  :   -42.6862768 Eh     change       -0.5940020E-06 Eh
   gradient norm :     0.0000945 Eh/α   predicted    -0.2653000E-06 ( -55.34%)
   displ. norm   :     0.0270455 α      lambda       -0.4037086E-06
   maximum displ.:     0.0187670 α      in ANC's #1, #5, #4, ...

........................................................................
.............................. CYCLE   35 ..............................
........................................................................

 iter      E             dE          RMSdq      gap      omega  full diag
   1    -43.4729618 -0.434730E+02  0.116E-02    2.43       0.0  T
   2    -43.4729618 -0.183581E-07  0.676E-03    2.43       2.7  T
   3    -43.4729618  0.197409E-07  0.100E-03    2.43      17.9  T
   4    -43.4729618 -0.265460E-07  0.229E-04    2.43      78.4  T
   5    -43.4729618 -0.295010E-09  0.893E-05    2.43     201.1  T
   6    -43.4729618 -0.289333E-10  0.301E-05    2.43     596.2  T
     SCC iter.                  ...        0 min,  0.008 sec
     gradient                   ...        0 min,  0.012 sec
 * total energy  :   -42.6862772 Eh     change       -0.4534323E-06 Eh
   gradient norm :     0.0000792 Eh/α   predicted    -0.2031979E-06 ( -55.19%)
   displ. norm   :     0.0223677 α      lambda       -0.2881678E-06
   maximum displ.:     0.0151586 α      in ANC's #1, #5, #6, ...

........................................................................
.............................. CYCLE   36 ..............................
........................................................................

 iter      E             dE          RMSdq      gap      omega  full diag
   1    -43.4729666 -0.434730E+02  0.945E-03    2.43       0.0  T
   2    -43.4729666 -0.128720E-07  0.548E-03    2.43       3.3  T
   3    -43.4729666  0.139925E-07  0.853E-04    2.43      21.1  T
   4    -43.4729666 -0.186369E-07  0.186E-04    2.43      96.4  T
   5    -43.4729666 -0.217781E-09  0.743E-05    2.43     241.7  T
     SCC iter.                  ...        0 min,  0.009 sec
     gradient                   ...        0 min,  0.014 sec
 * total energy  :   -42.6862775 Eh     change       -0.3040993E-06 Eh
   gradient norm :     0.0000642 Eh/α   predicted    -0.1446483E-06 ( -52.43%)
   displ. norm   :     0.0223677 α      lambda        0.0000000E+00
   maximum displ.:     0.0151586 α      in ANC's #1, #5, #6, ...

........................................................................
.............................. CYCLE   37 ..............................
........................................................................

 iter      E             dE          RMSdq      gap      omega  full diag
   1    -43.4729647 -0.434730E+02  0.945E-03    2.43       0.0  T
   2    -43.4729647 -0.129832E-07  0.549E-03    2.43       3.3  T
   3    -43.4729647  0.138020E-07  0.854E-04    2.43      21.0  T
   4    -43.4729647 -0.184505E-07  0.185E-04    2.43      96.9  T
   5    -43.4729647 -0.206597E-09  0.745E-05    2.43     241.2  T
     SCC iter.                  ...        0 min,  0.010 sec
     gradient                   ...        0 min,  0.014 sec
 * total energy  :   -42.6862776 Eh     change       -0.3881789E-07 Eh
   gradient norm :     0.0000992 Eh/α   predicted    -0.2828590E-08 ( -92.71%)
   displ. norm   :     0.0217649 α      lambda        0.3163109E-06
   maximum displ.:     0.0147039 α      in ANC's #1, #5, #6, ...

   *** GEOMETRY OPTIMIZATION CONVERGED AFTER 37 ITERATIONS ***

------------------------------------------------------------------------
 total energy gain   :        -0.0066295 Eh       -4.1600 kcal/mol
 total RMSD          :         0.6330251 a0        0.3350 Å
 total power (kW/mol):        -0.4704227 (step)  -16.1563 (real)
------------------------------------------------------------------------

 ANCopt (total)                0 d,  0 h,  0 min,  1.077 sec
 optimizer setup                ...        0 min,  0.000 sec (  0.044%)
 model hessian                  ...        0 min,  0.012 sec (  1.136%)
 ANC generation                 ...        0 min,  0.002 sec (  0.184%)
 coordinate transformation      ...        0 min,  0.001 sec (  0.061%)
 single point calculation       ...        0 min,  1.045 sec ( 96.973%)
 optimization log               ...        0 min,  0.009 sec (  0.820%)
 hessian update                 ...        0 min,  0.001 sec (  0.086%)
 rational function              ...        0 min,  0.005 sec (  0.468%)

================
 final structure:
================
31
 xtb: 6.7.1 (edcfbbe)
C           -0.55242989241011       -1.39035216025332       -1.62198391383889
C           -0.20300239720582       -0.36968848904333       -0.57032781391102
N           -1.05959190638637        0.21200068226292        0.16225384405036
C           -2.41041961214978       -0.02238587295262        0.23040233628983
C           -2.91774532692235       -1.21611449819737        0.75318354093136
C           -4.27769588732898       -1.37577365511924        0.93403335628252
C           -5.15636360664903       -0.36204458240092        0.58842605362571
C           -4.66051926692418        0.82464658090784        0.07034084868853
C           -3.30231501799962        1.00261622678962       -0.09836531557054
C            1.20699403659611        0.00579394215556       -0.39580798179842
C            2.24554183775765       -0.66266569036724       -1.04381525629376
C            3.55938183712256       -0.28049573644515       -0.84750626461126
C            3.88345245319317        0.77694821698591       -0.00620723111698
C            5.30946167211229        1.17560389865292        0.21872288962871
C            2.84751083690186        1.44356716532698        0.64255047408906
C            1.53531573241899        1.06569709936214        0.45404430247074
H           -0.12404062322193       -1.10542407788902       -2.58138292774942
H           -1.63341832840941       -1.46841882851273       -1.72430287430872
H           -0.15738287682973       -2.36642151961284       -1.34221024474477
H           -2.22896694472469       -2.00281925394153        1.02876562896292
H           -4.65539010955724       -2.30314326275401        1.34206544843008
H           -6.21978861542437       -0.49395009958813        0.72487708466540
H           -5.34015794040332        1.62070346349062       -0.20023007939050
H           -2.91085241211317        1.92558232680217       -0.50114236925701
H            2.04037476180307       -1.49280017184622       -1.70234743565867
H            4.34895103786902       -0.81398662816305       -1.35866778142275
H            5.39380097283590        2.25214440968937        0.35232284999032
H            5.93668621628080        0.87080990261938       -0.61596955431258
H            5.68989400795152        0.69550379501561        1.12152252811362
H            3.07791827748320        2.26904923646606        1.30159241416552
H            0.73479708443341        1.58581758056142        0.95713112980096

 Bond Distances (Angstroems)
 ---------------------------
C1-C2=1.5066         C1-H17=1.0886        C1-H18=1.0886        C1-H19=1.0895        C2-C1=1.5066         C2-N3=1.2684         
C2-C10=1.4695        N3-C2=1.2684         N3-C4=1.3727         C4-N3=1.3727         C4-C5=1.3985         C4-C9=1.3979         
C5-C4=1.3985         C5-C6=1.3812         C5-H20=1.0813        C6-C5=1.3812         C6-C7=1.3853         C6-H21=1.0813        
C7-C6=1.3853         C7-C8=1.3865         C7-H22=1.0802        C8-C7=1.3865         C8-C9=1.3802         C8-H23=1.0811        
C9-C4=1.3979         C9-C8=1.3802         C9-H24=1.0804        C10-C2=1.4695        C10-C11=1.3948       C10-C16=1.3977       
C11-C10=1.3948       C11-C12=1.3823       C11-H25=1.0793       C12-C11=1.3823       C12-C13=1.3896       C12-H26=1.0814       
C13-C12=1.3896       C13-C14=1.4977       C13-C15=1.3923       C14-C13=1.4977       C14-H27=1.0881       C14-H28=1.0877       
C14-H29=1.0910       C15-C13=1.3923       C15-C16=1.3785       C15-H30=1.0811       C16-C10=1.3977       C16-C15=1.3785       
C16-H31=1.0791       H17-C1=1.0886        H18-C1=1.0886        H19-C1=1.0895        H20-C5=1.0813        H21-C6=1.0813        
H22-C7=1.0802        H23-C8=1.0811        H24-C9=1.0804        H25-C11=1.0793       H26-C12=1.0814       H27-C14=1.0881       
H28-C14=1.0877       H29-C14=1.0910       H30-C15=1.0811       H31-C16=1.0791       
 C  H  Rav=1.0839 sigma=0.0042  Rmin=1.0791  Rmax=1.0910    15
 C  C  Rav=1.4092 sigma=0.0421  Rmin=1.3785  Rmax=1.5066    15
 N  C  Rav=1.3205 sigma=0.0522  Rmin=1.2684  Rmax=1.3727     2

 selected bond angles (degree)
 --------------------
H17-C1-C2=110.28               H18-C1-C2=110.15               H18-C1-H17=109.07              H19-C1-C2=110.10               
H19-C1-H17=108.55              H19-C1-H18=108.66              N3-C2-C1=123.86                C10-C2-C1=118.59               
C10-C2-N3=117.53               C4-N3-C2=127.95                C5-C4-N3=121.42                C9-C4-N3=119.40                
C9-C4-C5=118.84                C6-C5-C4=120.32                H20-C5-C4=119.03               H20-C5-C6=120.64               
C7-C6-C5=120.48                H21-C6-C5=119.50               H21-C6-C7=120.01               C8-C7-C6=119.52                
H22-C7-C6=120.23               H22-C7-C8=120.25               C9-C8-C7=120.53                H23-C8-C7=119.93               
H23-C8-C9=119.54               C8-C9-C4=120.30                H24-C9-C4=118.87               H24-C9-C8=120.82               
C11-C10-C2=122.47              C16-C10-C2=119.43              C16-C10-C11=118.10             

 selected dihedral angles (degree)
 ---------------------------------
N3-C2-C1-H17=126.34           N3-C2-C1-H18=  5.91           N3-C2-C1-H19=246.10           C10-C2-C1-H17=307.87          
C10-C2-C1-H18=187.44          C10-C2-C1-H19= 67.63          C4-N3-C2-C1=  5.37            C4-N3-C2-C10=183.86           
C5-C4-N3-C2= 68.09            C9-C4-N3-C2=241.35            C6-C5-C4-N3=173.57            C6-C5-C4-C9=  0.27            
H20-C5-C4-N3=354.62           H20-C5-C4-C9=181.33           C7-C6-C5-C4=  0.62            C7-C6-C5-H20=179.55           
H21-C6-C5-C4=180.19           H21-C6-C5-H20=359.11          C8-C7-C6-C5=359.34            C8-C7-C6-H21=179.78           
H22-C7-C6-C5=179.55           H22-C7-C6-H21=  0.00          C9-C8-C7-C6=359.80            C9-C8-C7-H22=179.58           
H23-C8-C7-C6=180.09           H23-C8-C7-H22=359.88          C8-C9-C4-N3=185.44            C8-C9-C4-C5=358.87            
H24-C9-C4-N3=  6.49           H24-C9-C4-C5=179.92           C4-C9-C8-C7=  1.10            C4-C9-C8-H23=180.81           
H24-C9-C8-C7=180.03           H24-C9-C8-H23=359.74          C11-C10-C2-C1=351.76          C11-C10-C2-N3=173.19          
C16-C10-C2-C1=172.12          C16-C10-C2-N3=353.55          
           -------------------------------------------------
          |                Final Singlepoint                |
           -------------------------------------------------

          ...................................................
          :                      SETUP                      :
          :.................................................:
          :  # basis functions                  79          :
          :  # atomic orbitals                  79          :
          :  # shells                           47          :
          :  # electrons                        80          :
          :  max. iterations                   250          :
          :  Hamiltonian                  GFN2-xTB          :
          :  restarted?                      false          :
          :  GBSA solvation                   true          :
          :  PC potential                    false          :
          :  electronic temp.          300.0000000     K    :
          :  accuracy                    0.2000000          :
          :  -> integral cutoff          0.3198970E+02      :
          :  -> integral neglect         0.2000000E-08      :
          :  -> SCF convergence          0.2000000E-06 Eh   :
          :  -> wf. convergence          0.2000000E-04 e    :
          :  Broyden damping             0.4000000          :
          :  net charge                          0          :
          :  unpaired electrons                  0          :
          ...................................................

 iter      E             dE          RMSdq      gap      omega  full diag
   1    -43.4729647 -0.434730E+02  0.249E-05    2.43       0.0  T
   2    -43.4729647 -0.673595E-11  0.169E-05    2.43    1063.1  T
   3    -43.4729647 -0.650147E-11  0.599E-06    2.43    2996.8  T

   *** convergence criteria satisfied after 3 iterations ***

         #    Occupation            Energy/Eh            Energy/eV
      -------------------------------------------------------------
         1        2.0000           -0.6498242             -17.6826
       ...           ...                  ...                  ...
        34        2.0000           -0.4174477             -11.3593
        35        2.0000           -0.4129698             -11.2375
        36        2.0000           -0.4066000             -11.0641
        37        2.0000           -0.4040093             -10.9937
        38        2.0000           -0.3950966             -10.7511
        39        2.0000           -0.3858782             -10.5003
        40        2.0000           -0.3524487              -9.5906 (HOMO)
        41                         -0.2632667              -7.1639 (LUMO)
        42                         -0.2210154              -6.0141
        43                         -0.2127608              -5.7895
        44                         -0.2055147              -5.5923
        45                         -0.1791972              -4.8762
       ...                                ...                  ...
        79                          0.7041531              19.1610
      -------------------------------------------------------------
                  HL-Gap            0.0891820 Eh            2.4268 eV
             Fermi-level           -0.3078577 Eh           -8.3772 eV

 SCC (total)                   0 d,  0 h,  0 min,  0.025 sec
 SCC setup                      ...        0 min,  0.001 sec (  5.674%)
 Dispersion                     ...        0 min,  0.001 sec (  2.924%)
 classical contributions        ...        0 min,  0.000 sec (  0.481%)
 integral evaluation            ...        0 min,  0.005 sec ( 21.006%)
 iterations                     ...        0 min,  0.005 sec ( 21.031%)
 molecular gradient             ...        0 min,  0.012 sec ( 47.900%)
 printout                       ...        0 min,  0.000 sec (  0.881%)

         :::::::::::::::::::::::::::::::::::::::::::::::::::::
         ::                     SUMMARY                     ::
         :::::::::::::::::::::::::::::::::::::::::::::::::::::
         :: total energy             -42.686277558166 Eh    ::
         :: total w/o Gsasa/hb       -42.667819205552 Eh    ::
         :: gradient norm              0.000099920384 Eh/a0 ::
         :: HOMO-LUMO gap              2.426765968949 eV    ::
         ::.................................................::
         :: SCC energy               -43.473120266116 Eh    ::
         :: -> isotropic ES            0.011337300971 Eh    ::
         :: -> anisotropic ES          0.006343767922 Eh    ::
         :: -> anisotropic XC          0.030995635237 Eh    ::
         :: -> dispersion             -0.029876069324 Eh    ::
         :: -> Gsolv                  -0.018834831670 Eh    ::
         ::    -> Gelec               -0.000376479055 Eh    ::
         ::    -> Gsasa               -0.020666495753 Eh    ::
         ::    -> Ghb                  0.000000000000 Eh    ::
         ::    -> Gshift               0.002208143139 Eh    ::
         :: repulsion energy           0.786842707949 Eh    ::
         :: add. restraining           0.000000000000 Eh    ::
         :: total charge              -0.000000000000 e     ::
         :::::::::::::::::::::::::::::::::::::::::::::::::::::

           -------------------------------------------------
          |                Property Printout                |
           -------------------------------------------------

    * Orbital Energies and Occupations

         #    Occupation            Energy/Eh            Energy/eV
      -------------------------------------------------------------
         1        2.0000           -0.6498242             -17.6826
       ...           ...                  ...                  ...
        28        2.0000           -0.4647724             -12.6471
        29        2.0000           -0.4598131             -12.5122
        30        2.0000           -0.4573760             -12.4458
        31        2.0000           -0.4401467             -11.9770
        32        2.0000           -0.4304998             -11.7145
        33        2.0000           -0.4280721             -11.6484
        34        2.0000           -0.4174477             -11.3593
        35        2.0000           -0.4129698             -11.2375
        36        2.0000           -0.4066000             -11.0641
        37        2.0000           -0.4040093             -10.9937
        38        2.0000           -0.3950966             -10.7511
        39        2.0000           -0.3858782             -10.5003
        40        2.0000           -0.3524487              -9.5906 (HOMO)
        41                         -0.2632667              -7.1639 (LUMO)
        42                         -0.2210154              -6.0141
        43                         -0.2127608              -5.7895
        44                         -0.2055147              -5.5923
        45                         -0.1791972              -4.8762
        46                         -0.0831080              -2.2615
        47                         -0.0778703              -2.1190
        48                          0.0782995               2.1306
        49                          0.1055226               2.8714
        50                          0.1136035               3.0913
        51                          0.1326087               3.6085
       ...                                ...                  ...
        79                          0.7041531              19.1610
      -------------------------------------------------------------
                  HL-Gap            0.0891820 Eh            2.4268 eV
             Fermi-level           -0.3078577 Eh           -8.3772 eV

     #   Z          covCN         q      C6AA      α(0)
     1   6 C        3.755    -0.116    22.768     6.804
     2   6 C        2.898     0.112    25.539     8.286
     3   7 N        1.848    -0.217    26.567     7.639
     4   6 C        2.922     0.085    26.117     8.381
     5   6 C        2.922    -0.051    29.279     8.873
     6   6 C        2.918    -0.032    28.799     8.800
     7   6 C        2.919    -0.043    29.064     8.841
     8   6 C        2.919    -0.032    28.787     8.798
     9   6 C        2.924    -0.049    29.214     8.864
    10   6 C        2.982    -0.002    28.074     8.691
    11   6 C        2.921    -0.034    28.845     8.807
    12   6 C        2.923    -0.040    29.005     8.832
    13   6 C        2.966     0.023    27.500     8.602
    14   6 C        3.757    -0.111    22.673     6.789
    15   6 C        2.922    -0.038    28.945     8.823
    16   6 C        2.924    -0.028    28.692     8.784
    17   1 H        0.925     0.052     2.300     2.372
    18   1 H        0.925     0.043     2.408     2.427
    19   1 H        0.925     0.054     2.274     2.358
    20   1 H        0.925     0.022     2.702     2.570
    21   1 H        0.925     0.023     2.682     2.561
    22   1 H        0.926     0.022     2.708     2.573
    23   1 H        0.926     0.025     2.665     2.553
    24   1 H        0.926     0.028     2.612     2.527
    25   1 H        0.926     0.038     2.482     2.464
    26   1 H        0.925     0.033     2.540     2.492
    27   1 H        0.925     0.048     2.349     2.397
    28   1 H        0.925     0.046     2.372     2.408
    29   1 H        0.924     0.053     2.288     2.365
    30   1 H        0.926     0.036     2.509     2.477
    31   1 H        0.926     0.053     2.285     2.364

 Mol. C6AA /au·bohr⁶  :      11522.426423
 Mol. C8AA /au·bohr⁸  :     279790.178159
 Mol. α(0) /au        :        171.522423


Wiberg/Mayer (AO) data.
largest (>0.10) Wiberg bond orders for each atom

 ---------------------------------------------------------------------------
     #   Z sym  total        # sym  WBO       # sym  WBO       # sym  WBO
 ---------------------------------------------------------------------------
     1   6 C    3.996 --     2 C    1.006    18 H    0.982    17 H    0.970
                            19 H    0.964
     2   6 C    3.965 --     3 N    1.760    10 C    1.063     1 C    1.006
     3   7 N    3.225 --     2 C    1.760     4 C    1.140
     4   6 C    3.976 --     9 C    1.340     5 C    1.338     3 N    1.140
     5   6 C    3.984 --     6 C    1.457     4 C    1.338    20 H    0.971
                             8 C    0.103
     6   6 C    3.992 --     5 C    1.457     7 C    1.431    21 H    0.970
                             9 C    0.105
     7   6 C    3.989 --     6 C    1.431     8 C    1.424    22 H    0.972
     8   6 C    3.992 --     9 C    1.465     7 C    1.424    23 H    0.971
                             5 C    0.103
     9   6 C    3.986 --     8 C    1.465     4 C    1.340    24 H    0.971
                             6 C    0.105
    10   6 C    3.988 --    11 C    1.381    16 C    1.365     2 C    1.063
    11   6 C    3.986 --    12 C    1.458    10 C    1.381    25 H    0.967
                            15 C    0.101
    12   6 C    3.991 --    11 C    1.458    13 C    1.405    26 H    0.969
                            16 C    0.102
    13   6 C    3.984 --    12 C    1.405    15 C    1.392    14 C    1.029
    14   6 C    3.995 --    13 C    1.029    28 H    0.983    27 H    0.979
                            29 H    0.965
    15   6 C    3.992 --    16 C    1.475    13 C    1.392    30 H    0.969
                            11 C    0.101
    16   6 C    3.989 --    15 C    1.475    10 C    1.365    31 H    0.966
                            12 C    0.102
    17   1 H    0.997 --     1 C    0.970
    18   1 H    0.998 --     1 C    0.982
    19   1 H    0.997 --     1 C    0.964
    20   1 H    0.999 --     5 C    0.971
    21   1 H    0.999 --     6 C    0.970
    22   1 H    0.999 --     7 C    0.972
    23   1 H    0.998 --     8 C    0.971
    24   1 H    0.999 --     9 C    0.971
    25   1 H    0.998 --    11 C    0.967
    26   1 H    0.998 --    12 C    0.969
    27   1 H    0.997 --    14 C    0.979
    28   1 H    0.997 --    14 C    0.983
    29   1 H    0.995 --    14 C    0.965
    30   1 H    0.998 --    15 C    0.969
    31   1 H    0.997 --    16 C    0.966
 ---------------------------------------------------------------------------

Topologies differ in total number of bonds
Writing topology from bond orders to xtbtopo.mol

molecular dipole:
                 x           y           z       tot (Debye)
 q only:        1.165      -0.078      -0.317
   full:        1.083      -0.323      -0.494       3.133
molecular quadrupole (traceless):
                xx          xy          yy          xz          yz          zz
 q only:        2.262       1.868      -0.378       1.517       2.051      -1.884
  q+dip:        5.355       1.808       0.565       0.901       2.788      -5.920
   full:        2.947       1.910       0.086       1.595       1.674      -3.033

           -------------------------------------------------
          |                Geometry Summary                 |
           -------------------------------------------------

      molecular mass/u    :      209.2868530
   center of mass at/Å    :       -0.2178954       0.0455181      -0.0442736
  moments of inertia/u·Å² :        0.2751542E+03   0.2332010E+04   0.2467331E+04
rotational constants/cm⁻¹ :        0.6126612E-01   0.7228799E-02   0.6832334E-02

 * 29 selected distances

     #   Z          #   Z                                           value/Å
     2   6 C        3   7 N                                       1.2683785
     3   7 N        4   6 C                                       1.3727043
     4   6 C        5   6 C                                       1.3984520 (max)
     5   6 C        6   6 C                                       1.3811820
     6   6 C        7   6 C                                       1.3853333
     7   6 C        8   6 C                                       1.3865461
     4   6 C        9   6 C                                       1.3979253
     8   6 C        9   6 C                                       1.3801645
    10   6 C       11   6 C                                       1.3947522
    11   6 C       12   6 C                                       1.3823050
    12   6 C       13   6 C                                       1.3896021
    13   6 C       15   6 C                                       1.3922797
    10   6 C       16   6 C                                       1.3976549
    15   6 C       16   6 C                                       1.3784690
     1   6 C       17   1 H                                       1.0886451
     1   6 C       18   1 H                                       1.0886229
     1   6 C       19   1 H                                       1.0895169
     5   6 C       20   1 H                                       1.0813259
     6   6 C       21   1 H                                       1.0812760
     7   6 C       22   1 H                                       1.0802273
     8   6 C       23   1 H                                       1.0811217
     9   6 C       24   1 H                                       1.0804346
    11   6 C       25   1 H                                       1.0792968
    12   6 C       26   1 H                                       1.0813503
    14   6 C       27   1 H                                       1.0880725
    14   6 C       28   1 H                                       1.0876680
    14   6 C       29   1 H                                       1.0909960
    15   6 C       30   1 H                                       1.0811312
    16   6 C       31   1 H                                       1.0790978 (min)

 * 3 distinct bonds (by element types)

   Z      Z             #   av. dist./Å        max./Å        min./Å
   1 H    6 C          15     1.0839189     1.0909960     1.0790978
   6 C    6 C          12     1.3887222     1.3984520     1.3784690
   6 C    7 N           2     1.3205414     1.3727043     1.2683785


optimized geometry written to: xtbopt.xyz


           -------------------------------------------------
          | TOTAL ENERGY              -42.686277558166 Eh   |
          | GRADIENT NORM               0.000099920384 Eh/α |
          | HOMO-LUMO GAP               2.426765968949 eV   |
           -------------------------------------------------

------------------------------------------------------------------------
 * finished run on 2026/09/10 at 22:57:13.140     
Note: The following floating-point exceptions are signalling: IEEE_DIVIDE_BY_ZERO IEEE_UNDERFLOW_FLAG IEEE_DENORMAL
normal termination of xtb
------------------------------------------------------------------------
 total:
 * wall-time:     0 d,  0 h,  0 min,  1.176 sec
 *  cpu-time:     0 d,  0 h,  0 min,  0.188 sec
 * ratio c/w:     0.159 speedup
 SCF:
 * wall-time:     0 d,  0 h,  0 min,  0.034 sec
 *  cpu-time:     0 d,  0 h,  0 min,  0.000 sec
 * ratio c/w:     0.000 speedup
 ANC optimizer:
 * wall-time:     0 d,  0 h,  0 min,  1.108 sec
 *  cpu-time:     0 d,  0 h,  0 min,  0.172 sec
 * ratio c/w:     0.155 speedup

