31
 energy: -42.686277558166 gnorm: 0.000099920384 xtb: 6.7.1 (edcfbbe)
C           -0.55242989241011       -1.39035216025332       -1.62198391383889
C           -0.20300239720582       -0.36968848904333       -0.57032781391102
N           -1.05959190638637        0.21200068226292        0.16225384405036
C           -2.41041961214978       -0.02238587295262        0.23040233628983
C           -2.91774532692235       -1.21611449819737        0.75318354093136
C           -4.27769588732898       -1.37577365511924        0.93403335628252
C           -5.15636360664903       -0.36204458240092        0.58842605362571
C           -4.66051926692418        0.82464658090784        0.07034084868853
C           -3.30231501799962        1.00261622678962       -0.09836531557054
C            1.20699403659611        0.00579394215556       -0.39580798179842
C            2.24554183775765       -0.66266569036724       -1.04381525629376
C            3.55938183712256       -0.28049573644515       -0.84750626461126
C            3.88345245319317        0.77694821698591       -0.00620723111698
C            5.30946167211229        1.17560389865292        0.21872288962871
C            2.84751083690186        1.44356716532698        0.64255047408906
C            1.53531573241899        1.06569709936214        0.45404430247074
H           -0.12404062322193       -1.10542407788902       -2.58138292774942
H           -1.63341832840941       -1.46841882851273       -1.72430287430872
H           -0.15738287682973       -2.36642151961284       -1.34221024474477
H           -2.22896694472469       -2.00281925394153        1.02876562896292
H           -4.65539010955724       -2.30314326275401        1.34206544843008
H           -6.21978861542437       -0.49395009958813        0.72487708466540
H           -5.34015794040332        1.62070346349062       -0.20023007939050
H           -2.91085241211317        1.92558232680217       -0.50114236925701
H            2.04037476180307       -1.49280017184622       -1.70234743565867
H            4.34895103786902       -0.81398662816305       -1.35866778142275
H            5.39380097283590        2.25214440968937        0.35232284999032
H            5.93668621628080        0.87080990261938       -0.61596955431258
H            5.68989400795152        0.69550379501561        1.12152252811362
H            3.07791827748320        2.26904923646606        1.30159241416552
H            0.73479708443341        1.58581758056142        0.95713112980096
