117
Rigid ternary start; face is not product CIP; no energy
O 0.655599000000 3.393923000000 -0.334710000000
P 0.042431000000 2.215357000000 0.354700000000
O -0.789047000000 2.659123000000 1.658940000000
O -1.043943000000 1.414063000000 -0.523323000000
C -1.531553000000 0.216760000000 -0.047752000000
C -2.887076000000 0.195434000000 0.327852000000
C -3.418236000000 -1.015274000000 0.774413000000
C -2.628425000000 -2.163681000000 0.884225000000
C -3.205089000000 -3.343324000000 1.385506000000
C -2.445223000000 -4.494519000000 1.570317000000
C -1.093225000000 -4.473656000000 1.270328000000
C -0.511502000000 -3.308217000000 0.763468000000
C -1.256284000000 -2.126218000000 0.516065000000
C -0.681196000000 -0.916354000000 -0.021068000000
C 0.680439000000 -0.816246000000 -0.508852000000
C 1.547756000000 0.179982000000 0.008653000000
O 1.055539000000 1.094672000000 0.914656000000
C 2.918075000000 0.253988000000 -0.291599000000
C 3.440818000000 -0.668921000000 -1.198577000000
C 2.628567000000 -1.622748000000 -1.818385000000
C 3.194018000000 -2.491328000000 -2.767486000000
C 2.413717000000 -3.423565000000 -3.445260000000
C 1.053479000000 -3.488248000000 -3.190710000000
C 0.482245000000 -2.634425000000 -2.243129000000
C 1.246035000000 -1.697897000000 -1.500331000000
C -3.734684000000 1.398761000000 0.280744000000
C -4.250301000000 1.956830000000 1.462332000000
C -5.041294000000 3.107577000000 1.427014000000
C -5.329871000000 3.717140000000 0.208407000000
C -4.829062000000 3.177224000000 -0.973977000000
C -4.038373000000 2.026218000000 -0.937643000000
C 3.806867000000 1.247387000000 0.324036000000
C 3.899765000000 2.548967000000 -0.189683000000
C 4.750522000000 3.488887000000 0.396478000000
C 5.523388000000 3.137777000000 1.501141000000
C 5.445012000000 1.848055000000 2.022028000000
C 4.592331000000 0.909054000000 1.437019000000
H -1.314877000000 3.456368000000 1.465191000000
H -4.468895000000 -1.053301000000 1.061049000000
H -4.259921000000 -3.371101000000 1.653082000000
H -2.905305000000 -5.396096000000 1.965324000000
H -0.481835000000 -5.357420000000 1.433444000000
H 0.560016000000 -3.335897000000 0.573427000000
H 4.501991000000 -0.619011000000 -1.441868000000
H 4.256475000000 -2.438484000000 -2.998836000000
H 2.865807000000 -4.083099000000 -4.180951000000
H 0.428396000000 -4.195962000000 -3.729062000000
H -0.594700000000 -2.705335000000 -2.100110000000
H -4.025451000000 1.499372000000 2.424428000000
H -5.431692000000 3.526204000000 2.351165000000
H -5.946885000000 4.611651000000 0.179199000000
H -5.053532000000 3.650013000000 -1.926813000000
H -3.654868000000 1.618109000000 -1.871189000000
H 3.298579000000 2.843767000000 -1.048107000000
H 4.802395000000 4.496069000000 -0.008689000000
H 6.182557000000 3.870871000000 1.958251000000
H 6.043336000000 1.572984000000 2.886422000000
H 4.536194000000 -0.092260000000 1.858805000000
C -2.450422250895 4.046861304514 -1.123026768409
C -2.781831302883 5.093682583425 -0.083834245612
N -2.286145726049 4.928971570544 1.107314225371
C -2.495155211612 5.878212160489 2.117033653357
C -3.318345135015 5.559770387953 3.199902432187
C -3.524523919231 6.479648255405 4.230069868237
C -2.892734434686 7.721741408322 4.189820081128
C -2.048534851836 8.038929540773 3.126531165997
C -1.844243557732 7.115489241799 2.099016616061
C -3.639697330904 6.214901567597 -0.537421466085
C -3.186331275387 7.052134671619 -1.561064595596
C -3.996112884857 8.098243348858 -2.003929554605
C -5.252132330691 8.300480761675 -1.429014101922
C -5.703593431784 7.457865803067 -0.411623990472
C -4.898995643242 6.409604759228 0.034929847448
H -2.625994509971 3.051472293527 -0.703854005814
H -3.065684920311 4.158121003284 -2.019932874098
H -1.395325343393 4.135767978044 -1.397691486565
H -3.798272529228 4.586000648836 3.236672664803
H -4.170865037355 6.222924790268 5.064752215070
H -3.049366819167 8.438019071197 4.992078272992
H -1.543806350788 9.000630290902 3.098830900610
H -1.173796009121 7.358607012262 1.280204524789
H -2.206233820675 6.902769093219 -2.005752906274
H -3.648686062203 8.758464621802 -2.794681232938
H -5.880881922264 9.118176778234 -1.773446240894
H -6.681653866721 7.619169158800 0.034628517377
H -5.254148486450 5.752468548397 0.823901481074
C 0.860452935303 6.364905329256 2.948430159761
O 0.874735840580 6.698283656325 1.559998868958
C 1.504148699945 5.783776178159 0.778710352699
O 2.018851089481 4.749020722247 1.173108128416
C 1.457944983222 6.223721151707 -0.637968972428
C 2.429175857055 5.904273828756 -1.523691281333
C 3.699428360018 5.171316265197 -1.173405761289
N 2.295181561967 6.282616329500 -2.851846806950
C 1.187498900662 6.928712374893 -3.380097202859
C 1.250558624879 7.239729995972 -4.853048931560
C 0.165059463519 7.267048208334 -2.562893886381
C -1.087513409519 7.927159252871 -2.995774459746
O -1.650228293969 8.789933650180 -2.338360454317
O -1.551152569671 7.377223423692 -4.145562064240
C -2.792334742410 7.924671342400 -4.590500478012
C 0.231527545047 6.998522602098 -1.074416375912
H 0.339772603814 7.164045731049 3.483216972574
H 0.318294567220 5.428285332918 3.112040757484
H 1.881308490426 6.296051525013 3.337194090125
H 4.027740501096 5.366572604019 -0.148542023092
H 3.564810327420 4.093735287157 -1.309674388379
H 4.522946078385 5.494351848604 -1.820691135449
H 3.027377139048 5.998364891201 -3.497242489881
H 0.630160162816 8.096604631071 -5.130939467480
H 2.274570976217 7.497788646712 -5.146746818927
H 0.938709624707 6.368544461131 -5.437663016342
H -2.691873525879 8.997303645943 -4.784023812502
H -3.065150705200 7.428750304773 -5.526106078101
H -3.580296031391 7.734642487073 -3.855020275070
H -0.662549029119 6.433348348325 -0.780506383049
H 0.211711330389 7.961288103658 -0.548128933793
