117
 energy: -188.240924007034 gnorm: 0.000093883331 xtb: 6.7.1 (edcfbbe)
O            0.96106587526736        3.02895010473441       -1.38061213950463
P            0.21843045147676        2.21683871370526       -0.41116959860287
O           -0.75325165026610        2.90849827813872        0.58943753295624
O           -0.67374386114150        1.15090996797789       -1.25662096014831
C           -1.27814123762329        0.13243806574567       -0.54597925641084
C           -2.68019391203253        0.15579113669908       -0.34753016867346
C           -3.25161953515789       -0.87061925418702        0.36729944027813
C           -2.48200098334810       -1.90421077383738        0.93307263396221
C           -3.07601670132118       -2.92891253608920        1.70143136371764
C           -2.31213520178962       -3.90462443243328        2.27711117616102
C           -0.91761904438288       -3.88834737214506        2.12026997239547
C           -0.31286958302224       -2.91712821955877        1.37075586551961
C           -1.07599357838365       -1.91261912416910        0.73750806675147
C           -0.49207476580274       -0.88745393231332       -0.05606012313782
C            0.95703622587700       -0.87271655027430       -0.34954369820483
C            1.70659913546986        0.22035521695669        0.03188354765662
O            1.06073997679690        1.30428159392433        0.61020043039420
C            3.11034184211453        0.25430996572801       -0.14462803400160
C            3.71677623037864       -0.81534424106328       -0.75963016378076
C            2.98174857343787       -1.91615146157765       -1.23808580264486
C            3.60812147559265       -2.98437753875122       -1.91581965993936
C            2.87615486538021       -4.03143115941768       -2.40073964947142
C            1.48245593598624       -4.04789795441487       -2.23851090935778
C            0.84733838045863       -3.03485364890424       -1.57423157509141
C            1.57725238489967       -1.95228474865906       -1.03765896928053
C           -3.52053284088429        1.23066612555163       -0.90073968828478
C           -4.54407479445725        1.77893002156998       -0.12910226260244
C           -5.37926836852973        2.74798671540849       -0.65195731010038
C           -5.20588124362770        3.18867954714080       -1.95385745565479
C           -4.18760208361045        2.65515712114129       -2.72535557560484
C           -3.35057176280006        1.68342518710293       -2.20673613801135
C            3.92676229624185        1.37371252323851        0.35237590334462
C            4.90866235182945        1.93512952497288       -0.45985784223909
C            5.73209103836407        2.93398069695689        0.02502443958055
C            5.58952371238137        3.37991001918856        1.32902684814265
C            4.61277635008739        2.82898330064453        2.14075693330002
C            3.78397663877360        1.83407623120271        1.65731240979015
H           -1.25807886367371        3.77303877809970        0.30813392942964
H           -4.32384924666539       -0.89263826017760        0.50200262915134
H           -4.14901059938586       -2.92007388665923        1.83126470862984
H           -2.77278660770371       -4.68549997756282        2.86429211894217
H           -0.32066771979374       -4.64983930909574        2.60049398382359
H            0.76162351483529       -2.90684895801335        1.26516721250884
H            4.79073505531479       -0.81557384090658       -0.88246961134702
H            4.67999373281790       -2.95111462499889       -2.05031318981029
H            3.36138173659282       -4.84469959437066       -2.92028524358442
H            0.91013360869054       -4.86802764623428       -2.64688311828312
H           -0.22690050113705       -3.05124736138128       -1.46613645611838
H           -4.68120993453233        1.44508349220922        0.88967963307357
H           -6.17409503523073        3.15519772521153       -0.04336340755519
H           -5.86172040788708        3.94256024991141       -2.36458573030622
H           -4.05378296013587        2.98703957271579       -3.74529627166265
H           -2.57179045523324        1.25865150405421       -2.82179605952254
H            5.01192548981694        1.59602302366915       -1.48118086788428
H            6.48771927374878        3.36661913620710       -0.61562791522504
H            6.23564434225769        4.15879296645324        1.70914742128758
H            4.49442394240464        3.17755621027147        3.15639646668815
H            3.02683958037149        1.40386094681931        2.29503442145778
C           -1.62328007779522        5.06747311452125       -2.17663318738466
C           -2.52716066866207        5.41344878894985       -1.03584468181060
N           -2.24190417036942        4.92840098179871        0.10761897108689
C           -2.81594534283479        5.22905872158296        1.33648529670425
C           -3.11795082361182        4.16949839065980        2.19385596158890
C           -3.60850191851677        4.41982784610091        3.46073967748410
C           -3.77522274458004        5.72316707182058        3.90266137022860
C           -3.45359817730205        6.77715681220756        3.06265215274275
C           -2.98500886357200        6.54107493992936        1.78431216113266
C           -3.69341442388597        6.26159981683430       -1.35083553502507
C           -3.64622716538524        7.17337510933247       -2.40656526498179
C           -4.75313807732167        7.93692385486996       -2.72888269593411
C           -5.93068805566449        7.80092780774451       -2.01228533033712
C           -5.99439191475816        6.89073047951089       -0.97006801613924
C           -4.88888860882870        6.12974746674753       -0.64204989425273
H           -0.96364793465155        4.24315272415843       -1.92196453809023
H           -2.20017074553038        4.81605791871018       -3.06347167978971
H           -0.99515610758690        5.92996299929436       -2.40182736333495
H           -2.97282787573065        3.15759598320605        1.84835786138196
H           -3.85085114435838        3.59256381860846        4.11254163076535
H           -4.14765232532383        5.91542736593928        4.89820718361708
H           -3.57082439530573        7.79617630312069        3.40153432310540
H           -2.73942147303540        7.36957321991928        1.13656673289920
H           -2.73437613810778        7.30504047971462       -2.96847442044294
H           -4.69868790371590        8.63912161891348       -3.54844450549476
H           -6.79371234208521        8.39848706490162       -2.26659638545716
H           -6.91012141353004        6.77092822931757       -0.40981075475669
H           -4.95705966032574        5.41014041105021        0.15863453421631
C            0.26493902209881        4.66811208198151        3.15806116565451
O            0.36621016010590        5.56239717281410        2.06321168031588
C            1.31098582751861        5.26591573382978        1.13615411882355
O            2.03825771901817        4.29948422185328        1.24959819367474
C            1.33426206238550        6.25630596286742        0.06506504954620
C            2.20873049948724        6.18294253192637       -0.96362254147700
C            3.26623279763383        5.14948651309023       -1.12111532273402
N            2.12557251270338        7.10395369992299       -1.98779873283089
C            1.06960865548901        7.96073084624634       -2.16585955188082
C            1.02921333160726        8.63809422082691       -3.49873149880674
C            0.16840800217448        8.11742831320777       -1.16394047657899
C           -1.01190896127761        8.96898124676311       -1.19580882443337
O           -1.80171705148013        9.05892731909846       -0.27235049550618
O           -1.17649618046950        9.67707302300503       -2.33909040048700
C           -2.27137784005899       10.58082826293248       -2.36899752073429
C            0.37091809300512        7.41344139397088        0.16176239891370
H           -0.59667435800154        4.99588940965332        3.73520230960135
H            0.12453979125293        3.64648166995075        2.80012090223545
H            1.17393158992020        4.70812691196828        3.76452251715274
H            3.82066012186443        5.02523827887610       -0.19518895373437
H            2.78805092256976        4.19143235556408       -1.32093744119966
H            3.94815945201054        5.39586039325235       -1.93199872145648
H            2.77012807399328        6.98785381956517       -2.75716178066388
H            1.05746672725431        9.71846923037765       -3.37546771969574
H            1.87145533450145        8.32972506698521       -4.11445528429313
H            0.10559989779045        8.39988371167986       -4.02209203812683
H           -3.16784447339497       10.10919912635573       -1.96070334009103
H           -2.04164658525299       11.47017848733576       -1.77697645879982
H           -2.41388277563051       10.85012511384119       -3.41308473258817
H           -0.59081484080305        7.06149574348546        0.53305225173071
H            0.73542881825702        8.13612235502894        0.90576323883221
