      -----------------------------------------------------------      
     |                   =====================                   |     
     |                           x T B                           |     
     |                   =====================                   |     
     |                         S. Grimme                         |     
     |          Mulliken Center for Theoretical Chemistry        |     
     |                    University of Bonn                     |     
      -----------------------------------------------------------      

   * xtb version 6.7.1 (edcfbbe) compiled by 'VssAdministrator@runnervm171ch' on 2026-06-10

   xtb is free software: you can redistribute it and/or modify it under
   the terms of the GNU Lesser General Public License as published by
   the Free Software Foundation, either version 3 of the License, or
   (at your option) any later version.
   
   xtb is distributed in the hope that it will be useful,
   but WITHOUT ANY WARRANTY; without even the implied warranty of
   MERCHANTABILITY or FITNESS FOR A PARTICULAR PURPOSE.  See the
   GNU Lesser General Public License for more details.
   
   Cite this work as:
   * C. Bannwarth, E. Caldeweyher, S. Ehlert, A. Hansen, P. Pracht,
     J. Seibert, S. Spicher, S. Grimme, WIREs Comput. Mol. Sci., 2020, 11,
     e01493. DOI: 10.1002/wcms.1493
   
   for GFN2-xTB:
   * C. Bannwarth, S. Ehlert and S. Grimme., J. Chem. Theory Comput., 2019,
     15, 1652-1671. DOI: 10.1021/acs.jctc.8b01176
   for GFN1-xTB:
   * S. Grimme, C. Bannwarth, P. Shushkov, J. Chem. Theory Comput., 2017,
     13, 1989-2009. DOI: 10.1021/acs.jctc.7b00118
   for GFN0-xTB:
   * P. Pracht, E. Caldeweyher, S. Ehlert, S. Grimme, ChemRxiv, 2019, preprint.
     DOI: 10.26434/chemrxiv.8326202.v1
   for GFN-FF:
   * S. Spicher and S. Grimme, Angew. Chem. Int. Ed., 2020, 59, 15665-15673.
     DOI: 10.1002/anie.202004239
   
   for ALPB and GBSA implicit solvation:
   * S. Ehlert, M. Stahn, S. Spicher, S. Grimme, J. Chem. Theory Comput.,
     2021, 17, 4250-4261. DOI: 10.1021/acs.jctc.1c00471
   
   for ddCOSMO and CPCM-X implicit solvation:
   * M. Stahn, S. Ehlert, S. Grimme, J. Phys. Chem. A,
     2023, XX, XXXX-XXXX. DOI: 10.1021/acs.jpca.3c04382
   
   for DFT-D4:
   * E. Caldeweyher, C. Bannwarth and S. Grimme, J. Chem. Phys., 2017,
     147, 034112. DOI: 10.1063/1.4993215
   * E. Caldeweyher, S. Ehlert, A. Hansen, H. Neugebauer, S. Spicher,
     C. Bannwarth and S. Grimme, J. Chem. Phys., 2019, 150, 154122.
     DOI: 10.1063/1.5090222
   * E. Caldeweyher, J.-M. Mewes, S. Ehlert and S. Grimme, Phys. Chem. Chem. Phys.
     2020, 22, 8499-8512. DOI: 10.1039/D0CP00502A
   
   for sTDA-xTB:
   * S. Grimme and C. Bannwarth, J. Chem. Phys., 2016, 145, 054103.
     DOI: 10.1063/1.4959605
   
   in the mass-spec context:
   * V. Asgeirsson, C. Bauer and S. Grimme, Chem. Sci., 2017, 8, 4879.
     DOI: 10.1039/c7sc00601b
   * J. Koopman and S. Grimme, ACS Omega 2019, 4, 12, 15120-15133.
     DOI: 10.1021/acsomega.9b02011
   
   for metadynamics refer to:
   * S. Grimme, J. Chem. Theory Comput., 2019, 155, 2847-2862
     DOI: 10.1021/acs.jctc.9b00143
   
   for SPH calculations refer to:
   * S. Spicher and S. Grimme, J. Chem. Theory Comput., 2021, 17, 1701-1714
     DOI: 10.1021/acs.jctc.0c01306
   
   for ONIOM refer to:
   * C. Plett, A. Katbashev, S. Ehlert, S. Grimme, M. Bursch,
     Phys. Chem. Chem. Phys., 2023, 25, 17860-17868. DOI: 10.1039/D3CP02178E
   
   for DIPRO refer to:
   * J. Kohn, N. Gildemeister, S. Grimme, D. Fazzi, A. Hansen,
     J. Chem. Phys., 2023, just accepted.
   
   for PTB refer to:
   * S. Grimme, M. Mueller, A. Hansen, J. Chem. Phys., 2023, 158, 124111.
     DOI: 10.1063/5.0137838
   
   with help from (in alphabetical order)
   P. Atkinson, C. Bannwarth, F. Bohle, G. Brandenburg, E. Caldeweyher
   M. Checinski, S. Dohm, S. Ehlert, S. Ehrlich, I. Gerasimov, C. Hölzer
   A. Katbashev, J. Kohn, J. Koopman, C. Lavigne, S. Lehtola, F. März, M. Müller,
   F. Musil, H. Neugebauer, J. Pisarek, C. Plett, P. Pracht, F. Pultar,
   J. Seibert, P. Shushkov, S. Spicher, M. Stahn, M. Steiner, T. Strunk,
   J. Stückrath, T. Rose, and J. Unsleber
   
 * started run on 2026/09/10 at 23:03:55.932     
   ID    Z sym.   atoms
    1    6 C      1, 2, 4-19
    2    7 N      3
    3    1 H      20-34

           -------------------------------------------------
          |                Calculation Setup                |
           -------------------------------------------------

          program call               : C:\Users\HUIWEI\miniconda3\envs\phase2ff\Library\bin\xtb.exe input.xyz --gfn 2 --chrg 0 --uhf 0 --alpb ch2cl2 --acc 0.2 --opt vtight
          coordinate file            : input.xyz
          omp threads                :                     1


           -------------------------------------------------
          |                 G F N 2 - x T B                 |
           -------------------------------------------------

        Reference                      10.1021/acs.jctc.8b01176
      * Hamiltonian:
        H0-scaling (s, p, d)           1.850000    2.230000    2.230000
        zeta-weighting                 0.500000
      * Dispersion:
        s8                             2.700000
        a1                             0.520000
        a2                             5.000000
        s9                             5.000000
      * Repulsion:
        kExp                           1.500000    1.000000
        rExp                           1.000000
      * Coulomb:
        alpha                          2.000000
        third order                    shell-resolved
        anisotropic                    true
        a3                             3.000000
        a5                             4.000000
        cn-shift                       1.200000
        cn-exp                         4.000000
        max-rad                        5.000000

      * Solvation model:               ALPB
        Solvent                        ch2cl2
        Parameter file                 internal GFN2-xTB/ALPB
        Dielectric constant                8.9300E+00
        Reference state                gsolv [1 M gas/solution]
        Free energy shift                  4.1487E-03 Eh       2.6033E+00 kcal/mol
        Temperature                        2.9815E+02 K
        Density                            1.3300E+00 kg/L
        Solvent mass                       8.4930E+01 g/mol
        Interaction kernel             P16
        Born radius scaling (c1)           1.5691E+00
        Born radii integrator          GBOBC
        Born offset                        0.0000E+00 a0       0.0000E+00 AA
        H-bond correction              false
        Ion screening                  false
        Surface tension                    1.0000E-05 Eh       1.5569E+01 dyn/cm
        Grid points                               230 per atom

          ...................................................
          :                      SETUP                      :
          :.................................................:
          :  # basis functions                  91          :
          :  # atomic orbitals                  91          :
          :  # shells                           53          :
          :  # electrons                        92          :
          :  max. iterations                   250          :
          :  Hamiltonian                  GFN2-xTB          :
          :  restarted?                      false          :
          :  GBSA solvation                   true          :
          :  PC potential                    false          :
          :  electronic temp.          300.0000000     K    :
          :  accuracy                    0.2000000          :
          :  -> integral cutoff          0.3198970E+02      :
          :  -> integral neglect         0.2000000E-08      :
          :  -> SCF convergence          0.2000000E-06 Eh   :
          :  -> wf. convergence          0.2000000E-04 e    :
          :  Broyden damping             0.4000000          :
          :  net charge                          0          :
          :  unpaired electrons                  0          :
          ...................................................

 iter      E             dE          RMSdq      gap      omega  full diag
   1    -49.9548911 -0.499549E+02  0.427E+00    2.53       0.0  T
   2    -49.9765039 -0.216128E-01  0.254E+00    2.45       1.0  T
   3    -49.9672703  0.923361E-02  0.771E-01    2.32       1.0  T
   4    -49.9801225 -0.128521E-01  0.224E-01    2.28       1.0  T
   5    -49.9808877 -0.765247E-03  0.525E-02    2.29       1.0  T
   6    -49.9809245 -0.367641E-04  0.295E-02    2.29       1.0  T
   7    -49.9809296 -0.508955E-05  0.110E-02    2.29       1.6  T
   8    -49.9809307 -0.113252E-05  0.363E-03    2.29       4.7  T
   9    -49.9809310 -0.305347E-06  0.153E-03    2.29      11.2  T
  10    -49.9809310 -0.203933E-07  0.807E-04    2.29      21.2  T
  11    -49.9809310 -0.351544E-08  0.333E-04    2.29      51.4  T
  12    -49.9809310 -0.195711E-08  0.137E-04    2.29     125.5  T
  13    -49.9809310 -0.304610E-10  0.722E-05    2.29     237.4  T

   *** convergence criteria satisfied after 13 iterations ***

         #    Occupation            Energy/Eh            Energy/eV
      -------------------------------------------------------------
         1        2.0000           -0.6532680             -17.7763
       ...           ...                  ...                  ...
        40        2.0000           -0.4188770             -11.3982
        41        2.0000           -0.4154798             -11.3058
        42        2.0000           -0.4082354             -11.1087
        43        2.0000           -0.3990644             -10.8591
        44        2.0000           -0.3977473             -10.8233
        45        2.0000           -0.3768337             -10.2542
        46        2.0000           -0.3619376              -9.8488 (HOMO)
        47                         -0.2776935              -7.5564 (LUMO)
        48                         -0.2531391              -6.8883
        49                         -0.2216796              -6.0322
        50                         -0.2153962              -5.8612
        51                         -0.2105235              -5.7286
       ...                                ...                  ...
        91                          0.6875689              18.7097
      -------------------------------------------------------------
                  HL-Gap            0.0842441 Eh            2.2924 eV
             Fermi-level           -0.3198156 Eh           -8.7026 eV

 SCC (total)                   0 d,  0 h,  0 min,  0.041 sec
 SCC setup                      ...        0 min,  0.001 sec (  2.682%)
 Dispersion                     ...        0 min,  0.000 sec (  0.915%)
 classical contributions        ...        0 min,  0.000 sec (  0.228%)
 integral evaluation            ...        0 min,  0.005 sec ( 12.776%)
 iterations                     ...        0 min,  0.019 sec ( 45.013%)
 molecular gradient             ...        0 min,  0.015 sec ( 37.154%)
 printout                       ...        0 min,  0.000 sec (  1.167%)

         :::::::::::::::::::::::::::::::::::::::::::::::::::::
         ::                     SUMMARY                     ::
         :::::::::::::::::::::::::::::::::::::::::::::::::::::
         :: total energy             -49.105729917851 Eh    ::
         :: total w/o Gsasa/hb       -49.083397257812 Eh    ::
         :: gradient norm              0.089923000845 Eh/a0 ::
         :: HOMO-LUMO gap              2.292397773621 eV    ::
         ::.................................................::
         :: SCC energy               -49.981159323706 Eh    ::
         :: -> isotropic ES            0.011492773850 Eh    ::
         :: -> anisotropic ES          0.006723714829 Eh    ::
         :: -> anisotropic XC          0.037193818326 Eh    ::
         :: -> dispersion             -0.036204220703 Eh    ::
         :: -> Gsolv                  -0.023268121324 Eh    ::
         ::    -> Gelec               -0.000935461285 Eh    ::
         ::    -> Gsasa               -0.026481357400 Eh    ::
         ::    -> Ghb                  0.000000000000 Eh    ::
         ::    -> Gshift               0.004148697361 Eh    ::
         :: repulsion energy           0.875429405855 Eh    ::
         :: add. restraining           0.000000000000 Eh    ::
         :: total charge               0.000000000000 e     ::
         :::::::::::::::::::::::::::::::::::::::::::::::::::::

      ----------------------------------------------------------- 
     |                   =====================                   |
     |                        A N C O P T                        |
     |                   =====================                   |
     |               Approximate Normal Coordinate               |
     |                Rational Function Optimizer                |
      ----------------------------------------------------------- 
      ----------------------------------------------------------- 
     |                   =====================                   |
     |                        A N C O P T                        |
     |                   =====================                   |
     |               Approximate Normal Coordinate               |
     |                Rational Function Optimizer                |
      ----------------------------------------------------------- 

          ...................................................
          :                      SETUP                      :
          :.................................................:
          :   optimization level         verytight          :
          :   max. optcycles                   680          :
          :   ANC micro-cycles                  20          :
          :   degrees of freedom                96          :
          :.................................................:
          :   RF solver                   davidson          :
          :   write xtbopt.log                true          :
          :   linear?                        false          :
          :   energy convergence         0.1000000E-06 Eh   :
          :   grad. convergence          0.2000000E-03 Eh/α :
          :   maxmium RF displ.          1.0000000          :
          :   Hlow (freq-cutoff)         0.1000000E-01      :
          :   Hmax (freq-cutoff)         5.0000000          :
          :   S6 in model hess.         20.0000000          :
          ...................................................

generating ANC from exact Hessian ...
Using Lindh-Hessian (1995)
 Shifting diagonal of input Hessian by    9.6048441522510984E-003
 Lowest  eigenvalues of input Hessian
    0.000000    0.000000    0.000000    0.000000    0.000000    0.000000
    0.010000    0.010389    0.010498    0.011441    0.012645    0.014266
    0.015583    0.017427    0.018597    0.020673    0.021362    0.023994
 Highest eigenvalues
    1.882512    1.913888    1.947746    2.006531    2.056686    2.091341


........................................................................
.............................. CYCLE    1 ..............................
........................................................................

 iter      E             dE          RMSdq      gap      omega  full diag
   1    -49.9809310 -0.499809E+02  0.179E-05    2.29       0.0  T
   2    -49.9809310 -0.286349E-11  0.121E-05    2.29    1419.6  T
   3    -49.9809310 -0.216005E-11  0.677E-06    2.29    2534.5  T
     SCC iter.                  ...        0 min,  0.005 sec
     gradient                   ...        0 min,  0.020 sec
 * total energy  :   -49.1057299 Eh     change       -0.5937295E-10 Eh
   gradient norm :     0.0899229 Eh/α   predicted     0.0000000E+00 (-100.00%)
   displ. norm   :     0.2042450 α      lambda       -0.8608884E-02
   maximum displ.:     0.0789763 α      in ANC's #11, #10, #22, ...

........................................................................
.............................. CYCLE    2 ..............................
........................................................................

 iter      E             dE          RMSdq      gap      omega  full diag
   1    -50.0232979 -0.500233E+02  0.137E-01    2.33       0.0  T
   2    -50.0233524 -0.544923E-04  0.885E-02    2.34       1.0  T
   3    -50.0233303  0.220904E-04  0.407E-02    2.35       1.0  T
   4    -50.0233677 -0.374096E-04  0.886E-03    2.35       1.9  T
   5    -50.0233694 -0.164160E-05  0.291E-03    2.35       5.9  T
   6    -50.0233695 -0.870997E-07  0.153E-03    2.35      11.2  T
   7    -50.0233695 -0.167259E-07  0.617E-04    2.35      27.8  T
   8    -50.0233695 -0.684375E-08  0.196E-04    2.35      87.7  T
   9    -50.0233695 -0.385839E-09  0.723E-05    2.35     237.2  T
     SCC iter.                  ...        0 min,  0.012 sec
     gradient                   ...        0 min,  0.028 sec
 * total energy  :   -49.1114508 Eh     change       -0.5720895E-02 Eh
   gradient norm :     0.0345005 Eh/α   predicted    -0.4485185E-02 ( -21.60%)
   displ. norm   :     0.1658291 α      lambda       -0.1855143E-02
   maximum displ.:     0.0811156 α      in ANC's #11, #10, #8, ...

........................................................................
.............................. CYCLE    3 ..............................
........................................................................

 iter      E             dE          RMSdq      gap      omega  full diag
   1    -50.0420263 -0.500420E+02  0.793E-02    2.35       0.0  T
   2    -50.0420462 -0.198238E-04  0.493E-02    2.36       1.0  T
   3    -50.0420428  0.339071E-05  0.252E-02    2.35       1.0  T
   4    -50.0420518 -0.899962E-05  0.439E-03    2.36       3.9  T
   5    -50.0420522 -0.432260E-06  0.145E-03    2.36      11.9  T
   6    -50.0420522 -0.280314E-07  0.649E-04    2.36      26.4  T
   7    -50.0420522 -0.158755E-08  0.287E-04    2.36      59.7  T
   8    -50.0420522 -0.128866E-08  0.115E-04    2.36     148.8  T
   9    -50.0420522 -0.131394E-09  0.327E-05    2.36     525.0  T
     SCC iter.                  ...        0 min,  0.019 sec
     gradient                   ...        0 min,  0.017 sec
 * total energy  :   -49.1124906 Eh     change       -0.1039763E-02 Eh
   gradient norm :     0.0092934 Eh/α   predicted    -0.9533993E-03 (  -8.31%)
   displ. norm   :     0.1177708 α      lambda       -0.2604001E-03
   maximum displ.:     0.0626808 α      in ANC's #3, #8, #2, ...

........................................................................
.............................. CYCLE    4 ..............................
........................................................................

 iter      E             dE          RMSdq      gap      omega  full diag
   1    -50.0425134 -0.500425E+02  0.400E-02    2.35       0.0  T
   2    -50.0425157 -0.236480E-05  0.247E-02    2.35       1.0  T
   3    -50.0425142  0.156683E-05  0.133E-02    2.34       1.3  T
   4    -50.0425172 -0.302899E-05  0.122E-03    2.35      14.1  T
   5    -50.0425172 -0.354673E-07  0.455E-04    2.35      37.7  T
   6    -50.0425172 -0.302606E-08  0.217E-04    2.35      79.2  T
   7    -50.0425172 -0.154955E-09  0.866E-05    2.35     198.0  T
   8    -50.0425172 -0.725038E-10  0.391E-05    2.35     438.3  T
     SCC iter.                  ...        0 min,  0.012 sec
     gradient                   ...        0 min,  0.018 sec
 * total energy  :   -49.1126968 Eh     change       -0.2061809E-03 Eh
   gradient norm :     0.0053791 Eh/α   predicted    -0.1320184E-03 ( -35.97%)
   displ. norm   :     0.2501890 α      lambda       -0.3391863E-03
   maximum displ.:     0.1442318 α      in ANC's #3, #8, #2, ...

........................................................................
.............................. CYCLE    5 ..............................
........................................................................

 iter      E             dE          RMSdq      gap      omega  full diag
   1    -50.0406581 -0.500407E+02  0.737E-02    2.32       0.0  T
   2    -50.0406633 -0.517291E-05  0.448E-02    2.32       1.0  T
   3    -50.0406560  0.736410E-05  0.228E-02    2.32       1.0  T
   4    -50.0406667 -0.107681E-04  0.196E-03    2.32       8.7  T
   5    -50.0406668 -0.797494E-07  0.785E-04    2.32      21.9  T
   6    -50.0406668 -0.642736E-08  0.423E-04    2.32      40.5  T
   7    -50.0406668 -0.947622E-09  0.143E-04    2.32     120.1  T
   8    -50.0406668 -0.281581E-09  0.584E-05    2.32     293.6  T
     SCC iter.                  ...        0 min,  0.012 sec
     gradient                   ...        0 min,  0.020 sec
 * total energy  :   -49.1129284 Eh     change       -0.2316456E-03 Eh
   gradient norm :     0.0056807 Eh/α   predicted    -0.1802129E-03 ( -22.20%)
   displ. norm   :     0.2223474 α      lambda       -0.1782477E-03
   maximum displ.:     0.1346607 α      in ANC's #3, #2, #8, ...

........................................................................
.............................. CYCLE    6 ..............................
........................................................................

 iter      E             dE          RMSdq      gap      omega  full diag
   1    -50.0395506 -0.500396E+02  0.583E-02    2.31       0.0  T
   2    -50.0395522 -0.162043E-05  0.346E-02    2.31       1.0  T
   3    -50.0395484  0.381404E-05  0.138E-02    2.31       1.2  T
   4    -50.0395530 -0.465310E-05  0.136E-03    2.31      12.6  T
   5    -50.0395531 -0.364874E-07  0.550E-04    2.31      31.2  T
   6    -50.0395531 -0.159822E-08  0.321E-04    2.31      53.5  T
   7    -50.0395531 -0.113293E-08  0.825E-05    2.31     207.9  T
   8    -50.0395531 -0.940048E-10  0.365E-05    2.31     469.4  T
     SCC iter.                  ...        0 min,  0.016 sec
     gradient                   ...        0 min,  0.015 sec
 * total energy  :   -49.1130762 Eh     change       -0.1477556E-03 Eh
   gradient norm :     0.0075040 Eh/α   predicted    -0.9353767E-04 ( -36.69%)
   displ. norm   :     0.3209109 α      lambda       -0.2695202E-03
   maximum displ.:     0.1937764 α      in ANC's #3, #2, #8, ...

........................................................................
.............................. CYCLE    7 ..............................
........................................................................

 iter      E             dE          RMSdq      gap      omega  full diag
   1    -50.0386677 -0.500387E+02  0.800E-02    2.30       0.0  T
   2    -50.0386692 -0.156403E-05  0.471E-02    2.30       1.0  T
   3    -50.0386663  0.294569E-05  0.116E-02    2.29       1.5  T
   4    -50.0386698 -0.346810E-05  0.176E-03    2.30       9.8  T
   5    -50.0386698 -0.586268E-07  0.746E-04    2.30      23.0  T
   6    -50.0386698 -0.181846E-08  0.410E-04    2.30      41.9  T
   7    -50.0386698 -0.226149E-08  0.936E-05    2.30     183.2  T
   8    -50.0386698 -0.129177E-09  0.468E-05    2.30     366.5  T
     SCC iter.                  ...        0 min,  0.011 sec
     gradient                   ...        0 min,  0.020 sec
 * total energy  :   -49.1133002 Eh     change       -0.2240819E-03 Eh
   gradient norm :     0.0075581 Eh/α   predicted    -0.1486391E-03 ( -33.67%)
   displ. norm   :     0.3882391 α      lambda       -0.3223168E-03
   maximum displ.:     0.2451400 α      in ANC's #3, #2, #8, ...

........................................................................
.............................. CYCLE    8 ..............................
........................................................................

 iter      E             dE          RMSdq      gap      omega  full diag
   1    -50.0386478 -0.500386E+02  0.964E-02    2.29       0.0  T
   2    -50.0386492 -0.143364E-05  0.567E-02    2.29       1.0  T
   3    -50.0386477  0.145826E-05  0.810E-03    2.29       2.1  T
   4    -50.0386496 -0.183592E-05  0.192E-03    2.29       8.9  T
   5    -50.0386496 -0.675084E-07  0.893E-04    2.29      19.2  T
   6    -50.0386496 -0.413063E-08  0.409E-04    2.29      41.9  T
   7    -50.0386496 -0.207348E-08  0.102E-04    2.29     167.3  T
   8    -50.0386496 -0.123919E-09  0.557E-05    2.29     308.1  T
     SCC iter.                  ...        0 min,  0.012 sec
     gradient                   ...        0 min,  0.016 sec
 * total energy  :   -49.1135394 Eh     change       -0.2391390E-03 Eh
   gradient norm :     0.0063302 Eh/α   predicted    -0.1854518E-03 ( -22.45%)
   displ. norm   :     0.2906891 α      lambda       -0.2171846E-03
   maximum displ.:     0.2004559 α      in ANC's #3, #2, #8, ...

........................................................................
.............................. CYCLE    9 ..............................
........................................................................

 iter      E             dE          RMSdq      gap      omega  full diag
   1    -50.0407014 -0.500407E+02  0.750E-02    2.29       0.0  T
   2    -50.0407022 -0.756595E-06  0.441E-02    2.29       1.0  T
   3    -50.0407016  0.583921E-06  0.510E-03    2.29       3.4  T
   4    -50.0407024 -0.815389E-06  0.137E-03    2.29      12.5  T
   5    -50.0407024 -0.272960E-07  0.724E-04    2.29      23.7  T
   6    -50.0407024 -0.188349E-08  0.291E-04    2.29      58.9  T
   7    -50.0407024 -0.150057E-08  0.780E-05    2.29     219.8  T
   8    -50.0407024 -0.429452E-10  0.428E-05    2.29     401.0  T
     SCC iter.                  ...        0 min,  0.011 sec
     gradient                   ...        0 min,  0.016 sec
 * total energy  :   -49.1136940 Eh     change       -0.1546625E-03 Eh
   gradient norm :     0.0038594 Eh/α   predicted    -0.1177691E-03 ( -23.85%)
   displ. norm   :     0.3073484 α      lambda       -0.1344042E-03
   maximum displ.:     0.2093130 α      in ANC's #3, #2, #8, ...

........................................................................
.............................. CYCLE   10 ..............................
........................................................................

 iter      E             dE          RMSdq      gap      omega  full diag
   1    -50.0410309 -0.500410E+02  0.786E-02    2.28       0.0  T
   2    -50.0410321 -0.118672E-05  0.462E-02    2.28       1.0  T
   3    -50.0410302  0.189883E-05  0.897E-03    2.28       1.9  T
   4    -50.0410324 -0.229288E-05  0.151E-03    2.28      11.3  T
   5    -50.0410325 -0.366462E-07  0.694E-04    2.28      24.7  T
   6    -50.0410325 -0.268635E-09  0.370E-04    2.28      46.4  T
   7    -50.0410325 -0.252957E-08  0.866E-05    2.28     198.0  T
   8    -50.0410325 -0.748202E-10  0.448E-05    2.28     382.9  T
     SCC iter.                  ...        0 min,  0.013 sec
     gradient                   ...        0 min,  0.016 sec
 * total energy  :   -49.1137895 Eh     change       -0.9541021E-04 Eh
   gradient norm :     0.0048205 Eh/α   predicted    -0.7355290E-04 ( -22.91%)
   displ. norm   :     0.2825407 α      lambda       -0.1564783E-03
   maximum displ.:     0.2053726 α      in ANC's #3, #2, #8, ...

........................................................................
.............................. CYCLE   11 ..............................
........................................................................

 iter      E             dE          RMSdq      gap      omega  full diag
   1    -50.0438240 -0.500438E+02  0.806E-02    2.27       0.0  T
   2    -50.0438251 -0.109128E-05  0.472E-02    2.28       1.0  T
   3    -50.0438234  0.169044E-05  0.871E-03    2.27       2.0  T
   4    -50.0438255 -0.211035E-05  0.138E-03    2.28      12.5  T
   5    -50.0438256 -0.156471E-07  0.748E-04    2.27      22.9  T
   6    -50.0438256 -0.440913E-09  0.298E-04    2.27      57.5  T
   7    -50.0438256 -0.211563E-08  0.870E-05    2.27     197.2  T
   8    -50.0438256 -0.611990E-10  0.461E-05    2.27     372.1  T
     SCC iter.                  ...        0 min,  0.015 sec
     gradient                   ...        0 min,  0.016 sec
 * total energy  :   -49.1138925 Eh     change       -0.1030023E-03 Eh
   gradient norm :     0.0039259 Eh/α   predicted    -0.8450626E-04 ( -17.96%)
   displ. norm   :     0.3296240 α      lambda       -0.1089831E-03
   maximum displ.:     0.2309322 α      in ANC's #3, #2, #8, ...

........................................................................
.............................. CYCLE   12 ..............................
........................................................................

 iter      E             dE          RMSdq      gap      omega  full diag
   1    -50.0422380 -0.500422E+02  0.905E-02    2.26       0.0  T
   2    -50.0422395 -0.147641E-05  0.532E-02    2.26       1.0  T
   3    -50.0422362  0.329580E-05  0.118E-02    2.26       1.5  T
   4    -50.0422402 -0.397468E-05  0.161E-03    2.26      10.7  T
   5    -50.0422402 -0.248811E-07  0.764E-04    2.26      22.4  T
   6    -50.0422402 -0.477854E-09  0.359E-04    2.26      47.8  T
   7    -50.0422402 -0.291731E-08  0.961E-05    2.26     178.4  T
   8    -50.0422402 -0.598988E-10  0.523E-05    2.26     327.9  T
     SCC iter.                  ...        0 min,  0.012 sec
     gradient                   ...        0 min,  0.020 sec
 * total energy  :   -49.1139655 Eh     change       -0.7304624E-04 Eh
   gradient norm :     0.0043563 Eh/α   predicted    -0.6041544E-04 ( -17.29%)
   displ. norm   :     0.1937807 α      lambda       -0.8946152E-04
   maximum displ.:     0.1314438 α      in ANC's #3, #4, #2, ...

........................................................................
.............................. CYCLE   13 ..............................
........................................................................

 iter      E             dE          RMSdq      gap      omega  full diag
   1    -50.0428961 -0.500429E+02  0.612E-02    2.25       0.0  T
   2    -50.0428968 -0.628901E-06  0.359E-02    2.25       1.0  T
   3    -50.0428951  0.171107E-05  0.824E-03    2.25       2.1  T
   4    -50.0428971 -0.206837E-05  0.104E-03    2.25      16.5  T
   5    -50.0428971 -0.274252E-08  0.515E-04    2.25      33.3  T
   6    -50.0428971 -0.182897E-08  0.179E-04    2.25      95.8  T
   7    -50.0428971 -0.677595E-09  0.632E-05    2.25     271.3  T
     SCC iter.                  ...        0 min,  0.011 sec
     gradient                   ...        0 min,  0.016 sec
 * total energy  :   -49.1140333 Eh     change       -0.6780210E-04 Eh
   gradient norm :     0.0025973 Eh/α   predicted    -0.4641083E-04 ( -31.55%)
   displ. norm   :     0.2296746 α      lambda       -0.6746781E-04
   maximum displ.:     0.1490990 α      in ANC's #3, #4, #2, ...

........................................................................
.............................. CYCLE   14 ..............................
........................................................................

 iter      E             dE          RMSdq      gap      omega  full diag
   1    -50.0429601 -0.500430E+02  0.723E-02    2.24       0.0  T
   2    -50.0429607 -0.614568E-06  0.424E-02    2.25       1.0  T
   3    -50.0429596  0.111284E-05  0.669E-03    2.24       2.6  T
   4    -50.0429610 -0.144175E-05  0.120E-03    2.25      14.3  T
   5    -50.0429610  0.154414E-08  0.537E-04    2.25      31.9  T
   6    -50.0429610 -0.686159E-08  0.115E-04    2.25     149.0  T
   7    -50.0429610 -0.136993E-10  0.641E-05    2.25     267.4  T
     SCC iter.                  ...        0 min,  0.011 sec
     gradient                   ...        0 min,  0.016 sec
 * total energy  :   -49.1140828 Eh     change       -0.4947524E-04 Eh
   gradient norm :     0.0022596 Eh/α   predicted    -0.3551874E-04 ( -28.21%)
   displ. norm   :     0.1202934 α      lambda       -0.3641565E-04
   maximum displ.:     0.0834439 α      in ANC's #4, #3, #1, ...

........................................................................
.............................. CYCLE   15 ..............................
........................................................................

 iter      E             dE          RMSdq      gap      omega  full diag
   1    -50.0437066 -0.500437E+02  0.427E-02    2.24       0.0  T
   2    -50.0437069 -0.300869E-06  0.249E-02    2.24       1.0  T
   3    -50.0437067  0.228499E-06  0.332E-03    2.24       5.2  T
   4    -50.0437070 -0.335395E-06  0.796E-04    2.24      21.5  T
   5    -50.0437070 -0.263624E-08  0.345E-04    2.24      49.7  T
   6    -50.0437070 -0.759641E-09  0.120E-04    2.24     142.4  T
   7    -50.0437070 -0.363094E-09  0.407E-05    2.24     420.9  T
     SCC iter.                  ...        0 min,  0.011 sec
     gradient                   ...        0 min,  0.018 sec
 * total energy  :   -49.1141118 Eh     change       -0.2900924E-04 Eh
   gradient norm :     0.0018414 Eh/α   predicted    -0.1847476E-04 ( -36.31%)
   displ. norm   :     0.2081095 α      lambda       -0.3454366E-04
   maximum displ.:     0.1362288 α      in ANC's #4, #3, #1, ...

........................................................................
.............................. CYCLE   16 ..............................
........................................................................

 iter      E             dE          RMSdq      gap      omega  full diag
   1    -50.0433682 -0.500434E+02  0.729E-02    2.24       0.0  T
   2    -50.0433690 -0.828565E-06  0.425E-02    2.24       1.0  T
   3    -50.0433685  0.510804E-06  0.550E-03    2.24       3.1  T
   4    -50.0433693 -0.821512E-06  0.141E-03    2.24      12.1  T
   5    -50.0433693 -0.602589E-08  0.544E-04    2.24      31.6  T
   6    -50.0433693 -0.308475E-08  0.185E-04    2.24      92.5  T
   7    -50.0433693 -0.809727E-09  0.744E-05    2.24     230.4  T
     SCC iter.                  ...        0 min,  0.016 sec
     gradient                   ...        0 min,  0.016 sec
 * total energy  :   -49.1141509 Eh     change       -0.3908882E-04 Eh
   gradient norm :     0.0017980 Eh/α   predicted    -0.1760523E-04 ( -54.96%)
   displ. norm   :     0.1716212 α      lambda       -0.3627224E-04
   maximum displ.:     0.1317276 α      in ANC's #4, #1, #2, ...

........................................................................
.............................. CYCLE   17 ..............................
........................................................................

 iter      E             dE          RMSdq      gap      omega  full diag
   1    -50.0449693 -0.500450E+02  0.598E-02    2.24       0.0  T
   2    -50.0449705 -0.113782E-05  0.347E-02    2.24       1.0  T
   3    -50.0449696  0.826785E-06  0.691E-03    2.24       2.5  T
   4    -50.0449708 -0.112439E-05  0.158E-03    2.24      10.8  T
   5    -50.0449708 -0.253167E-07  0.652E-04    2.24      26.3  T
   6    -50.0449708 -0.957137E-09  0.337E-04    2.24      51.0  T
   7    -50.0449708 -0.275201E-08  0.709E-05    2.24     241.9  T
   8    -50.0449708 -0.396554E-10  0.402E-05    2.24     426.4  T
     SCC iter.                  ...        0 min,  0.012 sec
     gradient                   ...        0 min,  0.017 sec
 * total energy  :   -49.1141887 Eh     change       -0.3781830E-04 Eh
   gradient norm :     0.0026908 Eh/α   predicted    -0.1837420E-04 ( -51.41%)
   displ. norm   :     0.1727769 α      lambda       -0.4679029E-04
   maximum displ.:     0.1240049 α      in ANC's #4, #1, #5, ...

........................................................................
.............................. CYCLE   18 ..............................
........................................................................

 iter      E             dE          RMSdq      gap      omega  full diag
   1    -50.0438062 -0.500438E+02  0.635E-02    2.23       0.0  T
   2    -50.0438070 -0.878269E-06  0.368E-02    2.23       1.0  T
   3    -50.0438066  0.410005E-06  0.546E-03    2.24       3.1  T
   4    -50.0438073 -0.709817E-06  0.157E-03    2.24      10.9  T
   5    -50.0438074 -0.113502E-07  0.636E-04    2.24      27.0  T
   6    -50.0438074 -0.452629E-08  0.259E-04    2.24      66.2  T
   7    -50.0438074 -0.169041E-08  0.619E-05    2.24     277.1  T
   8    -50.0438074 -0.270717E-11  0.328E-05    2.24     522.6  T
     SCC iter.                  ...        0 min,  0.011 sec
     gradient                   ...        0 min,  0.015 sec
 * total energy  :   -49.1142275 Eh     change       -0.3879011E-04 Eh
   gradient norm :     0.0019133 Eh/α   predicted    -0.2409417E-04 ( -37.89%)
   displ. norm   :     0.4659272 α      lambda       -0.6940167E-04
   maximum displ.:     0.3293702 α      in ANC's #4, #1, #5, ...

........................................................................
.............................. CYCLE   19 ..............................
........................................................................

 iter      E             dE          RMSdq      gap      omega  full diag
   1    -50.0409124 -0.500409E+02  0.166E-01    2.22       0.0  T
   2    -50.0409204 -0.795000E-05  0.957E-02    2.22       1.0  T
   3    -50.0409151  0.524188E-05  0.176E-02    2.22       1.0  T
   4    -50.0409229 -0.780012E-05  0.458E-03    2.22       3.7  T
   5    -50.0409230 -0.135122E-06  0.199E-03    2.22       8.6  T
   6    -50.0409231 -0.300588E-07  0.856E-04    2.22      20.0  T
   7    -50.0409231 -0.177298E-07  0.174E-04    2.22      98.3  T
   8    -50.0409231 -0.112479E-09  0.100E-04    2.22     171.6  T
     SCC iter.                  ...        0 min,  0.011 sec
     gradient                   ...        0 min,  0.017 sec
 * total energy  :   -49.1142793 Eh     change       -0.5182664E-04 Eh
   gradient norm :     0.0036357 Eh/α   predicted    -0.3804976E-04 ( -26.58%)
   displ. norm   :     0.0869191 α      lambda       -0.2993581E-04
   maximum displ.:     0.0513469 α      in ANC's #2, #3, #1, ...

........................................................................
.............................. CYCLE   20 ..............................
........................................................................

 iter      E             dE          RMSdq      gap      omega  full diag
   1    -50.0417406 -0.500417E+02  0.217E-02    2.22       0.0  T
   2    -50.0417408 -0.196311E-06  0.126E-02    2.22       1.4  T
   3    -50.0417405  0.282372E-06  0.354E-03    2.22       4.9  T
   4    -50.0417409 -0.357708E-06  0.747E-04    2.22      23.0  T
   5    -50.0417409 -0.587476E-08  0.319E-04    2.22      53.8  T
   6    -50.0417409 -0.402444E-09  0.150E-04    2.22     114.3  T
   7    -50.0417409 -0.477073E-09  0.363E-05    2.22     472.8  T
     SCC iter.                  ...        0 min,  0.011 sec
     gradient                   ...        0 min,  0.016 sec
 * total energy  :   -49.1143018 Eh     change       -0.2249218E-04 Eh
   gradient norm :     0.0023381 Eh/α   predicted    -0.1508175E-04 ( -32.95%)
   displ. norm   :     0.1022549 α      lambda       -0.2992690E-04
   maximum displ.:     0.0553126 α      in ANC's #2, #1, #5, ...
 * RMSD in coord.:     0.5418654 α      energy gain  -0.8571884E-02 Eh

generating ANC from exact Hessian ...
Using Lindh-Hessian (1995)
 Shifting diagonal of input Hessian by    9.5459908663645242E-003
 Lowest  eigenvalues of input Hessian
    0.000000    0.000000    0.000000    0.000000    0.000000    0.000000
    0.010000    0.010408    0.010546    0.011487    0.013244    0.014561
    0.015708    0.018355    0.019401    0.022016    0.022428    0.025097
 Highest eigenvalues
    1.966699    1.998023    2.009244    2.033770    2.120658    2.237636


........................................................................
.............................. CYCLE   21 ..............................
........................................................................

 iter      E             dE          RMSdq      gap      omega  full diag
   1    -50.0427769 -0.500428E+02  0.310E-02    2.22       0.0  T
   2    -50.0427773 -0.391355E-06  0.178E-02    2.22       1.0  T
   3    -50.0427769  0.406657E-06  0.430E-03    2.22       4.0  T
   4    -50.0427774 -0.547370E-06  0.102E-03    2.22      16.8  T
   5    -50.0427774 -0.908059E-08  0.424E-04    2.22      40.5  T
   6    -50.0427774 -0.975625E-09  0.194E-04    2.22      88.5  T
   7    -50.0427774 -0.904414E-09  0.430E-05    2.22     398.9  T
     SCC iter.                  ...        0 min,  0.015 sec
     gradient                   ...        0 min,  0.019 sec
 * total energy  :   -49.1143229 Eh     change       -0.2108862E-04 Eh
   gradient norm :     0.0011151 Eh/α   predicted     0.0000000E+00 (-100.00%)
   displ. norm   :     0.0278113 α      lambda       -0.6456016E-05
   maximum displ.:     0.0149884 α      in ANC's #4, #1, #5, ...

........................................................................
.............................. CYCLE   22 ..............................
........................................................................

 iter      E             dE          RMSdq      gap      omega  full diag
   1    -50.0429905 -0.500430E+02  0.107E-02    2.22       0.0  T
   2    -50.0429905 -0.195749E-07  0.631E-03    2.22       2.7  T
   3    -50.0429905  0.339577E-07  0.118E-03    2.22      14.5  T
   4    -50.0429905 -0.428140E-07  0.195E-04    2.22      88.1  T
   5    -50.0429905 -0.369006E-09  0.116E-04    2.22     148.4  T
     SCC iter.                  ...        0 min,  0.008 sec
     gradient                   ...        0 min,  0.016 sec
 * total energy  :   -49.1143304 Eh     change       -0.7472810E-05 Eh
   gradient norm :     0.0003470 Eh/α   predicted    -0.3266676E-05 ( -56.29%)
   displ. norm   :     0.0660123 α      lambda       -0.8939374E-05
   maximum displ.:     0.0349877 α      in ANC's #1, #4, #5, ...

........................................................................
.............................. CYCLE   23 ..............................
........................................................................

 iter      E             dE          RMSdq      gap      omega  full diag
   1    -50.0429982 -0.500430E+02  0.232E-02    2.22       0.0  T
   2    -50.0429982 -0.500861E-07  0.135E-02    2.22       1.3  T
   3    -50.0429982  0.399048E-07  0.147E-03    2.22      11.6  T
   4    -50.0429982 -0.634761E-07  0.302E-04    2.22      56.8  T
   5    -50.0429982 -0.315055E-10  0.170E-04    2.22     100.7  T
   6    -50.0429982 -0.477087E-09  0.381E-05    2.22     450.5  T
     SCC iter.                  ...        0 min,  0.010 sec
     gradient                   ...        0 min,  0.017 sec
 * total energy  :   -49.1143395 Eh     change       -0.9181863E-05 Eh
   gradient norm :     0.0008415 Eh/α   predicted    -0.4479613E-05 ( -51.21%)
   displ. norm   :     0.0578880 α      lambda       -0.4753168E-05
   maximum displ.:     0.0353899 α      in ANC's #1, #5, #4, ...

........................................................................
.............................. CYCLE   24 ..............................
........................................................................

 iter      E             dE          RMSdq      gap      omega  full diag
   1    -50.0429478 -0.500429E+02  0.196E-02    2.22       0.0  T
   2    -50.0429478 -0.320107E-07  0.114E-02    2.22       1.5  T
   3    -50.0429478  0.343063E-08  0.815E-04    2.22      21.0  T
   4    -50.0429478 -0.177655E-07  0.245E-04    2.22      70.1  T
   5    -50.0429478 -0.129674E-10  0.795E-05    2.22     215.8  T
   6    -50.0429478 -0.102439E-09  0.255E-05    2.22     671.6  T
     SCC iter.                  ...        0 min,  0.008 sec
     gradient                   ...        0 min,  0.017 sec
 * total energy  :   -49.1143446 Eh     change       -0.5043129E-05 Eh
   gradient norm :     0.0007288 Eh/α   predicted    -0.2380413E-05 ( -52.80%)
   displ. norm   :     0.0409341 α      lambda       -0.2773478E-05
   maximum displ.:     0.0296687 α      in ANC's #1, #5, #4, ...

........................................................................
.............................. CYCLE   25 ..............................
........................................................................

 iter      E             dE          RMSdq      gap      omega  full diag
   1    -50.0429517 -0.500430E+02  0.134E-02    2.22       0.0  T
   2    -50.0429517 -0.152929E-07  0.781E-03    2.22       2.2  T
   3    -50.0429517  0.734092E-08  0.750E-04    2.22      22.9  T
   4    -50.0429517 -0.141589E-07  0.177E-04    2.22      96.7  T
   5    -50.0429517 -0.677147E-11  0.853E-05    2.22     201.0  T
     SCC iter.                  ...        0 min,  0.008 sec
     gradient                   ...        0 min,  0.016 sec
 * total energy  :   -49.1143477 Eh     change       -0.3157866E-05 Eh
   gradient norm :     0.0003206 Eh/α   predicted    -0.1411911E-05 ( -55.29%)
   displ. norm   :     0.0274908 α      lambda       -0.1840794E-05
   maximum displ.:     0.0230083 α      in ANC's #1, #3, #8, ...

........................................................................
.............................. CYCLE   26 ..............................
........................................................................

 iter      E             dE          RMSdq      gap      omega  full diag
   1    -50.0429331 -0.500429E+02  0.875E-03    2.22       0.0  T
   2    -50.0429331 -0.109898E-07  0.512E-03    2.22       3.3  T
   3    -50.0429331  0.188333E-07  0.913E-04    2.22      18.8  T
   4    -50.0429331 -0.235297E-07  0.127E-04    2.22     134.8  T
   5    -50.0429331 -0.936140E-10  0.675E-05    2.22     254.1  T
     SCC iter.                  ...        0 min,  0.008 sec
     gradient                   ...        0 min,  0.016 sec
 * total energy  :   -49.1143500 Eh     change       -0.2270984E-05 Eh
   gradient norm :     0.0002454 Eh/α   predicted    -0.9214851E-06 ( -59.42%)
   displ. norm   :     0.0278013 α      lambda       -0.1721264E-05
   maximum displ.:     0.0220507 α      in ANC's #1, #4, #3, ...

........................................................................
.............................. CYCLE   27 ..............................
........................................................................

 iter      E             dE          RMSdq      gap      omega  full diag
   1    -50.0429420 -0.500429E+02  0.900E-03    2.22       0.0  T
   2    -50.0429420 -0.668653E-08  0.528E-03    2.22       3.2  T
   3    -50.0429420  0.147281E-07  0.765E-04    2.22      22.4  T
   4    -50.0429420 -0.181767E-07  0.111E-04    2.22     154.8  T
   5    -50.0429420 -0.533049E-10  0.584E-05    2.22     293.8  T
     SCC iter.                  ...        0 min,  0.008 sec
     gradient                   ...        0 min,  0.019 sec
 * total energy  :   -49.1143523 Eh     change       -0.2291587E-05 Eh
   gradient norm :     0.0004099 Eh/α   predicted    -0.8621380E-06 ( -62.38%)
   displ. norm   :     0.0359915 α      lambda       -0.2065608E-05
   maximum displ.:     0.0268218 α      in ANC's #1, #4, #3, ...

........................................................................
.............................. CYCLE   28 ..............................
........................................................................

 iter      E             dE          RMSdq      gap      omega  full diag
   1    -50.0429372 -0.500429E+02  0.119E-02    2.22       0.0  T
   2    -50.0429372 -0.808495E-08  0.698E-03    2.22       2.5  T
   3    -50.0429371  0.144084E-07  0.749E-04    2.22      22.9  T
   4    -50.0429372 -0.188728E-07  0.138E-04    2.22     124.5  T
   5    -50.0429372 -0.702727E-11  0.673E-05    2.22     254.9  T
     SCC iter.                  ...        0 min,  0.010 sec
     gradient                   ...        0 min,  0.017 sec
 * total energy  :   -49.1143552 Eh     change       -0.2846639E-05 Eh
   gradient norm :     0.0004542 Eh/α   predicted    -0.1035225E-05 ( -63.63%)
   displ. norm   :     0.0512015 α      lambda       -0.2793406E-05
   maximum displ.:     0.0369392 α      in ANC's #1, #4, #3, ...

........................................................................
.............................. CYCLE   29 ..............................
........................................................................

 iter      E             dE          RMSdq      gap      omega  full diag
   1    -50.0429312 -0.500429E+02  0.172E-02    2.21       0.0  T
   2    -50.0429312 -0.155442E-07  0.101E-02    2.22       1.7  T
   3    -50.0429312  0.178713E-07  0.875E-04    2.21      19.6  T
   4    -50.0429312 -0.257515E-07  0.192E-04    2.22      89.4  T
   5    -50.0429312  0.584066E-11  0.853E-05    2.22     201.0  T
     SCC iter.                  ...        0 min,  0.007 sec
     gradient                   ...        0 min,  0.016 sec
 * total energy  :   -49.1143589 Eh     change       -0.3785984E-05 Eh
   gradient norm :     0.0003855 Eh/α   predicted    -0.1402375E-05 ( -62.96%)
   displ. norm   :     0.0699017 α      lambda       -0.3384878E-05
   maximum displ.:     0.0503362 α      in ANC's #1, #3, #4, ...

........................................................................
.............................. CYCLE   30 ..............................
........................................................................

 iter      E             dE          RMSdq      gap      omega  full diag
   1    -50.0429205 -0.500429E+02  0.240E-02    2.21       0.0  T
   2    -50.0429205 -0.370607E-07  0.141E-02    2.21       1.2  T
   3    -50.0429205  0.332757E-07  0.126E-03    2.21      13.6  T
   4    -50.0429205 -0.495993E-07  0.293E-04    2.21      58.5  T
   5    -50.0429205 -0.140467E-09  0.134E-04    2.21     128.1  T
   6    -50.0429205 -0.188784E-09  0.488E-05    2.21     351.4  T
     SCC iter.                  ...        0 min,  0.008 sec
     gradient                   ...        0 min,  0.021 sec
 * total energy  :   -49.1143634 Eh     change       -0.4429807E-05 Eh
   gradient norm :     0.0002719 Eh/α   predicted    -0.1701100E-05 ( -61.60%)
   displ. norm   :     0.0736019 α      lambda       -0.2998710E-05
   maximum displ.:     0.0536916 α      in ANC's #1, #3, #2, ...

........................................................................
.............................. CYCLE   31 ..............................
........................................................................

 iter      E             dE          RMSdq      gap      omega  full diag
   1    -50.0428987 -0.500429E+02  0.257E-02    2.21       0.0  T
   2    -50.0428988 -0.449963E-07  0.150E-02    2.21       1.1  T
   3    -50.0428987  0.343539E-07  0.136E-03    2.21      12.6  T
   4    -50.0428988 -0.537338E-07  0.333E-04    2.21      51.4  T
   5    -50.0428988 -0.164960E-09  0.147E-04    2.21     116.5  T
   6    -50.0428988 -0.297916E-09  0.524E-05    2.21     327.3  T
     SCC iter.                  ...        0 min,  0.009 sec
     gradient                   ...        0 min,  0.016 sec
 * total energy  :   -49.1143673 Eh     change       -0.3908814E-05 Eh
   gradient norm :     0.0001963 Eh/α   predicted    -0.1503116E-05 ( -61.55%)
   displ. norm   :     0.0656061 α      lambda       -0.2347944E-05
   maximum displ.:     0.0482923 α      in ANC's #1, #2, #3, ...

........................................................................
.............................. CYCLE   32 ..............................
........................................................................

 iter      E             dE          RMSdq      gap      omega  full diag
   1    -50.0429088 -0.500429E+02  0.232E-02    2.21       0.0  T
   2    -50.0429088 -0.406267E-07  0.136E-02    2.21       1.3  T
   3    -50.0429088  0.209718E-07  0.117E-03    2.21      14.7  T
   4    -50.0429088 -0.376186E-07  0.333E-04    2.21      51.5  T
   5    -50.0429088 -0.263100E-09  0.140E-04    2.21     122.6  T
   6    -50.0429088 -0.291251E-09  0.505E-05    2.21     339.8  T
     SCC iter.                  ...        0 min,  0.008 sec
     gradient                   ...        0 min,  0.015 sec
 * total energy  :   -49.1143704 Eh     change       -0.3159499E-05 Eh
   gradient norm :     0.0002145 Eh/α   predicted    -0.1176485E-05 ( -62.76%)
   displ. norm   :     0.0584631 α      lambda       -0.1973734E-05
   maximum displ.:     0.0429774 α      in ANC's #1, #2, #3, ...

........................................................................
.............................. CYCLE   33 ..............................
........................................................................

 iter      E             dE          RMSdq      gap      omega  full diag
   1    -50.0429187 -0.500429E+02  0.211E-02    2.21       0.0  T
   2    -50.0429188 -0.324946E-07  0.123E-02    2.21       1.4  T
   3    -50.0429188  0.510327E-08  0.856E-04    2.21      20.0  T
   4    -50.0429188 -0.183439E-07  0.310E-04    2.21      55.3  T
   5    -50.0429188 -0.250679E-09  0.112E-04    2.21     153.8  T
   6    -50.0429188 -0.263931E-09  0.362E-05    2.21     473.2  T
     SCC iter.                  ...        0 min,  0.009 sec
     gradient                   ...        0 min,  0.016 sec
 * total energy  :   -49.1143732 Eh     change       -0.2711610E-05 Eh
   gradient norm :     0.0002259 Eh/α   predicted    -0.9911886E-06 ( -63.45%)
   displ. norm   :     0.0562971 α      lambda       -0.1812354E-05
   maximum displ.:     0.0412805 α      in ANC's #1, #2, #3, ...

........................................................................
.............................. CYCLE   34 ..............................
........................................................................

 iter      E             dE          RMSdq      gap      omega  full diag
   1    -50.0429081 -0.500429E+02  0.204E-02    2.21       0.0  T
   2    -50.0429081 -0.301058E-07  0.119E-02    2.21       1.4  T
   3    -50.0429081 -0.166033E-08  0.700E-04    2.21      24.5  T
   4    -50.0429081 -0.105092E-07  0.305E-04    2.21      56.2  T
   5    -50.0429081 -0.340371E-09  0.967E-05    2.21     177.4  T
   6    -50.0429081 -0.240817E-09  0.294E-05    2.21     582.7  T
     SCC iter.                  ...        0 min,  0.008 sec
     gradient                   ...        0 min,  0.024 sec
 * total energy  :   -49.1143756 Eh     change       -0.2458601E-05 Eh
   gradient norm :     0.0001919 Eh/α   predicted    -0.9089473E-06 ( -63.03%)
   displ. norm   :     0.0525388 α      lambda       -0.1551755E-05
   maximum displ.:     0.0386749 α      in ANC's #1, #2, #3, ...

........................................................................
.............................. CYCLE   35 ..............................
........................................................................

 iter      E             dE          RMSdq      gap      omega  full diag
   1    -50.0429067 -0.500429E+02  0.192E-02    2.21       0.0  T
   2    -50.0429068 -0.251578E-07  0.112E-02    2.21       1.5  T
   3    -50.0429068 -0.384829E-08  0.583E-04    2.21      29.4  T
   4    -50.0429068 -0.631375E-08  0.274E-04    2.21      62.6  T
   5    -50.0429068 -0.358931E-09  0.747E-05    2.21     229.5  T
   6    -50.0429068 -0.155460E-09  0.240E-05    2.21     715.1  T
     SCC iter.                  ...        0 min,  0.009 sec
     gradient                   ...        0 min,  0.016 sec
 * total energy  :   -49.1143777 Eh     change       -0.2065063E-05 Eh
   gradient norm :     0.0001336 Eh/α   predicted    -0.7769885E-06 ( -62.37%)
   displ. norm   :     0.0464327 α      lambda       -0.1219595E-05
   maximum displ.:     0.0344886 α      in ANC's #1, #2, #5, ...

........................................................................
.............................. CYCLE   36 ..............................
........................................................................

 iter      E             dE          RMSdq      gap      omega  full diag
   1    -50.0429049 -0.500429E+02  0.170E-02    2.21       0.0  T
   2    -50.0429049 -0.181544E-07  0.990E-03    2.21       1.7  T
   3    -50.0429049 -0.171931E-08  0.529E-04    2.21      32.4  T
   4    -50.0429049 -0.584662E-08  0.234E-04    2.21      73.3  T
   5    -50.0429049 -0.193900E-09  0.700E-05    2.21     245.0  T
   6    -50.0429049 -0.133120E-09  0.210E-05    2.21     815.7  T
     SCC iter.                  ...        0 min,  0.009 sec
     gradient                   ...        0 min,  0.016 sec
 * total energy  :   -49.1143793 Eh     change       -0.1632311E-05 Eh
   gradient norm :     0.0000922 Eh/α   predicted    -0.6112983E-06 ( -62.55%)
   displ. norm   :     0.0399291 α      lambda       -0.9415622E-06
   maximum displ.:     0.0297796 α      in ANC's #1, #2, #4, ...

........................................................................
.............................. CYCLE   37 ..............................
........................................................................

 iter      E             dE          RMSdq      gap      omega  full diag
   1    -50.0428935 -0.500429E+02  0.145E-02    2.21       0.0  T
   2    -50.0428935 -0.111576E-07  0.846E-03    2.21       2.0  T
   3    -50.0428935 -0.204690E-08  0.378E-04    2.21      45.4  T
   4    -50.0428935 -0.257584E-08  0.183E-04    2.21      93.8  T
   5    -50.0428935 -0.177401E-09  0.520E-05    2.21     329.5  T
     SCC iter.                  ...        0 min,  0.010 sec
     gradient                   ...        0 min,  0.019 sec
 * total energy  :   -49.1143806 Eh     change       -0.1276222E-05 Eh
   gradient norm :     0.0001024 Eh/α   predicted    -0.4724422E-06 ( -62.98%)
   displ. norm   :     0.0353671 α      lambda       -0.7667100E-06
   maximum displ.:     0.0263819 α      in ANC's #1, #2, #4, ...

........................................................................
.............................. CYCLE   38 ..............................
........................................................................

 iter      E             dE          RMSdq      gap      omega  full diag
   1    -50.0428951 -0.500429E+02  0.127E-02    2.21       0.0  T
   2    -50.0428951 -0.744332E-08  0.743E-03    2.21       2.3  T
   3    -50.0428951 -0.113189E-09  0.355E-04    2.21      48.3  T
   4    -50.0428951 -0.309552E-08  0.148E-04    2.21     116.3  T
   5    -50.0428951 -0.102453E-09  0.505E-05    2.21     339.5  T
     SCC iter.                  ...        0 min,  0.008 sec
     gradient                   ...        0 min,  0.017 sec
 * total energy  :   -49.1143816 Eh     change       -0.1052229E-05 Eh
   gradient norm :     0.0001166 Eh/α   predicted    -0.3847587E-06 ( -63.43%)
   displ. norm   :     0.0330351 α      lambda       -0.6623749E-06
   maximum displ.:     0.0245342 α      in ANC's #1, #2, #4, ...

........................................................................
.............................. CYCLE   39 ..............................
........................................................................

 iter      E             dE          RMSdq      gap      omega  full diag
   1    -50.0428822 -0.500429E+02  0.116E-02    2.21       0.0  T
   2    -50.0428822 -0.559516E-08  0.681E-03    2.21       2.5  T
   3    -50.0428822  0.115495E-08  0.374E-04    2.21      45.8  T
   4    -50.0428823 -0.367704E-08  0.121E-04    2.21     141.9  T
   5    -50.0428823 -0.547118E-10  0.502E-05    2.21     341.7  T
     SCC iter.                  ...        0 min,  0.008 sec
     gradient                   ...        0 min,  0.017 sec
 * total energy  :   -49.1143825 Eh     change       -0.9110806E-06 Eh
   gradient norm :     0.0001124 Eh/α   predicted    -0.3321002E-06 ( -63.55%)
   displ. norm   :     0.0314994 α      lambda       -0.5825087E-06
   maximum displ.:     0.0234201 α      in ANC's #1, #2, #4, ...

........................................................................
.............................. CYCLE   40 ..............................
........................................................................

 iter      E             dE          RMSdq      gap      omega  full diag
   1    -50.0428720 -0.500429E+02  0.108E-02    2.21       0.0  T
   2    -50.0428720 -0.477228E-08  0.635E-03    2.21       2.7  T
   3    -50.0428720  0.382148E-08  0.459E-04    2.21      37.3  T
   4    -50.0428720 -0.609658E-08  0.100E-04    2.21     171.2  T
   5    -50.0428720 -0.448424E-10  0.515E-05    2.21     333.3  T
     SCC iter.                  ...        0 min,  0.010 sec
     gradient                   ...        0 min,  0.019 sec
 * total energy  :   -49.1143833 Eh     change       -0.7934297E-06 Eh
   gradient norm :     0.0000904 Eh/α   predicted    -0.2935247E-06 ( -63.01%)
   displ. norm   :     0.0295494 α      lambda       -0.5004046E-06
   maximum displ.:     0.0220255 α      in ANC's #1, #2, #4, ...

........................................................................
.............................. CYCLE   41 ..............................
........................................................................

 iter      E             dE          RMSdq      gap      omega  full diag
   1    -50.0428647 -0.500429E+02  0.995E-03    2.21       0.0  T
   2    -50.0428647 -0.392404E-08  0.584E-03    2.21       2.9  T
   3    -50.0428647  0.345109E-08  0.433E-04    2.21      39.7  T
   4    -50.0428647 -0.541728E-08  0.891E-05    2.21     192.4  T
   5    -50.0428647 -0.281588E-10  0.470E-05    2.21     365.1  T
     SCC iter.                  ...        0 min,  0.008 sec
     gradient                   ...        0 min,  0.023 sec
 * total energy  :   -49.1143840 Eh     change       -0.6780846E-06 Eh
   gradient norm :     0.0000618 Eh/α   predicted    -0.2519368E-06 ( -62.85%)
   displ. norm   :     0.0272861 α      lambda       -0.4224321E-06
   maximum displ.:     0.0203806 α      in ANC's #1, #2, #5, ...

........................................................................
.............................. CYCLE   42 ..............................
........................................................................

 iter      E             dE          RMSdq      gap      omega  full diag
   1    -50.0428581 -0.500429E+02  0.891E-03    2.21       0.0  T
   2    -50.0428581 -0.294826E-08  0.523E-03    2.21       3.3  T
   3    -50.0428581  0.198135E-08  0.352E-04    2.21      48.8  T
   4    -50.0428581 -0.349990E-08  0.770E-05    2.21     222.7  T
   5    -50.0428581 -0.776623E-11  0.403E-05    2.21     426.0  T
     SCC iter.                  ...        0 min,  0.007 sec
     gradient                   ...        0 min,  0.016 sec
 * total energy  :   -49.1143846 Eh     change       -0.5729263E-06 Eh
   gradient norm :     0.0000492 Eh/α   predicted    -0.2138620E-06 ( -62.67%)
   displ. norm   :     0.0267505 α      lambda       -0.3745700E-06
   maximum displ.:     0.0198855 α      in ANC's #1, #2, #5, ...
 * RMSD in coord.:     0.1435300 α      energy gain  -0.8278916E-04 Eh

generating ANC from exact Hessian ...
Using Lindh-Hessian (1995)
 Shifting diagonal of input Hessian by    9.5447978926386130E-003
 Lowest  eigenvalues of input Hessian
    0.000000    0.000000    0.000000    0.000000    0.000000    0.000000
    0.010000    0.010410    0.010546    0.011459    0.013314    0.014462
    0.015711    0.018374    0.019402    0.021997    0.022435    0.025109
 Highest eigenvalues
    1.966675    1.998492    2.010065    2.034247    2.120552    2.238714


........................................................................
.............................. CYCLE   43 ..............................
........................................................................

 iter      E             dE          RMSdq      gap      omega  full diag
   1    -50.0428562 -0.500429E+02  0.856E-03    2.21       0.0  T
   2    -50.0428562 -0.276015E-08  0.502E-03    2.21       3.4  T
   3    -50.0428562  0.632156E-09  0.282E-04    2.21      60.9  T
   4    -50.0428562 -0.204051E-08  0.801E-05    2.21     214.0  T
   5    -50.0428562  0.733991E-11  0.365E-05    2.21     470.1  T
     SCC iter.                  ...        0 min,  0.008 sec
     gradient                   ...        0 min,  0.020 sec
 * total energy  :   -49.1143851 Eh     change       -0.5105416E-06 Eh
   gradient norm :     0.0000604 Eh/α   predicted     0.0000000E+00 (-100.00%)
   displ. norm   :     0.0000907 α      lambda        0.0000000E+00
   maximum displ.:     0.0000284 α      in ANC's #1, #94, #57, ...

........................................................................
.............................. CYCLE   44 ..............................
........................................................................

 iter      E             dE          RMSdq      gap      omega  full diag
   1    -50.0428596 -0.500429E+02  0.127E-04    2.21       0.0  T
   2    -50.0428596 -0.539728E-10  0.751E-05    2.21     228.5  T
   3    -50.0428596 -0.606803E-11  0.440E-05    2.21     390.0  T
     SCC iter.                  ...        0 min,  0.005 sec
     gradient                   ...        0 min,  0.019 sec
 * total energy  :   -49.1143851 Eh     change       -0.3491742E-08 Eh
   gradient norm :     0.0000413 Eh/α   predicted    -0.1965790E-08 ( -43.70%)
   displ. norm   :     0.0000907 α      lambda        0.0000000E+00
   maximum displ.:     0.0000284 α      in ANC's #1, #94, #57, ...

   *** GEOMETRY OPTIMIZATION CONVERGED AFTER 44 ITERATIONS ***

------------------------------------------------------------------------
 total energy gain   :        -0.0086552 Eh       -5.4312 kcal/mol
 total RMSD          :         0.6190249 a0        0.3276 Å
 total power (kW/mol):        -0.5164589 (step)  -13.8611 (real)
------------------------------------------------------------------------

 ANCopt (total)                0 d,  0 h,  0 min,  1.639 sec
 optimizer setup                ...        0 min,  0.001 sec (  0.037%)
 model hessian                  ...        0 min,  0.022 sec (  1.320%)
 ANC generation                 ...        0 min,  0.004 sec (  0.249%)
 coordinate transformation      ...        0 min,  0.001 sec (  0.037%)
 single point calculation       ...        0 min,  1.593 sec ( 97.167%)
 optimization log               ...        0 min,  0.011 sec (  0.644%)
 hessian update                 ...        0 min,  0.001 sec (  0.064%)
 rational function              ...        0 min,  0.005 sec (  0.326%)

================
 final structure:
================
34
 xtb: 6.7.1 (edcfbbe)
C            1.18732926253526       -0.56226580021534        1.70092080572646
C            0.76816625687643       -0.00716242991468        0.36591565001864
N            1.58004122175077        0.44068716437168       -0.49958902287011
C            2.95310468823594        0.43248421816121       -0.44869698514293
C            3.64775520421146        1.64350876301063       -0.38234546667173
C            5.02662502656457        1.65948934485677       -0.44488845957789
C            5.73870377579804        0.47954190595640       -0.59519317647788
C            5.05628757756261       -0.72301837380221       -0.67949659954239
C            3.67759284760781       -0.75337204680131       -0.60178389511845
C           -0.66528345447636        0.04910261291260        0.04433375264325
C           -1.07877032520095        0.75105457983271       -1.11420187489138
C           -2.39490854319214        0.82757179712668       -1.45810237140540
C           -3.38863011487949        0.20300002503178       -0.67154532423601
C           -4.75843902024064        0.26000529161865       -0.99845544291687
C           -5.69030924100118       -0.36100739707794       -0.21290404341072
C           -5.29430935106447       -1.06654224800656        0.93468542087054
C           -3.97324187845379       -1.13962578664909        1.27842718219406
C           -2.98662884666667       -0.50907979868134        0.48921736608671
C           -1.61927116207440       -0.56678451156667        0.82352201824476
H            0.63444256414718       -0.07724191303572        2.50313658805923
H            0.98896845887826       -1.63275739126741        1.73979367467860
H            2.25312146079378       -0.40087726708030        1.85373744117269
H            3.08935662587243        2.56124498435427       -0.26574457654632
H            5.55170641078893        2.60221193212374       -0.37935887074041
H            6.81734377285856        0.49805556690121       -0.64952836936574
H            5.60292374701588       -1.64814201244217       -0.79937546542409
H            3.14294816188490       -1.69045914459416       -0.67352048915107
H           -0.31666184075010        1.22512245266068       -1.71298414565658
H           -2.69909413249651        1.36941333960128       -2.34273801903085
H           -5.05933164297951        0.80336047229559       -1.88328844134810
H           -6.73883905993464       -0.31398991951356       -0.46995084227374
H           -6.04421758389656       -1.55129480819499        1.54326503803448
H           -3.66492289092020       -1.68168412524132        2.16164256677229
H           -1.34355797525437       -1.12054947653012        1.70844350849744

 Bond Distances (Angstroems)
 ---------------------------
C1-C2=1.5053         C1-H20=1.0883        C1-H21=1.0894        C1-H22=1.0887        C2-C1=1.5053         C2-N3=1.2684         
C2-C10=1.4702        N3-C2=1.2684         N3-C4=1.3740         C4-N3=1.3740         C4-C5=1.3977         C4-C9=1.3981         
C5-C4=1.3977         C5-C6=1.3804         C5-H23=1.0806        C6-C5=1.3804         C6-C7=1.3863         C6-H24=1.0811        
C7-C6=1.3863         C7-C8=1.3853         C7-H25=1.0802        C8-C7=1.3853         C8-C9=1.3812         C8-H26=1.0812        
C9-C4=1.3981         C9-C8=1.3812         C9-H27=1.0813        C10-C2=1.4702        C10-C11=1.4163       C10-C19=1.3772       
C11-C10=1.4163       C11-C12=1.3625       C11-H28=1.0789       C12-C11=1.3625       C12-C13=1.4129       C12-H29=1.0811       
C13-C12=1.4129       C13-C14=1.4094       C13-C18=1.4199       C14-C13=1.4094       C14-C15=1.3679       C14-H30=1.0811       
C15-C14=1.3679       C15-C16=1.4041       C15-H31=1.0806       C16-C15=1.4041       C16-C17=1.3670       C16-H32=1.0806       
C17-C16=1.3670       C17-C18=1.4120       C17-H33=1.0812       C18-C13=1.4199       C18-C17=1.4120       C18-C19=1.4088       
C19-C10=1.3772       C19-C18=1.4088       C19-H34=1.0797       H20-C1=1.0883        H21-C1=1.0894        H22-C1=1.0887        
H23-C5=1.0806        H24-C6=1.0811        H25-C7=1.0802        H26-C8=1.0812        H27-C9=1.0813        H28-C11=1.0789       
H29-C12=1.0811       H30-C14=1.0811       H31-C15=1.0806       H32-C16=1.0806       H33-C17=1.0812       H34-C19=1.0797       
 C  H  Rav=1.0823 sigma=0.0033  Rmin=1.0789  Rmax=1.0894    15
 C  C  Rav=1.4033 sigma=0.0342  Rmin=1.3625  Rmax=1.5053    19
 N  C  Rav=1.3212 sigma=0.0528  Rmin=1.2684  Rmax=1.3740     2

 selected bond angles (degree)
 --------------------
H20-C1-C2=110.36               H21-C1-C2=110.08               H21-C1-H20=108.61              H22-C1-C2=110.02               
H22-C1-H20=109.13              H22-C1-H21=108.60              N3-C2-C1=123.86                C10-C2-C1=118.66               
C10-C2-N3=117.47               C4-N3-C2=127.75                C5-C4-N3=119.55                C9-C4-N3=121.26                
C9-C4-C5=118.85                C6-C5-C4=120.29                H23-C5-C4=118.96               H23-C5-C6=120.75               
C7-C6-C5=120.54                H24-C6-C5=119.51               H24-C6-C7=119.95               C8-C7-C6=119.50                
H25-C7-C6=120.25               H25-C7-C8=120.25               C9-C8-C7=120.49                H26-C8-C7=120.03               
H26-C8-C9=119.48               C8-C9-C4=120.32                H27-C9-C4=119.09               H27-C9-C8=120.59               
C11-C10-C2=118.85              C19-C10-C2=122.31              C19-C10-C11=118.83             

 selected dihedral angles (degree)
 ---------------------------------
N3-C2-C1-H20=127.78           N3-C2-C1-H21=247.65           N3-C2-C1-H22=  7.29           C10-C2-C1-H20=309.02          
C10-C2-C1-H21= 68.89          C10-C2-C1-H22=188.54          C4-N3-C2-C1=  4.68            C4-N3-C2-C10=183.45           
C5-C4-N3-C2=245.09            C9-C4-N3-C2= 71.83            C6-C5-C4-N3=185.50            C6-C5-C4-C9=358.92            
H23-C5-C4-N3=  6.47           H23-C5-C4-C9=179.90           C7-C6-C5-C4=  1.02            C7-C6-C5-H23=180.03           
H24-C6-C5-C4=180.80           H24-C6-C5-H23=359.81          C8-C7-C6-C5=359.84            C8-C7-C6-H24=180.06           
H25-C7-C6-C5=179.63           H25-C7-C6-H24=359.86          C9-C8-C7-C6=359.37            C9-C8-C7-H25=179.57           
H26-C8-C7-C6=179.84           H26-C8-C7-H25=  0.05          C8-C9-C4-N3=173.59            C8-C9-C4-C5=  0.29            
H27-C9-C4-N3=354.52           H27-C9-C4-C5=181.22           C4-C9-C8-C7=  0.57            C4-C9-C8-H26=180.09           
H27-C9-C8-C7=179.62           H27-C9-C8-H26=359.15          C11-C10-C2-C1=170.52          C11-C10-C2-N3=351.68          
C19-C10-C2-C1=349.93          C19-C10-C2-N3=171.09          
           -------------------------------------------------
          |                Final Singlepoint                |
           -------------------------------------------------

          ...................................................
          :                      SETUP                      :
          :.................................................:
          :  # basis functions                  91          :
          :  # atomic orbitals                  91          :
          :  # shells                           53          :
          :  # electrons                        92          :
          :  max. iterations                   250          :
          :  Hamiltonian                  GFN2-xTB          :
          :  restarted?                      false          :
          :  GBSA solvation                   true          :
          :  PC potential                    false          :
          :  electronic temp.          300.0000000     K    :
          :  accuracy                    0.2000000          :
          :  -> integral cutoff          0.3198970E+02      :
          :  -> integral neglect         0.2000000E-08      :
          :  -> SCF convergence          0.2000000E-06 Eh   :
          :  -> wf. convergence          0.2000000E-04 e    :
          :  Broyden damping             0.4000000          :
          :  net charge                          0          :
          :  unpaired electrons                  0          :
          ...................................................

 iter      E             dE          RMSdq      gap      omega  full diag
   1    -50.0428596 -0.500429E+02  0.732E-06    2.21       0.0  T
   2    -50.0428596 -0.426326E-12  0.466E-06    2.21    3680.1  T
   3    -50.0428596 -0.568434E-12  0.179E-06    2.21    9581.3  T

   *** convergence criteria satisfied after 3 iterations ***

         #    Occupation            Energy/Eh            Energy/eV
      -------------------------------------------------------------
         1        2.0000           -0.6544816             -17.8093
       ...           ...                  ...                  ...
        40        2.0000           -0.4161283             -11.3234
        41        2.0000           -0.4149036             -11.2901
        42        2.0000           -0.4093093             -11.1379
        43        2.0000           -0.3984495             -10.8424
        44        2.0000           -0.3957839             -10.7698
        45        2.0000           -0.3810226             -10.3682
        46        2.0000           -0.3565379              -9.7019 (HOMO)
        47                         -0.2753763              -7.4934 (LUMO)
        48                         -0.2491369              -6.7794
        49                         -0.2162493              -5.8844
        50                         -0.2141821              -5.8282
        51                         -0.2019339              -5.4949
       ...                                ...                  ...
        91                          0.7104171              19.3314
      -------------------------------------------------------------
                  HL-Gap            0.0811617 Eh            2.2085 eV
             Fermi-level           -0.3159571 Eh           -8.5976 eV

 SCC (total)                   0 d,  0 h,  0 min,  0.030 sec
 SCC setup                      ...        0 min,  0.001 sec (  3.038%)
 Dispersion                     ...        0 min,  0.000 sec (  1.125%)
 classical contributions        ...        0 min,  0.000 sec (  0.296%)
 integral evaluation            ...        0 min,  0.007 sec ( 22.326%)
 iterations                     ...        0 min,  0.006 sec ( 21.776%)
 molecular gradient             ...        0 min,  0.015 sec ( 50.560%)
 printout                       ...        0 min,  0.000 sec (  0.818%)

         :::::::::::::::::::::::::::::::::::::::::::::::::::::
         ::                     SUMMARY                     ::
         :::::::::::::::::::::::::::::::::::::::::::::::::::::
         :: total energy             -49.114385105519 Eh    ::
         :: total w/o Gsasa/hb       -49.092402800915 Eh    ::
         :: gradient norm              0.000050364772 Eh/a0 ::
         :: HOMO-LUMO gap              2.208521419027 eV    ::
         ::.................................................::
         :: SCC energy               -50.043111160620 Eh    ::
         :: -> isotropic ES            0.010919389992 Eh    ::
         :: -> anisotropic ES          0.005969204977 Eh    ::
         :: -> anisotropic XC          0.034996168926 Eh    ::
         :: -> dispersion             -0.036241690043 Eh    ::
         :: -> Gsolv                  -0.022830838676 Eh    ::
         ::    -> Gelec               -0.000848534073 Eh    ::
         ::    -> Gsasa               -0.026131001964 Eh    ::
         ::    -> Ghb                  0.000000000000 Eh    ::
         ::    -> Gshift               0.004148697361 Eh    ::
         :: repulsion energy           0.928726055102 Eh    ::
         :: add. restraining           0.000000000000 Eh    ::
         :: total charge               0.000000000000 e     ::
         :::::::::::::::::::::::::::::::::::::::::::::::::::::

           -------------------------------------------------
          |                Property Printout                |
           -------------------------------------------------

    * Orbital Energies and Occupations

         #    Occupation            Energy/Eh            Energy/eV
      -------------------------------------------------------------
         1        2.0000           -0.6544816             -17.8093
       ...           ...                  ...                  ...
        34        2.0000           -0.4573732             -12.4458
        35        2.0000           -0.4439884             -12.0815
        36        2.0000           -0.4399850             -11.9726
        37        2.0000           -0.4308045             -11.7228
        38        2.0000           -0.4285970             -11.6627
        39        2.0000           -0.4235313             -11.5249
        40        2.0000           -0.4161283             -11.3234
        41        2.0000           -0.4149036             -11.2901
        42        2.0000           -0.4093093             -11.1379
        43        2.0000           -0.3984495             -10.8424
        44        2.0000           -0.3957839             -10.7698
        45        2.0000           -0.3810226             -10.3682
        46        2.0000           -0.3565379              -9.7019 (HOMO)
        47                         -0.2753763              -7.4934 (LUMO)
        48                         -0.2491369              -6.7794
        49                         -0.2162493              -5.8844
        50                         -0.2141821              -5.8282
        51                         -0.2019339              -5.4949
        52                         -0.1856003              -5.0504
        53                         -0.1317205              -3.5843
        54                         -0.0834200              -2.2700
        55                         -0.0550225              -1.4972
        56                          0.0732039               1.9920
        57                          0.1027234               2.7952
       ...                                ...                  ...
        91                          0.7104171              19.3314
      -------------------------------------------------------------
                  HL-Gap            0.0811617 Eh            2.2085 eV
             Fermi-level           -0.3159571 Eh           -8.5976 eV

     #   Z          covCN         q      C6AA      α(0)
     1   6 C        3.755    -0.117    22.796     6.808
     2   6 C        2.898     0.113    25.518     8.283
     3   7 N        1.848    -0.220    26.652     7.651
     4   6 C        2.923     0.083    26.143     8.385
     5   6 C        2.924    -0.050    29.235     8.867
     6   6 C        2.919    -0.032    28.805     8.801
     7   6 C        2.919    -0.044    29.082     8.843
     8   6 C        2.919    -0.033    28.814     8.803
     9   6 C        2.922    -0.052    29.287     8.875
    10   6 C        2.978     0.002    27.981     8.677
    11   6 C        2.920    -0.030    28.742     8.792
    12   6 C        2.915    -0.035    28.863     8.810
    13   6 C        2.987     0.015    27.672     8.629
    14   6 C        2.917    -0.035    28.867     8.811
    15   6 C        2.916    -0.029    28.719     8.788
    16   6 C        2.915    -0.030    28.752     8.793
    17   6 C        2.918    -0.035    28.871     8.811
    18   6 C        2.985     0.012    27.731     8.638
    19   6 C        2.922    -0.038    28.943     8.822
    20   1 H        0.925     0.055     2.256     2.349
    21   1 H        0.925     0.058     2.226     2.333
    22   1 H        0.925     0.044     2.396     2.421
    23   1 H        0.926     0.028     2.618     2.530
    24   1 H        0.926     0.027     2.636     2.539
    25   1 H        0.926     0.024     2.678     2.559
    26   1 H        0.925     0.026     2.649     2.545
    27   1 H        0.925     0.023     2.692     2.566
    28   1 H        0.926     0.052     2.289     2.366
    29   1 H        0.926     0.038     2.482     2.463
    30   1 H        0.926     0.035     2.516     2.480
    31   1 H        0.926     0.034     2.534     2.489
    32   1 H        0.926     0.033     2.537     2.491
    33   1 H        0.926     0.035     2.522     2.483
    34   1 H        0.926     0.043     2.404     2.425

 Mol. C6AA /au·bohr⁶  :      15391.708526
 Mol. C8AA /au·bohr⁸  :     382803.113078
 Mol. α(0) /au        :        199.925422


Wiberg/Mayer (AO) data.
largest (>0.10) Wiberg bond orders for each atom

 ---------------------------------------------------------------------------
     #   Z sym  total        # sym  WBO       # sym  WBO       # sym  WBO
 ---------------------------------------------------------------------------
     1   6 C    3.996 --     2 C    1.008    22 H    0.981    20 H    0.970
                            21 H    0.962
     2   6 C    3.963 --     3 N    1.762    10 C    1.060     1 C    1.008
     3   7 N    3.214 --     2 C    1.762     4 C    1.136
     4   6 C    3.976 --     5 C    1.342     9 C    1.340     3 N    1.136
     5   6 C    3.985 --     6 C    1.463     4 C    1.342    23 H    0.971
                             8 C    0.105
     6   6 C    3.991 --     5 C    1.463     7 C    1.425    24 H    0.970
                             9 C    0.104
     7   6 C    3.990 --     8 C    1.431     6 C    1.425    25 H    0.972
     8   6 C    3.992 --     9 C    1.457     7 C    1.431    26 H    0.970
                             5 C    0.105
     9   6 C    3.983 --     8 C    1.457     4 C    1.340    27 H    0.971
                             6 C    0.104
    10   6 C    3.988 --    19 C    1.488    11 C    1.263     2 C    1.060
    11   6 C    3.989 --    12 C    1.584    10 C    1.263    28 H    0.965
    12   6 C    3.992 --    11 C    1.584    13 C    1.267    29 H    0.967
                            19 C    0.106
    13   6 C    3.988 --    14 C    1.287    12 C    1.267    18 C    1.248
    14   6 C    3.991 --    15 C    1.551    13 C    1.287    30 H    0.968
                            17 C    0.117
    15   6 C    3.982 --    14 C    1.551    16 C    1.322    31 H    0.971
    16   6 C    3.992 --    17 C    1.557    15 C    1.322    32 H    0.971
    17   6 C    3.984 --    16 C    1.557    18 C    1.276    33 H    0.968
                            14 C    0.117
    18   6 C    3.990 --    19 C    1.291    17 C    1.276    13 C    1.248
    19   6 C    3.983 --    10 C    1.488    18 C    1.291    34 H    0.963
                            12 C    0.106
    20   1 H    0.997 --     1 C    0.970
    21   1 H    0.996 --     1 C    0.962
    22   1 H    0.998 --     1 C    0.981
    23   1 H    0.999 --     5 C    0.971
    24   1 H    0.998 --     6 C    0.970
    25   1 H    0.999 --     7 C    0.972
    26   1 H    0.999 --     8 C    0.970
    27   1 H    0.999 --     9 C    0.971
    28   1 H    0.997 --    11 C    0.965
    29   1 H    0.998 --    12 C    0.967
    30   1 H    0.998 --    14 C    0.968
    31   1 H    0.998 --    15 C    0.971
    32   1 H    0.998 --    16 C    0.971
    33   1 H    0.998 --    17 C    0.968
    34   1 H    0.998 --    19 C    0.963
 ---------------------------------------------------------------------------

Topologies differ in total number of bonds
Writing topology from bond orders to xtbtopo.mol

molecular dipole:
                 x           y           z       tot (Debye)
 q only:       -0.940      -0.225       0.447
   full:       -0.836      -0.366       0.689       2.908
molecular quadrupole (traceless):
                xx          xy          yy          xz          yz          zz
 q only:       -1.056      -0.634      -0.302       2.447      -2.298       1.358
  q+dip:        4.017      -0.235      -1.725       3.089      -5.613      -2.292
   full:        0.499      -0.886      -0.212       3.093      -2.649      -0.287

           -------------------------------------------------
          |                Geometry Summary                 |
           -------------------------------------------------

      molecular mass/u    :      245.3190607
   center of mass at/Å    :       -0.0864528       0.0510193      -0.1154162
  moments of inertia/u·Å² :        0.3354404E+03   0.3416389E+04   0.3606512E+04
rotational constants/cm⁻¹ :        0.5025523E-01   0.4934342E-02   0.4674221E-02

 * 34 selected distances

     #   Z          #   Z                                           value/Å
     2   6 C        3   7 N                                       1.2683883
     3   7 N        4   6 C                                       1.3740309
     4   6 C        5   6 C                                       1.3976848
     5   6 C        6   6 C                                       1.3803801
     6   6 C        7   6 C                                       1.3863347
     7   6 C        8   6 C                                       1.3852619
     4   6 C        9   6 C                                       1.3980608
     8   6 C        9   6 C                                       1.3812169
    10   6 C       11   6 C                                       1.4163026
    11   6 C       12   6 C                                       1.3624766
    12   6 C       13   6 C                                       1.4128853
    13   6 C       14   6 C                                       1.4094313
    14   6 C       15   6 C                                       1.3678926
    15   6 C       16   6 C                                       1.4041215
    16   6 C       17   6 C                                       1.3670111
    13   6 C       18   6 C                                       1.4198708 (max)
    17   6 C       18   6 C                                       1.4120361
    10   6 C       19   6 C                                       1.3771508
    18   6 C       19   6 C                                       1.4088140
     1   6 C       20   1 H                                       1.0883392
     1   6 C       21   1 H                                       1.0894084
     1   6 C       22   1 H                                       1.0887205
     5   6 C       23   1 H                                       1.0805761
     6   6 C       24   1 H                                       1.0810785
     7   6 C       25   1 H                                       1.0801664
     8   6 C       26   1 H                                       1.0812197
     9   6 C       27   1 H                                       1.0812602
    11   6 C       28   1 H                                       1.0789301 (min)
    12   6 C       29   1 H                                       1.0810650
    14   6 C       30   1 H                                       1.0810647
    15   6 C       31   1 H                                       1.0806011
    16   6 C       32   1 H                                       1.0806094
Note: The following floating-point exceptions are signalling: IEEE_DIVIDE_BY_ZERO IEEE_UNDERFLOW_FLAG IEEE_DENORMAL
normal termination of xtb
    17   6 C       33   1 H                                       1.0811834
    19   6 C       34   1 H                                       1.0797035

 * 3 distinct bonds (by element types)

   Z      Z             #   av. dist./Å        max./Å        min./Å
   1 H    6 C          15     1.0822617     1.0894084     1.0789301
   6 C    6 C          17     1.3933489     1.4198708     1.3624766
   6 C    7 N           2     1.3212096     1.3740309     1.2683883


optimized geometry written to: xtbopt.xyz


           -------------------------------------------------
          | TOTAL ENERGY              -49.114385105519 Eh   |
          | GRADIENT NORM               0.000050364772 Eh/α |
          | HOMO-LUMO GAP               2.208521419027 eV   |
           -------------------------------------------------

------------------------------------------------------------------------
 * finished run on 2026/09/10 at 23:03:57.682     
------------------------------------------------------------------------
 total:
 * wall-time:     0 d,  0 h,  0 min,  1.750 sec
 *  cpu-time:     0 d,  0 h,  0 min,  0.312 sec
 * ratio c/w:     0.179 speedup
 SCF:
 * wall-time:     0 d,  0 h,  0 min,  0.042 sec
 *  cpu-time:     0 d,  0 h,  0 min,  0.000 sec
 * ratio c/w:     0.000 speedup
 ANC optimizer:
 * wall-time:     0 d,  0 h,  0 min,  1.674 sec
 *  cpu-time:     0 d,  0 h,  0 min,  0.312 sec
 * ratio c/w:     0.187 speedup

