      -----------------------------------------------------------      
     |                   =====================                   |     
     |                           x T B                           |     
     |                   =====================                   |     
     |                         S. Grimme                         |     
     |          Mulliken Center for Theoretical Chemistry        |     
     |                    University of Bonn                     |     
      -----------------------------------------------------------      

   * xtb version 6.7.1 (edcfbbe) compiled by 'VssAdministrator@runnervm171ch' on 2026-06-10

   xtb is free software: you can redistribute it and/or modify it under
   the terms of the GNU Lesser General Public License as published by
   the Free Software Foundation, either version 3 of the License, or
   (at your option) any later version.
   
   xtb is distributed in the hope that it will be useful,
   but WITHOUT ANY WARRANTY; without even the implied warranty of
   MERCHANTABILITY or FITNESS FOR A PARTICULAR PURPOSE.  See the
   GNU Lesser General Public License for more details.
   
   Cite this work as:
   * C. Bannwarth, E. Caldeweyher, S. Ehlert, A. Hansen, P. Pracht,
     J. Seibert, S. Spicher, S. Grimme, WIREs Comput. Mol. Sci., 2020, 11,
     e01493. DOI: 10.1002/wcms.1493
   
   for GFN2-xTB:
   * C. Bannwarth, S. Ehlert and S. Grimme., J. Chem. Theory Comput., 2019,
     15, 1652-1671. DOI: 10.1021/acs.jctc.8b01176
   for GFN1-xTB:
   * S. Grimme, C. Bannwarth, P. Shushkov, J. Chem. Theory Comput., 2017,
     13, 1989-2009. DOI: 10.1021/acs.jctc.7b00118
   for GFN0-xTB:
   * P. Pracht, E. Caldeweyher, S. Ehlert, S. Grimme, ChemRxiv, 2019, preprint.
     DOI: 10.26434/chemrxiv.8326202.v1
   for GFN-FF:
   * S. Spicher and S. Grimme, Angew. Chem. Int. Ed., 2020, 59, 15665-15673.
     DOI: 10.1002/anie.202004239
   
   for ALPB and GBSA implicit solvation:
   * S. Ehlert, M. Stahn, S. Spicher, S. Grimme, J. Chem. Theory Comput.,
     2021, 17, 4250-4261. DOI: 10.1021/acs.jctc.1c00471
   
   for ddCOSMO and CPCM-X implicit solvation:
   * M. Stahn, S. Ehlert, S. Grimme, J. Phys. Chem. A,
     2023, XX, XXXX-XXXX. DOI: 10.1021/acs.jpca.3c04382
   
   for DFT-D4:
   * E. Caldeweyher, C. Bannwarth and S. Grimme, J. Chem. Phys., 2017,
     147, 034112. DOI: 10.1063/1.4993215
   * E. Caldeweyher, S. Ehlert, A. Hansen, H. Neugebauer, S. Spicher,
     C. Bannwarth and S. Grimme, J. Chem. Phys., 2019, 150, 154122.
     DOI: 10.1063/1.5090222
   * E. Caldeweyher, J.-M. Mewes, S. Ehlert and S. Grimme, Phys. Chem. Chem. Phys.
     2020, 22, 8499-8512. DOI: 10.1039/D0CP00502A
   
   for sTDA-xTB:
   * S. Grimme and C. Bannwarth, J. Chem. Phys., 2016, 145, 054103.
     DOI: 10.1063/1.4959605
   
   in the mass-spec context:
   * V. Asgeirsson, C. Bauer and S. Grimme, Chem. Sci., 2017, 8, 4879.
     DOI: 10.1039/c7sc00601b
   * J. Koopman and S. Grimme, ACS Omega 2019, 4, 12, 15120-15133.
     DOI: 10.1021/acsomega.9b02011
   
   for metadynamics refer to:
   * S. Grimme, J. Chem. Theory Comput., 2019, 155, 2847-2862
     DOI: 10.1021/acs.jctc.9b00143
   
   for SPH calculations refer to:
   * S. Spicher and S. Grimme, J. Chem. Theory Comput., 2021, 17, 1701-1714
     DOI: 10.1021/acs.jctc.0c01306
   
   for ONIOM refer to:
   * C. Plett, A. Katbashev, S. Ehlert, S. Grimme, M. Bursch,
     Phys. Chem. Chem. Phys., 2023, 25, 17860-17868. DOI: 10.1039/D3CP02178E
   
   for DIPRO refer to:
   * J. Kohn, N. Gildemeister, S. Grimme, D. Fazzi, A. Hansen,
     J. Chem. Phys., 2023, just accepted.
   
   for PTB refer to:
   * S. Grimme, M. Mueller, A. Hansen, J. Chem. Phys., 2023, 158, 124111.
     DOI: 10.1063/5.0137838
   
   with help from (in alphabetical order)
   P. Atkinson, C. Bannwarth, F. Bohle, G. Brandenburg, E. Caldeweyher
   M. Checinski, S. Dohm, S. Ehlert, S. Ehrlich, I. Gerasimov, C. Hölzer
   A. Katbashev, J. Kohn, J. Koopman, C. Lavigne, S. Lehtola, F. März, M. Müller,
   F. Musil, H. Neugebauer, J. Pisarek, C. Plett, P. Pracht, F. Pultar,
   J. Seibert, P. Shushkov, S. Spicher, M. Stahn, M. Steiner, T. Strunk,
   J. Stückrath, T. Rose, and J. Unsleber
   
 * started run on 2026/09/10 at 23:23:53.717     
   ID    Z sym.   atoms
    1    8 O      1, 3, 4, 17, 88, 90, 99, 100
    2   15 P      2
    3    6 C      5-16, 18-37, 59, 60, 62-73, 87, 89, 91-93, 95-98, 101, 102
    4    1 H      38-58, 74-86, 103-117
    5    7 N      61, 94

           -------------------------------------------------
          |                Calculation Setup                |
           -------------------------------------------------

          program call               : C:\Users\HUIWEI\miniconda3\envs\phase2ff\Library\bin\xtb.exe xtbopt.xyz --gfn 2 --chrg 0 --uhf 0 --alpb toluene --acc 0.2 --hess --strict
          coordinate file            : xtbopt.xyz
          omp threads                :                     1


molecular fragmentation (1/2 indicates fragments):
111111111111111111111111111111111111121111111111111111111122222222222222
222222222222222222222222222222222222222222222
# atoms in fragment 1/2:    57    60
 fragment masses (1/2) :      499.47      421.51
CMA distance (Bohr)    :  12.433
constraining FC (au)   :  0.0500

           -------------------------------------------------
          |                 G F N 2 - x T B                 |
           -------------------------------------------------

        Reference                      10.1021/acs.jctc.8b01176
      * Hamiltonian:
        H0-scaling (s, p, d)           1.850000    2.230000    2.230000
        zeta-weighting                 0.500000
      * Dispersion:
        s8                             2.700000
        a1                             0.520000
        a2                             5.000000
        s9                             5.000000
      * Repulsion:
        kExp                           1.500000    1.000000
        rExp                           1.000000
      * Coulomb:
        alpha                          2.000000
        third order                    shell-resolved
        anisotropic                    true
        a3                             3.000000
        a5                             4.000000
        cn-shift                       1.200000
        cn-exp                         4.000000
        max-rad                        5.000000

      * Solvation model:               ALPB
        Solvent                        toluene
        Parameter file                 internal GFN2-xTB/ALPB
        Dielectric constant                7.0000E+00
        Reference state                gsolv [1 M gas/solution]
        Free energy shift                  2.2081E-03 Eh       1.3856E+00 kcal/mol
        Temperature                        2.9815E+02 K
        Density                            8.6700E-01 kg/L
        Solvent mass                       7.8110E+01 g/mol
        Interaction kernel             P16
        Born radius scaling (c1)           1.7172E+00
        Born radii integrator          GBOBC
        Born offset                        0.0000E+00 a0       0.0000E+00 AA
        H-bond correction              false
        Ion screening                  false
        Surface tension                    1.0000E-05 Eh       1.5569E+01 dyn/cm
        Grid points                               230 per atom
q/qsh data taken from xtbrestart
CAMM data taken from xtbrestart

          ...................................................
          :                      SETUP                      :
          :.................................................:
          :  # basis functions                 327          :
          :  # atomic orbitals                 326          :
          :  # shells                          186          :
          :  # electrons                       340          :
          :  max. iterations                   250          :
          :  Hamiltonian                  GFN2-xTB          :
          :  restarted?                       true          :
          :  GBSA solvation                   true          :
          :  PC potential                    false          :
          :  electronic temp.          300.0000000     K    :
          :  accuracy                    0.2000000          :
          :  -> integral cutoff          0.3198970E+02      :
          :  -> integral neglect         0.2000000E-08      :
          :  -> SCF convergence          0.2000000E-06 Eh   :
          :  -> wf. convergence          0.2000000E-04 e    :
          :  Broyden damping             0.4000000          :
          :  net charge                          0          :
          :  unpaired electrons                  0          :
          ...................................................

 iter      E             dE          RMSdq      gap      omega  full diag
   1   -191.2108265 -0.191211E+03  0.245E-06    1.70       0.0  T
   2   -191.2108265  0.312639E-12  0.223E-06    1.70    4137.7  T
   3   -191.2108265  0.653699E-12  0.756E-07    1.70   12221.3  T

   *** convergence criteria satisfied after 3 iterations ***

         #    Occupation            Energy/Eh            Energy/eV
      -------------------------------------------------------------
         1        2.0000           -0.7375618             -20.0701
       ...           ...                  ...                  ...
       164        2.0000           -0.3985601             -10.8454
       165        2.0000           -0.3972516             -10.8098
       166        2.0000           -0.3833095             -10.4304
       167        2.0000           -0.3802571             -10.3473
       168        2.0000           -0.3759531             -10.2302
       169        2.0000           -0.3699907             -10.0680
       170        2.0000           -0.3644008              -9.9159 (HOMO)
       171                         -0.3020651              -8.2196 (LUMO)
       172                         -0.2776564              -7.5554
       173                         -0.2651720              -7.2157
       174                         -0.2542663              -6.9189
       175                         -0.2445647              -6.6549
       ...                                ...                  ...
       326                          1.3026462              35.4468
      -------------------------------------------------------------
                  HL-Gap            0.0623357 Eh            1.6962 eV
             Fermi-level           -0.3332329 Eh           -9.0677 eV

 SCC (total)                   0 d,  0 h,  0 min,  0.350 sec
 SCC setup                      ...        0 min,  0.006 sec (  1.609%)
 Dispersion                     ...        0 min,  0.003 sec (  0.924%)
 classical contributions        ...        0 min,  0.001 sec (  0.275%)
 integral evaluation            ...        0 min,  0.049 sec ( 14.050%)
 iterations                     ...        0 min,  0.067 sec ( 19.258%)
 molecular gradient             ...        0 min,  0.221 sec ( 63.003%)
 printout                       ...        0 min,  0.003 sec (  0.872%)

         :::::::::::::::::::::::::::::::::::::::::::::::::::::
         ::                     SUMMARY                     ::
         :::::::::::::::::::::::::::::::::::::::::::::::::::::
         :: total energy            -188.247370333023 Eh    ::
         :: total w/o Gsasa/hb      -188.170638632409 Eh    ::
         :: gradient norm              0.000062767972 Eh/a0 ::
         :: HOMO-LUMO gap              1.696240981277 eV    ::
         ::.................................................::
         :: SCC energy              -191.199762668826 Eh    ::
         :: -> isotropic ES            0.278358350975 Eh    ::
         :: -> anisotropic ES         -0.033802224211 Eh    ::
         :: -> anisotropic XC          0.083342900706 Eh    ::
         :: -> dispersion             -0.184061965026 Eh    ::
         :: -> Gsolv                  -0.094161391515 Eh    ::
         ::    -> Gelec               -0.017429690901 Eh    ::
         ::    -> Gsasa               -0.078939843752 Eh    ::
         ::    -> Ghb                  0.000000000000 Eh    ::
         ::    -> Gshift               0.002208143139 Eh    ::
         :: repulsion energy           2.952392335803 Eh    ::
         :: add. restraining           0.000000000000 Eh    ::
         :: total charge               0.000000000000 e     ::
         :::::::::::::::::::::::::::::::::::::::::::::::::::::

           ------------------------------------------------- 
          |                Numerical Hessian                |
           ------------------------------------------------- 
step length          :   0.00500
SCC accuracy         :   0.30000
Hessian scale factor :   1.00000
frozen atoms in %    :   0.00000    0
RMS gradient         :   0.00006
estimated CPU  time      1.39 min
estimated wall time      4.68 min

writing file <hessian>.

 projected vibrational frequencies (cm⁻¹)
eigval :       -0.00    -0.00     0.00     0.00     0.00     0.00
eigval :        5.41     9.93    16.82    21.55    23.32    25.53
eigval :       29.70    38.13    41.62    42.84    43.60    47.64
eigval :       50.50    52.57    54.37    58.66    61.60    66.32
eigval :       66.92    67.84    71.00    72.89    77.78    79.71
eigval :       82.12    84.31    91.87    93.54    95.92   100.96
eigval :      109.08   122.69   129.54   134.95   138.12   141.10
eigval :      149.31   151.34   154.73   163.57   172.04   177.38
eigval :      180.64   188.15   196.62   203.40   204.25   211.55
eigval :      228.26   236.47   243.21   255.70   270.24   273.61
eigval :      280.19   282.06   286.97   289.74   299.24   304.65
eigval :      308.23   310.45   318.57   320.80   327.14   332.88
eigval :      342.86   344.22   351.52   369.54   372.62   376.15
eigval :      376.50   379.87   383.31   397.91   414.09   423.72
eigval :      435.06   448.64   448.89   450.56   462.36   468.22
eigval :      480.55   489.52   499.26   503.65   512.79   517.25
eigval :      525.37   527.56   534.39   540.55   542.85   546.20
eigval :      546.53   551.28   561.42   574.48   585.26   587.37
eigval :      588.10   588.51   590.43   608.23   611.50   624.00
eigval :      630.36   632.48   637.19   639.76   661.74   664.53
eigval :      668.89   669.57   672.19   683.09   684.41   695.68
eigval :      703.60   707.52   721.80   725.88   734.25   747.28
eigval :      753.80   761.86   764.93   765.69   771.27   771.64
eigval :      773.69   787.89   789.27   817.80   834.76   838.99
eigval :      851.92   858.86   861.15   864.47   873.98   875.55
eigval :      877.44   879.35   881.21   882.93   904.10   904.64
eigval :      909.79   913.11   913.83   914.86   917.27   924.73
eigval :      925.81   926.71   927.87   928.11   928.66   933.58
eigval :      935.63   936.45   937.12   938.99   958.09   962.22
eigval :      962.93   971.22   972.60   973.24   983.27   992.36
eigval :      995.58  1005.03  1018.80  1029.21  1030.62  1031.06
eigval :     1033.24  1054.34  1067.33  1081.12  1081.79  1083.49
eigval :     1084.44  1084.97  1085.27  1095.04  1096.78  1102.37
eigval :     1118.57  1119.74  1122.02  1122.48  1125.17  1128.05
eigval :     1131.23  1141.74  1151.69  1152.58  1160.76  1161.86
eigval :     1168.98  1178.58  1179.19  1179.55  1181.26  1182.51
eigval :     1183.33  1190.39  1193.79  1198.65  1200.00  1202.21
eigval :     1202.63  1205.40  1208.10  1221.81  1225.94  1228.54
eigval :     1247.35  1250.92  1261.21  1264.40  1270.21  1276.78
eigval :     1278.80  1282.91  1283.35  1284.87  1289.39  1295.55
eigval :     1311.36  1315.55  1316.75  1319.15  1319.84  1323.08
eigval :     1338.42  1345.27  1364.99  1366.97  1381.44  1384.23
eigval :     1387.47  1388.48  1391.53  1393.34  1394.60  1396.87
eigval :     1413.30  1415.93  1422.57  1428.90  1430.43  1432.52
eigval :     1437.18  1440.20  1442.51  1445.53  1447.44  1452.04
eigval :     1452.53  1458.61  1459.54  1459.96  1463.16  1464.87
eigval :     1465.37  1470.50  1473.09  1480.68  1483.86  1488.52
eigval :     1493.43  1546.29  1554.63  1568.78  1576.49  1579.36
eigval :     1580.59  1581.20  1583.01  1586.67  1586.98  1596.35
eigval :     1599.28  1606.53  1607.06  1614.77  1645.91  1649.92
eigval :     1675.67  1690.87  2262.25  2879.28  2964.90  2980.21
eigval :     2982.95  2991.67  2993.61  2997.56  2998.44  3005.00
eigval :     3011.72  3030.62  3032.85  3036.64  3037.92  3047.72
eigval :     3060.16  3062.31  3064.32  3064.93  3066.96  3067.21
eigval :     3068.08  3069.03  3071.16  3072.77  3073.70  3077.40
eigval :     3079.99  3080.01  3083.17  3083.32  3084.25  3087.09
eigval :     3088.30  3089.70  3089.90  3091.20  3092.76  3097.96
eigval :     3100.90  3105.42  3110.20  3111.36  3111.47  3116.21
eigval :     3126.35  3129.88  3414.81
           -------------------------------------------------
          |                Property Printout                |
           -------------------------------------------------

    * Orbital Energies and Occupations

         #    Occupation            Energy/Eh            Energy/eV
      -------------------------------------------------------------
         1        2.0000           -0.7375618             -20.0701
       ...           ...                  ...                  ...
       158        2.0000           -0.4060983             -11.0505
       159        2.0000           -0.4049315             -11.0187
       160        2.0000           -0.4035950             -10.9824
       161        2.0000           -0.4021584             -10.9433
       162        2.0000           -0.4014507             -10.9240
       163        2.0000           -0.3989702             -10.8565
       164        2.0000           -0.3985601             -10.8454
       165        2.0000           -0.3972516             -10.8098
       166        2.0000           -0.3833096             -10.4304
       167        2.0000           -0.3802571             -10.3473
       168        2.0000           -0.3759531             -10.2302
       169        2.0000           -0.3699907             -10.0680
       170        2.0000           -0.3644008              -9.9159 (HOMO)
       171                         -0.3020651              -8.2196 (LUMO)
       172                         -0.2776564              -7.5554
       173                         -0.2651720              -7.2157
       174                         -0.2542663              -6.9189
       175                         -0.2445647              -6.6549
       176                         -0.2387214              -6.4959
       177                         -0.2376822              -6.4677
       178                         -0.2353939              -6.4054
       179                         -0.2338242              -6.3627
       180                         -0.2322085              -6.3187
       181                         -0.2200981              -5.9892
       ...                                ...                  ...
       326                          1.3026462              35.4468
      -------------------------------------------------------------
                  HL-Gap            0.0623357 Eh            1.6962 eV
             Fermi-level           -0.3332329 Eh           -9.0677 eV

     #   Z          covCN         q      C6AA      α(0)
     1   8 O        0.808    -0.571    25.433     6.760
     2  15 P        3.899     0.627   135.282    20.893
     3   8 O        0.833    -0.574    25.500     6.770
     4   8 O        1.661    -0.318    19.323     5.934
     5   6 C        3.304     0.156    22.999     7.670
     6   6 C        2.970    -0.002    28.072     8.691
     7   6 C        2.926    -0.052    29.304     8.877
     8   6 C        2.984     0.006    27.889     8.663
     9   6 C        2.920    -0.038    28.938     8.821
    10   6 C        2.915    -0.033    28.818     8.803
    11   6 C        2.916    -0.032    28.810     8.802
    12   6 C        2.917    -0.036    28.885     8.813
    13   6 C        2.986     0.009    27.805     8.650
    14   6 C        2.973    -0.010    28.261     8.720
    15   6 C        2.973    -0.012    28.304     8.727
    16   6 C        3.066     0.152    24.654     8.142
    17   8 O        1.661    -0.319    19.339     5.937
    18   6 C        2.970    -0.008    28.227     8.715
    19   6 C        2.925    -0.052    29.287     8.875
    20   6 C        2.984     0.005    27.903     8.665
    21   6 C        2.919    -0.036    28.906     8.817
    22   6 C        2.915    -0.033    28.818     8.803
    23   6 C        2.916    -0.032    28.805     8.801
    24   6 C        2.917    -0.035    28.880     8.812
    25   6 C        2.986     0.010    27.776     8.645
    26   6 C        2.978     0.029    27.341     8.577
    27   6 C        2.926    -0.036    28.907     8.817
    28   6 C        2.918    -0.035    28.863     8.810
    29   6 C        2.920    -0.035    28.870     8.811
    30   6 C        2.919    -0.032    28.788     8.799
    31   6 C        2.923    -0.029    28.724     8.789
    32   6 C        2.978     0.021    27.522     8.605
    33   6 C        2.922    -0.031    28.783     8.798
    34   6 C        2.919    -0.030    28.753     8.793
    35   6 C        2.919    -0.034    28.838     8.806
    36   6 C        2.918    -0.033    28.813     8.802
    37   6 C        2.925    -0.038    28.940     8.822
    38   1 H        0.877     0.283     0.766     1.370
    39   1 H        0.925     0.039     2.465     2.455
    40   1 H        0.926     0.035     2.519     2.482
    41   1 H        0.926     0.034     2.532     2.488
    42   1 H        0.926     0.032     2.564     2.504
    43   1 H        0.926     0.030     2.586     2.515
    44   1 H        0.925     0.038     2.469     2.457
    45   1 H        0.926     0.033     2.547     2.496
    46   1 H        0.926     0.032     2.552     2.498
    47   1 H        0.926     0.031     2.574     2.509
    48   1 H        0.926     0.028     2.615     2.529
    49   1 H        0.926     0.043     2.409     2.427
    50   1 H        0.925     0.022     2.710     2.575
    51   1 H        0.926     0.031     2.578     2.511
    52   1 H        0.926     0.030     2.582     2.513
    53   1 H        0.926     0.028     2.610     2.526
    54   1 H        0.926     0.051     2.313     2.378
    55   1 H        0.926     0.027     2.625     2.534
    56   1 H        0.926     0.030     2.583     2.513
    57   1 H        0.926     0.031     2.573     2.508
    58   1 H        0.925     0.028     2.615     2.529
    59   6 C        3.757    -0.130    23.042     6.844
    60   6 C        2.887     0.132    25.106     8.215
    61   7 N        2.697    -0.072    22.641     7.067
    62   6 C        2.913     0.066    26.514     8.444
    63   6 C        2.919    -0.041    29.025     8.835
    64   6 C        2.920    -0.027    28.683     8.783
    65   6 C        2.919    -0.025    28.639     8.776
    66   6 C        2.920    -0.021    28.542     8.761
    67   6 C        2.925    -0.039    28.965     8.826
    68   6 C        2.982     0.009    27.811     8.651
    69   6 C        2.923    -0.021    28.532     8.760
    70   6 C        2.917    -0.027    28.679     8.782
    71   6 C        2.919    -0.020    28.505     8.755
    72   6 C        2.918    -0.020    28.498     8.754
    73   6 C        2.922    -0.019    28.483     8.752
    74   1 H        0.924     0.115     1.651     2.010
    75   1 H        0.925     0.085     1.925     2.170
    76   1 H        0.925     0.080     1.976     2.198
    77   1 H        0.926     0.062     2.179     2.308
    78   1 H        0.926     0.053     2.282     2.362
    79   1 H        0.926     0.050     2.321     2.382
    80   1 H        0.926     0.048     2.348     2.396
    81   1 H        0.926     0.064     2.148     2.292
    82   1 H        0.926     0.067     2.119     2.276
    83   1 H        0.926     0.052     2.296     2.369
    84   1 H        0.926     0.049     2.331     2.388
    85   1 H        0.926     0.048     2.343     2.394
    86   1 H        0.926     0.056     2.244     2.343
    87   6 C        3.651     0.035    20.302     6.472
    88   8 O        1.705    -0.278    18.609     5.824
    89   6 C        2.723     0.346    21.128     7.525
    90   8 O        0.856    -0.464    23.009     6.431
    91   6 C        2.958    -0.067    29.677     8.935
    92   6 C        2.894     0.085    26.110     8.378
    93   6 C        3.758    -0.132    23.093     6.851
    94   7 N        2.718    -0.129    23.797     7.245
    95   6 C        2.891     0.081    26.186     8.390
    96   6 C        3.759    -0.129    23.029     6.842
    97   6 C        2.957    -0.066    29.645     8.931
    98   6 C        2.721     0.349    21.070     7.514
    99   8 O        0.857    -0.472    23.166     6.453
   100   8 O        1.703    -0.272    18.516     5.810
   101   6 C        3.650     0.030    20.385     6.486
   102   6 C        3.823    -0.056    21.566     6.609
   103   1 H        0.925     0.070     2.085     2.258
   104   1 H        0.924     0.057     2.239     2.340
   105   1 H        0.924     0.062     2.177     2.307
   106   1 H        0.925     0.090     1.878     2.143
   107   1 H        0.924     0.068     2.112     2.273
   108   1 H        0.925     0.069     2.099     2.265
   109   1 H        0.860     0.200     1.107     1.648
   110   1 H        0.925     0.080     1.982     2.202
   111   1 H        0.924     0.072     2.063     2.246
   112   1 H        0.924     0.066     2.126     2.280
   113   1 H        0.924     0.056     2.247     2.344
   114   1 H        0.925     0.060     2.205     2.322
   115   1 H        0.924     0.079     1.993     2.208
   116   1 H        0.925     0.069     2.097     2.265
   117   1 H        0.923     0.044     2.394     2.420

 Mol. C6AA /au·bohr⁶  :     183462.580114
 Mol. C8AA /au·bohr⁸  :    4618039.073165
 Mol. α(0) /au        :        681.456757


Wiberg/Mayer (AO) data.
largest (>0.10) Wiberg bond orders for each atom

 ---------------------------------------------------------------------------
     #   Z sym  total        # sym  WBO       # sym  WBO       # sym  WBO
 ---------------------------------------------------------------------------
     1   8 O    1.993 --     2 P    1.754
     2  15 P    5.556 --     1 O    1.754     3 O    1.587     4 O    1.066
                            17 O    1.039
     3   8 O    2.028 --     2 P    1.587    38 H    0.153
     4   8 O    2.292 --     2 P    1.066     5 C    0.983
     5   6 C    3.922 --    14 C    1.456     6 C    1.246     4 O    0.983
     6   6 C    3.987 --     7 C    1.505     5 C    1.246    26 C    1.033
     7   6 C    3.983 --     6 C    1.505     8 C    1.280    39 H    0.966
                            14 C    0.102
     8   6 C    3.988 --     7 C    1.280     9 C    1.279    13 C    1.250
     9   6 C    3.985 --    10 C    1.554     8 C    1.279    40 H    0.968
                            12 C    0.117
    10   6 C    3.987 --     9 C    1.554    11 C    1.323    41 H    0.971
    11   6 C    3.986 --    12 C    1.551    10 C    1.323    42 H    0.971
    12   6 C    3.990 --    11 C    1.551    13 C    1.287    43 H    0.966
                             9 C    0.117
    13   6 C    3.985 --    12 C    1.287     8 C    1.250    14 C    1.236
    14   6 C    3.984 --     5 C    1.456    13 C    1.236    15 C    1.032
                             7 C    0.102
    15   6 C    3.984 --    16 C    1.445    25 C    1.238    14 C    1.032
    16   6 C    3.922 --    15 C    1.445    18 C    1.235    17 O    1.009
    17   8 O    2.306 --     2 P    1.039    16 C    1.009
    18   6 C    3.986 --    19 C    1.512    16 C    1.235    32 C    1.031
    19   6 C    3.984 --    18 C    1.512    20 C    1.277    44 H    0.966
    20   6 C    3.987 --    21 C    1.280    19 C    1.277    25 C    1.251
    21   6 C    3.985 --    22 C    1.553    20 C    1.280    45 H    0.968
                            24 C    0.116
    22   6 C    3.986 --    21 C    1.553    23 C    1.323    46 H    0.971
    23   6 C    3.986 --    24 C    1.551    22 C    1.323    47 H    0.971
    24   6 C    3.990 --    23 C    1.551    25 C    1.285    48 H    0.967
                            21 C    0.116
    25   6 C    3.986 --    24 C    1.285    20 C    1.251    15 C    1.238
    26   6 C    3.988 --    31 C    1.396    27 C    1.391     6 C    1.033
                            29 C    0.107
    27   6 C    3.987 --    28 C    1.450    26 C    1.391    49 H    0.965
                            30 C    0.109
    28   6 C    3.992 --    27 C    1.450    29 C    1.434    50 H    0.969
                            31 C    0.109
    29   6 C    3.988 --    30 C    1.437    28 C    1.434    51 H    0.970
                            26 C    0.107
    30   6 C    3.992 --    31 C    1.447    29 C    1.437    52 H    0.971
                            27 C    0.109
    31   6 C    3.988 --    30 C    1.447    26 C    1.396    53 H    0.970
                            28 C    0.109
    32   6 C    3.988 --    33 C    1.397    37 C    1.393    18 C    1.031
                            35 C    0.107
    33   6 C    3.986 --    34 C    1.445    32 C    1.397    54 H    0.963
                            36 C    0.110
    34   6 C    3.992 --    33 C    1.445    35 C    1.438    55 H    0.971
                            37 C    0.110
    35   6 C    3.988 --    34 C    1.438    36 C    1.434    56 H    0.971
                            32 C    0.107
    36   6 C    3.992 --    37 C    1.450    35 C    1.434    57 H    0.971
                            33 C    0.110
    37   6 C    3.987 --    36 C    1.450    32 C    1.393    58 H    0.970
                            34 C    0.110
    38   1 H    0.920 --    61 N    0.723     3 O    0.153
    39   1 H    0.998 --     7 C    0.966
    40   1 H    0.998 --     9 C    0.968
    41   1 H    0.998 --    10 C    0.971
    42   1 H    0.999 --    11 C    0.971
    43   1 H    0.999 --    12 C    0.966
    44   1 H    0.997 --    19 C    0.966
    45   1 H    0.998 --    21 C    0.968
    46   1 H    0.998 --    22 C    0.971
    47   1 H    0.999 --    23 C    0.971
    48   1 H    0.999 --    24 C    0.967
    49   1 H    0.998 --    27 C    0.965
    50   1 H    0.999 --    28 C    0.969
    51   1 H    0.999 --    29 C    0.970
    52   1 H    0.998 --    30 C    0.971
    53   1 H    0.999 --    31 C    0.970
    54   1 H    0.997 --    33 C    0.963
    55   1 H    0.999 --    34 C    0.971
    56   1 H    0.999 --    35 C    0.971
    57   1 H    0.998 --    36 C    0.971
    58   1 H    0.999 --    37 C    0.970
    59   6 C    3.984 --    60 C    1.046    75 H    0.970    76 H    0.966
                            74 H    0.928
    60   6 C    3.933 --    61 N    1.616    68 C    1.074    59 C    1.046
    61   7 N    3.646 --    60 C    1.616    62 C    1.036    38 H    0.723
    62   6 C    3.955 --    63 C    1.381    67 C    1.368    61 N    1.036
    63   6 C    3.981 --    64 C    1.441    62 C    1.381    77 H    0.961
                            66 C    0.106
    64   6 C    3.990 --    63 C    1.441    65 C    1.440    78 H    0.967
                            67 C    0.110
    65   6 C    3.984 --    64 C    1.440    66 C    1.426    79 H    0.970
    66   6 C    3.990 --    67 C    1.458    65 C    1.426    80 H    0.969
                            63 C    0.106
    67   6 C    3.982 --    66 C    1.458    62 C    1.368    81 H    0.960
                            64 C    0.110
    68   6 C    3.984 --    73 C    1.368    69 C    1.364    60 C    1.074
    69   6 C    3.979 --    70 C    1.460    68 C    1.364    82 H    0.965
                            72 C    0.107
    70   6 C    3.990 --    69 C    1.460    71 C    1.426    83 H    0.969
                            73 C    0.105
    71   6 C    3.984 --    72 C    1.434    70 C    1.426    84 H    0.970
    72   6 C    3.990 --    73 C    1.451    71 C    1.434    85 H    0.966
                            69 C    0.107
    73   6 C    3.984 --    72 C    1.451    68 C    1.368    86 H    0.958
                            70 C    0.105
    74   1 H    0.984 --    59 C    0.928
    75   1 H    0.992 --    59 C    0.970
    76   1 H    0.993 --    59 C    0.966
    77   1 H    0.996 --    63 C    0.961
    78   1 H    0.997 --    64 C    0.967
    79   1 H    0.997 --    65 C    0.970
    80   1 H    0.996 --    66 C    0.969
    81   1 H    0.996 --    67 C    0.960
    82   1 H    0.995 --    69 C    0.965
    83   1 H    0.996 --    70 C    0.969
    84   1 H    0.997 --    71 C    0.970
    85   1 H    0.997 --    72 C    0.966
    86   1 H    0.997 --    73 C    0.958
    87   6 C    3.928 --   103 H    0.981   105 H    0.977   104 H    0.976
                            88 O    0.963
    88   8 O    2.279 --    89 C    1.090    87 C    0.963    90 O    0.151
    89   6 C    3.921 --    90 O    1.654    88 O    1.090    91 C    1.079
    90   8 O    1.987 --    89 C    1.654    88 O    0.151
    91   6 C    3.970 --    92 C    1.614    89 C    1.079   102 C    0.996
    92   6 C    3.966 --    91 C    1.614    94 N    1.152    93 C    1.031
    93   6 C    3.986 --    92 C    1.031   106 H    0.969   108 H    0.963
                           107 H    0.961
    94   7 N    3.505 --    92 C    1.152    95 C    1.144   109 H    0.928
    95   6 C    3.966 --    97 C    1.628    94 N    1.144    96 C    1.028
    96   6 C    3.988 --    95 C    1.028   110 H    0.972   112 H    0.963
                           111 H    0.962
    97   6 C    3.971 --    95 C    1.628    98 C    1.066   102 C    0.994
    98   6 C    3.918 --    99 O    1.647   100 O    1.108    97 C    1.066
    99   8 O    1.974 --    98 C    1.647   100 O    0.152
   100   8 O    2.294 --    98 C    1.108   101 C    0.954    99 O    0.152
   101   6 C    3.921 --   114 H    0.982   113 H    0.977   115 H    0.963
                           100 O    0.954
   102   6 C    3.993 --    91 C    0.996    97 C    0.994   116 H    0.963
                           117 H    0.954
   103   1 H    0.995 --    87 C    0.981
   104   1 H    0.996 --    87 C    0.976
   105   1 H    0.996 --    87 C    0.977
   106   1 H    0.991 --    93 C    0.969
   107   1 H    0.995 --    93 C    0.961
   108   1 H    0.995 --    93 C    0.963
   109   1 H    0.959 --    94 N    0.928
   110   1 H    0.993 --    96 C    0.972
   111   1 H    0.994 --    96 C    0.962
   112   1 H    0.995 --    96 C    0.963
   113   1 H    0.997 --   101 C    0.977
   114   1 H    0.996 --   101 C    0.982
   115   1 H    0.993 --   101 C    0.963
   116   1 H    0.995 --   102 C    0.963
   117   1 H    0.998 --   102 C    0.954
 ---------------------------------------------------------------------------

Topologies differ in total number of bonds
Writing topology from bond orders to xtbtopo.mol

molecular dipole:
                 x           y           z       tot (Debye)
 q only:       -2.916       0.964       3.183
   full:       -2.765       0.488       2.894      10.247
molecular quadrupole (traceless):
                xx          xy          yy          xz          yz          zz
 q only:       21.444      -8.701       4.551     -16.857      30.969     -25.994
  q+dip:       28.331      -7.068      -7.488     -16.794      26.432     -20.843
   full:       24.097      -3.259      -4.594     -17.397      27.332     -19.503

           -------------------------------------------------
          |               Frequency Printout                |
           -------------------------------------------------
 projected vibrational frequencies (cm⁻¹)
eigval :       -0.00    -0.00     0.00     0.00     0.00     0.00
eigval :        5.41     9.93    16.82    21.55    23.32    25.53
eigval :       29.70    38.13    41.62    42.84    43.60    47.64
eigval :       50.50    52.57    54.37    58.66    61.60    66.32
eigval :       66.92    67.84    71.00    72.89    77.78    79.71
eigval :       82.12    84.31    91.87    93.54    95.92   100.96
eigval :      109.08   122.69   129.54   134.95   138.12   141.10
eigval :      149.31   151.34   154.73   163.57   172.04   177.38
eigval :      180.64   188.15   196.62   203.40   204.25   211.55
eigval :      228.26   236.47   243.21   255.70   270.24   273.61
eigval :      280.19   282.06   286.97   289.74   299.24   304.65
eigval :      308.23   310.45   318.57   320.80   327.14   332.88
eigval :      342.86   344.22   351.52   369.54   372.62   376.15
eigval :      376.50   379.87   383.31   397.91   414.09   423.72
eigval :      435.06   448.64   448.89   450.56   462.36   468.22
eigval :      480.55   489.52   499.26   503.65   512.79   517.25
eigval :      525.37   527.56   534.39   540.55   542.85   546.20
eigval :      546.53   551.28   561.42   574.48   585.26   587.37
eigval :      588.10   588.51   590.43   608.23   611.50   624.00
eigval :      630.36   632.48   637.19   639.76   661.74   664.53
eigval :      668.89   669.57   672.19   683.09   684.41   695.68
eigval :      703.60   707.52   721.80   725.88   734.25   747.28
eigval :      753.80   761.86   764.93   765.69   771.27   771.64
eigval :      773.69   787.89   789.27   817.80   834.76   838.99
eigval :      851.92   858.86   861.15   864.47   873.98   875.55
eigval :      877.44   879.35   881.21   882.93   904.10   904.64
eigval :      909.79   913.11   913.83   914.86   917.27   924.73
eigval :      925.81   926.71   927.87   928.11   928.66   933.58
eigval :      935.63   936.45   937.12   938.99   958.09   962.22
eigval :      962.93   971.22   972.60   973.24   983.27   992.36
eigval :      995.58  1005.03  1018.80  1029.21  1030.62  1031.06
eigval :     1033.24  1054.34  1067.33  1081.12  1081.79  1083.49
eigval :     1084.44  1084.97  1085.27  1095.04  1096.78  1102.37
eigval :     1118.57  1119.74  1122.02  1122.48  1125.17  1128.05
eigval :     1131.23  1141.74  1151.69  1152.58  1160.76  1161.86
eigval :     1168.98  1178.58  1179.19  1179.55  1181.26  1182.51
eigval :     1183.33  1190.39  1193.79  1198.65  1200.00  1202.21
eigval :     1202.63  1205.40  1208.10  1221.81  1225.94  1228.54
eigval :     1247.35  1250.92  1261.21  1264.40  1270.21  1276.78
eigval :     1278.80  1282.91  1283.35  1284.87  1289.39  1295.55
eigval :     1311.36  1315.55  1316.75  1319.15  1319.84  1323.08
eigval :     1338.42  1345.27  1364.99  1366.97  1381.44  1384.23
eigval :     1387.47  1388.48  1391.53  1393.34  1394.60  1396.87
eigval :     1413.30  1415.93  1422.57  1428.90  1430.43  1432.52
eigval :     1437.18  1440.20  1442.51  1445.53  1447.44  1452.04
eigval :     1452.53  1458.61  1459.54  1459.96  1463.16  1464.87
eigval :     1465.37  1470.50  1473.09  1480.68  1483.86  1488.52
eigval :     1493.43  1546.29  1554.63  1568.78  1576.49  1579.36
eigval :     1580.59  1581.20  1583.01  1586.67  1586.98  1596.35
eigval :     1599.28  1606.53  1607.06  1614.77  1645.91  1649.92
eigval :     1675.67  1690.87  2262.25  2879.28  2964.90  2980.21
eigval :     2982.95  2991.67  2993.61  2997.56  2998.44  3005.00
eigval :     3011.72  3030.62  3032.85  3036.64  3037.92  3047.72
eigval :     3060.16  3062.31  3064.32  3064.93  3066.96  3067.21
eigval :     3068.08  3069.03  3071.16  3072.77  3073.70  3077.40
eigval :     3079.99  3080.01  3083.17  3083.32  3084.25  3087.09
eigval :     3088.30  3089.70  3089.90  3091.20  3092.76  3097.96
eigval :     3100.90  3105.42  3110.20  3111.36  3111.47  3116.21
eigval :     3126.35  3129.88  3414.81
 reduced masses (amu)
   1: 12.16   2: 12.06   3: 11.79   4: 12.35   5: 12.41   6: 12.30   7: 11.79   8: 11.84
   9: 11.84  10: 11.53  11: 11.42  12: 11.58  13: 11.66  14: 11.60  15: 11.76  16: 11.99
  17: 10.91  18: 11.61  19: 12.03  20: 11.61  21: 11.78  22: 11.64  23: 11.08  24:  9.45
  25: 10.99  26: 11.25  27: 10.50  28: 11.40  29: 11.34  30:  6.17  31: 10.38  32: 10.82
  33: 13.10  34: 11.92  35: 12.40  36: 10.54  37:  2.40  38: 10.79  39:  9.23  40: 12.04
  41: 11.83  42:  3.52  43: 10.46  44: 10.32  45: 10.73  46: 10.91  47: 10.72  48:  5.29
  49:  9.02  50: 10.89  51: 11.08  52: 10.73  53: 11.06  54: 12.71  55: 13.43  56:  2.81
  57: 11.56  58: 11.91  59: 10.54  60: 11.52  61: 10.56  62:  9.53  63: 11.27  64: 12.19
  65: 10.60  66: 11.82  67: 11.06  68: 12.33  69: 11.07  70: 11.07  71: 10.59  72: 11.12
  73: 11.73  74: 12.49  75: 12.05  76: 12.41  77:  9.26  78:  9.28  79:  9.06  80:  9.08
  81: 12.30  82: 12.20  83: 10.99  84: 13.16  85: 11.17  86: 13.79  87: 12.29  88: 12.48
  89: 11.49  90: 13.54  91: 12.80  92: 10.44  93: 10.85  94: 11.05  95: 10.51  96: 12.41
  97: 10.61  98: 11.70  99: 13.46 100: 11.12 101:  9.60 102: 10.99 103: 11.51 104:  9.64
 105: 10.16 106: 12.96 107: 11.62 108: 11.23 109: 11.15 110: 11.37 111: 11.70 112:  6.34
 113: 13.34 114: 11.17 115: 11.40 116: 11.50 117: 12.52 118: 11.71 119: 13.66 120: 10.42
 121: 10.59 122:  9.16 123: 10.19 124: 10.93 125: 10.98 126: 11.77 127: 12.30 128: 13.90
 129: 11.37 130: 11.96 131: 11.42 132: 13.10 133:  5.44 134:  7.82 135:  5.26 136:  6.59
 137:  7.35 138:  5.84 139:  4.52 140:  9.53 141: 12.18 142: 11.67 143: 11.38 144: 11.61
 145: 10.64 146:  3.99 147: 10.99 148:  3.81 149:  3.34 150:  3.85 151:  3.75 152:  3.42
 153:  3.27 154:  3.24 155:  3.88 156:  3.78 157:  3.67 158:  3.81 159:  7.61 160:  3.92
 161:  7.65 162:  7.43 163:  3.14 164:  3.35 165:  3.79 166:  3.16 167:  3.56 168:  3.65
 169:  3.24 170:  3.71 171:  3.24 172:  3.72 173: 11.22 174:  7.38 175:  7.86 176:  9.55
 177:  9.07 178: 10.27 179:  9.33 180: 10.77 181: 11.12 182:  9.95 183:  5.05 184:  9.94
 185:  9.84 186:  5.25 187:  4.77 188: 10.16 189: 11.98 190:  8.20 191:  8.07 192:  6.93
 193:  6.78 194:  6.68 195:  6.70 196:  9.05 197:  6.39 198: 12.17 199:  5.70 200:  5.06
 201:  4.38 202:  4.25 203:  4.12 204:  4.27 205:  8.73 206:  6.50 207:  5.30 208:  7.69
 209:  7.68 210:  6.70 211:  4.63 212:  1.47 213:  2.14 214:  2.06 215:  2.73 216:  1.35
 217:  1.36 218:  7.85 219:  6.73 220:  2.26 221:  6.22 222:  7.47 223:  6.14 224:  4.96
 225:  5.39 226:  8.66 227:  6.68 228:  7.52 229:  5.69 230:  6.50 231:  9.18 232:  7.39
 233: 10.01 234:  5.69 235:  3.58 236:  3.68 237:  4.03 238: 10.47 239:  8.80 240:  6.78
 241: 10.45 242: 10.65 243: 11.63 244: 11.77 245: 10.57 246:  7.69 247:  9.78 248:  4.97
 249:  3.63 250: 10.12 251:  9.61 252:  9.99 253:  3.78 254:  2.81 255:  3.42 256:  5.34
 257: 10.31 258:  6.43 259: 10.92 260: 10.76 261:  8.80 262:  9.02 263:  9.18 264:  8.51
 265:  9.69 266:  1.53 267:  1.58 268:  1.70 269: 10.57 270:  3.74 271:  1.81 272:  1.69
 273:  7.45 274:  2.29 275:  1.61 276:  5.99 277:  3.98 278:  1.54 279:  2.02 280:  9.62
 281:  9.71 282: 10.59 283: 10.73 284: 11.77 285: 11.76 286: 11.42 287: 11.51 288: 11.51
 289: 11.54 290: 11.48 291: 11.59 292: 11.47 293: 11.65 294: 11.47 295: 11.47 296: 11.40
 297: 11.40 298: 11.38 299: 12.50 300: 11.75 301: 13.27 302: 13.18 303:  2.25 304:  1.75
 305:  1.88 306:  1.84 307:  1.49 308:  1.51 309:  1.93 310:  1.89 311:  1.80 312:  1.50
 313:  1.53 314:  1.70 315:  1.79 316:  1.54 317:  1.76 318:  1.82 319:  1.79 320:  1.77
 321:  1.79 322:  1.79 323:  1.77 324:  1.78 325:  1.79 326:  1.80 327:  1.78 328:  1.79
 329:  1.86 330:  1.85 331:  1.78 332:  1.85 333:  1.77 334:  1.87 335:  1.91 336:  1.90
 337:  1.91 338:  1.85 339:  1.74 340:  1.81 341:  1.88 342:  1.88 343:  1.81 344:  1.89
 345:  1.86 346:  1.89 347:  1.72 348:  1.85 349:  1.83 350:  1.84 351:  1.84
 IR intensities (km·mol⁻¹)
   1:  0.14   2:  0.08   3:  0.24   4:  0.06   5:  0.02   6:  0.01   7:  0.03   8:  0.20
   9:  0.26  10:  1.55  11:  1.48  12:  0.45  13:  1.01  14:  0.87  15:  1.26  16:  1.53
  17:  0.40  18:  3.07  19:  3.77  20:  1.46  21:  1.44  22:  2.54  23:  0.21  24:  2.42
  25:  0.37  26:  0.05  27:  1.36  28:  3.74  29:  3.11  30:  1.29  31:  1.75  32:  1.44
  33:  2.57  34:  0.87  35:  9.64  36:  0.78  37:  1.97  38:  0.78  39:  2.90  40:  1.58
  41:  1.52  42:  0.29  43:  0.31  44:  1.94  45:  7.64  46:  1.20  47:  2.84  48:  1.12
  49:  2.22  50:  0.56  51:  0.94  52: 13.04  53: 10.45  54:  9.16  55:  3.32  56:  2.52
  57:  0.93  58:  3.51  59:  1.98  60:  0.67  61:  3.25  62:  4.93  63: 10.39  64: 11.98
  65:  2.79  66: 13.10  67:  6.72  68:  6.31  69:  4.03  70:  0.91  71: 11.65  72:  9.16
  73:  3.69  74:  8.67  75: 12.85  76:  4.95  77:  0.31  78:  1.01  79:  0.95  80:  0.83
  81:  5.42  82:  3.92  83:  6.57  84: 41.04  85:  6.97  86: 30.41  87:  3.24  88: 20.24
  89: 10.28  90: 46.78  91: 63.79  92:  9.43  93:  5.70  94: 62.47  95:  0.97  96:  7.43
  97:  2.71  98: 27.28  99: 54.19 100:  0.51 101: 22.16 102: 20.01 103: 15.69 104:  1.68
 105: 20.31 106: 48.49 107:  9.28 108:  3.74 109:  3.27 110:  2.75 111: 20.48 112: 42.99
 113: 38.52 114: 48.82 115:  1.51 116: 14.46 117: 30.90 118: 10.25 119: 43.73 120:  9.30
 121:  5.24 122: 15.35 123:  4.23 124:  3.99 125: 89.63 126: 63.28 127: 13.26 128: 65.98
 129: 52.48 130: 35.10 131:  8.37 132:208.87 133: 13.09 134: 30.62 135: 21.84 136: 46.72
 137: 20.95 138: 17.35 139:  6.84 140: 15.56 141:  0.85 142:  9.14 143: 98.93 144:  4.52
 145:  1.17 146: 19.94 147: 22.87 148:  9.96 149:  6.07 150:  2.36 151:  1.93 152:  3.16
 153:  0.67 154:  4.36 155:  2.30 156:  0.56 157: 16.02 158:  0.70 159:  1.81 160:  0.22
 161:  5.27 162:  4.89 163:  0.48 164:  0.72 165:  7.59 166:  0.72 167:  0.77 168:  3.75
 169:  1.45 170:  6.38 171:  4.69 172: 27.23 173:272.69 174: 69.91 175: 15.05 176: 82.78
 177: 61.66 178: 44.36 179:142.83 180: 27.02 181:356.72 182: 24.92 183: 96.60 184: 59.94
 185: 72.41 186: 43.20 187: 12.27 188:275.56 189: 97.32 190:  2.80 191:  2.85 192:  0.18
 193:  0.59 194:  1.31 195:  0.60 196:  3.38 197:  4.02 198:374.19 199:113.50 200: 46.30
 201:  1.75 202:  2.58 203: 11.81 204:  2.38 205:187.07 206:142.33 207:  7.22 208: 50.74
 209:273.34 210: 38.55 211:  4.86 212:  0.70 213: 13.50 214:  7.20 215: 16.32 216:  0.95
 217:  2.07 218:115.95 219: 97.09 220:  2.51 221:140.16 222:101.47 223:123.03 224:  4.56
 225: 11.61 226:136.69 227:113.71 228:114.32 229:  3.56 230:  7.95 231:114.39 232:129.61
 233:  3.21 234: 14.05 235:  3.83 236:  0.60 237: 11.70 238:164.78 239:  4.26 240: 39.18
 241:  2.29 242:  2.69 243: 13.97 244:  3.99 245:  0.69 246: 14.23 247: 10.62 248: 59.57
 249: 57.28 250: 29.59 251: 26.05 252:  1.82 253:173.17 254:  4.80 255: 31.32 256:207.17
 257:  6.08 258:211.36 259:101.75 260: 75.33 261:  6.89 262:  3.52 263:  1.97 264:  2.07
 265:  2.07 266:  6.26 267:  6.32 268: 15.12 269: 40.69 270:  9.05 271:  7.53 272:  5.52
 273: 33.96 274:  3.22 275: 11.48 276:  9.91 277: 16.72 278: 18.79 279:  4.80 280: 11.13
 281:  4.54 282:  0.69 283:  0.32 284:  5.71 285:  1.24 286:  8.85 287: 12.41 288: 17.28
 289:  2.90 290: 45.26 291: 12.01 292: 14.60 293:  7.95 294:  3.77 295:  5.37 296:  0.62
 297:  1.30 298:287.26 299:290.28 300:459.66 301:427.69 302:435.71 303:****** 304: 62.17
 305: 22.43 306: 17.36 307: 31.41 308: 25.97 309: 14.49 310: 13.15 311:  3.43 312: 14.39
 313: 16.79 314:  8.53 315: 12.89 316:  1.99 317: 12.51 318:  8.42 319: 39.71 320: 16.57
 321:  1.06 322:  0.70 323: 13.66 324: 47.43 325:  7.70 326: 29.08 327: 21.54 328: 37.42
 329:111.31 330: 76.94 331:  2.65 332:153.18 333:  6.55 334:121.47 335:118.81 336: 99.73
 337: 75.26 338: 41.76 339:  5.10 340: 23.82 341: 61.33 342: 41.66 343:  5.43 344: 13.48
 345: 12.98 346: 12.44 347:  0.97 348:  4.58 349:  8.82 350:  1.46 351: 61.15
 Raman intensities (Ä⁴*amu⁻¹)
   1:  0.00   2:  0.00   3:  0.00   4:  0.00   5:  0.00   6:  0.00   7:  0.00   8:  0.00
   9:  0.00  10:  0.00  11:  0.00  12:  0.00  13:  0.00  14:  0.00  15:  0.00  16:  0.00
  17:  0.00  18:  0.00  19:  0.00  20:  0.00  21:  0.00  22:  0.00  23:  0.00  24:  0.00
  25:  0.00  26:  0.00  27:  0.00  28:  0.00  29:  0.00  30:  0.00  31:  0.00  32:  0.00
  33:  0.00  34:  0.00  35:  0.00  36:  0.00  37:  0.00  38:  0.00  39:  0.00  40:  0.00
  41:  0.00  42:  0.00  43:  0.00  44:  0.00  45:  0.00  46:  0.00  47:  0.00  48:  0.00
  49:  0.00  50:  0.00  51:  0.00  52:  0.00  53:  0.00  54:  0.00  55:  0.00  56:  0.00
  57:  0.00  58:  0.00  59:  0.00  60:  0.00  61:  0.00  62:  0.00  63:  0.00  64:  0.00
  65:  0.00  66:  0.00  67:  0.00  68:  0.00  69:  0.00  70:  0.00  71:  0.00  72:  0.00
  73:  0.00  74:  0.00  75:  0.00  76:  0.00  77:  0.00  78:  0.00  79:  0.00  80:  0.00
  81:  0.00  82:  0.00  83:  0.00  84:  0.00  85:  0.00  86:  0.00  87:  0.00  88:  0.00
  89:  0.00  90:  0.00  91:  0.00  92:  0.00  93:  0.00  94:  0.00  95:  0.00  96:  0.00
Refinement of some symmetry elements was terminated before convergence was reached.
Some symmetry elements may remain unidentified.
Molecule has no symmetry elements
It seems to be the C1 point group
  97:  0.00  98:  0.00  99:  0.00 100:  0.00 101:  0.00 102:  0.00 103:  0.00 104:  0.00
 105:  0.00 106:  0.00 107:  0.00 108:  0.00 109:  0.00 110:  0.00 111:  0.00 112:  0.00
 113:  0.00 114:  0.00 115:  0.00 116:  0.00 117:  0.00 118:  0.00 119:  0.00 120:  0.00
 121:  0.00 122:  0.00 123:  0.00 124:  0.00 125:  0.00 126:  0.00 127:  0.00 128:  0.00
 129:  0.00 130:  0.00 131:  0.00 132:  0.00 133:  0.00 134:  0.00 135:  0.00 136:  0.00
 137:  0.00 138:  0.00 139:  0.00 140:  0.00 141:  0.00 142:  0.00 143:  0.00 144:  0.00
 145:  0.00 146:  0.00 147:  0.00 148:  0.00 149:  0.00 150:  0.00 151:  0.00 152:  0.00
 153:  0.00 154:  0.00 155:  0.00 156:  0.00 157:  0.00 158:  0.00 159:  0.00 160:  0.00
 161:  0.00 162:  0.00 163:  0.00 164:  0.00 165:  0.00 166:  0.00 167:  0.00 168:  0.00
 169:  0.00 170:  0.00 171:  0.00 172:  0.00 173:  0.00 174:  0.00 175:  0.00 176:  0.00
 177:  0.00 178:  0.00 179:  0.00 180:  0.00 181:  0.00 182:  0.00 183:  0.00 184:  0.00
 185:  0.00 186:  0.00 187:  0.00 188:  0.00 189:  0.00 190:  0.00 191:  0.00 192:  0.00
 193:  0.00 194:  0.00 195:  0.00 196:  0.00 197:  0.00 198:  0.00 199:  0.00 200:  0.00
 201:  0.00 202:  0.00 203:  0.00 204:  0.00 205:  0.00 206:  0.00 207:  0.00 208:  0.00
 209:  0.00 210:  0.00 211:  0.00 212:  0.00 213:  0.00 214:  0.00 215:  0.00 216:  0.00
 217:  0.00 218:  0.00 219:  0.00 220:  0.00 221:  0.00 222:  0.00 223:  0.00 224:  0.00
 225:  0.00 226:  0.00 227:  0.00 228:  0.00 229:  0.00 230:  0.00 231:  0.00 232:  0.00
 233:  0.00 234:  0.00 235:  0.00 236:  0.00 237:  0.00 238:  0.00 239:  0.00 240:  0.00
 241:  0.00 242:  0.00 243:  0.00 244:  0.00 245:  0.00 246:  0.00 247:  0.00 248:  0.00
 249:  0.00 250:  0.00 251:  0.00 252:  0.00 253:  0.00 254:  0.00 255:  0.00 256:  0.00
 257:  0.00 258:  0.00 259:  0.00 260:  0.00 261:  0.00 262:  0.00 263:  0.00 264:  0.00
 265:  0.00 266:  0.00 267:  0.00 268:  0.00 269:  0.00 270:  0.00 271:  0.00 272:  0.00
 273:  0.00 274:  0.00 275:  0.00 276:  0.00 277:  0.00 278:  0.00 279:  0.00 280:  0.00
 281:  0.00 282:  0.00 283:  0.00 284:  0.00 285:  0.00 286:  0.00 287:  0.00 288:  0.00
 289:  0.00 290:  0.00 291:  0.00 292:  0.00 293:  0.00 294:  0.00 295:  0.00 296:  0.00
 297:  0.00 298:  0.00 299:  0.00 300:  0.00 301:  0.00 302:  0.00 303:  0.00 304:  0.00
 305:  0.00 306:  0.00 307:  0.00 308:  0.00 309:  0.00 310:  0.00 311:  0.00 312:  0.00
 313:  0.00 314:  0.00 315:  0.00 316:  0.00 317:  0.00 318:  0.00 319:  0.00 320:  0.00
 321:  0.00 322:  0.00 323:  0.00 324:  0.00 325:  0.00 326:  0.00 327:  0.00 328:  0.00
 329:  0.00 330:  0.00 331:  0.00 332:  0.00 333:  0.00 334:  0.00 335:  0.00 336:  0.00
 337:  0.00 338:  0.00 339:  0.00 340:  0.00 341:  0.00 342:  0.00 343:  0.00 344:  0.00
 345:  0.00 346:  0.00 347:  0.00 348:  0.00 349:  0.00 350:  0.00 351:  0.00
 output can be read by thermo (or use thermo option).
 writing <g98.out> molden fake output.
 recommended (thermochemical) frequency scaling factor: 1.0
           -------------------------------------------------
          |             Thermodynamic Functions             |
           -------------------------------------------------

c1  symmetry found (for desy threshold:  0.10E+00) used in thermo

          ...................................................
          :                      SETUP                      :
          :.................................................:
          :  # frequencies                         345      :
          :  # imaginary freq.                       0      :
          :  linear?                             false      :
          :  only rotor calc.                    false      :
          :  symmetry                               c1      :
          :  rotational number                       1      :
          :  scaling factor                  1.0000000      :
          :  rotor cutoff                   50.0000000 cm⁻¹ :
          :  imag. cutoff                  -20.0000000 cm⁻¹ :
          :.................................................:

    mode    ω/cm⁻¹     T·S(HO)/kcal·mol⁻¹    T·S(FR)/kcal·mol⁻¹   T·S(vib)
   ------------------------------------------------------------------------
       1      5.41    -2.75198 (  0.01%)    -1.71505 ( 99.99%)    -1.71519
       2      9.93    -2.39249 (  0.16%)    -1.53530 ( 99.84%)    -1.53664
       3     16.82    -2.08043 (  1.27%)    -1.37923 ( 98.73%)    -1.38810
       4     21.55    -1.93373 (  3.34%)    -1.30583 ( 96.66%)    -1.32679
       5     23.32    -1.88717 (  4.52%)    -1.28253 ( 95.48%)    -1.30983
       6     25.53    -1.83356 (  6.36%)    -1.25570 ( 93.64%)    -1.29246
       7     29.70    -1.74407 ( 11.07%)    -1.21089 ( 88.93%)    -1.26989
       8     38.13    -1.59626 ( 25.28%)    -1.13682 ( 74.72%)    -1.25295
       9     41.62    -1.54460 ( 32.43%)    -1.11091 ( 67.57%)    -1.25155
      10     42.84    -1.52746 ( 35.02%)    -1.10231 ( 64.98%)    -1.25121
      11     43.60    -1.51709 ( 36.64%)    -1.09711 ( 63.36%)    -1.25099
      12     47.64    -1.46484 ( 45.18%)    -1.07088 ( 54.82%)    -1.24885
      13     50.50    -1.43039 ( 51.00%)    -1.05357 ( 49.00%)    -1.24576
      14     52.57    -1.40677 ( 54.99%)    -1.04170 ( 45.01%)    -1.24246
      15     54.37    -1.38691 ( 58.30%)    -1.03172 ( 41.70%)    -1.23881
      16     58.66    -1.34223 ( 65.45%)    -1.00924 ( 34.55%)    -1.22717
      17     61.60    -1.31346 ( 69.73%)    -0.99475 ( 30.27%)    -1.21698
      18     66.32    -1.27000 ( 75.59%)    -0.97285 ( 24.41%)    -1.19745
      19     66.92    -1.26473 ( 76.24%)    -0.97019 ( 23.76%)    -1.19475
      20     67.84    -1.25672 ( 77.22%)    -0.96615 ( 22.78%)    -1.19051
      21     71.00    -1.23003 ( 80.26%)    -0.95268 ( 19.74%)    -1.17527
      22     72.89    -1.21456 ( 81.87%)    -0.94487 ( 18.13%)    -1.16568
      23     77.78    -1.17657 ( 85.41%)    -0.92567 ( 14.59%)    -1.13997
      24     79.71    -1.16217 ( 86.60%)    -0.91838 ( 13.40%)    -1.12949
      25     82.12    -1.14477 ( 87.92%)    -0.90957 ( 12.08%)    -1.11635
      26     84.31    -1.12938 ( 88.99%)    -0.90177 ( 11.01%)    -1.10433
      27     91.87    -1.07924 ( 91.93%)    -0.87632 (  8.07%)    -1.06288
      28     93.54    -1.06873 ( 92.45%)    -0.87098 (  7.55%)    -1.05381
      29     95.92    -1.05412 ( 93.12%)    -0.86354 (  6.88%)    -1.04102
      30    100.96    -1.02438 ( 94.32%)    -0.84839 (  5.68%)    -1.01439
      31    109.08    -0.97950 ( 95.77%)    -0.82547 (  4.23%)    -0.97299
      32    122.69    -0.91160 ( 97.32%)    -0.79063 (  2.68%)    -0.90835
      33    129.54    -0.88041 ( 97.83%)    -0.77454 (  2.17%)    -0.87811
      34    134.95    -0.85697 ( 98.15%)    -0.76242 (  1.85%)    -0.85522
      35    138.12    -0.84370 ( 98.31%)    -0.75554 (  1.69%)    -0.84221
      36    141.10    -0.83150 ( 98.45%)    -0.74921 (  1.55%)    -0.83022
      37    149.31    -0.79934 ( 98.76%)    -0.73246 (  1.24%)    -0.79851
      38    151.34    -0.79167 ( 98.82%)    -0.72846 (  1.18%)    -0.79093
      39    154.73    -0.77915 ( 98.92%)    -0.72190 (  1.08%)    -0.77853
      40    163.57    -0.74780 ( 99.13%)    -0.70544 (  0.87%)    -0.74743
      41    172.04    -0.71944 ( 99.29%)    -0.69047 (  0.71%)    -0.71924
      42    177.38    -0.70238 ( 99.37%)    -0.68142 (  0.63%)    -0.70224
      43    180.64    -0.69223 ( 99.42%)    -0.67603 (  0.58%)    -0.69214
      44    188.15    -0.66963 ( 99.50%)    -0.66396 (  0.50%)    -0.66960
      45    196.62    -0.64535 ( 99.58%)    -0.65092 (  0.42%)    -0.64537
      46    203.40    -0.62673 ( 99.64%)    -0.64087 (  0.36%)    -0.62679
      47    204.25    -0.62446 ( 99.64%)    -0.63964 (  0.36%)    -0.62451
      48    211.55    -0.60532 ( 99.69%)    -0.62924 (  0.31%)    -0.60540
      49    228.26    -0.56427 ( 99.77%)    -0.60672 (  0.23%)    -0.56437
      50    236.47    -0.54540 ( 99.80%)    -0.59625 (  0.20%)    -0.54550
      51    243.21    -0.53050 ( 99.82%)    -0.58793 (  0.18%)    -0.53060
      52    255.70    -0.50415 ( 99.85%)    -0.57308 (  0.15%)    -0.50425
Note: The following floating-point exceptions are signalling: IEEE_DIVIDE_BY_ZERO IEEE_UNDERFLOW_FLAG IEEE_DENORMAL
normal termination of xtb
      53    270.24    -0.47545 ( 99.88%)    -0.55670 (  0.12%)    -0.47554
      54    273.61    -0.46907 ( 99.89%)    -0.55303 (  0.11%)    -0.46917
      55    280.19    -0.45691 ( 99.90%)    -0.54599 (  0.10%)    -0.45700
      56    282.06    -0.45353 ( 99.90%)    -0.54402 (  0.10%)    -0.45361
      57    286.97    -0.44476 ( 99.91%)    -0.53890 (  0.09%)    -0.44485
      58    289.74    -0.43992 ( 99.91%)    -0.53607 (  0.09%)    -0.44000
      59    299.24    -0.42371 ( 99.92%)    -0.52650 (  0.08%)    -0.42379
   ------------------------------------------------------------------------

   temp. (K)  partition function   enthalpy   heat capacity  entropy
                                   cal/mol     cal/K/mol   cal/K/mol   J/K/mol
 298.15  VIB  0.950E+31            37999.784    224.019    244.400
         ROT  0.146E+09              888.752      2.981     40.341
         INT  0.139E+40            38888.536    227.000    284.742
         TR   0.270E+29             1481.254      4.968     46.315
         TOT                       40369.7901   231.9680   331.0567  1385.1413

       T/K    H(0)-H(T)+PV         H(T)/Eh          T*S/Eh         G(T)/Eh
   ------------------------------------------------------------------------
    298.15    0.643334E-01    0.964715E+00    0.157296E+00    0.807419E+00
   ------------------------------------------------------------------------

         :::::::::::::::::::::::::::::::::::::::::::::::::::::
         ::                  THERMODYNAMIC                  ::
         :::::::::::::::::::::::::::::::::::::::::::::::::::::
         :: total free energy        -187.439951121491 Eh   ::
         ::.................................................::
         :: total energy             -188.247370329790 Eh   ::
         :: zero point energy           0.900381582674 Eh   ::
         :: G(RRHO) w/o ZPVE           -0.092962374375 Eh   ::
         :: G(RRHO) contrib.            0.807419208299 Eh   ::
         :::::::::::::::::::::::::::::::::::::::::::::::::::::

           -------------------------------------------------
          | TOTAL ENERGY             -188.247370329790 Eh   |
          | TOTAL ENTHALPY           -187.282655391657 Eh   |
          | TOTAL FREE ENERGY        -187.439951121491 Eh   |
          | GRADIENT NORM               0.000062775857 Eh/α |
          | HOMO-LUMO GAP               1.696240856675 eV   |
           -------------------------------------------------

------------------------------------------------------------------------
 * finished run on 2026/09/10 at 23:29:48.270     
------------------------------------------------------------------------
 total:
 * wall-time:     0 d,  0 h,  5 min, 54.553 sec
 *  cpu-time:     0 d,  0 h,  1 min, 11.047 sec
 * ratio c/w:     0.200 speedup
 SCF:
 * wall-time:     0 d,  0 h,  0 min,  0.352 sec
 *  cpu-time:     0 d,  0 h,  0 min,  0.062 sec
 * ratio c/w:     0.177 speedup
 analytical hessian:
 * wall-time:     0 d,  0 h,  5 min, 53.871 sec
 *  cpu-time:     0 d,  0 h,  1 min, 10.953 sec
 * ratio c/w:     0.201 speedup

