      -----------------------------------------------------------      
     |                   =====================                   |     
     |                           x T B                           |     
     |                   =====================                   |     
     |                         S. Grimme                         |     
     |          Mulliken Center for Theoretical Chemistry        |     
     |                    University of Bonn                     |     
      -----------------------------------------------------------      

   * xtb version 6.7.1 (edcfbbe) compiled by 'VssAdministrator@runnervm171ch' on 2026-06-10

   xtb is free software: you can redistribute it and/or modify it under
   the terms of the GNU Lesser General Public License as published by
   the Free Software Foundation, either version 3 of the License, or
   (at your option) any later version.
   
   xtb is distributed in the hope that it will be useful,
   but WITHOUT ANY WARRANTY; without even the implied warranty of
   MERCHANTABILITY or FITNESS FOR A PARTICULAR PURPOSE.  See the
   GNU Lesser General Public License for more details.
   
   Cite this work as:
   * C. Bannwarth, E. Caldeweyher, S. Ehlert, A. Hansen, P. Pracht,
     J. Seibert, S. Spicher, S. Grimme, WIREs Comput. Mol. Sci., 2020, 11,
     e01493. DOI: 10.1002/wcms.1493
   
   for GFN2-xTB:
   * C. Bannwarth, S. Ehlert and S. Grimme., J. Chem. Theory Comput., 2019,
     15, 1652-1671. DOI: 10.1021/acs.jctc.8b01176
   for GFN1-xTB:
   * S. Grimme, C. Bannwarth, P. Shushkov, J. Chem. Theory Comput., 2017,
     13, 1989-2009. DOI: 10.1021/acs.jctc.7b00118
   for GFN0-xTB:
   * P. Pracht, E. Caldeweyher, S. Ehlert, S. Grimme, ChemRxiv, 2019, preprint.
     DOI: 10.26434/chemrxiv.8326202.v1
   for GFN-FF:
   * S. Spicher and S. Grimme, Angew. Chem. Int. Ed., 2020, 59, 15665-15673.
     DOI: 10.1002/anie.202004239
   
   for ALPB and GBSA implicit solvation:
   * S. Ehlert, M. Stahn, S. Spicher, S. Grimme, J. Chem. Theory Comput.,
     2021, 17, 4250-4261. DOI: 10.1021/acs.jctc.1c00471
   
   for ddCOSMO and CPCM-X implicit solvation:
   * M. Stahn, S. Ehlert, S. Grimme, J. Phys. Chem. A,
     2023, XX, XXXX-XXXX. DOI: 10.1021/acs.jpca.3c04382
   
   for DFT-D4:
   * E. Caldeweyher, C. Bannwarth and S. Grimme, J. Chem. Phys., 2017,
     147, 034112. DOI: 10.1063/1.4993215
   * E. Caldeweyher, S. Ehlert, A. Hansen, H. Neugebauer, S. Spicher,
     C. Bannwarth and S. Grimme, J. Chem. Phys., 2019, 150, 154122.
     DOI: 10.1063/1.5090222
   * E. Caldeweyher, J.-M. Mewes, S. Ehlert and S. Grimme, Phys. Chem. Chem. Phys.
     2020, 22, 8499-8512. DOI: 10.1039/D0CP00502A
   
   for sTDA-xTB:
   * S. Grimme and C. Bannwarth, J. Chem. Phys., 2016, 145, 054103.
     DOI: 10.1063/1.4959605
   
   in the mass-spec context:
   * V. Asgeirsson, C. Bauer and S. Grimme, Chem. Sci., 2017, 8, 4879.
     DOI: 10.1039/c7sc00601b
   * J. Koopman and S. Grimme, ACS Omega 2019, 4, 12, 15120-15133.
     DOI: 10.1021/acsomega.9b02011
   
   for metadynamics refer to:
   * S. Grimme, J. Chem. Theory Comput., 2019, 155, 2847-2862
     DOI: 10.1021/acs.jctc.9b00143
   
   for SPH calculations refer to:
   * S. Spicher and S. Grimme, J. Chem. Theory Comput., 2021, 17, 1701-1714
     DOI: 10.1021/acs.jctc.0c01306
   
   for ONIOM refer to:
   * C. Plett, A. Katbashev, S. Ehlert, S. Grimme, M. Bursch,
     Phys. Chem. Chem. Phys., 2023, 25, 17860-17868. DOI: 10.1039/D3CP02178E
   
   for DIPRO refer to:
   * J. Kohn, N. Gildemeister, S. Grimme, D. Fazzi, A. Hansen,
     J. Chem. Phys., 2023, just accepted.
   
   for PTB refer to:
   * S. Grimme, M. Mueller, A. Hansen, J. Chem. Phys., 2023, 158, 124111.
     DOI: 10.1063/5.0137838
   
   with help from (in alphabetical order)
   P. Atkinson, C. Bannwarth, F. Bohle, G. Brandenburg, E. Caldeweyher
   M. Checinski, S. Dohm, S. Ehlert, S. Ehrlich, I. Gerasimov, C. Hölzer
   A. Katbashev, J. Kohn, J. Koopman, C. Lavigne, S. Lehtola, F. März, M. Müller,
   F. Musil, H. Neugebauer, J. Pisarek, C. Plett, P. Pracht, F. Pultar,
   J. Seibert, P. Shushkov, S. Spicher, M. Stahn, M. Steiner, T. Strunk,
   J. Stückrath, T. Rose, and J. Unsleber
   
 * started run on 2026/09/10 at 23:22:29.541     
   ID    Z sym.   atoms
    1    8 O      1, 3, 4, 17, 88, 90, 99, 100
    2   15 P      2
    3    6 C      5-16, 18-37, 59, 60, 62-73, 87, 89, 91-93, 95-98, 101, 102
    4    1 H      38-58, 74-86, 103-117
    5    7 N      61, 94

           -------------------------------------------------
          |                Calculation Setup                |
           -------------------------------------------------

          program call               : C:\Users\HUIWEI\miniconda3\envs\phase2ff\Library\bin\xtb.exe input.xyz --gfn 2 --chrg 0 --uhf 0 --alpb toluene --acc 0.2 --opt vtight
          coordinate file            : input.xyz
          omp threads                :                     1


           -------------------------------------------------
          |                 G F N 2 - x T B                 |
           -------------------------------------------------

        Reference                      10.1021/acs.jctc.8b01176
      * Hamiltonian:
        H0-scaling (s, p, d)           1.850000    2.230000    2.230000
        zeta-weighting                 0.500000
      * Dispersion:
        s8                             2.700000
        a1                             0.520000
        a2                             5.000000
        s9                             5.000000
      * Repulsion:
        kExp                           1.500000    1.000000
        rExp                           1.000000
      * Coulomb:
        alpha                          2.000000
        third order                    shell-resolved
        anisotropic                    true
        a3                             3.000000
        a5                             4.000000
        cn-shift                       1.200000
        cn-exp                         4.000000
        max-rad                        5.000000

      * Solvation model:               ALPB
        Solvent                        toluene
        Parameter file                 internal GFN2-xTB/ALPB
        Dielectric constant                7.0000E+00
        Reference state                gsolv [1 M gas/solution]
        Free energy shift                  2.2081E-03 Eh       1.3856E+00 kcal/mol
        Temperature                        2.9815E+02 K
        Density                            8.6700E-01 kg/L
        Solvent mass                       7.8110E+01 g/mol
        Interaction kernel             P16
        Born radius scaling (c1)           1.7172E+00
        Born radii integrator          GBOBC
        Born offset                        0.0000E+00 a0       0.0000E+00 AA
        H-bond correction              false
        Ion screening                  false
        Surface tension                    1.0000E-05 Eh       1.5569E+01 dyn/cm
        Grid points                               230 per atom

          ...................................................
          :                      SETUP                      :
          :.................................................:
          :  # basis functions                 327          :
          :  # atomic orbitals                 326          :
          :  # shells                          186          :
          :  # electrons                       340          :
          :  max. iterations                   250          :
          :  Hamiltonian                  GFN2-xTB          :
          :  restarted?                      false          :
          :  GBSA solvation                   true          :
          :  PC potential                    false          :
          :  electronic temp.          300.0000000     K    :
          :  accuracy                    0.2000000          :
          :  -> integral cutoff          0.3198970E+02      :
          :  -> integral neglect         0.2000000E-08      :
          :  -> SCF convergence          0.2000000E-06 Eh   :
          :  -> wf. convergence          0.2000000E-04 e    :
          :  Broyden damping             0.4000000          :
          :  net charge                          0          :
          :  unpaired electrons                  0          :
          ...................................................

 iter      E             dE          RMSdq      gap      omega  full diag
   1   -189.7050996 -0.189705E+03  0.469E+00    0.22       0.0  T
   2   -189.5975848  0.107515E+00  0.332E+00    0.03       1.0  T
   3   -187.2517380  0.234585E+01  0.288E+00    0.60       1.0  T
   4   -188.3904057 -0.113867E+01  0.239E+00    0.23       1.0  T
   5   -190.1445789 -0.175417E+01  0.115E+00    0.36       1.0  T
   6   -190.2398112 -0.952323E-01  0.589E-01    0.24       1.0  T
   7   -190.2540795 -0.142683E-01  0.574E-01    0.27       1.0  T
   8   -190.2794847 -0.254051E-01  0.364E-01    0.12       1.0  T
   9   -190.2874456 -0.796090E-02  0.248E-01    0.36       1.0  T
  10   -190.2910011 -0.355558E-02  0.139E-01    0.25       1.0  T
  11   -190.2925733 -0.157213E-02  0.975E-02    0.19       1.0  T
  12   -190.2935351 -0.961801E-03  0.469E-02    0.17       1.0  T
  13   -190.2937031 -0.168062E-03  0.224E-02    0.17       1.0  T
  14   -190.2937076 -0.442646E-05  0.207E-02    0.19       1.0  T
  15   -190.2937688 -0.612240E-04  0.919E-03    0.17       1.0  T
  16   -190.2937823 -0.134841E-04  0.349E-03    0.17       2.7  T
  17   -190.2937836 -0.137963E-05  0.128E-03    0.17       7.3  T
  18   -190.2937838 -0.131327E-06  0.626E-04    0.17      14.8  T
  19   -190.2937838 -0.652361E-08  0.436E-04    0.17      21.2  T
  20   -190.2937838 -0.223404E-07  0.185E-04    0.17      50.0  T
  21   -190.2937838 -0.446590E-09  0.106E-04    0.17      87.4  T

   *** convergence criteria satisfied after 21 iterations ***

         #    Occupation            Energy/Eh            Energy/eV
      -------------------------------------------------------------
         1        2.0000           -0.7969068             -21.6849
       ...           ...                  ...                  ...
       164        2.0000           -0.4169674             -11.3463
       165        2.0000           -0.4066072             -11.0643
       166        2.0000           -0.4045057             -11.0072
       167        2.0000           -0.3915446             -10.6545
       168        2.0000           -0.3904844             -10.6256
       169        2.0000           -0.3654264              -9.9438
       170        1.9320           -0.3205039              -8.7214 (HOMO)
       171        0.0680           -0.3141440              -8.5483 (LUMO)
       172        0.0000           -0.3072003              -8.3593
       173        0.0000           -0.3038035              -8.2669
       174                         -0.2860989              -7.7851
       175                         -0.2793757              -7.6022
       ...                                ...                  ...
       326                          1.1817113              32.1560
      -------------------------------------------------------------
                  HL-Gap            0.0063599 Eh            0.1731 eV
             Fermi-level           -0.3173243 Eh           -8.6348 eV

 SCC (total)                   0 d,  0 h,  0 min,  0.785 sec
 SCC setup                      ...        0 min,  0.006 sec (  0.797%)
 Dispersion                     ...        0 min,  0.004 sec (  0.455%)
 classical contributions        ...        0 min,  0.001 sec (  0.131%)
 integral evaluation            ...        0 min,  0.059 sec (  7.511%)
 iterations                     ...        0 min,  0.482 sec ( 61.372%)
 molecular gradient             ...        0 min,  0.231 sec ( 29.366%)
 printout                       ...        0 min,  0.003 sec (  0.365%)

         :::::::::::::::::::::::::::::::::::::::::::::::::::::
         ::                     SUMMARY                     ::
         :::::::::::::::::::::::::::::::::::::::::::::::::::::
         :: total energy            -187.359991711069 Eh    ::
         :: total w/o Gsasa/hb      -187.287926051997 Eh    ::
         :: gradient norm              0.638175067155 Eh/a0 ::
         :: HOMO-LUMO gap              0.173061618639 eV    ::
         ::.................................................::
         :: SCC energy              -190.283078322673 Eh    ::
         :: -> isotropic ES            0.284895889160 Eh    ::
         :: -> anisotropic ES         -0.001717380558 Eh    ::
         :: -> anisotropic XC          0.084785140822 Eh    ::
         :: -> dispersion             -0.187501795272 Eh    ::
         :: -> Gsolv                  -0.101773186372 Eh    ::
         ::    -> Gelec               -0.029707527300 Eh    ::
         ::    -> Gsasa               -0.074273802210 Eh    ::
         ::    -> Ghb                  0.000000000000 Eh    ::
         ::    -> Gshift               0.002208143139 Eh    ::
         :: repulsion energy           2.923086611605 Eh    ::
         :: add. restraining           0.000000000000 Eh    ::
         :: total charge              -0.000000000002 e     ::
         :::::::::::::::::::::::::::::::::::::::::::::::::::::

      ----------------------------------------------------------- 
     |                   =====================                   |
     |                        A N C O P T                        |
     |                   =====================                   |
     |               Approximate Normal Coordinate               |
     |                Rational Function Optimizer                |
      ----------------------------------------------------------- 
      ----------------------------------------------------------- 
     |                   =====================                   |
     |                        A N C O P T                        |
     |                   =====================                   |
     |               Approximate Normal Coordinate               |
     |                Rational Function Optimizer                |
      ----------------------------------------------------------- 

          ...................................................
          :                      SETUP                      :
          :.................................................:
          :   optimization level         verytight          :
          :   max. optcycles                  2340          :
          :   ANC micro-cycles                  20          :
          :   degrees of freedom               345          :
          :.................................................:
          :   RF solver                   davidson          :
          :   write xtbopt.log                true          :
          :   linear?                        false          :
          :   energy convergence         0.1000000E-06 Eh   :
          :   grad. convergence          0.2000000E-03 Eh/α :
          :   maxmium RF displ.          1.0000000          :
          :   Hlow (freq-cutoff)         0.1000000E-01      :
          :   Hmax (freq-cutoff)         5.0000000          :
          :   S6 in model hess.         20.0000000          :
          ...................................................

generating ANC from exact Hessian ...
Using Lindh-Hessian (1995)
 Shifting diagonal of input Hessian by    1.0045392200048485E-002
 Lowest  eigenvalues of input Hessian
    0.010000    0.000000    0.000000    0.000000    0.000000    0.000000
    0.000000    0.010122    0.010226    0.010341    0.010414    0.010470
    0.010530    0.010809    0.010909    0.011032    0.011129    0.011174
 Highest eigenvalues
    2.282770    2.303733    2.324591    2.451777    2.627156    2.844732


........................................................................
.............................. CYCLE    1 ..............................
........................................................................

 iter      E             dE          RMSdq      gap      omega  full diag
   1   -190.2937838 -0.190294E+03  0.420E-05    0.17       0.0  T
   2   -190.2937838  0.177621E-08  0.948E-05    0.17      97.5  T
   3   -190.2937838 -0.189530E-08  0.299E-05    0.17     309.1  T
     SCC iter.                  ...        0 min,  0.067 sec
     gradient                   ...        0 min,  0.256 sec
 * total energy  :  -187.3599917 Eh     change       -0.1390475E-08 Eh
   gradient norm :     0.6381716 Eh/α   predicted     0.0000000E+00 (-100.00%)
   displ. norm   :     0.5773887 α      lambda       -0.2855022E+00
   maximum displ.:     0.1284383 α      in ANC's #95, #235, #343, ...

........................................................................
.............................. CYCLE    2 ..............................
........................................................................

 iter      E             dE          RMSdq      gap      omega  full diag
   1   -190.4692441 -0.190469E+03  0.398E-01    0.41       0.0  T
   2   -190.4161797  0.530645E-01  0.565E-01    0.19       1.0  T
   3   -190.4662986 -0.501190E-01  0.307E-01    0.34       1.0  T
   4   -190.4760439 -0.974526E-02  0.148E-01    0.29       1.0  T
   5   -190.4778626 -0.181871E-02  0.667E-02    0.24       1.0  T
   6   -190.4785395 -0.676864E-03  0.258E-02    0.25       1.0  T
   7   -190.4785811 -0.416018E-04  0.144E-02    0.24       1.0  T
   8   -190.4786065 -0.254760E-04  0.731E-03    0.25       1.3  T
   9   -190.4786141 -0.753636E-05  0.282E-03    0.25       3.3  T
  10   -190.4786150 -0.926378E-06  0.112E-03    0.25       8.2  T
  11   -190.4786151 -0.659555E-07  0.624E-04    0.25      14.8  T
  12   -190.4786151 -0.257024E-07  0.264E-04    0.25      35.1  T
  13   -190.4786151 -0.296572E-08  0.140E-04    0.25      66.1  T
  14   -190.4786151 -0.747804E-09  0.665E-05    0.25     139.1  T
     SCC iter.                  ...        0 min,  0.316 sec
     gradient                   ...        0 min,  0.246 sec
 * total energy  :  -187.5791538 Eh     change       -0.2191621E+00 Eh
   gradient norm :     0.3330465 Eh/α   predicted    -0.1904716E+00 ( -13.09%)
   displ. norm   :     0.6629930 α      lambda       -0.1859427E+00
   maximum displ.:     0.1571219 α      in ANC's #235, #95, #97, ...

........................................................................
.............................. CYCLE    3 ..............................
........................................................................

 iter      E             dE          RMSdq      gap      omega  full diag
   1   -190.6450436 -0.190645E+03  0.471E-01    0.65       0.0  T
   2   -190.5863791  0.586645E-01  0.636E-01    0.29       1.0  T
   3   -190.6563553 -0.699762E-01  0.286E-01    0.60       1.0  T
   4   -190.6635718 -0.721648E-02  0.142E-01    0.49       1.0  T
   5   -190.6650394 -0.146764E-02  0.499E-02    0.43       1.0  T
   6   -190.6651617 -0.122337E-03  0.252E-02    0.42       1.0  T
   7   -190.6652315 -0.697685E-04  0.105E-02    0.44       1.0  T
   8   -190.6652378 -0.625758E-05  0.569E-03    0.43       1.6  T
   9   -190.6652432 -0.541577E-05  0.176E-03    0.43       5.2  T
  10   -190.6652433 -0.120478E-06  0.914E-04    0.43      10.1  T
  11   -190.6652433 -0.255705E-07  0.453E-04    0.43      20.4  T
  12   -190.6652433 -0.129911E-07  0.194E-04    0.43      47.7  T
  13   -190.6652433 -0.113440E-08  0.109E-04    0.43      84.8  T
     SCC iter.                  ...        0 min,  0.300 sec
     gradient                   ...        0 min,  0.254 sec
 * total energy  :  -187.7292546 Eh     change       -0.1501008E+00 Eh
   gradient norm :     0.2029464 Eh/α   predicted    -0.1338378E+00 ( -10.83%)
   displ. norm   :     0.7192413 α      lambda       -0.1293030E+00
   maximum displ.:     0.1652457 α      in ANC's #95, #97, #76, ...

........................................................................
.............................. CYCLE    4 ..............................
........................................................................

 iter      E             dE          RMSdq      gap      omega  full diag
   1   -190.7862090 -0.190786E+03  0.422E-01    0.85       0.0  T
   2   -190.7864454 -0.236424E-03  0.373E-01    0.47       1.0  T
   3   -190.8019781 -0.155327E-01  0.155E-01    0.68       1.0  T
   4   -190.8013255  0.652590E-03  0.950E-02    0.50       1.0  T
   5   -190.8026571 -0.133159E-02  0.241E-02    0.59       1.0  T
   6   -190.8026669 -0.976798E-05  0.134E-02    0.58       1.0  T
   7   -190.8026863 -0.193834E-04  0.382E-03    0.59       2.4  T
   8   -190.8026874 -0.114211E-05  0.176E-03    0.58       5.3  T
   9   -190.8026876 -0.172142E-06  0.942E-04    0.58       9.8  T
  10   -190.8026876 -0.389664E-07  0.404E-04    0.58      22.9  T
  11   -190.8026876 -0.878640E-08  0.193E-04    0.58      47.9  T
  12   -190.8026876 -0.144240E-08  0.968E-05    0.58      95.5  T
     SCC iter.                  ...        0 min,  0.289 sec
     gradient                   ...        0 min,  0.244 sec
 * total energy  :  -187.8361454 Eh     change       -0.1068908E+00 Eh
   gradient norm :     0.1637825 Eh/α   predicted    -0.9809686E-01 (  -8.23%)
   displ. norm   :     0.7631891 α      lambda       -0.1005691E+00
   maximum displ.:     0.1863364 α      in ANC's #95, #76, #97, ...

........................................................................
.............................. CYCLE    5 ..............................
........................................................................

 iter      E             dE          RMSdq      gap      omega  full diag
   1   -190.8863384 -0.190886E+03  0.363E-01    1.10       0.0  T
   2   -190.8880136 -0.167513E-02  0.287E-01    0.88       1.0  T
   3   -190.8958658 -0.785220E-02  0.132E-01    0.92       1.0  T
   4   -190.8963228 -0.457033E-03  0.431E-02    0.88       1.0  T
   5   -190.8964771 -0.154345E-03  0.171E-02    0.87       1.0  T
   6   -190.8964867 -0.960146E-05  0.700E-03    0.88       1.3  T
   7   -190.8964904 -0.365200E-05  0.266E-03    0.88       3.5  T
   8   -190.8964907 -0.326737E-06  0.120E-03    0.88       7.7  T
   9   -190.8964908 -0.450304E-07  0.703E-04    0.88      13.1  T
  10   -190.8964908 -0.235728E-07  0.269E-04    0.88      34.4  T
  11   -190.8964908 -0.263921E-08  0.123E-04    0.88      75.1  T
  12   -190.8964908 -0.637300E-09  0.604E-05    0.88     152.9  T
     SCC iter.                  ...        0 min,  0.233 sec
     gradient                   ...        0 min,  0.246 sec
 * total energy  :  -187.9217700 Eh     change       -0.8562462E-01 Eh
   gradient norm :     0.1607975 Eh/α   predicted    -0.7957316E-01 (  -7.07%)
   displ. norm   :     0.7769028 α      lambda       -0.8431570E-01
   maximum displ.:     0.1979022 α      in ANC's #95, #76, #99, ...

........................................................................
.............................. CYCLE    6 ..............................
........................................................................

 iter      E             dE          RMSdq      gap      omega  full diag
   1   -190.9641096 -0.190964E+03  0.327E-01    1.55       0.0  T
   2   -190.9661482 -0.203861E-02  0.239E-01    1.48       1.0  T
   3   -190.9710462 -0.489792E-02  0.114E-01    1.50       1.0  T
   4   -190.9715000 -0.453894E-03  0.408E-02    1.46       1.0  T
   5   -190.9716227 -0.122695E-03  0.140E-02    1.46       1.0  T
   6   -190.9716300 -0.729177E-05  0.596E-03    1.46       1.6  T
   7   -190.9716322 -0.213999E-05  0.257E-03    1.46       3.6  T
   8   -190.9716326 -0.407054E-06  0.945E-04    1.46       9.8  T
   9   -190.9716326 -0.302109E-07  0.528E-04    1.46      17.5  T
  10   -190.9716326 -0.112462E-07  0.222E-04    1.46      41.6  T
  11   -190.9716326 -0.194262E-08  0.102E-04    1.46      90.2  T
  12   -190.9716326 -0.546009E-09  0.429E-05    1.46     215.7  T
     SCC iter.                  ...        0 min,  0.270 sec
     gradient                   ...        0 min,  0.251 sec
 * total energy  :  -187.9959573 Eh     change       -0.7418729E-01 Eh
   gradient norm :     0.1509452 Eh/α   predicted    -0.6760343E-01 (  -8.87%)
   displ. norm   :     0.7892823 α      lambda       -0.7604612E-01
   maximum displ.:     0.2054028 α      in ANC's #95, #76, #99, ...

........................................................................
.............................. CYCLE    7 ..............................
........................................................................

 iter      E             dE          RMSdq      gap      omega  full diag
   1   -191.0395343 -0.191040E+03  0.276E-01    2.14       0.0  T
   2   -191.0414180 -0.188374E-02  0.183E-01    2.13       1.0  T
   3   -191.0433126 -0.189455E-02  0.981E-02    2.16       1.0  T
   4   -191.0436073 -0.294702E-03  0.324E-02    2.14       1.0  T
   5   -191.0436961 -0.888275E-04  0.112E-02    2.13       1.0  T
   6   -191.0437039 -0.781796E-05  0.446E-03    2.13       2.1  T
   7   -191.0437049 -0.954145E-06  0.213E-03    2.13       4.3  T
   8   -191.0437051 -0.258801E-06  0.767E-04    2.13      12.1  T
   9   -191.0437051 -0.288101E-07  0.381E-04    2.13      24.2  T
  10   -191.0437052 -0.463930E-08  0.176E-04    2.13      52.6  T
  11   -191.0437052 -0.152792E-08  0.812E-05    2.13     113.9  T
     SCC iter.                  ...        0 min,  0.254 sec
     gradient                   ...        0 min,  0.308 sec
 * total energy  :  -188.0597528 Eh     change       -0.6379548E-01 Eh
   gradient norm :     0.1159557 Eh/α   predicted    -0.6171020E-01 (  -3.27%)
   displ. norm   :     0.7341280 α      lambda       -0.5261494E-01
   maximum displ.:     0.1893157 α      in ANC's #95, #76, #343, ...

........................................................................
.............................. CYCLE    8 ..............................
........................................................................

 iter      E             dE          RMSdq      gap      omega  full diag
   1   -191.0913644 -0.191091E+03  0.208E-01    2.34       0.0  T
   2   -191.0919465 -0.582047E-03  0.126E-01    2.32       1.0  T
   3   -191.0920864 -0.139909E-03  0.774E-02    2.33       1.0  T
   4   -191.0923627 -0.276265E-03  0.168E-02    2.31       1.0  T
   5   -191.0923944 -0.317809E-04  0.647E-03    2.31       1.4  T
   6   -191.0923975 -0.303240E-05  0.254E-03    2.32       3.6  T
   7   -191.0923978 -0.322177E-06  0.116E-03    2.32       8.0  T
   8   -191.0923979 -0.605896E-07  0.502E-04    2.32      18.4  T
   9   -191.0923979 -0.174527E-07  0.224E-04    2.32      41.3  T
  10   -191.0923979 -0.159582E-08  0.102E-04    2.32      90.3  T
  11   -191.0923979 -0.687066E-09  0.438E-05    2.32     211.3  T
     SCC iter.                  ...        0 min,  0.271 sec
     gradient                   ...        0 min,  0.231 sec
 * total energy  :  -188.1024263 Eh     change       -0.4267352E-01 Eh
   gradient norm :     0.0948042 Eh/α   predicted    -0.4048573E-01 (  -5.13%)
   displ. norm   :     0.7106411 α      lambda       -0.3731343E-01
   maximum displ.:     0.1710707 α      in ANC's #95, #44, #62, ...

........................................................................
.............................. CYCLE    9 ..............................
........................................................................

 iter      E             dE          RMSdq      gap      omega  full diag
   1   -191.1219306 -0.191122E+03  0.174E-01    2.31       0.0  T
   2   -191.1221634 -0.232746E-03  0.105E-01    2.29       1.0  T
   3   -191.1220785  0.848393E-04  0.609E-02    2.29       1.0  T
   4   -191.1223018 -0.223270E-03  0.114E-02    2.28       1.0  T
   5   -191.1223163 -0.144422E-04  0.443E-03    2.28       2.1  T
   6   -191.1223175 -0.125546E-05  0.187E-03    2.28       4.9  T
   7   -191.1223177 -0.175875E-06  0.841E-04    2.29      11.0  T
   8   -191.1223177 -0.370421E-07  0.372E-04    2.29      24.8  T
   9   -191.1223177 -0.103361E-07  0.160E-04    2.29      57.6  T
  10   -191.1223177 -0.106820E-08  0.649E-05    2.29     142.4  T
     SCC iter.                  ...        0 min,  0.237 sec
     gradient                   ...        0 min,  0.250 sec
 * total energy  :  -188.1336712 Eh     change       -0.3124493E-01 Eh
   gradient norm :     0.0787453 Eh/α   predicted    -0.2807857E-01 ( -10.13%)
   displ. norm   :     0.7220724 α      lambda       -0.2940654E-01
   maximum displ.:     0.1633891 α      in ANC's #95, #44, #343, ...

........................................................................
.............................. CYCLE   10 ..............................
........................................................................

 iter      E             dE          RMSdq      gap      omega  full diag
   1   -191.1399944 -0.191140E+03  0.156E-01    2.30       0.0  T
   2   -191.1401433 -0.148969E-03  0.941E-02    2.29       1.0  T
   3   -191.1400282  0.115179E-03  0.545E-02    2.29       1.0  T
   4   -191.1402360 -0.207795E-03  0.982E-03    2.28       1.0  T
   5   -191.1402449 -0.891928E-05  0.401E-03    2.28       2.3  T
   6   -191.1402458 -0.916818E-06  0.170E-03    2.28       5.4  T
   7   -191.1402459 -0.130475E-06  0.806E-04    2.28      11.5  T
   8   -191.1402460 -0.410464E-07  0.346E-04    2.28      26.8  T
   9   -191.1402460 -0.673862E-08  0.158E-04    2.28      58.4  T
  10   -191.1402460 -0.142117E-08  0.567E-05    2.28     163.0  T
     SCC iter.                  ...        0 min,  0.212 sec
     gradient                   ...        0 min,  0.269 sec
 * total energy  :  -188.1575894 Eh     change       -0.2391822E-01 Eh
   gradient norm :     0.0480769 Eh/α   predicted    -0.2236959E-01 (  -6.47%)
   displ. norm   :     0.7168198 α      lambda       -0.1941427E-01
   maximum displ.:     0.1393529 α      in ANC's #27, #95, #44, ...

........................................................................
.............................. CYCLE   11 ..............................
........................................................................

 iter      E             dE          RMSdq      gap      omega  full diag
   1   -191.1554544 -0.191155E+03  0.137E-01    2.29       0.0  T
   2   -191.1555423 -0.878864E-04  0.803E-02    2.28       1.0  T
   3   -191.1554154  0.126892E-03  0.468E-02    2.28       1.0  T
   4   -191.1555958 -0.180430E-03  0.784E-03    2.28       1.2  T
   5   -191.1556000 -0.417522E-05  0.352E-03    2.28       2.6  T
   6   -191.1556009 -0.874220E-06  0.138E-03    2.28       6.7  T
   7   -191.1556009 -0.466071E-07  0.746E-04    2.28      12.4  T
   8   -191.1556010 -0.428014E-07  0.286E-04    2.28      32.3  T
   9   -191.1556010 -0.424888E-08  0.128E-04    2.28      72.1  T
  10   -191.1556010 -0.851998E-09  0.485E-05    2.28     190.7  T
     SCC iter.                  ...        0 min,  0.238 sec
     gradient                   ...        0 min,  0.251 sec
 * total energy  :  -188.1730170 Eh     change       -0.1542760E-01 Eh
   gradient norm :     0.0365035 Eh/α   predicted    -0.1469498E-01 (  -4.75%)
   displ. norm   :     0.7124600 α      lambda       -0.1325256E-01
   maximum displ.:     0.1435807 α      in ANC's #18, #22, #13, ...

........................................................................
.............................. CYCLE   12 ..............................
........................................................................

 iter      E             dE          RMSdq      gap      omega  full diag
   1   -191.1566682 -0.191157E+03  0.128E-01    2.27       0.0  T
   2   -191.1568662 -0.198010E-03  0.770E-02    2.30       1.0  T
   3   -191.1567721  0.941298E-04  0.465E-02    2.30       1.0  T
   4   -191.1569307 -0.158574E-03  0.124E-02    2.29       1.0  T
   5   -191.1569436 -0.129683E-04  0.344E-03    2.30       2.7  T
   6   -191.1569443 -0.715091E-06  0.162E-03    2.29       5.7  T
   7   -191.1569444 -0.100371E-06  0.767E-04    2.29      12.1  T
   8   -191.1569445 -0.280581E-07  0.339E-04    2.29      27.3  T
   9   -191.1569445 -0.208937E-08  0.190E-04    2.29      48.6  T
  10   -191.1569445 -0.305204E-08  0.636E-05    2.29     145.4  T
     SCC iter.                  ...        0 min,  0.251 sec
     gradient                   ...        0 min,  0.234 sec
 * total energy  :  -188.1831386 Eh     change       -0.1012160E-01 Eh
   gradient norm :     0.0460158 Eh/α   predicted    -0.9989795E-02 (  -1.30%)
   displ. norm   :     0.7351579 α      lambda       -0.1157231E-01
   maximum displ.:     0.1972265 α      in ANC's #27, #22, #40, ...

........................................................................
.............................. CYCLE   13 ..............................
........................................................................

 iter      E             dE          RMSdq      gap      omega  full diag
   1   -191.1733780 -0.191173E+03  0.129E-01    2.30       0.0  T
   2   -191.1735579 -0.179922E-03  0.755E-02    2.28       1.0  T
   3   -191.1734875  0.704198E-04  0.387E-02    2.29       1.0  T
   4   -191.1735837 -0.962614E-04  0.121E-02    2.29       1.0  T
   5   -191.1735963 -0.125367E-04  0.292E-03    2.29       3.2  T
   6   -191.1735967 -0.464489E-06  0.150E-03    2.29       6.2  T
   7   -191.1735968 -0.647812E-07  0.867E-04    2.29      10.7  T
   8   -191.1735969 -0.510885E-07  0.333E-04    2.29      27.7  T
   9   -191.1735969 -0.309419E-08  0.161E-04    2.29      57.5  T
  10   -191.1735969 -0.182251E-08  0.575E-05    2.29     160.8  T
     SCC iter.                  ...        0 min,  0.250 sec
     gradient                   ...        0 min,  0.251 sec
 * total energy  :  -188.1915236 Eh     change       -0.8384936E-02 Eh
   gradient norm :     0.0469373 Eh/α   predicted    -0.8913340E-02 (   6.30%)
   displ. norm   :     0.6788867 α      lambda       -0.8445241E-02
   maximum displ.:     0.1849649 α      in ANC's #22, #40, #18, ...

........................................................................
.............................. CYCLE   14 ..............................
........................................................................

 iter      E             dE          RMSdq      gap      omega  full diag
   1   -191.1760346 -0.191176E+03  0.108E-01    2.30       0.0  T
   2   -191.1760863 -0.517261E-04  0.640E-02    2.31       1.0  T
   3   -191.1759750  0.111299E-03  0.364E-02    2.30       1.0  T
   4   -191.1761146 -0.139640E-03  0.618E-03    2.30       1.5  T
   5   -191.1761174 -0.280264E-05  0.198E-03    2.30       4.7  T
   6   -191.1761176 -0.177745E-06  0.103E-03    2.30       9.0  T
   7   -191.1761176 -0.367411E-07  0.455E-04    2.30      20.3  T
   8   -191.1761177 -0.891814E-08  0.194E-04    2.30      47.6  T
   9   -191.1761177 -0.955652E-09  0.101E-04    2.30      91.6  T
     SCC iter.                  ...        0 min,  0.204 sec
     gradient                   ...        0 min,  0.211 sec
 * total energy  :  -188.1987407 Eh     change       -0.7217175E-02 Eh
   gradient norm :     0.0354046 Eh/α   predicted    -0.6168810E-02 ( -14.53%)
   displ. norm   :     0.7285601 α      lambda       -0.7844680E-02
   maximum displ.:     0.2240505 α      in ANC's #22, #40, #13, ...

........................................................................
.............................. CYCLE   15 ..............................
........................................................................

 iter      E             dE          RMSdq      gap      omega  full diag
   1   -191.1808298 -0.191181E+03  0.120E-01    2.30       0.0  T
   2   -191.1808757 -0.458962E-04  0.705E-02    2.30       1.0  T
   3   -191.1807857  0.899847E-04  0.319E-02    2.30       1.0  T
   4   -191.1808915 -0.105782E-03  0.619E-03    2.30       1.5  T
   5   -191.1808946 -0.317115E-05  0.203E-03    2.30       4.5  T
   6   -191.1808949 -0.242780E-06  0.100E-03    2.30       9.2  T
   7   -191.1808949 -0.303507E-07  0.380E-04    2.30      24.3  T
   8   -191.1808949 -0.507123E-08  0.168E-04    2.30      54.9  T
   9   -191.1808949 -0.127636E-08  0.792E-05    2.30     116.7  T
     SCC iter.                  ...        0 min,  0.191 sec
     gradient                   ...        0 min,  0.239 sec
 * total energy  :  -188.2053232 Eh     change       -0.6582407E-02 Eh
   gradient norm :     0.0275110 Eh/α   predicted    -0.6004319E-02 (  -8.78%)
   displ. norm   :     0.7561879 α      lambda       -0.6195905E-02
   maximum displ.:     0.2483596 α      in ANC's #22, #13, #40, ...

........................................................................
.............................. CYCLE   16 ..............................
........................................................................

 iter      E             dE          RMSdq      gap      omega  full diag
   1   -191.1797877 -0.191180E+03  0.122E-01    2.30       0.0  T
   2   -191.1798030 -0.152850E-04  0.718E-02    2.30       1.0  T
   3   -191.1797473  0.556718E-04  0.233E-02    2.30       1.0  T
   4   -191.1798108 -0.634292E-04  0.390E-03    2.30       2.4  T
   5   -191.1798119 -0.113014E-05  0.169E-03    2.30       5.5  T
   6   -191.1798120 -0.116494E-06  0.881E-04    2.30      10.5  T
   7   -191.1798120 -0.183667E-07  0.304E-04    2.30      30.4  T
   8   -191.1798120 -0.517912E-08  0.131E-04    2.30      70.4  T
   9   -191.1798120 -0.828095E-09  0.678E-05    2.30     136.4  T
     SCC iter.                  ...        0 min,  0.227 sec
     gradient                   ...        0 min,  0.261 sec
 * total energy  :  -188.2105441 Eh     change       -0.5220975E-02 Eh
   gradient norm :     0.0208967 Eh/α   predicted    -0.4869462E-02 (  -6.73%)
   displ. norm   :     0.7514167 α      lambda       -0.4818346E-02
   maximum displ.:     0.2517379 α      in ANC's #22, #13, #18, ...

........................................................................
.............................. CYCLE   17 ..............................
........................................................................

 iter      E             dE          RMSdq      gap      omega  full diag
   1   -191.1829204 -0.191183E+03  0.119E-01    2.30       0.0  T
   2   -191.1829356 -0.152133E-04  0.703E-02    2.30       1.0  T
   3   -191.1829094  0.261700E-04  0.159E-02    2.30       1.0  T
   4   -191.1829398 -0.303914E-04  0.346E-03    2.30       2.7  T
   5   -191.1829408 -0.103076E-05  0.147E-03    2.30       6.3  T
   6   -191.1829409 -0.785366E-07  0.818E-04    2.30      11.3  T
   7   -191.1829409 -0.200648E-07  0.296E-04    2.30      31.2  T
   8   -191.1829409 -0.498210E-08  0.114E-04    2.30      81.3  T
   9   -191.1829409 -0.337167E-09  0.582E-05    2.30     159.0  T
     SCC iter.                  ...        0 min,  0.220 sec
     gradient                   ...        0 min,  0.257 sec
 * total energy  :  -188.2145083 Eh     change       -0.3964199E-02 Eh
   gradient norm :     0.0158321 Eh/α   predicted    -0.3769463E-02 (  -4.91%)
   displ. norm   :     0.7316195 α      lambda       -0.3559139E-02
   maximum displ.:     0.2710389 α      in ANC's #13, #22, #18, ...

........................................................................
.............................. CYCLE   18 ..............................
........................................................................

 iter      E             dE          RMSdq      gap      omega  full diag
   1   -191.1811243 -0.191181E+03  0.116E-01    2.31       0.0  T
   2   -191.1811403 -0.160330E-04  0.692E-02    2.31       1.0  T
   3   -191.1811227  0.176544E-04  0.131E-02    2.31       1.0  T
   4   -191.1811430 -0.203513E-04  0.353E-03    2.31       2.6  T
   5   -191.1811443 -0.122665E-05  0.128E-03    2.31       7.2  T
   6   -191.1811443 -0.280616E-07  0.807E-04    2.31      11.5  T
   7   -191.1811443 -0.289110E-07  0.335E-04    2.31      27.6  T
   8   -191.1811443 -0.932900E-08  0.131E-04    2.31      70.4  T
   9   -191.1811443 -0.908955E-09  0.539E-05    2.31     171.6  T
     SCC iter.                  ...        0 min,  0.237 sec
     gradient                   ...        0 min,  0.256 sec
 * total energy  :  -188.2173270 Eh     change       -0.2818712E-02 Eh
   gradient norm :     0.0142643 Eh/α   predicted    -0.2732123E-02 (  -3.07%)
   displ. norm   :     0.6925756 α      lambda       -0.2723959E-02
   maximum displ.:     0.2556548 α      in ANC's #13, #22, #18, ...

........................................................................
.............................. CYCLE   19 ..............................
........................................................................

 iter      E             dE          RMSdq      gap      omega  full diag
   1   -191.1863809 -0.191186E+03  0.110E-01    2.32       0.0  T
   2   -191.1863934 -0.125863E-04  0.660E-02    2.31       1.0  T
   3   -191.1863638  0.296308E-04  0.158E-02    2.31       1.0  T
   4   -191.1863970 -0.332296E-04  0.377E-03    2.32       2.5  T
   5   -191.1863983 -0.127550E-05  0.150E-03    2.31       6.2  T
   6   -191.1863984 -0.759284E-07  0.794E-04    2.31      11.6  T
   7   -191.1863984 -0.136336E-07  0.337E-04    2.31      27.4  T
   8   -191.1863984 -0.714329E-08  0.130E-04    2.31      71.2  T
   9   -191.1863984 -0.453753E-09  0.657E-05    2.31     140.8  T
     SCC iter.                  ...        0 min,  0.225 sec
     gradient                   ...        0 min,  0.285 sec
 * total energy  :  -188.2192824 Eh     change       -0.1955334E-02 Eh
   gradient norm :     0.0181404 Eh/α   predicted    -0.2015276E-02 (   3.07%)
   displ. norm   :     0.6531263 α      lambda       -0.2326630E-02
   maximum displ.:     0.2612299 α      in ANC's #13, #22, #18, ...

........................................................................
.............................. CYCLE   20 ..............................
........................................................................

 iter      E             dE          RMSdq      gap      omega  full diag
   1   -191.1864707 -0.191186E+03  0.112E-01    2.33       0.0  T
   2   -191.1864845 -0.137763E-04  0.668E-02    2.33       1.0  T
   3   -191.1864606  0.238970E-04  0.147E-02    2.33       1.0  T
   4   -191.1864881 -0.274738E-04  0.352E-03    2.33       2.6  T
   5   -191.1864891 -0.104120E-05  0.147E-03    2.33       6.3  T
   6   -191.1864892 -0.895907E-07  0.823E-04    2.33      11.2  T
   7   -191.1864892 -0.168232E-07  0.306E-04    2.33      30.2  T
   8   -191.1864892 -0.513197E-08  0.117E-04    2.33      78.7  T
   9   -191.1864892 -0.524949E-09  0.540E-05    2.33     171.3  T
     SCC iter.                  ...        0 min,  0.256 sec
     gradient                   ...        0 min,  0.303 sec
 * total energy  :  -188.2207665 Eh     change       -0.1484176E-02 Eh
   gradient norm :     0.0198170 Eh/α   predicted    -0.1659586E-02 (  11.82%)
   displ. norm   :     0.5391175 α      lambda       -0.1629924E-02
   maximum displ.:     0.2207529 α      in ANC's #13, #18, #22, ...
 * RMSD in coord.:     1.0999627 α      energy gain  -0.8607748E+00 Eh

generating ANC from exact Hessian ...
Using Lindh-Hessian (1995)
 Shifting diagonal of input Hessian by    1.0069732038569040E-002
 Lowest  eigenvalues of input Hessian
    0.010000    0.010019    0.000000    0.000000    0.000000    0.000000
    0.000000    0.000000    0.010135    0.010141    0.010270    0.010325
    0.010375    0.010456    0.010470    0.010530    0.010623    0.010742
 Highest eigenvalues
    2.154798    2.167672    2.314859    2.317575    2.357410    3.117716


........................................................................
.............................. CYCLE   21 ..............................
........................................................................

 iter      E             dE          RMSdq      gap      omega  full diag
   1   -191.1858878 -0.191186E+03  0.918E-02    2.35       0.0  T
   2   -191.1859008 -0.129905E-04  0.549E-02    2.35       1.0  T
   3   -191.1858851  0.157086E-04  0.119E-02    2.35       1.0  T
   4   -191.1859026 -0.174943E-04  0.328E-03    2.35       2.8  T
   5   -191.1859038 -0.118928E-05  0.113E-03    2.35       8.2  T
   6   -191.1859038 -0.401021E-07  0.645E-04    2.35      14.3  T
   7   -191.1859038 -0.118729E-07  0.252E-04    2.35      36.7  T
   8   -191.1859038 -0.467998E-08  0.106E-04    2.35      87.3  T
   9   -191.1859038 -0.506702E-09  0.525E-05    2.35     176.0  T
     SCC iter.                  ...        0 min,  0.226 sec
     gradient                   ...        0 min,  0.261 sec
 * total energy  :  -188.2219685 Eh     change       -0.1201989E-02 Eh
   gradient norm :     0.0185924 Eh/α   predicted     0.0000000E+00 (-100.00%)
   displ. norm   :     0.2112092 α      lambda       -0.1649468E-02
   maximum displ.:     0.0709754 α      in ANC's #27, #55, #12, ...

........................................................................
.............................. CYCLE   22 ..............................
........................................................................

 iter      E             dE          RMSdq      gap      omega  full diag
   1   -191.1900179 -0.191190E+03  0.605E-02    2.35       0.0  T
   2   -191.1900235 -0.556679E-05  0.360E-02    2.35       1.0  T
   3   -191.1900144  0.906785E-05  0.970E-03    2.35       1.0  T
   4   -191.1900248 -0.104173E-04  0.211E-03    2.35       4.4  T
   5   -191.1900252 -0.376760E-06  0.781E-04    2.35      11.8  T
   6   -191.1900252 -0.210988E-07  0.390E-04    2.35      23.7  T
   7   -191.1900252 -0.127753E-08  0.177E-04    2.35      52.3  T
   8   -191.1900252 -0.231958E-08  0.645E-05    2.35     143.3  T
     SCC iter.                  ...        0 min,  0.193 sec
     gradient                   ...        0 min,  0.274 sec
 * total energy  :  -188.2230809 Eh     change       -0.1112364E-02 Eh
   gradient norm :     0.0074457 Eh/α   predicted    -0.8615540E-03 ( -22.55%)
   displ. norm   :     0.2735381 α      lambda       -0.7670110E-03
   maximum displ.:     0.1028842 α      in ANC's #12, #27, #22, ...

........................................................................
.............................. CYCLE   23 ..............................
........................................................................

 iter      E             dE          RMSdq      gap      omega  full diag
   1   -191.1916478 -0.191192E+03  0.539E-02    2.35       0.0  T
   2   -191.1916509 -0.308171E-05  0.320E-02    2.35       1.0  T
   3   -191.1916426  0.828689E-05  0.874E-03    2.35       1.1  T
   4   -191.1916520 -0.935674E-05  0.166E-03    2.35       5.6  T
   5   -191.1916522 -0.233218E-06  0.660E-04    2.35      14.0  T
   6   -191.1916522 -0.149063E-07  0.348E-04    2.35      26.5  T
   7   -191.1916522 -0.128890E-08  0.159E-04    2.35      58.3  T
   8   -191.1916522 -0.209590E-08  0.632E-05    2.35     146.3  T
     SCC iter.                  ...        0 min,  0.191 sec
     gradient                   ...        0 min,  0.261 sec
 * total energy  :  -188.2236403 Eh     change       -0.5593499E-03 Eh
   gradient norm :     0.0054813 Eh/α   predicted    -0.4124361E-03 ( -26.27%)
   displ. norm   :     0.3827818 α      lambda       -0.6528772E-03
   maximum displ.:     0.1591782 α      in ANC's #12, #27, #17, ...

........................................................................
.............................. CYCLE   24 ..............................
........................................................................

 iter      E             dE          RMSdq      gap      omega  full diag
   1   -191.1913828 -0.191191E+03  0.640E-02    2.35       0.0  T
   2   -191.1913860 -0.319555E-05  0.382E-02    2.35       1.0  T
   3   -191.1913778  0.815264E-05  0.842E-03    2.35       1.1  T
   4   -191.1913869 -0.906345E-05  0.203E-03    2.35       4.6  T
   5   -191.1913873 -0.398955E-06  0.787E-04    2.35      11.7  T
   6   -191.1913873 -0.176317E-07  0.436E-04    2.35      21.2  T
   7   -191.1913873 -0.470706E-08  0.163E-04    2.35      56.6  T
   8   -191.1913873 -0.190502E-08  0.782E-05    2.35     118.3  T
     SCC iter.                  ...        0 min,  0.180 sec
     gradient                   ...        0 min,  0.221 sec
 * total energy  :  -188.2241556 Eh     change       -0.5153483E-03 Eh
   gradient norm :     0.0075454 Eh/α   predicted    -0.3743656E-03 ( -27.36%)
   displ. norm   :     0.5132338 α      lambda       -0.7273182E-03
   maximum displ.:     0.2156627 α      in ANC's #12, #17, #4, ...

........................................................................
.............................. CYCLE   25 ..............................
........................................................................

 iter      E             dE          RMSdq      gap      omega  full diag
   1   -191.1895055 -0.191190E+03  0.814E-02    2.36       0.0  T
   2   -191.1895110 -0.546819E-05  0.488E-02    2.36       1.0  T
   3   -191.1895037  0.724630E-05  0.798E-03    2.36       1.2  T
   4   -191.1895116 -0.788269E-05  0.286E-03    2.36       3.2  T
   5   -191.1895126 -0.957437E-06  0.101E-03    2.36       9.1  T
   6   -191.1895126 -0.209663E-07  0.551E-04    2.36      16.8  T
   7   -191.1895126 -0.126752E-07  0.174E-04    2.36      53.3  T
   8   -191.1895126 -0.963155E-09  0.970E-05    2.36      95.3  T
     SCC iter.                  ...        0 min,  0.180 sec
     gradient                   ...        0 min,  0.295 sec
 * total energy  :  -188.2247520 Eh     change       -0.5963548E-03 Eh
   gradient norm :     0.0085584 Eh/α   predicted    -0.4594509E-03 ( -22.96%)
   displ. norm   :     0.5812298 α      lambda       -0.7603582E-03
   maximum displ.:     0.2472522 α      in ANC's #12, #4, #17, ...

........................................................................
.............................. CYCLE   26 ..............................
........................................................................

 iter      E             dE          RMSdq      gap      omega  full diag
   1   -191.1873699 -0.191187E+03  0.922E-02    2.37       0.0  T
   2   -191.1873781 -0.821042E-05  0.555E-02    2.37       1.0  T
   3   -191.1873716  0.643485E-05  0.783E-03    2.37       1.2  T
   4   -191.1873787 -0.701474E-05  0.332E-03    2.37       2.8  T
   5   -191.1873800 -0.134000E-05  0.117E-03    2.37       7.9  T
   6   -191.1873800 -0.212277E-07  0.633E-04    2.37      14.6  T
   7   -191.1873800 -0.231753E-07  0.206E-04    2.37      44.8  T
   8   -191.1873800 -0.119564E-08  0.106E-04    2.37      87.0  T
   9   -191.1873800 -0.605922E-09  0.468E-05    2.37     197.7  T
     SCC iter.                  ...        0 min,  0.217 sec
     gradient                   ...        0 min,  0.276 sec
 * total energy  :  -188.2253578 Eh     change       -0.6058837E-03 Eh
   gradient norm :     0.0074505 Eh/α   predicted    -0.5086149E-03 ( -16.05%)
   displ. norm   :     0.5364452 α      lambda       -0.5902384E-03
   maximum displ.:     0.2338951 α      in ANC's #12, #4, #17, ...

........................................................................
.............................. CYCLE   27 ..............................
........................................................................

 iter      E             dE          RMSdq      gap      omega  full diag
   1   -191.1873885 -0.191187E+03  0.847E-02    2.38       0.0  T
   2   -191.1873964 -0.795693E-05  0.511E-02    2.38       1.0  T
   3   -191.1873900  0.643029E-05  0.800E-03    2.38       1.2  T
   4   -191.1873970 -0.696644E-05  0.347E-03    2.38       2.7  T
   5   -191.1873982 -0.128241E-05  0.117E-03    2.38       7.9  T
   6   -191.1873983 -0.330338E-07  0.666E-04    2.38      13.9  T
   7   -191.1873983 -0.213185E-07  0.221E-04    2.38      41.9  T
   8   -191.1873983 -0.134085E-08  0.115E-04    2.38      80.7  T
   9   -191.1873983 -0.754000E-09  0.536E-05    2.38     172.3  T
     SCC iter.                  ...        0 min,  0.208 sec
     gradient                   ...        0 min,  0.245 sec
 * total energy  :  -188.2257994 Eh     change       -0.4415860E-03 Eh
   gradient norm :     0.0051956 Eh/α   predicted    -0.3800512E-03 ( -13.93%)
   displ. norm   :     0.4481081 α      lambda       -0.3563526E-03
   maximum displ.:     0.1973836 α      in ANC's #12, #4, #17, ...

........................................................................
.............................. CYCLE   28 ..............................
........................................................................

 iter      E             dE          RMSdq      gap      omega  full diag
   1   -191.1882308 -0.191188E+03  0.673E-02    2.38       0.0  T
   2   -191.1882358 -0.497232E-05  0.404E-02    2.38       1.0  T
   3   -191.1882315  0.429452E-05  0.664E-03    2.38       1.4  T
   4   -191.1882363 -0.483184E-05  0.264E-03    2.38       3.5  T
   5   -191.1882370 -0.668611E-06  0.976E-04    2.38       9.5  T
   6   -191.1882370 -0.314145E-07  0.528E-04    2.38      17.5  T
   7   -191.1882370 -0.115351E-07  0.180E-04    2.38      51.4  T
   8   -191.1882370 -0.777902E-09  0.889E-05    2.38     104.0  T
     SCC iter.                  ...        0 min,  0.195 sec
     gradient                   ...        0 min,  0.250 sec
 * total energy  :  -188.2260739 Eh     change       -0.2744815E-03 Eh
   gradient norm :     0.0043221 Eh/α   predicted    -0.2139546E-03 ( -22.05%)
   displ. norm   :     0.4191999 α      lambda       -0.2943848E-03
   maximum displ.:     0.2045327 α      in ANC's #4, #12, #17, ...

........................................................................
.............................. CYCLE   29 ..............................
........................................................................

 iter      E             dE          RMSdq      gap      omega  full diag
   1   -191.1899221 -0.191190E+03  0.585E-02    2.38       0.0  T
   2   -191.1899261 -0.401624E-05  0.349E-02    2.38       1.0  T
   3   -191.1899203  0.583975E-05  0.761E-03    2.38       1.2  T
   4   -191.1899269 -0.658956E-05  0.230E-03    2.38       4.0  T
   5   -191.1899273 -0.445775E-06  0.891E-04    2.38      10.4  T
   6   -191.1899273 -0.305043E-07  0.449E-04    2.38      20.6  T
   7   -191.1899274 -0.615026E-08  0.167E-04    2.38      55.4  T
   8   -191.1899274 -0.671776E-09  0.807E-05    2.38     114.6  T
     SCC iter.                  ...        0 min,  0.193 sec
     gradient                   ...        0 min,  0.262 sec
 * total energy  :  -188.2263110 Eh     change       -0.2370695E-03 Eh
   gradient norm :     0.0042434 Eh/α   predicted    -0.1730596E-03 ( -27.00%)
   displ. norm   :     0.4524892 α      lambda       -0.3040157E-03
   maximum displ.:     0.2370890 α      in ANC's #4, #12, #17, ...

........................................................................
.............................. CYCLE   30 ..............................
........................................................................

 iter      E             dE          RMSdq      gap      omega  full diag
   1   -191.1907659 -0.191191E+03  0.604E-02    2.39       0.0  T
   2   -191.1907698 -0.388227E-05  0.357E-02    2.38       1.0  T
   3   -191.1907634  0.637973E-05  0.805E-03    2.38       1.1  T
   4   -191.1907707 -0.731758E-05  0.208E-03    2.38       4.5  T
   5   -191.1907710 -0.331198E-06  0.893E-04    2.38      10.3  T
   6   -191.1907711 -0.276777E-07  0.450E-04    2.38      20.6  T
   7   -191.1907711 -0.672142E-08  0.168E-04    2.38      55.2  T
   8   -191.1907711 -0.773269E-09  0.792E-05    2.38     116.7  T
     SCC iter.                  ...        0 min,  0.182 sec
     gradient                   ...        0 min,  0.276 sec
 * total energy  :  -188.2265636 Eh     change       -0.2526131E-03 Eh
   gradient norm :     0.0047569 Eh/α   predicted    -0.1831398E-03 ( -27.50%)
   displ. norm   :     0.5025997 α      lambda       -0.3408185E-03
   maximum displ.:     0.2768469 α      in ANC's #4, #12, #17, ...

........................................................................
.............................. CYCLE   31 ..............................
........................................................................

 iter      E             dE          RMSdq      gap      omega  full diag
   1   -191.1914650 -0.191191E+03  0.658E-02    2.39       0.0  T
   2   -191.1914691 -0.409385E-05  0.387E-02    2.39       1.0  T
   3   -191.1914572  0.119194E-04  0.105E-02    2.39       1.0  T
   4   -191.1914707 -0.135124E-04  0.208E-03    2.39       4.4  T
   5   -191.1914710 -0.312960E-06  0.913E-04    2.39      10.1  T
   6   -191.1914711 -0.243915E-07  0.474E-04    2.39      19.5  T
   7   -191.1914711 -0.767139E-08  0.171E-04    2.39      53.9  T
   8   -191.1914711 -0.122628E-08  0.813E-05    2.39     113.7  T
     SCC iter.                  ...        0 min,  0.197 sec
     gradient                   ...        0 min,  0.305 sec
 * total energy  :  -188.2268503 Eh     change       -0.2867158E-03 Eh
   gradient norm :     0.0056210 Eh/α   predicted    -0.2134561E-03 ( -25.55%)
   displ. norm   :     0.5490878 α      lambda       -0.3741227E-03
   maximum displ.:     0.3112296 α      in ANC's #4, #17, #12, ...

........................................................................
.............................. CYCLE   32 ..............................
........................................................................

 iter      E             dE          RMSdq      gap      omega  full diag
   1   -191.1903583 -0.191190E+03  0.717E-02    2.39       0.0  T
   2   -191.1903621 -0.379994E-05  0.421E-02    2.39       1.0  T
   3   -191.1903495  0.126412E-04  0.106E-02    2.39       1.0  T
   4   -191.1903638 -0.142806E-04  0.206E-03    2.39       4.5  T
   5   -191.1903641 -0.329507E-06  0.900E-04    2.39      10.3  T
   6   -191.1903641 -0.213376E-07  0.490E-04    2.39      18.9  T
   7   -191.1903641 -0.894505E-08  0.166E-04    2.39      55.7  T
   8   -191.1903641 -0.154299E-08  0.788E-05    2.39     117.3  T
     SCC iter.                  ...        0 min,  0.218 sec
     gradient                   ...        0 min,  0.278 sec
 * total energy  :  -188.2271686 Eh     change       -0.3182948E-03 Eh
   gradient norm :     0.0059269 Eh/α   predicted    -0.2434608E-03 ( -23.51%)
   displ. norm   :     0.5705570 α      lambda       -0.4098935E-03
   maximum displ.:     0.3318454 α      in ANC's #4, #13, #17, ...

........................................................................
.............................. CYCLE   33 ..............................
........................................................................

 iter      E             dE          RMSdq      gap      omega  full diag
   1   -191.1912272 -0.191191E+03  0.741E-02    2.40       0.0  T
   2   -191.1912304 -0.316228E-05  0.437E-02    2.40       1.0  T
   3   -191.1912147  0.157098E-04  0.113E-02    2.39       1.0  T
   4   -191.1912323 -0.175775E-04  0.208E-03    2.40       4.5  T
   5   -191.1912326 -0.361004E-06  0.879E-04    2.40      10.5  T
   6   -191.1912327 -0.249029E-07  0.479E-04    2.40      19.3  T
   7   -191.1912327 -0.616322E-08  0.164E-04    2.40      56.2  T
   8   -191.1912327 -0.236909E-08  0.637E-05    2.40     145.0  T
     SCC iter.                  ...        0 min,  0.232 sec
     gradient                   ...        0 min,  0.274 sec
 * total energy  :  -188.2275051 Eh     change       -0.3365499E-03 Eh
   gradient norm :     0.0056611 Eh/α   predicted    -0.2716702E-03 ( -19.28%)
   displ. norm   :     0.6195659 α      lambda       -0.4073513E-03
   maximum displ.:     0.3651726 α      in ANC's #4, #17, #13, ...

........................................................................
.............................. CYCLE   34 ..............................
........................................................................

 iter      E             dE          RMSdq      gap      omega  full diag
   1   -191.1859700 -0.191186E+03  0.793E-02    2.40       0.0  T
   2   -191.1859733 -0.323748E-05  0.466E-02    2.40       1.0  T
   3   -191.1859626  0.106828E-04  0.958E-03    2.40       1.0  T
   4   -191.1859747 -0.120846E-04  0.200E-03    2.40       4.6  T
   5   -191.1859750 -0.318023E-06  0.871E-04    2.40      10.6  T
   6   -191.1859750 -0.162336E-07  0.492E-04    2.40      18.8  T
   7   -191.1859750 -0.102541E-07  0.165E-04    2.40      56.1  T
   8   -191.1859750 -0.205705E-08  0.729E-05    2.40     126.8  T
     SCC iter.                  ...        0 min,  0.225 sec
     gradient                   ...        0 min,  0.274 sec
 * total energy  :  -188.2278072 Eh     change       -0.3020422E-03 Eh
   gradient norm :     0.0068340 Eh/α   predicted    -0.2818594E-03 (  -6.68%)
   displ. norm   :     0.5275531 α      lambda       -0.4350360E-03
   maximum displ.:     0.3114734 α      in ANC's #4, #13, #5, ...

........................................................................
.............................. CYCLE   35 ..............................
........................................................................

 iter      E             dE          RMSdq      gap      omega  full diag
   1   -191.1912598 -0.191191E+03  0.668E-02    2.40       0.0  T
   2   -191.1912644 -0.454548E-05  0.402E-02    2.40       1.0  T
   3   -191.1912565  0.788528E-05  0.830E-03    2.40       1.1  T
   4   -191.1912650 -0.851147E-05  0.270E-03    2.40       3.4  T
   5   -191.1912658 -0.817807E-06  0.914E-04    2.40      10.1  T
   6   -191.1912658 -0.205190E-07  0.540E-04    2.40      17.1  T
   7   -191.1912658 -0.130249E-07  0.235E-04    2.40      39.3  T
   8   -191.1912659 -0.284285E-08  0.109E-04    2.40      85.0  T
   9   -191.1912659 -0.684253E-09  0.446E-05    2.40     207.4  T
     SCC iter.                  ...        0 min,  0.251 sec
     gradient                   ...        0 min,  0.286 sec
 * total energy  :  -188.2280921 Eh     change       -0.2849508E-03 Eh
   gradient norm :     0.0056187 Eh/α   predicted    -0.2780562E-03 (  -2.42%)
   displ. norm   :     0.4962391 α      lambda       -0.2916286E-03
   maximum displ.:     0.3116967 α      in ANC's #4, #17, #7, ...

........................................................................
.............................. CYCLE   36 ..............................
........................................................................

 iter      E             dE          RMSdq      gap      omega  full diag
   1   -191.1888601 -0.191189E+03  0.620E-02    2.40       0.0  T
   2   -191.1888621 -0.203555E-05  0.366E-02    2.40       1.0  T
   3   -191.1888566  0.553108E-05  0.707E-03    2.40       1.3  T
   4   -191.1888628 -0.618225E-05  0.165E-03    2.40       5.6  T
   5   -191.1888630 -0.244145E-06  0.630E-04    2.40      14.7  T
   6   -191.1888631 -0.888915E-08  0.367E-04    2.40      25.2  T
   7   -191.1888631 -0.640392E-08  0.141E-04    2.40      65.3  T
   8   -191.1888631 -0.917510E-09  0.687E-05    2.40     134.6  T
     SCC iter.                  ...        0 min,  0.194 sec
     gradient                   ...        0 min,  0.279 sec
 * total energy  :  -188.2283229 Eh     change       -0.2307192E-03 Eh
   gradient norm :     0.0059498 Eh/α   predicted    -0.1817227E-03 ( -21.24%)
   displ. norm   :     0.4281858 α      lambda       -0.3832380E-03
   maximum displ.:     0.2821169 α      in ANC's #4, #5, #7, ...

........................................................................
.............................. CYCLE   37 ..............................
........................................................................

 iter      E             dE          RMSdq      gap      omega  full diag
   1   -191.1947112 -0.191195E+03  0.554E-02    2.40       0.0  T
   2   -191.1947155 -0.435001E-05  0.331E-02    2.40       1.0  T
   3   -191.1947114  0.416215E-05  0.683E-03    2.40       1.4  T
   4   -191.1947158 -0.445339E-05  0.222E-03    2.40       4.2  T
   5   -191.1947164 -0.556515E-06  0.771E-04    2.40      12.0  T
   6   -191.1947164 -0.214494E-07  0.460E-04    2.40      20.1  T
   7   -191.1947164 -0.179422E-07  0.173E-04    2.40      53.5  T
   8   -191.1947164 -0.115736E-08  0.894E-05    2.40     103.4  T
     SCC iter.                  ...        0 min,  0.228 sec
     gradient                   ...        0 min,  0.298 sec
 * total energy  :  -188.2285752 Eh     change       -0.2523261E-03 Eh
   gradient norm :     0.0064642 Eh/α   predicted    -0.2267539E-03 ( -10.13%)
   displ. norm   :     0.4630347 α      lambda       -0.3360462E-03
   maximum displ.:     0.3026994 α      in ANC's #4, #17, #7, ...

........................................................................
.............................. CYCLE   38 ..............................
........................................................................

 iter      E             dE          RMSdq      gap      omega  full diag
   1   -191.1934352 -0.191193E+03  0.645E-02    2.40       0.0  T
   2   -191.1934375 -0.229768E-05  0.380E-02    2.40       1.0  T
   3   -191.1934352  0.232191E-05  0.507E-03    2.40       1.8  T
   4   -191.1934379 -0.273343E-05  0.146E-03    2.40       6.3  T
   5   -191.1934381 -0.182750E-06  0.573E-04    2.40      16.1  T
   6   -191.1934381 -0.239484E-08  0.369E-04    2.40      25.0  T
   7   -191.1934381 -0.103336E-07  0.129E-04    2.40      71.9  T
   8   -191.1934381 -0.106220E-08  0.549E-05    2.40     168.3  T
     SCC iter.                  ...        0 min,  0.201 sec
     gradient                   ...        0 min,  0.310 sec
 * total energy  :  -188.2288088 Eh     change       -0.2336039E-03 Eh
   gradient norm :     0.0065089 Eh/α   predicted    -0.2040542E-03 ( -12.65%)
   displ. norm   :     0.3959122 α      lambda       -0.2380382E-03
   maximum displ.:     0.2742980 α      in ANC's #4, #17, #5, ...

........................................................................
.............................. CYCLE   39 ..............................
........................................................................

 iter      E             dE          RMSdq      gap      omega  full diag
   1   -191.1927070 -0.191193E+03  0.518E-02    2.40       0.0  T
   2   -191.1927079 -0.872485E-06  0.305E-02    2.40       1.0  T
   3   -191.1927050  0.283224E-05  0.477E-03    2.40       1.9  T
   4   -191.1927083 -0.325020E-05  0.929E-04    2.40      10.0  T
   5   -191.1927083 -0.587071E-07  0.450E-04    2.40      20.6  T
   6   -191.1927083 -0.376252E-08  0.236E-04    2.40      39.3  T
   7   -191.1927083 -0.237500E-08  0.739E-05    2.40     125.0  T
   8   -191.1927083 -0.304198E-09  0.375E-05    2.40     246.8  T
     SCC iter.                  ...        0 min,  0.194 sec
     gradient                   ...        0 min,  0.270 sec
 * total energy  :  -188.2290157 Eh     change       -0.2068594E-03 Eh
   gradient norm :     0.0058049 Eh/α   predicted    -0.1376761E-03 ( -33.44%)
   displ. norm   :     0.4329511 α      lambda       -0.3237197E-03
   maximum displ.:     0.3078037 α      in ANC's #4, #5, #7, ...

........................................................................
.............................. CYCLE   40 ..............................
........................................................................

 iter      E             dE          RMSdq      gap      omega  full diag
   1   -191.1943285 -0.191194E+03  0.547E-02    2.40       0.0  T
   2   -191.1943302 -0.161603E-05  0.323E-02    2.40       1.0  T
   3   -191.1943211  0.909753E-05  0.855E-03    2.40       1.1  T
   4   -191.1943313 -0.102752E-04  0.127E-03    2.40       7.3  T
   5   -191.1943314 -0.791242E-07  0.665E-04    2.40      13.9  T
   6   -191.1943314 -0.143409E-07  0.278E-04    2.40      33.2  T
   7   -191.1943314 -0.467762E-08  0.125E-04    2.40      74.2  T
   8   -191.1943314 -0.949399E-09  0.626E-05    2.40     147.8  T
     SCC iter.                  ...        0 min,  0.243 sec
     gradient                   ...        0 min,  0.304 sec
 * total energy  :  -188.2292707 Eh     change       -0.2550402E-03 Eh
   gradient norm :     0.0043849 Eh/α   predicted    -0.1922059E-03 ( -24.64%)
   displ. norm   :     0.5201283 α      lambda       -0.3087081E-03
   maximum displ.:     0.3643165 α      in ANC's #4, #17, #5, ...

........................................................................
.............................. CYCLE   41 ..............................
........................................................................

 iter      E             dE          RMSdq      gap      omega  full diag
   1   -191.1923641 -0.191192E+03  0.681E-02    2.41       0.0  T
   2   -191.1923667 -0.266747E-05  0.400E-02    2.41       1.0  T
   3   -191.1923536  0.131327E-04  0.104E-02    2.40       1.0  T
   4   -191.1923685 -0.148632E-04  0.161E-03    2.41       5.7  T
   5   -191.1923686 -0.108088E-06  0.830E-04    2.41      11.1  T
   6   -191.1923686 -0.257561E-07  0.388E-04    2.41      23.8  T
   7   -191.1923686 -0.103859E-07  0.153E-04    2.41      60.6  T
   8   -191.1923686 -0.113130E-08  0.806E-05    2.41     114.7  T
     SCC iter.                  ...        0 min,  0.192 sec
     gradient                   ...        0 min,  0.287 sec
 * total energy  :  -188.2294893 Eh     change       -0.2186420E-03 Eh
   gradient norm :     0.0058179 Eh/α   predicted    -0.1961187E-03 ( -10.30%)
   displ. norm   :     0.5058067 α      lambda       -0.2633563E-03
   maximum displ.:     0.3602125 α      in ANC's #4, #5, #7, ...

........................................................................
.............................. CYCLE   42 ..............................
........................................................................

 iter      E             dE          RMSdq      gap      omega  full diag
   1   -191.1905928 -0.191191E+03  0.597E-02    2.41       0.0  T
   2   -191.1905947 -0.190126E-05  0.351E-02    2.41       1.0  T
   3   -191.1905845  0.102436E-04  0.911E-03    2.41       1.0  T
   4   -191.1905960 -0.115675E-04  0.140E-03    2.41       6.6  T
   5   -191.1905961 -0.102757E-06  0.712E-04    2.41      13.0  T
   6   -191.1905962 -0.109125E-07  0.357E-04    2.41      25.9  T
   7   -191.1905962 -0.684170E-08  0.134E-04    2.41      69.0  T
   8   -191.1905962 -0.136021E-08  0.580E-05    2.41     159.3  T
     SCC iter.                  ...        0 min,  0.177 sec
     gradient                   ...        0 min,  0.226 sec
 * total energy  :  -188.2296931 Eh     change       -0.2037245E-03 Eh
   gradient norm :     0.0065459 Eh/α   predicted    -0.1653681E-03 ( -18.83%)
   displ. norm   :     0.4462210 α      lambda       -0.2576159E-03
   maximum displ.:     0.3231848 α      in ANC's #4, #5, #7, ...
 * RMSD in coord.:     0.7714812 α      energy gain  -0.8926508E-02 Eh

generating ANC from exact Hessian ...
Using Lindh-Hessian (1995)
 Shifting diagonal of input Hessian by    1.0064351123557937E-002
 Lowest  eigenvalues of input Hessian
    0.010000    0.000000    0.000000    0.000000    0.000000    0.000000
    0.000000    0.010108    0.010139    0.010160    0.010262    0.010322
    0.010379    0.010459    0.010505    0.010581    0.010643    0.010738
 Highest eigenvalues
    2.154519    2.190898    2.329479    2.330612    2.355365    3.113433


........................................................................
.............................. CYCLE   43 ..............................
........................................................................

 iter      E             dE          RMSdq      gap      omega  full diag
   1   -191.1935987 -0.191194E+03  0.493E-02    2.41       0.0  T
   2   -191.1936003 -0.161016E-05  0.290E-02    2.41       1.0  T
   3   -191.1935928  0.750677E-05  0.795E-03    2.41       1.2  T
   4   -191.1936013 -0.855143E-05  0.123E-03    2.41       7.5  T
   5   -191.1936014 -0.866012E-07  0.609E-04    2.41      15.2  T
   6   -191.1936014 -0.105544E-07  0.310E-04    2.41      29.8  T
   7   -191.1936015 -0.345588E-08  0.120E-04    2.41      76.9  T
   8   -191.1936015 -0.102946E-08  0.516E-05    2.41     179.3  T
     SCC iter.                  ...        0 min,  0.175 sec
     gradient                   ...        0 min,  0.286 sec
 * total energy  :  -188.2298892 Eh     change       -0.1961156E-03 Eh
   gradient norm :     0.0064772 Eh/α   predicted     0.0000000E+00 (-100.00%)
   displ. norm   :     0.0802250 α      lambda       -0.1312864E-03
   maximum displ.:     0.0435339 α      in ANC's #2, #4, #3, ...

........................................................................
.............................. CYCLE   44 ..............................
........................................................................

 iter      E             dE          RMSdq      gap      omega  full diag
   1   -191.1945095 -0.191195E+03  0.119E-02    2.41       0.0  T
   2   -191.1945099 -0.441416E-06  0.700E-03    2.41       1.3  T
   3   -191.1945093  0.655015E-06  0.275E-03    2.42       3.4  T
   4   -191.1945101 -0.796415E-06  0.634E-04    2.42      14.6  T
   5   -191.1945101 -0.276613E-07  0.291E-04    2.42      31.7  T
   6   -191.1945101 -0.325625E-08  0.134E-04    2.42      69.1  T
   7   -191.1945101 -0.844210E-09  0.500E-05    2.42     185.0  T
     SCC iter.                  ...        0 min,  0.223 sec
     gradient                   ...        0 min,  0.302 sec
 * total energy  :  -188.2300057 Eh     change       -0.1165374E-03 Eh
   gradient norm :     0.0035467 Eh/α   predicted    -0.7077432E-04 ( -39.27%)
   displ. norm   :     0.2455768 α      lambda       -0.2693810E-03
   maximum displ.:     0.1309900 α      in ANC's #2, #4, #3, ...

........................................................................
.............................. CYCLE   45 ..............................
........................................................................

 iter      E             dE          RMSdq      gap      omega  full diag
   1   -191.1957291 -0.191196E+03  0.292E-02    2.42       0.0  T
   2   -191.1957314 -0.234055E-05  0.172E-02    2.42       1.0  T
   3   -191.1957271  0.434277E-05  0.692E-03    2.42       1.3  T
   4   -191.1957324 -0.531120E-05  0.141E-03    2.42       6.6  T
   5   -191.1957325 -0.115203E-06  0.691E-04    2.42      13.4  T
   6   -191.1957325 -0.193594E-07  0.317E-04    2.42      29.1  T
   7   -191.1957325 -0.513984E-08  0.134E-04    2.42      69.2  T
   8   -191.1957325 -0.884341E-09  0.704E-05    2.42     131.3  T
     SCC iter.                  ...        0 min,  0.205 sec
     gradient                   ...        0 min,  0.245 sec
 * total energy  :  -188.2302041 Eh     change       -0.1984311E-03 Eh
   gradient norm :     0.0041954 Eh/α   predicted    -0.1428165E-03 ( -28.03%)
   displ. norm   :     0.3039059 α      lambda       -0.2192923E-03
   maximum displ.:     0.1636095 α      in ANC's #2, #4, #3, ...

........................................................................
.............................. CYCLE   46 ..............................
........................................................................

 iter      E             dE          RMSdq      gap      omega  full diag
   1   -191.1958841 -0.191196E+03  0.304E-02    2.42       0.0  T
   2   -191.1958863 -0.223348E-05  0.180E-02    2.42       1.0  T
   3   -191.1958818  0.454817E-05  0.693E-03    2.42       1.3  T
   4   -191.1958873 -0.554155E-05  0.129E-03    2.42       7.1  T
   5   -191.1958874 -0.834734E-07  0.662E-04    2.42      14.0  T
   6   -191.1958874 -0.171821E-07  0.333E-04    2.42      27.8  T
   7   -191.1958874 -0.525208E-08  0.149E-04    2.42      61.9  T
   8   -191.1958874 -0.149518E-08  0.712E-05    2.42     129.9  T
     SCC iter.                  ...        0 min,  0.187 sec
     gradient                   ...        0 min,  0.233 sec
 * total energy  :  -188.2303879 Eh     change       -0.1837589E-03 Eh
   gradient norm :     0.0068050 Eh/α   predicted    -0.1197898E-03 ( -34.81%)
   displ. norm   :     0.4271712 α      lambda       -0.3009908E-03
   maximum displ.:     0.2294599 α      in ANC's #2, #4, #3, ...

........................................................................
.............................. CYCLE   47 ..............................
........................................................................

 iter      E             dE          RMSdq      gap      omega  full diag
   1   -191.1951475 -0.191195E+03  0.398E-02    2.42       0.0  T
   2   -191.1951510 -0.347662E-05  0.235E-02    2.42       1.0  T
   3   -191.1951436  0.731177E-05  0.855E-03    2.42       1.1  T
   4   -191.1951525 -0.887906E-05  0.150E-03    2.42       6.2  T
   5   -191.1951526 -0.989162E-07  0.780E-04    2.42      11.8  T
   6   -191.1951526 -0.203089E-07  0.428E-04    2.42      21.6  T
   7   -191.1951526 -0.789743E-08  0.195E-04    2.42      47.3  T
   8   -191.1951527 -0.284228E-08  0.835E-05    2.42     110.7  T
     SCC iter.                  ...        0 min,  0.169 sec
     gradient                   ...        0 min,  0.241 sec
 * total energy  :  -188.2306572 Eh     change       -0.2692980E-03 Eh
   gradient norm :     0.0078529 Eh/α   predicted    -0.1779579E-03 ( -33.92%)
   displ. norm   :     0.5728285 α      lambda       -0.4297364E-03
   maximum displ.:     0.3099400 α      in ANC's #2, #4, #3, ...

........................................................................
.............................. CYCLE   48 ..............................
........................................................................

 iter      E             dE          RMSdq      gap      omega  full diag
   1   -191.1936520 -0.191194E+03  0.506E-02    2.42       0.0  T
   2   -191.1936573 -0.523530E-05  0.299E-02    2.42       1.0  T
   3   -191.1936464  0.109031E-04  0.102E-02    2.42       1.0  T
   4   -191.1936595 -0.131485E-04  0.179E-03    2.42       5.2  T
   5   -191.1936596 -0.146694E-06  0.924E-04    2.42      10.0  T
   6   -191.1936597 -0.259003E-07  0.534E-04    2.42      17.3  T
   7   -191.1936597 -0.133284E-07  0.237E-04    2.42      39.0  T
   8   -191.1936597 -0.377963E-08  0.100E-04    2.42      92.3  T
   9   -191.1936597 -0.478735E-09  0.406E-05    2.42     227.5  T
     SCC iter.                  ...        0 min,  0.253 sec
     gradient                   ...        0 min,  0.258 sec
 * total energy  :  -188.2310462 Eh     change       -0.3890209E-03 Eh
   gradient norm :     0.0075836 Eh/α   predicted    -0.2853762E-03 ( -26.64%)
   displ. norm   :     0.6657929 α      lambda       -0.5232767E-03
   maximum displ.:     0.3655165 α      in ANC's #2, #4, #3, ...

........................................................................
.............................. CYCLE   49 ..............................
........................................................................

 iter      E             dE          RMSdq      gap      omega  full diag
   1   -191.1922801 -0.191192E+03  0.569E-02    2.42       0.0  T
   2   -191.1922863 -0.624415E-05  0.336E-02    2.42       1.0  T
   3   -191.1922733  0.130155E-04  0.110E-02    2.42       1.0  T
   4   -191.1922888 -0.155582E-04  0.205E-03    2.42       4.5  T
   5   -191.1922891 -0.214178E-06  0.104E-03    2.42       8.9  T
   6   -191.1922891 -0.399056E-07  0.575E-04    2.42      16.1  T
   7   -191.1922891 -0.165362E-07  0.249E-04    2.42      37.1  T
   8   -191.1922891 -0.289404E-08  0.116E-04    2.42      80.0  T
   9   -191.1922891 -0.751498E-09  0.460E-05    2.42     200.9  T
     SCC iter.                  ...        0 min,  0.221 sec
     gradient                   ...        0 min,  0.303 sec
 * total energy  :  -188.2315237 Eh     change       -0.4774637E-03 Eh
   gradient norm :     0.0071861 Eh/α   predicted    -0.3776265E-03 ( -20.91%)
   displ. norm   :     0.7177465 α      lambda       -0.5935551E-03
   maximum displ.:     0.3986509 α      in ANC's #2, #4, #3, ...

........................................................................
.............................. CYCLE   50 ..............................
........................................................................

 iter      E             dE          RMSdq      gap      omega  full diag
   1   -191.1918504 -0.191192E+03  0.591E-02    2.43       0.0  T
   2   -191.1918568 -0.630954E-05  0.348E-02    2.43       1.0  T
   3   -191.1918433  0.134801E-04  0.112E-02    2.43       1.0  T
   4   -191.1918592 -0.159506E-04  0.230E-03    2.43       4.0  T
   5   -191.1918595 -0.287742E-06  0.116E-03    2.43       7.9  T
   6   -191.1918596 -0.612429E-07  0.573E-04    2.43      16.1  T
   7   -191.1918596 -0.160034E-07  0.247E-04    2.43      37.5  T
   8   -191.1918596 -0.218637E-08  0.122E-04    2.43      76.0  T
   9   -191.1918596 -0.774605E-09  0.501E-05    2.43     184.4  T
     SCC iter.                  ...        0 min,  0.205 sec
     gradient                   ...        0 min,  0.304 sec
 * total energy  :  -188.2320740 Eh     change       -0.5502859E-03 Eh
   gradient norm :     0.0073530 Eh/α   predicted    -0.4496865E-03 ( -18.28%)
   displ. norm   :     0.7707830 α      lambda       -0.6785108E-03
   maximum displ.:     0.4296324 α      in ANC's #2, #4, #3, ...

........................................................................
.............................. CYCLE   51 ..............................
........................................................................

 iter      E             dE          RMSdq      gap      omega  full diag
   1   -191.1919076 -0.191192E+03  0.619E-02    2.43       0.0  T
   2   -191.1919137 -0.612020E-05  0.363E-02    2.43       1.0  T
   3   -191.1919001  0.135235E-04  0.114E-02    2.43       1.0  T
   4   -191.1919161 -0.159775E-04  0.244E-03    2.43       3.8  T
   5   -191.1919164 -0.286984E-06  0.127E-03    2.43       7.3  T
   6   -191.1919165 -0.754387E-07  0.566E-04    2.43      16.3  T
   7   -191.1919165 -0.152660E-07  0.243E-04    2.43      38.1  T
   8   -191.1919165 -0.195942E-08  0.126E-04    2.43      73.2  T
   9   -191.1919165 -0.812236E-09  0.523E-05    2.43     176.9  T
     SCC iter.                  ...        0 min,  0.262 sec
     gradient                   ...        0 min,  0.303 sec
 * total energy  :  -188.2327146 Eh     change       -0.6406166E-03 Eh
   gradient norm :     0.0077944 Eh/α   predicted    -0.5408097E-03 ( -15.58%)
   displ. norm   :     0.8126439 α      lambda       -0.7889094E-03
   maximum displ.:     0.4533913 α      in ANC's #2, #4, #3, ...

........................................................................
.............................. CYCLE   52 ..............................
........................................................................

 iter      E             dE          RMSdq      gap      omega  full diag
   1   -191.1933541 -0.191193E+03  0.645E-02    2.44       0.0  T
   2   -191.1933597 -0.556129E-05  0.377E-02    2.43       1.0  T
   3   -191.1933457  0.139123E-04  0.117E-02    2.43       1.0  T
   4   -191.1933621 -0.164027E-04  0.249E-03    2.43       3.7  T
   5   -191.1933624 -0.248130E-06  0.133E-03    2.43       6.9  T
   6   -191.1933625 -0.781369E-07  0.528E-04    2.43      17.5  T
   7   -191.1933625 -0.125781E-07  0.235E-04    2.43      39.4  T
   8   -191.1933625 -0.196607E-08  0.126E-04    2.43      73.2  T
   9   -191.1933625 -0.768580E-09  0.548E-05    2.43     168.7  T
     SCC iter.                  ...        0 min,  0.237 sec
     gradient                   ...        0 min,  0.307 sec
 * total energy  :  -188.2334533 Eh     change       -0.7387542E-03 Eh
   gradient norm :     0.0077887 Eh/α   predicted    -0.6549496E-03 ( -11.34%)
   displ. norm   :     0.8543605 α      lambda       -0.8421277E-03
   maximum displ.:     0.4743711 α      in ANC's #2, #4, #3, ...

........................................................................
.............................. CYCLE   53 ..............................
........................................................................

 iter      E             dE          RMSdq      gap      omega  full diag
   1   -191.1927929 -0.191193E+03  0.678E-02    2.44       0.0  T
   2   -191.1927977 -0.477150E-05  0.396E-02    2.43       1.0  T
   3   -191.1927866  0.110374E-04  0.104E-02    2.43       1.0  T
   4   -191.1927999 -0.132299E-04  0.219E-03    2.43       4.2  T
   5   -191.1928000 -0.118370E-06  0.135E-03    2.43       6.8  T
   6   -191.1928001 -0.102798E-06  0.482E-04    2.43      19.2  T
   7   -191.1928001 -0.102421E-07  0.233E-04    2.43      39.8  T
   8   -191.1928001 -0.256856E-08  0.116E-04    2.43      79.6  T
   9   -191.1928001 -0.611408E-09  0.553E-05    2.43     167.1  T
     SCC iter.                  ...        0 min,  0.291 sec
     gradient                   ...        0 min,  0.343 sec
 * total energy  :  -188.2342365 Eh     change       -0.7831559E-03 Eh
   gradient norm :     0.0076061 Eh/α   predicted    -0.7284127E-03 (  -6.99%)
   displ. norm   :     0.8308954 α      lambda       -0.8630379E-03
   maximum displ.:     0.4606537 α      in ANC's #2, #4, #3, ...

........................................................................
.............................. CYCLE   54 ..............................
........................................................................

 iter      E             dE          RMSdq      gap      omega  full diag
   1   -191.1977637 -0.191198E+03  0.688E-02    2.44       0.0  T
   2   -191.1977689 -0.518160E-05  0.404E-02    2.43       1.0  T
   3   -191.1977585  0.103532E-04  0.100E-02    2.43       1.0  T
   4   -191.1977708 -0.122760E-04  0.218E-03    2.43       4.2  T
   5   -191.1977710 -0.237839E-06  0.123E-03    2.43       7.5  T
   6   -191.1977711 -0.625553E-07  0.606E-04    2.43      15.3  T
   7   -191.1977711 -0.154039E-07  0.227E-04    2.43      40.7  T
   8   -191.1977711 -0.352915E-08  0.112E-04    2.43      82.5  T
   9   -191.1977711 -0.356920E-09  0.568E-05    2.43     162.7  T
     SCC iter.                  ...        0 min,  0.225 sec
     gradient                   ...        0 min,  0.229 sec
 * total energy  :  -188.2349745 Eh     change       -0.7379828E-03 Eh
   gradient norm :     0.0083792 Eh/α   predicted    -0.7294344E-03 (  -1.16%)
   displ. norm   :     0.8882215 α      lambda       -0.8420605E-03
   maximum displ.:     0.4900025 α      in ANC's #2, #4, #3, ...

........................................................................
.............................. CYCLE   55 ..............................
........................................................................

 iter      E             dE          RMSdq      gap      omega  full diag
   1   -191.1874911 -0.191187E+03  0.671E-02    2.43       0.0  T
   2   -191.1874972 -0.613137E-05  0.392E-02    2.43       1.0  T
   3   -191.1874858  0.114283E-04  0.105E-02    2.43       1.0  T
   4   -191.1874995 -0.137052E-04  0.229E-03    2.43       4.0  T
   5   -191.1874997 -0.233185E-06  0.135E-03    2.43       6.9  T
   6   -191.1874998 -0.102847E-06  0.623E-04    2.43      14.8  T
   7   -191.1874999 -0.188973E-07  0.270E-04    2.43      34.2  T
   8   -191.1874999 -0.412612E-08  0.113E-04    2.43      81.9  T
   9   -191.1874999 -0.379913E-09  0.521E-05    2.43     177.5  T
     SCC iter.                  ...        0 min,  0.201 sec
     gradient                   ...        0 min,  0.291 sec
 * total energy  :  -188.2356610 Eh     change       -0.6865693E-03 Eh
   gradient norm :     0.0092861 Eh/α   predicted    -0.7531979E-03 (   9.70%)
   displ. norm   :     0.7508415 α      lambda       -0.7409140E-03
   maximum displ.:     0.4199548 α      in ANC's #2, #4, #3, ...

........................................................................
.............................. CYCLE   56 ..............................
........................................................................

 iter      E             dE          RMSdq      gap      omega  full diag
   1   -191.1889327 -0.191189E+03  0.534E-02    2.42       0.0  T
   2   -191.1889380 -0.526610E-05  0.314E-02    2.42       1.0  T
   3   -191.1889280  0.100436E-04  0.978E-03    2.42       1.0  T
   4   -191.1889397 -0.117522E-04  0.230E-03    2.42       4.0  T
   5   -191.1889401 -0.412536E-06  0.110E-03    2.42       8.4  T
   6   -191.1889402 -0.726027E-07  0.563E-04    2.42      16.4  T
   7   -191.1889402 -0.162678E-07  0.242E-04    2.42      38.2  T
   8   -191.1889402 -0.286457E-08  0.119E-04    2.42      77.7  T
   9   -191.1889402 -0.374030E-09  0.499E-05    2.42     185.3  T
     SCC iter.                  ...        0 min,  0.246 sec
     gradient                   ...        0 min,  0.306 sec
 * total energy  :  -188.2363264 Eh     change       -0.6653750E-03 Eh
   gradient norm :     0.0078526 Eh/α   predicted    -0.5793099E-03 ( -12.93%)
   displ. norm   :     0.7363683 α      lambda       -0.8261072E-03
   maximum displ.:     0.4112542 α      in ANC's #2, #4, #3, ...

........................................................................
.............................. CYCLE   57 ..............................
........................................................................

 iter      E             dE          RMSdq      gap      omega  full diag
   1   -191.1984043 -0.191198E+03  0.504E-02    2.43       0.0  T
   2   -191.1984120 -0.765553E-05  0.297E-02    2.42       1.0  T
   3   -191.1984001  0.118684E-04  0.110E-02    2.42       1.0  T
   4   -191.1984142 -0.141138E-04  0.277E-03    2.42       3.3  T
   5   -191.1984149 -0.636290E-06  0.126E-03    2.42       7.4  T
   6   -191.1984150 -0.990962E-07  0.641E-04    2.42      14.4  T
   7   -191.1984150 -0.258939E-07  0.255E-04    2.42      36.3  T
   8   -191.1984150 -0.343996E-08  0.130E-04    2.42      71.3  T
   9   -191.1984150 -0.400973E-09  0.573E-05    2.42     161.5  T
     SCC iter.                  ...        0 min,  0.224 sec
     gradient                   ...        0 min,  0.278 sec
 * total energy  :  -188.2369879 Eh     change       -0.6614658E-03 Eh
   gradient norm :     0.0064015 Eh/α   predicted    -0.6370298E-03 (  -3.69%)
   displ. norm   :     0.8462217 α      lambda       -0.7240400E-03
   maximum displ.:     0.4830723 α      in ANC's #2, #4, #3, ...

........................................................................
.............................. CYCLE   58 ..............................
........................................................................

 iter      E             dE          RMSdq      gap      omega  full diag
   1   -191.1945051 -0.191195E+03  0.570E-02    2.42       0.0  T
   2   -191.1945128 -0.763801E-05  0.333E-02    2.42       1.0  T
   3   -191.1944995  0.132971E-04  0.107E-02    2.42       1.0  T
   4   -191.1945152 -0.157528E-04  0.236E-03    2.42       3.9  T
   5   -191.1945156 -0.324604E-06  0.124E-03    2.42       7.5  T
   6   -191.1945156 -0.898557E-07  0.639E-04    2.42      14.5  T
   7   -191.1945157 -0.218774E-07  0.265E-04    2.42      34.9  T
   8   -191.1945157 -0.303069E-08  0.125E-04    2.42      74.1  T
   9   -191.1945157 -0.589495E-09  0.551E-05    2.42     167.7  T
     SCC iter.                  ...        0 min,  0.228 sec
     gradient                   ...        0 min,  0.273 sec
 * total energy  :  -188.2376025 Eh     change       -0.6145793E-03 Eh
   gradient norm :     0.0071455 Eh/α   predicted    -0.6212602E-03 (   1.09%)
   displ. norm   :     0.7996181 α      lambda       -0.6781740E-03
   maximum displ.:     0.4562099 α      in ANC's #2, #4, #3, ...

........................................................................
.............................. CYCLE   59 ..............................
........................................................................

 iter      E             dE          RMSdq      gap      omega  full diag
   1   -191.1939182 -0.191194E+03  0.578E-02    2.42       0.0  T
   2   -191.1939276 -0.933211E-05  0.339E-02    2.42       1.0  T
   3   -191.1939112  0.163268E-04  0.124E-02    2.42       1.0  T
   4   -191.1939308 -0.195357E-04  0.248E-03    2.42       3.7  T
   5   -191.1939311 -0.333455E-06  0.127E-03    2.42       7.3  T
   6   -191.1939312 -0.761946E-07  0.690E-04    2.42      13.4  T
   7   -191.1939312 -0.271006E-07  0.297E-04    2.42      31.1  T
   8   -191.1939312 -0.420286E-08  0.126E-04    2.42      73.3  T
   9   -191.1939312 -0.612573E-09  0.549E-05    2.42     168.5  T
     SCC iter.                  ...        0 min,  0.242 sec
     gradient                   ...        0 min,  0.224 sec
 * total energy  :  -188.2381647 Eh     change       -0.5622052E-03 Eh
   gradient norm :     0.0090338 Eh/α   predicted    -0.5558967E-03 (  -1.12%)
   displ. norm   :     0.7023048 α      lambda       -0.6763909E-03
   maximum displ.:     0.3920043 α      in ANC's #2, #4, #3, ...

........................................................................
.............................. CYCLE   60 ..............................
........................................................................

 iter      E             dE          RMSdq      gap      omega  full diag
   1   -191.2080145 -0.191208E+03  0.636E-02    2.43       0.0  T
   2   -191.2080256 -0.110327E-04  0.376E-02    2.42       1.0  T
   3   -191.2080061  0.194511E-04  0.133E-02    2.43       1.0  T
   4   -191.2080288 -0.227289E-04  0.292E-03    2.42       3.2  T
   5   -191.2080295 -0.696081E-06  0.125E-03    2.42       7.4  T
   6   -191.2080296 -0.581555E-07  0.727E-04    2.42      12.7  T
   7   -191.2080296 -0.224791E-07  0.293E-04    2.42      31.5  T
   8   -191.2080296 -0.425214E-08  0.138E-04    2.42      67.2  T
   9   -191.2080296 -0.982368E-09  0.674E-05    2.42     137.2  T
     SCC iter.                  ...        0 min,  0.258 sec
     gradient                   ...        0 min,  0.293 sec
 * total energy  :  -188.2386043 Eh     change       -0.4396762E-03 Eh
   gradient norm :     0.0078093 Eh/α   predicted    -0.5050116E-03 (  14.86%)
   displ. norm   :     0.7532429 α      lambda       -0.6077365E-03
   maximum displ.:     0.4338430 α      in ANC's #2, #4, #3, ...

........................................................................
.............................. CYCLE   61 ..............................
........................................................................

 iter      E             dE          RMSdq      gap      omega  full diag
   1   -191.1957190 -0.191196E+03  0.600E-02    2.41       0.0  T
   2   -191.1957271 -0.807648E-05  0.353E-02    2.40       1.0  T
   3   -191.1957113  0.157470E-04  0.121E-02    2.41       1.0  T
   4   -191.1957294 -0.180449E-04  0.298E-03    2.40       3.1  T
   5   -191.1957300 -0.647953E-06  0.122E-03    2.40       7.6  T
   6   -191.1957301 -0.505061E-07  0.636E-04    2.40      14.5  T
   7   -191.1957301 -0.201055E-07  0.267E-04    2.40      34.7  T
   8   -191.1957301 -0.338400E-08  0.137E-04    2.40      67.3  T
   9   -191.1957301 -0.855266E-09  0.619E-05    2.40     149.3  T
     SCC iter.                  ...        0 min,  0.213 sec
     gradient                   ...        0 min,  0.261 sec
 * total energy  :  -188.2390052 Eh     change       -0.4008355E-03 Eh
   gradient norm :     0.0082238 Eh/α   predicted    -0.4762766E-03 (  18.82%)
   displ. norm   :     0.5910386 α      lambda       -0.4115879E-03
   maximum displ.:     0.3293251 α      in ANC's #2, #3, #4, ...

........................................................................
.............................. CYCLE   62 ..............................
........................................................................

 iter      E             dE          RMSdq      gap      omega  full diag
   1   -191.1959944 -0.191196E+03  0.577E-02    2.41       0.0  T
   2   -191.1960069 -0.124790E-04  0.343E-02    2.40       1.0  T
   3   -191.1959897  0.172062E-04  0.135E-02    2.40       1.0  T
   4   -191.1960100 -0.203820E-04  0.312E-03    2.40       3.0  T
   5   -191.1960108 -0.773810E-06  0.117E-03    2.40       7.9  T
   6   -191.1960109 -0.591843E-07  0.654E-04    2.40      14.1  T
   7   -191.1960109 -0.187914E-07  0.331E-04    2.40      28.0  T
   8   -191.1960109 -0.570355E-08  0.139E-04    2.40      66.5  T
   9   -191.1960109 -0.727340E-09  0.652E-05    2.40     141.8  T
     SCC iter.                  ...        0 min,  0.239 sec
     gradient                   ...        0 min,  0.298 sec
 * total energy  :  -188.2393018 Eh     change       -0.2966452E-03 Eh
   gradient norm :     0.0084101 Eh/α   predicted    -0.2776891E-03 (  -6.39%)
   displ. norm   :     0.5417635 α      lambda       -0.3581973E-03
   maximum displ.:     0.2890032 α      in ANC's #2, #3, #4, ...

........................................................................
.............................. CYCLE   63 ..............................
........................................................................

 iter      E             dE          RMSdq      gap      omega  full diag
   1   -191.1996015 -0.191200E+03  0.619E-02    2.39       0.0  T
   2   -191.1996059 -0.440551E-05  0.365E-02    2.38       1.0  T
   3   -191.1995940  0.119332E-04  0.961E-03    2.38       1.0  T
   4   -191.1996076 -0.136151E-04  0.193E-03    2.38       4.8  T
   5   -191.1996078 -0.239399E-06  0.928E-04    2.38      10.0  T
   6   -191.1996079 -0.418642E-07  0.479E-04    2.38      19.3  T
   7   -191.1996079 -0.829607E-08  0.221E-04    2.38      41.8  T
   8   -191.1996079 -0.259175E-08  0.104E-04    2.38      88.5  T
   9   -191.1996079 -0.659753E-09  0.475E-05    2.38     194.7  T
     SCC iter.                  ...        0 min,  0.251 sec
     gradient                   ...        0 min,  0.251 sec
 * total energy  :  -188.2395778 Eh     change       -0.2759528E-03 Eh
   gradient norm :     0.0055832 Eh/α   predicted    -0.2316698E-03 ( -16.05%)
   displ. norm   :     0.5297764 α      lambda       -0.3141449E-03
   maximum displ.:     0.2539573 α      in ANC's #2, #3, #4, ...

........................................................................
.............................. CYCLE   64 ..............................
........................................................................

 iter      E             dE          RMSdq      gap      omega  full diag
   1   -191.2046141 -0.191205E+03  0.748E-02    2.37       0.0  T
   2   -191.2046198 -0.570168E-05  0.440E-02    2.36       1.0  T
   3   -191.2046084  0.114868E-04  0.943E-03    2.36       1.0  T
   4   -191.2046216 -0.132905E-04  0.208E-03    2.35       4.4  T
   5   -191.2046219 -0.275178E-06  0.102E-03    2.35       9.1  T
   6   -191.2046220 -0.439626E-07  0.567E-04    2.36      16.3  T
   7   -191.2046220 -0.140429E-07  0.246E-04    2.36      37.6  T
   8   -191.2046220 -0.235158E-08  0.119E-04    2.36      77.5  T
   9   -191.2046220 -0.906113E-09  0.537E-05    2.36     172.2  T
     SCC iter.                  ...        0 min,  0.201 sec
     gradient                   ...        0 min,  0.203 sec
 * total energy  :  -188.2397971 Eh     change       -0.2193011E-03 Eh
   gradient norm :     0.0060675 Eh/α   predicted    -0.2011608E-03 (  -8.27%)
   displ. norm   :     0.5622759 α      lambda       -0.2570050E-03
   maximum displ.:     0.2866776 α      in ANC's #2, #3, #4, ...

........................................................................
.............................. CYCLE   65 ..............................
........................................................................

 iter      E             dE          RMSdq      gap      omega  full diag
   1   -191.2006094 -0.191201E+03  0.697E-02    2.34       0.0  T
   2   -191.2006163 -0.688651E-05  0.410E-02    2.33       1.0  T
   3   -191.2006063  0.100322E-04  0.916E-03    2.33       1.0  T
   4   -191.2006181 -0.118694E-04  0.206E-03    2.33       4.5  T
   5   -191.2006184 -0.248555E-06  0.104E-03    2.33       8.9  T
   6   -191.2006184 -0.440493E-07  0.594E-04    2.33      15.6  T
   7   -191.2006184 -0.196205E-07  0.254E-04    2.33      36.3  T
   8   -191.2006184 -0.232885E-08  0.121E-04    2.33      76.7  T
   9   -191.2006184 -0.862656E-09  0.532E-05    2.33     173.8  T
     SCC iter.                  ...        0 min,  0.214 sec
     gradient                   ...        0 min,  0.246 sec
 * total energy  :  -188.2399813 Eh     change       -0.1842459E-03 Eh
   gradient norm :     0.0047347 Eh/α   predicted    -0.1691302E-03 (  -8.20%)
   displ. norm   :     0.4276993 α      lambda       -0.2438227E-03
   maximum displ.:     0.1827483 α      in ANC's #3, #2, #13, ...

........................................................................
.............................. CYCLE   66 ..............................
........................................................................

 iter      E             dE          RMSdq      gap      omega  full diag
   1   -191.2027373 -0.191203E+03  0.735E-02    2.31       0.0  T
   2   -191.2027452 -0.784570E-05  0.434E-02    2.30       1.0  T
   3   -191.2027378  0.741549E-05  0.833E-03    2.30       1.1  T
   4   -191.2027466 -0.883537E-05  0.241E-03    2.29       3.8  T
   5   -191.2027471 -0.466106E-06  0.102E-03    2.29       9.0  T
   6   -191.2027471 -0.305390E-07  0.614E-04    2.29      15.0  T
   7   -191.2027471 -0.196401E-07  0.247E-04    2.29      37.5  T
   8   -191.2027471 -0.139065E-08  0.106E-04    2.29      87.5  T
   9   -191.2027471 -0.558771E-09  0.459E-05    2.29     201.6  T
     SCC iter.                  ...        0 min,  0.234 sec
     gradient                   ...        0 min,  0.249 sec
 * total energy  :  -188.2401574 Eh     change       -0.1760500E-03 Eh
   gradient norm :     0.0058082 Eh/α   predicted    -0.1442174E-03 ( -18.08%)
   displ. norm   :     0.4813427 α      lambda       -0.2609550E-03
   maximum displ.:     0.2297370 α      in ANC's #3, #2, #8, ...
 * RMSD in coord.:     1.2792967 α      energy gain  -0.1046432E-01 Eh

generating ANC from exact Hessian ...
Using Lindh-Hessian (1995)
 Shifting diagonal of input Hessian by    1.0046208796784696E-002
 Lowest  eigenvalues of input Hessian
    0.000000    0.010000    0.000000    0.000000    0.000000    0.000000
    0.000000    0.010100    0.010151    0.010291    0.010343    0.010364
    0.010429    0.010508    0.010539    0.010697    0.010818    0.010902
 Highest eigenvalues
    2.147293    2.210901    2.337325    2.348611    2.384751    3.098688


........................................................................
.............................. CYCLE   67 ..............................
........................................................................

 iter      E             dE          RMSdq      gap      omega  full diag
   1   -191.1992855 -0.191199E+03  0.744E-02    2.28       0.0  T
   2   -191.1993024 -0.168528E-04  0.447E-02    2.26       1.0  T
   3   -191.1992892  0.131357E-04  0.118E-02    2.26       1.0  T
   4   -191.1993046 -0.154262E-04  0.363E-03    2.25       2.5  T
   5   -191.1993059 -0.123715E-05  0.140E-03    2.26       6.6  T
   6   -191.1993059 -0.478801E-07  0.820E-04    2.26      11.3  T
   7   -191.1993060 -0.411943E-07  0.355E-04    2.26      26.0  T
   8   -191.1993060 -0.303311E-08  0.175E-04    2.26      52.9  T
   9   -191.1993060 -0.192207E-08  0.769E-05    2.26     120.2  T
     SCC iter.                  ...        0 min,  0.218 sec
     gradient                   ...        0 min,  0.247 sec
 * total energy  :  -188.2403533 Eh     change       -0.1958859E-03 Eh
   gradient norm :     0.0069178 Eh/α   predicted     0.0000000E+00 (-100.00%)
   displ. norm   :     0.0665360 α      lambda       -0.1268809E-03
   maximum displ.:     0.0267272 α      in ANC's #10, #3, #21, ...

........................................................................
.............................. CYCLE   68 ..............................
........................................................................

 iter      E             dE          RMSdq      gap      omega  full diag
   1   -191.2010194 -0.191201E+03  0.142E-02    2.26       0.0  T
   2   -191.2010206 -0.124540E-05  0.881E-03    2.26       1.0  T
   3   -191.2010196  0.988942E-06  0.331E-03    2.26       2.8  T
   4   -191.2010207 -0.110410E-05  0.126E-03    2.26       7.3  T
   5   -191.2010209 -0.173544E-06  0.440E-04    2.26      21.0  T
   6   -191.2010209 -0.821242E-08  0.244E-04    2.26      37.8  T
   7   -191.2010209 -0.365196E-08  0.100E-04    2.26      92.3  T
   8   -191.2010209 -0.389463E-09  0.528E-05    2.26     175.0  T
     SCC iter.                  ...        0 min,  0.219 sec
     gradient                   ...        0 min,  0.252 sec
 * total energy  :  -188.2404601 Eh     change       -0.1068573E-03 Eh
   gradient norm :     0.0047097 Eh/α   predicted    -0.6458624E-04 ( -39.56%)
   displ. norm   :     0.2235763 α      lambda       -0.2841734E-03
   maximum displ.:     0.0965620 α      in ANC's #10, #3, #21, ...

........................................................................
.............................. CYCLE   69 ..............................
........................................................................

 iter      E             dE          RMSdq      gap      omega  full diag
   1   -191.2032104 -0.191203E+03  0.415E-02    2.26       0.0  T
   2   -191.2032242 -0.138745E-04  0.261E-02    2.25       1.0  T
   3   -191.2032190  0.524112E-05  0.916E-03    2.25       1.0  T
   4   -191.2032247 -0.570337E-05  0.406E-03    2.24       2.3  T
   5   -191.2032266 -0.190554E-05  0.144E-03    2.25       6.4  T
   6   -191.2032267 -0.857073E-07  0.831E-04    2.25      11.1  T
   7   -191.2032267 -0.537462E-07  0.319E-04    2.25      29.0  T
   8   -191.2032267 -0.265621E-08  0.165E-04    2.25      56.1  T
   9   -191.2032267 -0.129512E-08  0.766E-05    2.25     120.6  T
     SCC iter.                  ...        0 min,  0.181 sec
     gradient                   ...        0 min,  0.244 sec
 * total energy  :  -188.2406584 Eh     change       -0.1982791E-03 Eh
   gradient norm :     0.0076648 Eh/α   predicted    -0.1491948E-03 ( -24.76%)
   displ. norm   :     0.2524233 α      lambda       -0.2160858E-03
   maximum displ.:     0.1110856 α      in ANC's #10, #3, #21, ...

........................................................................
.............................. CYCLE   70 ..............................
........................................................................

 iter      E             dE          RMSdq      gap      omega  full diag
   1   -191.2033916 -0.191203E+03  0.435E-02    2.25       0.0  T
   2   -191.2034135 -0.218828E-04  0.280E-02    2.23       1.0  T
   3   -191.2034101  0.345631E-05  0.105E-02    2.23       1.0  T
   4   -191.2034143 -0.417765E-05  0.461E-03    2.22       2.0  T
   5   -191.2034167 -0.242581E-05  0.165E-03    2.22       5.6  T
   6   -191.2034168 -0.927533E-07  0.978E-04    2.22       9.5  T
   7   -191.2034168 -0.798640E-07  0.382E-04    2.22      24.2  T
   8   -191.2034169 -0.345693E-08  0.187E-04    2.22      49.4  T
   9   -191.2034169 -0.155123E-08  0.877E-05    2.22     105.4  T
     SCC iter.                  ...        0 min,  0.230 sec
     gradient                   ...        0 min,  0.339 sec
 * total energy  :  -188.2408438 Eh     change       -0.1854017E-03 Eh
   gradient norm :     0.0115697 Eh/α   predicted    -0.1151873E-03 ( -37.87%)
   displ. norm   :     0.5790404 α      lambda       -0.5515160E-03
   maximum displ.:     0.2531422 α      in ANC's #10, #3, #21, ...

........................................................................
.............................. CYCLE   71 ..............................
........................................................................

 iter      E             dE          RMSdq      gap      omega  full diag
   1   -191.2014323 -0.191201E+03  0.997E-02    2.22       0.0  T
   2   -191.2015913 -0.159041E-03  0.661E-02    2.16       1.0  T
   3   -191.2015816  0.973578E-05  0.271E-02    2.16       1.0  T
   4   -191.2015967 -0.151020E-04  0.117E-02    2.15       1.0  T
   5   -191.2016123 -0.155508E-04  0.421E-03    2.15       2.2  T
   6   -191.2016128 -0.574895E-06  0.244E-03    2.15       3.8  T
   7   -191.2016133 -0.483049E-06  0.990E-04    2.15       9.3  T
   8   -191.2016133 -0.239551E-07  0.473E-04    2.15      19.6  T
   9   -191.2016134 -0.994117E-08  0.221E-04    2.15      41.8  T
  10   -191.2016134 -0.236690E-08  0.101E-04    2.15      91.8  T
  11   -191.2016134 -0.589552E-09  0.447E-05    2.15     207.1  T
     SCC iter.                  ...        0 min,  0.287 sec
     gradient                   ...        0 min,  0.287 sec
 * total energy  :  -188.2413631 Eh     change       -0.5193212E-03 Eh
   gradient norm :     0.0182267 Eh/α   predicted    -0.3682325E-03 ( -29.09%)
   displ. norm   :     0.8180373 α      lambda       -0.1026657E-02
   maximum displ.:     0.3524539 α      in ANC's #10, #3, #7, ...

........................................................................
.............................. CYCLE   72 ..............................
........................................................................

 iter      E             dE          RMSdq      gap      omega  full diag
   1   -191.1953476 -0.191195E+03  0.146E-01    2.13       0.0  T
   2   -191.1957573 -0.409729E-03  0.984E-02    2.04       1.0  T
   3   -191.1957474  0.991668E-05  0.430E-02    2.03       1.0  T
   4   -191.1957727 -0.253285E-04  0.183E-02    2.02       1.0  T
   5   -191.1958103 -0.375435E-04  0.660E-03    2.02       1.4  T
   6   -191.1958116 -0.138127E-05  0.375E-03    2.03       2.5  T
   7   -191.1958128 -0.112421E-05  0.157E-03    2.02       5.9  T
   8   -191.1958128 -0.648186E-07  0.732E-04    2.02      12.6  T
   9   -191.1958129 -0.240678E-07  0.340E-04    2.02      27.2  T
  10   -191.1958129 -0.523522E-08  0.161E-04    2.02      57.5  T
  11   -191.1958129 -0.153577E-08  0.716E-05    2.02     129.0  T
     SCC iter.                  ...        0 min,  0.278 sec
     gradient                   ...        0 min,  0.274 sec
 * total energy  :  -188.2422135 Eh     change       -0.8503498E-03 Eh
   gradient norm :     0.0259848 Eh/α   predicted    -0.8570125E-03 (   0.78%)
   displ. norm   :     0.3961948 α      lambda       -0.1478874E-02
   maximum displ.:     0.1593687 α      in ANC's #3, #10, #7, ...

........................................................................
.............................. CYCLE   73 ..............................
........................................................................

 iter      E             dE          RMSdq      gap      omega  full diag
   1   -191.1965558 -0.191197E+03  0.922E-02    1.98       0.0  T
   2   -191.1967646 -0.208753E-03  0.633E-02    1.91       1.0  T
   3   -191.1967671 -0.250829E-05  0.301E-02    1.90       1.0  T
   4   -191.1967732 -0.617087E-05  0.134E-02    1.89       1.0  T
   5   -191.1967920 -0.187635E-04  0.485E-03    1.89       1.9  T
   6   -191.1967929 -0.845571E-06  0.251E-03    1.89       3.7  T
   7   -191.1967932 -0.379376E-06  0.114E-03    1.89       8.1  T
   8   -191.1967933 -0.287323E-07  0.530E-04    1.89      17.4  T
   9   -191.1967933 -0.137809E-07  0.250E-04    1.89      37.0  T
  10   -191.1967933 -0.320858E-08  0.124E-04    1.89      74.6  T
  11   -191.1967933 -0.104336E-08  0.542E-05    1.89     170.4  T
     SCC iter.                  ...        0 min,  0.227 sec
     gradient                   ...        0 min,  0.222 sec
 * total energy  :  -188.2430386 Eh     change       -0.8250994E-03 Eh
   gradient norm :     0.0259138 Eh/α   predicted    -0.8555083E-03 (   3.69%)
   displ. norm   :     0.2372168 α      lambda       -0.1131892E-02
   maximum displ.:     0.0889500 α      in ANC's #32, #10, #26, ...

........................................................................
.............................. CYCLE   74 ..............................
........................................................................

 iter      E             dE          RMSdq      gap      omega  full diag
   1   -191.2039607 -0.191204E+03  0.508E-02    1.87       0.0  T
   2   -191.2039703 -0.957205E-05  0.300E-02    1.86       1.0  T
   3   -191.2039616  0.865031E-05  0.110E-02    1.86       1.0  T
   4   -191.2039717 -0.101059E-04  0.392E-03    1.86       2.4  T
   5   -191.2039731 -0.140198E-05  0.125E-03    1.86       7.4  T
   6   -191.2039732 -0.382651E-07  0.730E-04    1.86      12.7  T
   7   -191.2039732 -0.125624E-07  0.330E-04    1.86      28.0  T
   8   -191.2039732 -0.756816E-08  0.147E-04    1.86      62.8  T
   9   -191.2039732 -0.684622E-09  0.785E-05    1.86     117.8  T
     SCC iter.                  ...        0 min,  0.236 sec
     gradient                   ...        0 min,  0.238 sec
 * total energy  :  -188.2438007 Eh     change       -0.7621239E-03 Eh
   gradient norm :     0.0200196 Eh/α   predicted    -0.5977969E-03 ( -21.56%)
   displ. norm   :     0.3929985 α      lambda       -0.1585039E-02
   maximum displ.:     0.1548246 α      in ANC's #3, #32, #7, ...

........................................................................
.............................. CYCLE   75 ..............................
........................................................................

 iter      E             dE          RMSdq      gap      omega  full diag
   1   -191.2099853 -0.191210E+03  0.880E-02    1.83       0.0  T
   2   -191.2100730 -0.877606E-04  0.523E-02    1.77       1.0  T
   3   -191.2100416  0.313966E-04  0.242E-02    1.76       1.0  T
   4   -191.2100834 -0.417599E-04  0.999E-03    1.75       1.0  T
   5   -191.2100911 -0.768831E-05  0.353E-03    1.75       2.6  T
   6   -191.2100916 -0.522956E-06  0.189E-03    1.75       4.9  T
   7   -191.2100918 -0.135898E-06  0.913E-04    1.75      10.1  T
   8   -191.2100918 -0.161594E-07  0.406E-04    1.75      22.7  T
   9   -191.2100918 -0.951979E-08  0.191E-04    1.75      48.4  T
  10   -191.2100918 -0.987001E-09  0.109E-04    1.75      84.9  T
     SCC iter.                  ...        0 min,  0.224 sec
     gradient                   ...        0 min,  0.233 sec
 * total energy  :  -188.2447677 Eh     change       -0.9670379E-03 Eh
   gradient norm :     0.0138535 Eh/α   predicted    -0.9152354E-03 (  -5.36%)
   displ. norm   :     0.2111611 α      lambda       -0.5524878E-03
   maximum displ.:     0.1068421 α      in ANC's #32, #26, #25, ...

........................................................................
.............................. CYCLE   76 ..............................
........................................................................

 iter      E             dE          RMSdq      gap      omega  full diag
   1   -191.2120246 -0.191212E+03  0.427E-02    1.75       0.0  T
   2   -191.2120285 -0.388832E-05  0.247E-02    1.74       1.0  T
   3   -191.2120230  0.549024E-05  0.753E-03    1.74       1.2  T
   4   -191.2120295 -0.644006E-05  0.213E-03    1.73       4.3  T
   5   -191.2120298 -0.328833E-06  0.869E-04    1.73      10.6  T
   6   -191.2120298 -0.111536E-07  0.539E-04    1.73      17.2  T
   7   -191.2120298 -0.201691E-07  0.220E-04    1.73      42.0  T
   8   -191.2120298 -0.130430E-08  0.122E-04    1.73      75.8  T
   9   -191.2120298 -0.903668E-09  0.512E-05    1.73     180.6  T
     SCC iter.                  ...        0 min,  0.186 sec
     gradient                   ...        0 min,  0.233 sec
 * total energy  :  -188.2451256 Eh     change       -0.3578494E-03 Eh
   gradient norm :     0.0101053 Eh/α   predicted    -0.2885671E-03 ( -19.36%)
   displ. norm   :     0.2437426 α      lambda       -0.3726739E-03
   maximum displ.:     0.0878670 α      in ANC's #32, #3, #26, ...

........................................................................
.............................. CYCLE   77 ..............................
........................................................................

 iter      E             dE          RMSdq      gap      omega  full diag
   1   -191.2124555 -0.191212E+03  0.459E-02    1.72       0.0  T
   2   -191.2124756 -0.201024E-04  0.286E-02    1.68       1.0  T
   3   -191.2124709  0.472715E-05  0.102E-02    1.68       1.0  T
   4   -191.2124767 -0.584701E-05  0.403E-03    1.67       2.3  T
   5   -191.2124784 -0.168453E-05  0.180E-03    1.67       5.1  T
   6   -191.2124786 -0.205778E-06  0.900E-04    1.67      10.3  T
   7   -191.2124787 -0.574904E-07  0.396E-04    1.67      23.3  T
   8   -191.2124787 -0.243116E-08  0.196E-04    1.67      47.1  T
   9   -191.2124787 -0.238754E-08  0.826E-05    1.67     111.9  T
     SCC iter.                  ...        0 min,  0.184 sec
     gradient                   ...        0 min,  0.270 sec
 * total energy  :  -188.2453535 Eh     change       -0.2279269E-03 Eh
   gradient norm :     0.0069913 Eh/α   predicted    -0.1974103E-03 ( -13.39%)
   displ. norm   :     0.1796543 α      lambda       -0.1832329E-03
   maximum displ.:     0.0660090 α      in ANC's #10, #32, #25, ...

........................................................................
.............................. CYCLE   78 ..............................
........................................................................

 iter      E             dE          RMSdq      gap      omega  full diag
   1   -191.2107691 -0.191211E+03  0.282E-02    1.67       0.0  T
   2   -191.2107709 -0.179113E-05  0.170E-02    1.67       1.0  T
   3   -191.2107677  0.324588E-05  0.616E-03    1.67       1.5  T
   4   -191.2107713 -0.360603E-05  0.188E-03    1.67       4.9  T
   5   -191.2107717 -0.406912E-06  0.647E-04    1.67      14.3  T
   6   -191.2107717 -0.158196E-07  0.333E-04    1.67      27.8  T
   7   -191.2107717 -0.592638E-08  0.108E-04    1.67      85.2  T
   8   -191.2107717 -0.276856E-09  0.670E-05    1.67     138.1  T
     SCC iter.                  ...        0 min,  0.205 sec
     gradient                   ...        0 min,  0.265 sec
 * total energy  :  -188.2454714 Eh     change       -0.1179008E-03 Eh
   gradient norm :     0.0051073 Eh/α   predicted    -0.9457290E-04 ( -19.79%)
   displ. norm   :     0.1456196 α      lambda       -0.1023145E-03
   maximum displ.:     0.0488252 α      in ANC's #10, #18, #25, ...

........................................................................
.............................. CYCLE   79 ..............................
........................................................................

 iter      E             dE          RMSdq      gap      omega  full diag
   1   -191.2098821 -0.191210E+03  0.221E-02    1.66       0.0  T
   2   -191.2098836 -0.151080E-05  0.134E-02    1.66       1.0  T
   3   -191.2098817  0.196025E-05  0.478E-03    1.66       1.9  T
   4   -191.2098839 -0.221144E-05  0.147E-03    1.66       6.3  T
   5   -191.2098841 -0.268808E-06  0.563E-04    1.66      16.4  T
   6   -191.2098842 -0.159479E-07  0.288E-04    1.66      32.1  T
   7   -191.2098842 -0.510190E-08  0.104E-04    1.66      88.7  T
   8   -191.2098842 -0.353253E-09  0.612E-05    1.66     151.1  T
     SCC iter.                  ...        0 min,  0.224 sec
     gradient                   ...        0 min,  0.290 sec
 * total energy  :  -188.2455472 Eh     change       -0.7576039E-04 Eh
   gradient norm :     0.0040605 Eh/α   predicted    -0.5225197E-04 ( -31.03%)
   displ. norm   :     0.1928540 α      lambda       -0.1055476E-03
   maximum displ.:     0.0650498 α      in ANC's #18, #10, #17, ...

........................................................................
.............................. CYCLE   80 ..............................
........................................................................

 iter      E             dE          RMSdq      gap      omega  full diag
   1   -191.2092569 -0.191209E+03  0.277E-02    1.65       0.0  T
   2   -191.2092580 -0.109750E-05  0.163E-02    1.65       1.0  T
   3   -191.2092544  0.359861E-05  0.573E-03    1.65       1.6  T
   4   -191.2092586 -0.415792E-05  0.118E-03    1.65       7.9  T
   5   -191.2092587 -0.115646E-06  0.533E-04    1.65      17.4  T
   6   -191.2092587 -0.120185E-07  0.275E-04    1.65      33.6  T
   7   -191.2092587 -0.356715E-08  0.102E-04    1.65      90.6  T
   8   -191.2092587 -0.581309E-09  0.566E-05    1.65     163.4  T
     SCC iter.                  ...        0 min,  0.220 sec
     gradient                   ...        0 min,  0.261 sec
 * total energy  :  -188.2456238 Eh     change       -0.7664888E-04 Eh
   gradient norm :     0.0046622 Eh/α   predicted    -0.5473771E-04 ( -28.59%)
   displ. norm   :     0.2130013 α      lambda       -0.9003959E-04
   maximum displ.:     0.0747761 α      in ANC's #18, #17, #10, ...

........................................................................
.............................. CYCLE   81 ..............................
........................................................................

 iter      E             dE          RMSdq      gap      omega  full diag
   1   -191.2094171 -0.191209E+03  0.282E-02    1.64       0.0  T
   2   -191.2094180 -0.817476E-06  0.165E-02    1.64       1.0  T
   3   -191.2094146  0.334323E-05  0.546E-03    1.65       1.7  T
   4   -191.2094185 -0.385352E-05  0.912E-04    1.64      10.1  T
   5   -191.2094185 -0.530097E-07  0.494E-04    1.64      18.7  T
   6   -191.2094185 -0.156282E-07  0.199E-04    1.64      46.4  T
   7   -191.2094185 -0.176300E-08  0.946E-05    1.64      97.7  T
     SCC iter.                  ...        0 min,  0.191 sec
     gradient                   ...        0 min,  0.297 sec
 * total energy  :  -188.2456885 Eh     change       -0.6471354E-04 Eh
   gradient norm :     0.0048332 Eh/α   predicted    -0.4706514E-04 ( -27.27%)
   displ. norm   :     0.2189332 α      lambda       -0.7756372E-04
   maximum displ.:     0.0756224 α      in ANC's #18, #17, #7, ...

........................................................................
.............................. CYCLE   82 ..............................
........................................................................

 iter      E             dE          RMSdq      gap      omega  full diag
   1   -191.2098491 -0.191210E+03  0.268E-02    1.64       0.0  T
   2   -191.2098504 -0.127428E-05  0.157E-02    1.64       1.0  T
   3   -191.2098473  0.314993E-05  0.557E-03    1.64       1.7  T
   4   -191.2098509 -0.360760E-05  0.123E-03    1.64       7.5  T
   5   -191.2098510 -0.132677E-06  0.524E-04    1.64      17.7  T
   6   -191.2098510 -0.182825E-07  0.249E-04    1.64      37.1  T
   7   -191.2098510 -0.302964E-08  0.113E-04    1.64      82.1  T
   8   -191.2098510 -0.713129E-09  0.551E-05    1.64     167.8  T
     SCC iter.                  ...        0 min,  0.186 sec
     gradient                   ...        0 min,  0.242 sec
 * total energy  :  -188.2457412 Eh     change       -0.5268711E-04 Eh
   gradient norm :     0.0037899 Eh/α   predicted    -0.4064249E-04 ( -22.86%)
   displ. norm   :     0.1895437 α      lambda       -0.6266736E-04
   maximum displ.:     0.0651053 α      in ANC's #2, #5, #18, ...

........................................................................
.............................. CYCLE   83 ..............................
........................................................................

 iter      E             dE          RMSdq      gap      omega  full diag
   1   -191.2108673 -0.191211E+03  0.215E-02    1.64       0.0  T
   2   -191.2108681 -0.796888E-06  0.128E-02    1.64       1.0  T
   3   -191.2108667  0.135128E-05  0.379E-03    1.64       2.4  T
   4   -191.2108682 -0.151278E-05  0.103E-03    1.64       9.0  T
   5   -191.2108684 -0.126058E-06  0.376E-04    1.64      24.6  T
   6   -191.2108684 -0.689570E-08  0.193E-04    1.64      48.0  T
   7   -191.2108684 -0.291593E-08  0.769E-05    1.64     120.1  T
     SCC iter.                  ...        0 min,  0.176 sec
     gradient                   ...        0 min,  0.238 sec
 * total energy  :  -188.2457832 Eh     change       -0.4200114E-04 Eh
   gradient norm :     0.0029234 Eh/α   predicted    -0.3246772E-04 ( -22.70%)
   displ. norm   :     0.1760700 α      lambda       -0.5282335E-04
   maximum displ.:     0.0673099 α      in ANC's #2, #5, #7, ...

........................................................................
.............................. CYCLE   84 ..............................
........................................................................

 iter      E             dE          RMSdq      gap      omega  full diag
   1   -191.2112992 -0.191211E+03  0.211E-02    1.64       0.0  T
   2   -191.2113001 -0.896488E-06  0.124E-02    1.64       1.0  T
   3   -191.2112985  0.157375E-05  0.403E-03    1.64       2.3  T
   4   -191.2113003 -0.178785E-05  0.953E-04    1.64       9.7  T
   5   -191.2113004 -0.105224E-06  0.295E-04    1.64      31.3  T
   6   -191.2113004 -0.315799E-08  0.157E-04    1.64      58.9  T
   7   -191.2113004 -0.130044E-08  0.532E-05    1.64     173.7  T
     SCC iter.                  ...        0 min,  0.142 sec
     gradient                   ...        0 min,  0.239 sec
 * total energy  :  -188.2458232 Eh     change       -0.3993657E-04 Eh
   gradient norm :     0.0033528 Eh/α   predicted    -0.2723551E-04 ( -31.80%)
   displ. norm   :     0.2078887 α      lambda       -0.5997876E-04
   maximum displ.:     0.0837472 α      in ANC's #2, #5, #7, ...

........................................................................
.............................. CYCLE   85 ..............................
........................................................................

 iter      E             dE          RMSdq      gap      omega  full diag
   1   -191.2113315 -0.191211E+03  0.268E-02    1.64       0.0  T
   2   -191.2113322 -0.675060E-06  0.157E-02    1.64       1.0  T
   3   -191.2113297  0.244922E-05  0.458E-03    1.64       2.0  T
   4   -191.2113325 -0.278161E-05  0.763E-04    1.64      12.1  T
   5   -191.2113325 -0.548478E-07  0.352E-04    1.64      26.3  T
   6   -191.2113325 -0.716003E-08  0.177E-04    1.64      52.2  T
   7   -191.2113325 -0.149700E-08  0.735E-05    1.64     125.8  T
     SCC iter.                  ...        0 min,  0.167 sec
     gradient                   ...        0 min,  0.252 sec
 * total energy  :  -188.2458682 Eh     change       -0.4508750E-04 Eh
   gradient norm :     0.0038576 Eh/α   predicted    -0.3128761E-04 ( -30.61%)
   displ. norm   :     0.2197983 α      lambda       -0.5287509E-04
   maximum displ.:     0.0939088 α      in ANC's #2, #5, #7, ...

........................................................................
.............................. CYCLE   86 ..............................
........................................................................

 iter      E             dE          RMSdq      gap      omega  full diag
   1   -191.2108087 -0.191211E+03  0.280E-02    1.64       0.0  T
   2   -191.2108094 -0.638086E-06  0.164E-02    1.64       1.0  T
   3   -191.2108069  0.246565E-05  0.460E-03    1.64       2.0  T
   4   -191.2108097 -0.276958E-05  0.829E-04    1.64      11.2  T
   5   -191.2108097 -0.628570E-07  0.361E-04    1.64      25.6  T
   6   -191.2108097 -0.893283E-08  0.183E-04    1.64      50.6  T
   7   -191.2108097 -0.194987E-08  0.741E-05    1.64     124.8  T
     SCC iter.                  ...        0 min,  0.177 sec
     gradient                   ...        0 min,  0.266 sec
 * total energy  :  -188.2459076 Eh     change       -0.3933776E-04 Eh
   gradient norm :     0.0032516 Eh/α   predicted    -0.2771756E-04 ( -29.54%)
   displ. norm   :     0.2068250 α      lambda       -0.4343121E-04
   maximum displ.:     0.0937186 α      in ANC's #2, #7, #5, ...

........................................................................
.............................. CYCLE   87 ..............................
........................................................................

 iter      E             dE          RMSdq      gap      omega  full diag
   1   -191.2104543 -0.191210E+03  0.247E-02    1.64       0.0  T
   2   -191.2104549 -0.529741E-06  0.146E-02    1.64       1.0  T
   3   -191.2104535  0.130854E-05  0.352E-03    1.64       2.6  T
   4   -191.2104550 -0.143849E-05  0.913E-04    1.64      10.1  T
   5   -191.2104551 -0.902209E-07  0.289E-04    1.64      32.0  T
   6   -191.2104551 -0.264649E-08  0.182E-04    1.64      50.8  T
   7   -191.2104551 -0.270191E-08  0.665E-05    1.64     139.0  T
     SCC iter.                  ...        0 min,  0.174 sec
     gradient                   ...        0 min,  0.260 sec
 * total energy  :  -188.2459415 Eh     change       -0.3391096E-04 Eh
   gradient norm :     0.0022749 Eh/α   predicted    -0.2264940E-04 ( -33.21%)
   displ. norm   :     0.2296008 α      lambda       -0.4725085E-04
   maximum displ.:     0.1079617 α      in ANC's #2, #7, #3, ...

........................................................................
.............................. CYCLE   88 ..............................
........................................................................

 iter      E             dE          RMSdq      gap      omega  full diag
   1   -191.2103163 -0.191210E+03  0.253E-02    1.64       0.0  T
   2   -191.2103169 -0.645335E-06  0.150E-02    1.64       1.0  T
   3   -191.2103159  0.982498E-06  0.332E-03    1.64       2.8  T
   4   -191.2103170 -0.109829E-05  0.931E-04    1.64       9.9  T
   5   -191.2103171 -0.862292E-07  0.257E-04    1.64      36.0  T
   6   -191.2103171 -0.289816E-09  0.158E-04    1.64      58.5  T
   7   -191.2103171 -0.144485E-08  0.630E-05    1.64     146.7  T
     SCC iter.                  ...        0 min,  0.157 sec
     gradient                   ...        0 min,  0.247 sec
 * total energy  :  -188.2459794 Eh     change       -0.3792270E-04 Eh
   gradient norm :     0.0024159 Eh/α   predicted    -0.2487155E-04 ( -34.42%)
   displ. norm   :     0.2788181 α      lambda       -0.5516418E-04
   maximum displ.:     0.1338822 α      in ANC's #2, #7, #3, ...

........................................................................
.............................. CYCLE   89 ..............................
........................................................................

 iter      E             dE          RMSdq      gap      omega  full diag
   1   -191.2103440 -0.191210E+03  0.285E-02    1.64       0.0  T
   2   -191.2103448 -0.790362E-06  0.169E-02    1.64       1.0  T
   3   -191.2103433  0.144946E-05  0.399E-03    1.64       2.3  T
   4   -191.2103449 -0.162592E-05  0.989E-04    1.64       9.3  T
   5   -191.2103450 -0.955349E-07  0.305E-04    1.64      30.3  T
   6   -191.2103450 -0.210298E-08  0.195E-04    1.64      47.4  T
   7   -191.2103450 -0.158224E-08  0.831E-05    1.64     111.2  T
     SCC iter.                  ...        0 min,  0.145 sec
     gradient                   ...        0 min,  0.205 sec
 * total energy  :  -188.2460240 Eh     change       -0.4460210E-04 Eh
   gradient norm :     0.0034634 Eh/α   predicted    -0.2972740E-04 ( -33.35%)
   displ. norm   :     0.3253025 α      lambda       -0.6031910E-04
   maximum displ.:     0.1583629 α      in ANC's #2, #3, #7, ...

........................................................................
.............................. CYCLE   90 ..............................
........................................................................

 iter      E             dE          RMSdq      gap      omega  full diag
   1   -191.2103931 -0.191210E+03  0.316E-02    1.64       0.0  T
   2   -191.2103939 -0.849920E-06  0.187E-02    1.64       1.0  T
   3   -191.2103914  0.251256E-05  0.501E-03    1.64       1.8  T
   4   -191.2103942 -0.282380E-05  0.962E-04    1.64       9.6  T
   5   -191.2103943 -0.858068E-07  0.355E-04    1.64      26.0  T
   6   -191.2103943 -0.434690E-08  0.215E-04    1.64      43.0  T
   7   -191.2103943 -0.155984E-08  0.982E-05    1.64      94.1  T
   8   -191.2103943 -0.649635E-09  0.373E-05    1.64     248.0  T
     SCC iter.                  ...        0 min,  0.195 sec
     gradient                   ...        0 min,  0.237 sec
 * total energy  :  -188.2460731 Eh     change       -0.4906767E-04 Eh
   gradient norm :     0.0038533 Eh/α   predicted    -0.3335542E-04 ( -32.02%)
   displ. norm   :     0.3563157 α      lambda       -0.6134438E-04
   maximum displ.:     0.1765510 α      in ANC's #2, #3, #7, ...

........................................................................
.............................. CYCLE   91 ..............................
........................................................................

 iter      E             dE          RMSdq      gap      omega  full diag
   1   -191.2104217 -0.191210E+03  0.335E-02    1.64       0.0  T
   2   -191.2104226 -0.859985E-06  0.197E-02    1.64       1.0  T
   3   -191.2104194  0.312821E-05  0.547E-03    1.64       1.7  T
   4   -191.2104230 -0.352096E-05  0.950E-04    1.64       9.7  T
   5   -191.2104230 -0.722419E-07  0.415E-04    1.64      22.3  T
   6   -191.2104230 -0.742935E-08  0.214E-04    1.64      43.2  T
   7   -191.2104230 -0.214317E-08  0.101E-04    1.64      91.9  T
   8   -191.2104230 -0.685418E-09  0.369E-05    1.64     250.3  T
     SCC iter.                  ...        0 min,  0.180 sec
     gradient                   ...        0 min,  0.229 sec
 * total energy  :  -188.2461227 Eh     change       -0.4962156E-04 Eh
   gradient norm :     0.0032012 Eh/α   predicted    -0.3456829E-04 ( -30.34%)
   displ. norm   :     0.3596068 α      lambda       -0.5568471E-04
   maximum displ.:     0.1814759 α      in ANC's #2, #3, #7, ...

........................................................................
.............................. CYCLE   92 ..............................
........................................................................

 iter      E             dE          RMSdq      gap      omega  full diag
   1   -191.2103051 -0.191210E+03  0.330E-02    1.64       0.0  T
   2   -191.2103059 -0.774583E-06  0.193E-02    1.64       1.0  T
   3   -191.2103033  0.256517E-05  0.495E-03    1.65       1.9  T
   4   -191.2103063 -0.291443E-05  0.910E-04    1.64      10.2  T
   5   -191.2103063 -0.478379E-07  0.453E-04    1.64      20.4  T
   6   -191.2103063 -0.118671E-07  0.197E-04    1.64      46.8  T
   7   -191.2103063 -0.204830E-08  0.956E-05    1.64      96.7  T
     SCC iter.                  ...        0 min,  0.168 sec
     gradient                   ...        0 min,  0.256 sec
 * total energy  :  -188.2461675 Eh     change       -0.4480185E-04 Eh
   gradient norm :     0.0021469 Eh/α   predicted    -0.3144767E-04 ( -29.81%)
   displ. norm   :     0.3426538 α      lambda       -0.4729562E-04
   maximum displ.:     0.1766046 α      in ANC's #2, #3, #7, ...
 * RMSD in coord.:     0.4601966 α      energy gain  -0.6010133E-02 Eh

generating ANC from exact Hessian ...
Using Lindh-Hessian (1995)
 Shifting diagonal of input Hessian by    9.9676463633997531E-003
 Lowest  eigenvalues of input Hessian
    0.000000    0.000000    0.000000    0.000000    0.000000    0.000000
    0.010000    0.010028    0.010074    0.010170    0.010238    0.010267
    0.010324    0.010358    0.010511    0.010527    0.010668    0.010779
 Highest eigenvalues
    2.145863    2.267145    2.338662    2.346466    2.433175    3.074638


........................................................................
.............................. CYCLE   93 ..............................
........................................................................

 iter      E             dE          RMSdq      gap      omega  full diag
   1   -191.2102169 -0.191210E+03  0.310E-02    1.65       0.0  T
   2   -191.2102175 -0.596695E-06  0.181E-02    1.65       1.0  T
   3   -191.2102160  0.147456E-05  0.377E-03    1.65       2.5  T
   4   -191.2102177 -0.171657E-05  0.784E-04    1.65      11.8  T
   5   -191.2102178 -0.256597E-07  0.404E-04    1.65      22.9  T
   6   -191.2102178 -0.867161E-08  0.167E-04    1.65      55.3  T
   7   -191.2102178 -0.133784E-08  0.825E-05    1.65     112.1  T
     SCC iter.                  ...        0 min,  0.148 sec
     gradient                   ...        0 min,  0.271 sec
 * total energy  :  -188.2462056 Eh     change       -0.3808430E-04 Eh
   gradient norm :     0.0018632 Eh/α   predicted     0.0000000E+00 (-100.00%)
   displ. norm   :     0.0434427 α      lambda       -0.8035218E-05
   maximum displ.:     0.0160763 α      in ANC's #2, #14, #13, ...

........................................................................
.............................. CYCLE   94 ..............................
........................................................................

 iter      E             dE          RMSdq      gap      omega  full diag
   1   -191.2105813 -0.191211E+03  0.693E-03    1.65       0.0  T
   2   -191.2105814 -0.720088E-07  0.408E-03    1.65       2.3  T
   3   -191.2105810  0.386212E-06  0.194E-03    1.65       4.8  T
   4   -191.2105815 -0.439975E-06  0.315E-04    1.65      29.3  T
   5   -191.2105815 -0.732601E-08  0.135E-04    1.65      68.3  T
   6   -191.2105815 -0.119485E-08  0.637E-05    1.65     145.2  T
     SCC iter.                  ...        0 min,  0.158 sec
     gradient                   ...        0 min,  0.215 sec
 * total energy  :  -188.2462234 Eh     change       -0.1775328E-04 Eh
   gradient norm :     0.0007561 Eh/α   predicted    -0.7108135E-05 ( -59.96%)
   displ. norm   :     0.1536286 α      lambda       -0.3340526E-04
   maximum displ.:     0.0589976 α      in ANC's #2, #14, #13, ...

........................................................................
.............................. CYCLE   95 ..............................
........................................................................

 iter      E             dE          RMSdq      gap      omega  full diag
   1   -191.2108610 -0.191211E+03  0.215E-02    1.65       0.0  T
   2   -191.2108614 -0.352235E-06  0.126E-02    1.65       1.0  T
   3   -191.2108584  0.294148E-05  0.505E-03    1.65       1.8  T
   4   -191.2108617 -0.328873E-05  0.705E-04    1.65      13.1  T
   5   -191.2108618 -0.299662E-07  0.334E-04    1.65      27.7  T
   6   -191.2108618 -0.528723E-08  0.160E-04    1.65      57.6  T
   7   -191.2108618 -0.189485E-08  0.690E-05    1.65     134.0  T
     SCC iter.                  ...        0 min,  0.211 sec
     gradient                   ...        0 min,  0.288 sec
 * total energy  :  -188.2462557 Eh     change       -0.3231014E-04 Eh
   gradient norm :     0.0016848 Eh/α   predicted    -0.1687834E-04 ( -47.76%)
   displ. norm   :     0.1160388 α      lambda       -0.1429180E-04
   maximum displ.:     0.0502557 α      in ANC's #2, #14, #13, ...

........................................................................
.............................. CYCLE   96 ..............................
........................................................................

 iter      E             dE          RMSdq      gap      omega  full diag
   1   -191.2109905 -0.191211E+03  0.143E-02    1.65       0.0  T
   2   -191.2109906 -0.134434E-06  0.845E-03    1.65       1.1  T
   3   -191.2109896  0.107152E-05  0.292E-03    1.65       3.2  T
   4   -191.2109908 -0.119920E-05  0.399E-04    1.65      23.2  T
   5   -191.2109908 -0.983135E-08  0.186E-04    1.65      49.6  T
   6   -191.2109908 -0.643553E-09  0.105E-04    1.65      87.6  T
     SCC iter.                  ...        0 min,  0.152 sec
     gradient                   ...        0 min,  0.263 sec
 * total energy  :  -188.2462722 Eh     change       -0.1658086E-04 Eh
   gradient norm :     0.0018101 Eh/α   predicted    -0.7189322E-05 ( -56.64%)
   displ. norm   :     0.1887787 α      lambda       -0.2198928E-04
   maximum displ.:     0.0853216 α      in ANC's #2, #14, #13, ...

........................................................................
.............................. CYCLE   97 ..............................
........................................................................

 iter      E             dE          RMSdq      gap      omega  full diag
   1   -191.2110385 -0.191211E+03  0.217E-02    1.66       0.0  T
   2   -191.2110388 -0.312646E-06  0.129E-02    1.66       1.0  T
   3   -191.2110371  0.170034E-05  0.366E-03    1.66       2.5  T
   4   -191.2110390 -0.189473E-05  0.652E-04    1.66      14.2  T
   5   -191.2110391 -0.375751E-07  0.273E-04    1.66      33.8  T
   6   -191.2110391 -0.140236E-08  0.153E-04    1.66      60.5  T
   7   -191.2110391 -0.884114E-09  0.505E-05    1.66     182.9  T
     SCC iter.                  ...        0 min,  0.173 sec
     gradient                   ...        0 min,  0.279 sec
 * total energy  :  -188.2462967 Eh     change       -0.2441426E-04 Eh
   gradient norm :     0.0012500 Eh/α   predicted    -0.1117005E-04 ( -54.25%)
   displ. norm   :     0.2333065 α      lambda       -0.2518780E-04
   maximum displ.:     0.1111481 α      in ANC's #2, #14, #3, ...

........................................................................
.............................. CYCLE   98 ..............................
........................................................................

 iter      E             dE          RMSdq      gap      omega  full diag
   1   -191.2107868 -0.191211E+03  0.268E-02    1.66       0.0  T
   2   -191.2107872 -0.474921E-06  0.160E-02    1.66       1.0  T
   3   -191.2107843  0.291546E-05  0.477E-03    1.66       1.9  T
   4   -191.2107876 -0.322916E-05  0.856E-04    1.66      10.8  T
   5   -191.2107876 -0.731707E-07  0.356E-04    1.66      26.0  T
   6   -191.2107876 -0.297695E-08  0.209E-04    1.66      44.3  T
   7   -191.2107876 -0.158278E-08  0.874E-05    1.66     105.7  T
   8   -191.2107876 -0.603961E-09  0.357E-05    1.66     259.2  T
     SCC iter.                  ...        0 min,  0.206 sec
     gradient                   ...        0 min,  0.256 sec
 * total energy  :  -188.2463222 Eh     change       -0.2558870E-04 Eh
   gradient norm :     0.0011688 Eh/α   predicted    -0.1289872E-04 ( -49.59%)
   displ. norm   :     0.2016491 α      lambda       -0.1974507E-04
   maximum displ.:     0.1008077 α      in ANC's #2, #3, #1, ...

........................................................................
.............................. CYCLE   99 ..............................
........................................................................

 iter      E             dE          RMSdq      gap      omega  full diag
   1   -191.2107547 -0.191211E+03  0.230E-02    1.67       0.0  T
   2   -191.2107550 -0.306111E-06  0.136E-02    1.66       1.0  T
   3   -191.2107534  0.158111E-05  0.361E-03    1.67       2.6  T
   4   -191.2107552 -0.175831E-05  0.667E-04    1.66      13.9  T
   5   -191.2107552 -0.377934E-07  0.315E-04    1.66      29.4  T
   6   -191.2107552 -0.316911E-08  0.173E-04    1.66      53.5  T
   7   -191.2107552 -0.910319E-09  0.765E-05    1.66     120.8  T
     SCC iter.                  ...        0 min,  0.227 sec
     gradient                   ...        0 min,  0.356 sec
 * total energy  :  -188.2463443 Eh     change       -0.2201713E-04 Eh
   gradient norm :     0.0014689 Eh/α   predicted    -0.1005748E-04 ( -54.32%)
   displ. norm   :     0.2245712 α      lambda       -0.2268669E-04
   maximum displ.:     0.1152241 α      in ANC's #2, #1, #3, ...

........................................................................
.............................. CYCLE  100 ..............................
........................................................................

 iter      E             dE          RMSdq      gap      omega  full diag
   1   -191.2107926 -0.191211E+03  0.259E-02    1.67       0.0  T
   2   -191.2107930 -0.308571E-06  0.153E-02    1.67       1.0  T
   3   -191.2107911  0.181941E-05  0.394E-03    1.67       2.3  T
   4   -191.2107932 -0.204557E-05  0.602E-04    1.67      15.4  T
   5   -191.2107932 -0.202953E-07  0.329E-04    1.67      28.1  T
   6   -191.2107932 -0.295876E-08  0.165E-04    1.67      56.1  T
   7   -191.2107932 -0.785349E-09  0.752E-05    1.67     122.9  T
     SCC iter.                  ...        0 min,  0.175 sec
     gradient                   ...        0 min,  0.251 sec
 * total energy  :  -188.2463706 Eh     change       -0.2636017E-04 Eh
   gradient norm :     0.0015991 Eh/α   predicted    -0.1159948E-04 ( -56.00%)
   displ. norm   :     0.2979195 α      lambda       -0.2954857E-04
   maximum displ.:     0.1542614 α      in ANC's #2, #1, #3, ...

........................................................................
.............................. CYCLE  101 ..............................
........................................................................

 iter      E             dE          RMSdq      gap      omega  full diag
   1   -191.2104391 -0.191210E+03  0.350E-02    1.67       0.0  T
   2   -191.2104397 -0.565536E-06  0.206E-02    1.67       1.0  T
   3   -191.2104369  0.275542E-05  0.494E-03    1.67       1.9  T
   4   -191.2104400 -0.313198E-05  0.761E-04    1.67      12.1  T
   5   -191.2104401 -0.314978E-07  0.417E-04    1.67      22.2  T
   6   -191.2104401 -0.558856E-08  0.186E-04    1.67      49.6  T
   7   -191.2104401 -0.657792E-09  0.861E-05    1.67     107.4  T
     SCC iter.                  ...        0 min,  0.158 sec
     gradient                   ...        0 min,  0.272 sec
 * total energy  :  -188.2464043 Eh     change       -0.3370134E-04 Eh
   gradient norm :     0.0014517 Eh/α   predicted    -0.1536202E-04 ( -54.42%)
   displ. norm   :     0.3541336 α      lambda       -0.3390682E-04
   maximum displ.:     0.1868404 α      in ANC's #2, #1, #3, ...

........................................................................
.............................. CYCLE  102 ..............................
........................................................................

 iter      E             dE          RMSdq      gap      omega  full diag
   1   -191.2099993 -0.191210E+03  0.415E-02    1.68       0.0  T
   2   -191.2100001 -0.809362E-06  0.244E-02    1.68       1.0  T
   3   -191.2099950  0.506258E-05  0.671E-03    1.68       1.4  T
   4   -191.2100007 -0.571218E-05  0.886E-04    1.68      10.4  T
   5   -191.2100008 -0.407304E-07  0.467E-04    1.68      19.8  T
   6   -191.2100008 -0.592664E-08  0.197E-04    1.68      47.0  T
   7   -191.2100008 -0.105581E-08  0.768E-05    1.68     120.4  T
     SCC iter.                  ...        0 min,  0.154 sec
     gradient                   ...        0 min,  0.279 sec
 * total energy  :  -188.2464440 Eh     change       -0.3963979E-04 Eh
   gradient norm :     0.0016481 Eh/α   predicted    -0.1790295E-04 ( -54.84%)
   displ. norm   :     0.4363697 α      lambda       -0.4294040E-04
   maximum displ.:     0.2337443 α      in ANC's #2, #1, #3, ...

........................................................................
.............................. CYCLE  103 ..............................
........................................................................

 iter      E             dE          RMSdq      gap      omega  full diag
   1   -191.2096726 -0.191210E+03  0.510E-02    1.68       0.0  T
   2   -191.2096737 -0.115662E-05  0.299E-02    1.69       1.0  T
   3   -191.2096668  0.692662E-05  0.785E-03    1.69       1.2  T
   4   -191.2096746 -0.780950E-05  0.110E-03    1.69       8.4  T
   5   -191.2096747 -0.611866E-07  0.581E-04    1.69      15.9  T
   6   -191.2096747 -0.907625E-08  0.240E-04    1.69      38.5  T
   7   -191.2096747 -0.171445E-08  0.106E-04    1.69      86.9  T
   8   -191.2096747 -0.800839E-09  0.513E-05    1.69     180.3  T
     SCC iter.                  ...        0 min,  0.245 sec
     gradient                   ...        0 min,  0.331 sec
 * total energy  :  -188.2464962 Eh     change       -0.5222358E-04 Eh
   gradient norm :     0.0021862 Eh/α   predicted    -0.2328889E-04 ( -55.41%)
   displ. norm   :     0.3455184 α      lambda       -0.5648737E-04
   maximum displ.:     0.1883737 α      in ANC's #2, #1, #3, ...

........................................................................
.............................. CYCLE  104 ..............................
........................................................................

 iter      E             dE          RMSdq      gap      omega  full diag
   1   -191.2097867 -0.191210E+03  0.396E-02    1.69       0.0  T
   2   -191.2097875 -0.712032E-06  0.232E-02    1.69       1.0  T
   3   -191.2097832  0.426388E-05  0.611E-03    1.70       1.5  T
   4   -191.2097880 -0.479237E-05  0.904E-04    1.69      10.2  T
   5   -191.2097880 -0.433081E-07  0.472E-04    1.69      19.6  T
   6   -191.2097880 -0.572265E-08  0.198E-04    1.69      46.6  T
   7   -191.2097880 -0.134034E-08  0.922E-05    1.69     100.3  T
     SCC iter.                  ...        0 min,  0.167 sec
     gradient                   ...        0 min,  0.251 sec
 * total energy  :  -188.2465456 Eh     change       -0.4942654E-04 Eh
   gradient norm :     0.0023871 Eh/α   predicted    -0.3161729E-04 ( -36.03%)
   displ. norm   :     0.4693137 α      lambda       -0.8571163E-04
   maximum displ.:     0.2579094 α      in ANC's #2, #1, #3, ...

........................................................................
.............................. CYCLE  105 ..............................
........................................................................

 iter      E             dE          RMSdq      gap      omega  full diag
   1   -191.2099188 -0.191210E+03  0.523E-02    1.70       0.0  T
   2   -191.2099201 -0.127361E-05  0.306E-02    1.70       1.0  T
   3   -191.2099130  0.710415E-05  0.785E-03    1.70       1.2  T
   4   -191.2099210 -0.798619E-05  0.126E-03    1.70       7.3  T
   5   -191.2099211 -0.871225E-07  0.655E-04    1.70      14.1  T
   6   -191.2099211 -0.114695E-07  0.275E-04    1.70      33.6  T
   7   -191.2099211 -0.257199E-08  0.127E-04    1.70      73.0  T
   8   -191.2099211 -0.110754E-08  0.610E-05    1.70     151.7  T
     SCC iter.                  ...        0 min,  0.172 sec
     gradient                   ...        0 min,  0.251 sec
 * total energy  :  -188.2466174 Eh     change       -0.7179107E-04 Eh
   gradient norm :     0.0026454 Eh/α   predicted    -0.5230027E-04 ( -27.15%)
   displ. norm   :     0.4785361 α      lambda       -0.9051352E-04
   maximum displ.:     0.2656013 α      in ANC's #2, #1, #3, ...

........................................................................
.............................. CYCLE  106 ..............................
........................................................................

 iter      E             dE          RMSdq      gap      omega  full diag
   1   -191.2101260 -0.191210E+03  0.508E-02    1.71       0.0  T
   2   -191.2101272 -0.126832E-05  0.298E-02    1.71       1.0  T
   3   -191.2101212  0.600644E-05  0.718E-03    1.71       1.3  T
   4   -191.2101280 -0.677653E-05  0.127E-03    1.71       7.3  T
   5   -191.2101281 -0.947989E-07  0.664E-04    1.71      13.9  T
   6   -191.2101281 -0.144622E-07  0.275E-04    1.71      33.7  T
   7   -191.2101281 -0.210719E-08  0.126E-04    1.71      73.4  T
   8   -191.2101281 -0.113337E-08  0.588E-05    1.71     157.2  T
     SCC iter.                  ...        0 min,  0.177 sec
     gradient                   ...        0 min,  0.238 sec
 * total energy  :  -188.2466905 Eh     change       -0.7307778E-04 Eh
   gradient norm :     0.0026354 Eh/α   predicted    -0.5562084E-04 ( -23.89%)
   displ. norm   :     0.4238410 α      lambda       -0.8477923E-04
   maximum displ.:     0.2375767 α      in ANC's #2, #1, #3, ...

........................................................................
.............................. CYCLE  107 ..............................
........................................................................

 iter      E             dE          RMSdq      gap      omega  full diag
   1   -191.2107171 -0.191211E+03  0.414E-02    1.71       0.0  T
   2   -191.2107181 -0.992866E-06  0.243E-02    1.71       1.0  T
   3   -191.2107144  0.369423E-05  0.565E-03    1.71       1.6  T
   4   -191.2107186 -0.422291E-05  0.101E-03    1.71       9.1  T
   5   -191.2107187 -0.614632E-07  0.556E-04    1.71      16.6  T
   6   -191.2107187 -0.132830E-07  0.227E-04    1.71      40.8  T
   7   -191.2107187 -0.109824E-08  0.982E-05    1.71      94.1  T
   8   -191.2107187 -0.670184E-09  0.444E-05    1.71     208.1  T
     SCC iter.                  ...        0 min,  0.180 sec
     gradient                   ...        0 min,  0.233 sec
 * total energy  :  -188.2467618 Eh     change       -0.7131531E-04 Eh
   gradient norm :     0.0022882 Eh/α   predicted    -0.5000465E-04 ( -29.88%)
   displ. norm   :     0.5117339 α      lambda       -0.1012384E-03
   maximum displ.:     0.2896337 α      in ANC's #2, #1, #3, ...

........................................................................
.............................. CYCLE  108 ..............................
........................................................................

 iter      E             dE          RMSdq      gap      omega  full diag
   1   -191.2094434 -0.191209E+03  0.467E-02    1.72       0.0  T
   2   -191.2094447 -0.128254E-05  0.274E-02    1.71       1.0  T
   3   -191.2094399  0.475401E-05  0.642E-03    1.72       1.4  T
   4   -191.2094454 -0.548104E-05  0.108E-03    1.71       8.6  T
   5   -191.2094455 -0.653326E-07  0.596E-04    1.71      15.5  T
   6   -191.2094455 -0.158405E-07  0.235E-04    1.71      39.3  T
   7   -191.2094455 -0.111143E-08  0.951E-05    1.71      97.2  T
   8   -191.2094455 -0.549250E-09  0.397E-05    1.71     232.8  T
     SCC iter.                  ...        0 min,  0.175 sec
     gradient                   ...        0 min,  0.237 sec
 * total energy  :  -188.2468439 Eh     change       -0.8209758E-04 Eh
   gradient norm :     0.0033091 Eh/α   predicted    -0.6387809E-04 ( -22.19%)
   displ. norm   :     0.4645190 α      lambda       -0.1463998E-03
   maximum displ.:     0.2516543 α      in ANC's #2, #1, #4, ...

........................................................................
.............................. CYCLE  109 ..............................
........................................................................

 iter      E             dE          RMSdq      gap      omega  full diag
   1   -191.2133060 -0.191213E+03  0.399E-02    1.71       0.0  T
   2   -191.2133084 -0.238465E-05  0.234E-02    1.71       1.0  T
   3   -191.2133039  0.452656E-05  0.678E-03    1.71       1.4  T
   4   -191.2133092 -0.533282E-05  0.124E-03    1.71       7.5  T
   5   -191.2133094 -0.114231E-06  0.577E-04    1.71      16.0  T
   6   -191.2133094 -0.149123E-07  0.320E-04    1.71      28.9  T
   7   -191.2133094 -0.323956E-08  0.135E-04    1.71      68.6  T
   8   -191.2133094 -0.166401E-08  0.493E-05    1.71     187.6  T
     SCC iter.                  ...        0 min,  0.177 sec
     gradient                   ...        0 min,  0.225 sec
 * total energy  :  -188.2469133 Eh     change       -0.6940350E-04 Eh
   gradient norm :     0.0043117 Eh/α   predicted    -0.8899990E-04 (  28.24%)
   displ. norm   :     0.4684439 α      lambda       -0.1092270E-03
   maximum displ.:     0.2695359 α      in ANC's #2, #1, #3, ...

........................................................................
.............................. CYCLE  110 ..............................
........................................................................

 iter      E             dE          RMSdq      gap      omega  full diag
   1   -191.2085917 -0.191209E+03  0.423E-02    1.71       0.0  T
   2   -191.2085933 -0.164932E-05  0.248E-02    1.70       1.0  T
   3   -191.2085904  0.295461E-05  0.535E-03    1.71       1.7  T
   4   -191.2085938 -0.345221E-05  0.123E-03    1.70       7.5  T
   5   -191.2085939 -0.108193E-06  0.594E-04    1.70      15.6  T
   6   -191.2085939 -0.119197E-07  0.309E-04    1.70      29.9  T
   7   -191.2085939 -0.310291E-08  0.110E-04    1.70      84.4  T
   8   -191.2085939 -0.103634E-08  0.438E-05    1.70     210.9  T
     SCC iter.                  ...        0 min,  0.152 sec
     gradient                   ...        0 min,  0.210 sec
 * total energy  :  -188.2469754 Eh     change       -0.6207635E-04 Eh
   gradient norm :     0.0040969 Eh/α   predicted    -0.6659808E-04 (   7.28%)
   displ. norm   :     0.1252932 α      lambda       -0.5702902E-04
   maximum displ.:     0.0685263 α      in ANC's #2, #1, #4, ...

........................................................................
.............................. CYCLE  111 ..............................
........................................................................

 iter      E             dE          RMSdq      gap      omega  full diag
   1   -191.2085547 -0.191209E+03  0.130E-02    1.70       0.0  T
   2   -191.2085549 -0.230788E-06  0.770E-03    1.70       1.2  T
   3   -191.2085545  0.447548E-06  0.206E-03    1.70       4.5  T
   4   -191.2085550 -0.492496E-06  0.593E-04    1.70      15.6  T
   5   -191.2085550 -0.429643E-07  0.256E-04    1.70      36.1  T
   6   -191.2085550 -0.337693E-08  0.135E-04    1.70      68.3  T
   7   -191.2085550 -0.638295E-09  0.515E-05    1.70     179.4  T
     SCC iter.                  ...        0 min,  0.158 sec
     gradient                   ...        0 min,  0.246 sec
 * total energy  :  -188.2470235 Eh     change       -0.4808503E-04 Eh
   gradient norm :     0.0030384 Eh/α   predicted    -0.2896308E-04 ( -39.77%)
   displ. norm   :     0.3048235 α      lambda       -0.1195196E-03
   maximum displ.:     0.1607238 α      in ANC's #2, #1, #4, ...

........................................................................
.............................. CYCLE  112 ..............................
........................................................................

 iter      E             dE          RMSdq      gap      omega  full diag
   1   -191.2110615 -0.191211E+03  0.300E-02    1.69       0.0  T
   2   -191.2110629 -0.135669E-05  0.178E-02    1.69       1.0  T
   3   -191.2110606  0.230954E-05  0.477E-03    1.69       1.9  T
   4   -191.2110631 -0.252137E-05  0.138E-03    1.69       6.7  T
   5   -191.2110633 -0.255396E-06  0.561E-04    1.69      16.5  T
   6   -191.2110634 -0.177202E-07  0.291E-04    1.69      31.8  T
   7   -191.2110634 -0.339804E-08  0.119E-04    1.69      77.5  T
   8   -191.2110634 -0.721343E-09  0.546E-05    1.69     169.3  T
     SCC iter.                  ...        0 min,  0.174 sec
     gradient                   ...        0 min,  0.281 sec
 * total energy  :  -188.2471000 Eh     change       -0.7658721E-04 Eh
   gradient norm :     0.0019980 Eh/α   predicted    -0.6531534E-04 ( -14.72%)
   displ. norm   :     0.5166950 α      lambda       -0.4637913E-04
   maximum displ.:     0.3024453 α      in ANC's #2, #1, #4, ...

........................................................................
.............................. CYCLE  113 ..............................
........................................................................

 iter      E             dE          RMSdq      gap      omega  full diag
   1   -191.2086985 -0.191209E+03  0.426E-02    1.68       0.0  T
   2   -191.2087000 -0.148477E-05  0.250E-02    1.68       1.0  T
   3   -191.2086973  0.267912E-05  0.522E-03    1.68       1.8  T
   4   -191.2087005 -0.317057E-05  0.117E-03    1.68       7.9  T
   5   -191.2087006 -0.968798E-07  0.607E-04    1.68      15.2  T
   6   -191.2087006 -0.148227E-07  0.298E-04    1.68      31.0  T
   7   -191.2087006 -0.311900E-08  0.107E-04    1.68      86.8  T
   8   -191.2087006 -0.649408E-09  0.501E-05    1.68     184.7  T
     SCC iter.                  ...        0 min,  0.181 sec
     gradient                   ...        0 min,  0.279 sec
 * total energy  :  -188.2471419 Eh     change       -0.4185581E-04 Eh
   gradient norm :     0.0029591 Eh/α   predicted    -0.2594226E-04 ( -38.02%)
   displ. norm   :     0.1438606 α      lambda       -0.3620503E-04
   maximum displ.:     0.0791091 α      in ANC's #2, #4, #1, ...

........................................................................
.............................. CYCLE  114 ..............................
........................................................................

 iter      E             dE          RMSdq      gap      omega  full diag
   1   -191.2102415 -0.191210E+03  0.146E-02    1.68       0.0  T
   2   -191.2102418 -0.291699E-06  0.844E-03    1.68       1.1  T
   3   -191.2102415  0.305829E-06  0.185E-03    1.68       5.0  T
   4   -191.2102419 -0.360549E-06  0.490E-04    1.68      18.9  T
   5   -191.2102419 -0.163003E-07  0.248E-04    1.68      37.3  T
   6   -191.2102419 -0.254946E-08  0.125E-04    1.68      73.9  T
   7   -191.2102419 -0.599414E-09  0.472E-05    1.68     196.0  T
     SCC iter.                  ...        0 min,  0.177 sec
     gradient                   ...        0 min,  0.271 sec
 * total energy  :  -188.2471697 Eh     change       -0.2775511E-04 Eh
   gradient norm :     0.0020077 Eh/α   predicted    -0.1847819E-04 ( -33.42%)
   displ. norm   :     0.3111726 α      lambda       -0.5435857E-04
   maximum displ.:     0.1766905 α      in ANC's #2, #1, #4, ...

........................................................................
.............................. CYCLE  115 ..............................
........................................................................

 iter      E             dE          RMSdq      gap      omega  full diag
   1   -191.2116488 -0.191212E+03  0.302E-02    1.68       0.0  T
   2   -191.2116496 -0.746669E-06  0.176E-02    1.68       1.0  T
   3   -191.2116480  0.152116E-05  0.382E-03    1.68       2.4  T
   4   -191.2116498 -0.178665E-05  0.822E-04    1.68      11.2  T
   5   -191.2116499 -0.302712E-07  0.463E-04    1.68      20.0  T
   6   -191.2116499 -0.873089E-08  0.224E-04    1.68      41.3  T
   7   -191.2116499 -0.218671E-08  0.818E-05    1.68     113.0  T
   8   -191.2116499 -0.409244E-09  0.379E-05    1.68     243.7  T
     SCC iter.                  ...        0 min,  0.189 sec
     gradient                   ...        0 min,  0.260 sec
 * total energy  :  -188.2472083 Eh     change       -0.3868322E-04 Eh
   gradient norm :     0.0014277 Eh/α   predicted    -0.2981160E-04 ( -22.93%)
   displ. norm   :     0.3953957 α      lambda       -0.3296585E-04
   maximum displ.:     0.2246964 α      in ANC's #2, #4, #1, ...

........................................................................
.............................. CYCLE  116 ..............................
........................................................................

 iter      E             dE          RMSdq      gap      omega  full diag
   1   -191.2109213 -0.191211E+03  0.389E-02    1.69       0.0  T
   2   -191.2109223 -0.952136E-06  0.228E-02    1.68       1.0  T
   3   -191.2109208  0.143085E-05  0.382E-03    1.69       2.4  T
   4   -191.2109226 -0.175243E-05  0.848E-04    1.68      10.9  T
   5   -191.2109226 -0.228907E-07  0.452E-04    1.68      20.4  T
   6   -191.2109226 -0.538932E-09  0.238E-04    1.68      38.9  T
   7   -191.2109226 -0.397716E-08  0.709E-05    1.68     130.5  T
   8   -191.2109226 -0.197588E-09  0.385E-05    1.68     240.0  T
     SCC iter.                  ...        0 min,  0.185 sec
     gradient                   ...        0 min,  0.236 sec
 * total energy  :  -188.2472376 Eh     change       -0.2923426E-04 Eh
   gradient norm :     0.0022314 Eh/α   predicted    -0.1762959E-04 ( -39.70%)
   displ. norm   :     0.1121125 α      lambda       -0.2009328E-04
   maximum displ.:     0.0540279 α      in ANC's #2, #4, #1, ...

........................................................................
.............................. CYCLE  117 ..............................
........................................................................

 iter      E             dE          RMSdq      gap      omega  full diag
   1   -191.2113859 -0.191211E+03  0.117E-02    1.68       0.0  T
   2   -191.2113859 -0.647569E-07  0.686E-03    1.68       1.3  T
   3   -191.2113856  0.336063E-06  0.169E-03    1.68       5.5  T
   4   -191.2113860 -0.379567E-06  0.292E-04    1.68      31.7  T
   5   -191.2113860 -0.376775E-08  0.170E-04    1.68      54.3  T
   6   -191.2113860 -0.117851E-08  0.696E-05    1.68     132.9  T
     SCC iter.                  ...        0 min,  0.134 sec
     gradient                   ...        0 min,  0.235 sec
 * total energy  :  -188.2472552 Eh     change       -0.1764361E-04 Eh
   gradient norm :     0.0018317 Eh/α   predicted    -0.1017767E-04 ( -42.32%)
   displ. norm   :     0.3886848 α      lambda       -0.5507528E-04
   maximum displ.:     0.1764096 α      in ANC's #4, #2, #11, ...

........................................................................
.............................. CYCLE  118 ..............................
........................................................................

 iter      E             dE          RMSdq      gap      omega  full diag
   1   -191.2113759 -0.191211E+03  0.471E-02    1.69       0.0  T
   2   -191.2113770 -0.111277E-05  0.276E-02    1.69       1.0  T
   3   -191.2113702  0.681330E-05  0.745E-03    1.69       1.2  T
   4   -191.2113778 -0.763112E-05  0.125E-03    1.69       7.4  T
   5   -191.2113779 -0.749381E-07  0.684E-04    1.69      13.5  T
   6   -191.2113779 -0.170367E-07  0.314E-04    1.69      29.4  T
   7   -191.2113779 -0.457155E-08  0.131E-04    1.69      70.6  T
   8   -191.2113779 -0.118925E-08  0.535E-05    1.69     172.8  T
     SCC iter.                  ...        0 min,  0.186 sec
     gradient                   ...        0 min,  0.236 sec
 * total energy  :  -188.2472985 Eh     change       -0.4332145E-04 Eh
   gradient norm :     0.0020108 Eh/α   predicted    -0.2939203E-04 ( -32.15%)
   displ. norm   :     0.0955578 α      lambda       -0.1190226E-04
   maximum displ.:     0.0484196 α      in ANC's #2, #4, #1, ...

........................................................................
.............................. CYCLE  119 ..............................
........................................................................

 iter      E             dE          RMSdq      gap      omega  full diag
   1   -191.2108479 -0.191211E+03  0.898E-03    1.69       0.0  T
   2   -191.2108479 -0.832564E-07  0.525E-03    1.69       1.8  T
   3   -191.2108478  0.148634E-06  0.122E-03    1.69       7.6  T
   4   -191.2108480 -0.174761E-06  0.235E-04    1.69      39.3  T
   5   -191.2108480 -0.321475E-08  0.116E-04    1.69      79.7  T
   6   -191.2108480 -0.263839E-09  0.644E-05    1.69     143.5  T
     SCC iter.                  ...        0 min,  0.141 sec
     gradient                   ...        0 min,  0.255 sec
 * total energy  :  -188.2473071 Eh     change       -0.8549447E-05 Eh
   gradient norm :     0.0014361 Eh/α   predicted    -0.6009766E-05 ( -29.71%)
   displ. norm   :     0.1470245 α      lambda       -0.1584786E-04
   maximum displ.:     0.0655823 α      in ANC's #4, #11, #15, ...

........................................................................
.............................. CYCLE  120 ..............................
........................................................................

 iter      E             dE          RMSdq      gap      omega  full diag
   1   -191.2108290 -0.191211E+03  0.175E-02    1.70       0.0  T
   2   -191.2108293 -0.304837E-06  0.102E-02    1.70       1.0  T
   3   -191.2108283  0.100327E-05  0.321E-03    1.70       2.9  T
   4   -191.2108295 -0.115211E-05  0.496E-04    1.70      18.6  T
   5   -191.2108295 -0.135338E-07  0.263E-04    1.70      35.2  T
   6   -191.2108295 -0.337738E-08  0.130E-04    1.70      71.2  T
   7   -191.2108295 -0.536147E-09  0.556E-05    1.70     166.2  T
     SCC iter.                  ...        0 min,  0.150 sec
     gradient                   ...        0 min,  0.226 sec
 * total energy  :  -188.2473217 Eh     change       -0.1460409E-04 Eh
   gradient norm :     0.0012510 Eh/α   predicted    -0.8003328E-05 ( -45.20%)
   displ. norm   :     0.0909961 α      lambda       -0.7037409E-05
   maximum displ.:     0.0432267 α      in ANC's #4, #15, #11, ...
 * RMSD in coord.:     0.6021867 α      energy gain  -0.1154181E-02 Eh

generating ANC from exact Hessian ...
Using Lindh-Hessian (1995)
 Shifting diagonal of input Hessian by    9.9671546922302547E-003
 Lowest  eigenvalues of input Hessian
    0.000000    0.000000    0.000000    0.000000    0.000000    0.000000
    0.010000    0.010030    0.010074    0.010194    0.010255    0.010288
    0.010352    0.010360    0.010531    0.010648    0.010715    0.010781
 Highest eigenvalues
    2.146225    2.266217    2.339154    2.341929    2.431912    3.072600


........................................................................
.............................. CYCLE  121 ..............................
........................................................................

 iter      E             dE          RMSdq      gap      omega  full diag
   1   -191.2107222 -0.191211E+03  0.110E-02    1.70       0.0  T
   2   -191.2107223 -0.828560E-07  0.647E-03    1.70       1.4  T
   3   -191.2107221  0.236028E-06  0.148E-03    1.70       6.3  T
   4   -191.2107223 -0.272406E-06  0.319E-04    1.70      29.0  T
   5   -191.2107224 -0.659327E-08  0.166E-04    1.70      55.8  T
   6   -191.2107224 -0.590404E-09  0.906E-05    1.70     102.1  T
     SCC iter.                  ...        0 min,  0.122 sec
     gradient                   ...        0 min,  0.242 sec
 * total energy  :  -188.2473287 Eh     change       -0.7006480E-05 Eh
   gradient norm :     0.0009301 Eh/α   predicted     0.0000000E+00 (-100.00%)
   displ. norm   :     0.0178800 α      lambda       -0.3201582E-05
   maximum displ.:     0.0062610 α      in ANC's #4, #45, #7, ...

........................................................................
.............................. CYCLE  122 ..............................
........................................................................

 iter      E             dE          RMSdq      gap      omega  full diag
   1   -191.2107620 -0.191211E+03  0.348E-03    1.70       0.0  T
   2   -191.2107620 -0.175629E-07  0.205E-03    1.70       4.5  T
   3   -191.2107620  0.499024E-07  0.652E-04    1.70      14.2  T
   4   -191.2107620 -0.577771E-07  0.124E-04    1.70      74.8  T
   5   -191.2107620 -0.105112E-08  0.677E-05    1.70     136.6  T
     SCC iter.                  ...        0 min,  0.120 sec
     gradient                   ...        0 min,  0.249 sec
 * total energy  :  -188.2473326 Eh     change       -0.3862530E-05 Eh
   gradient norm :     0.0003304 Eh/α   predicted    -0.1662515E-05 ( -56.96%)
   displ. norm   :     0.0506437 α      lambda       -0.4449938E-05
   maximum displ.:     0.0191236 α      in ANC's #4, #45, #7, ...

........................................................................
.............................. CYCLE  123 ..............................
........................................................................

 iter      E             dE          RMSdq      gap      omega  full diag
   1   -191.2108333 -0.191211E+03  0.809E-03    1.70       0.0  T
   2   -191.2108334 -0.663827E-07  0.477E-03    1.70       1.9  T
   3   -191.2108331  0.243340E-06  0.142E-03    1.70       6.5  T
   4   -191.2108334 -0.280988E-06  0.260E-04    1.70      35.5  T
   5   -191.2108334 -0.314304E-08  0.155E-04    1.70      59.8  T
   6   -191.2108334 -0.132857E-08  0.663E-05    1.70     139.5  T
     SCC iter.                  ...        0 min,  0.136 sec
     gradient                   ...        0 min,  0.231 sec
 * total energy  :  -188.2473382 Eh     change       -0.5681524E-05 Eh
   gradient norm :     0.0007262 Eh/α   predicted    -0.2733576E-05 ( -51.89%)
   displ. norm   :     0.0580642 α      lambda       -0.3883567E-05
   maximum displ.:     0.0235583 α      in ANC's #4, #45, #7, ...

........................................................................
.............................. CYCLE  124 ..............................
........................................................................

 iter      E             dE          RMSdq      gap      omega  full diag
   1   -191.2108522 -0.191211E+03  0.811E-03    1.70       0.0  T
   2   -191.2108523 -0.470267E-07  0.480E-03    1.70       1.9  T
   3   -191.2108520  0.252768E-06  0.145E-03    1.70       6.4  T
   4   -191.2108523 -0.285315E-06  0.236E-04    1.70      39.1  T
   5   -191.2108523 -0.273107E-08  0.132E-04    1.70      69.9  T
   6   -191.2108523 -0.657536E-09  0.629E-05    1.70     146.9  T
     SCC iter.                  ...        0 min,  0.122 sec
     gradient                   ...        0 min,  0.220 sec
 * total energy  :  -188.2473425 Eh     change       -0.4272934E-05 Eh
   gradient norm :     0.0008666 Eh/α   predicted    -0.1965322E-05 ( -54.01%)
   displ. norm   :     0.0698831 α      lambda       -0.3897949E-05
   maximum displ.:     0.0301726 α      in ANC's #4, #45, #7, ...

........................................................................
.............................. CYCLE  125 ..............................
........................................................................

 iter      E             dE          RMSdq      gap      omega  full diag
   1   -191.2108750 -0.191211E+03  0.898E-03    1.70       0.0  T
   2   -191.2108750 -0.483041E-07  0.530E-03    1.70       1.7  T
   3   -191.2108748  0.218374E-06  0.135E-03    1.70       6.9  T
   4   -191.2108751 -0.245966E-06  0.240E-04    1.70      38.5  T
   5   -191.2108751 -0.304325E-08  0.129E-04    1.70      71.7  T
   6   -191.2108751 -0.703068E-09  0.616E-05    1.70     150.1  T
     SCC iter.                  ...        0 min,  0.124 sec
     gradient                   ...        0 min,  0.217 sec
 * total energy  :  -188.2473464 Eh     change       -0.3886306E-05 Eh
   gradient norm :     0.0006712 Eh/α   predicted    -0.1969463E-05 ( -49.32%)
   displ. norm   :     0.0544231 α      lambda       -0.2811475E-05
   maximum displ.:     0.0256728 α      in ANC's #4, #7, #45, ...

........................................................................
.............................. CYCLE  126 ..............................
........................................................................

 iter      E             dE          RMSdq      gap      omega  full diag
   1   -191.2109183 -0.191211E+03  0.659E-03    1.70       0.0  T
   2   -191.2109183 -0.321143E-07  0.387E-03    1.70       2.4  T
   3   -191.2109182  0.922319E-07  0.937E-04    1.70       9.9  T
   4   -191.2109183 -0.104920E-06  0.177E-04    1.70      52.1  T
   5   -191.2109183 -0.170337E-08  0.892E-05    1.70     103.6  T
     SCC iter.                  ...        0 min,  0.097 sec
     gradient                   ...        0 min,  0.216 sec
 * total energy  :  -188.2473491 Eh     change       -0.2711559E-05 Eh
   gradient norm :     0.0003382 Eh/α   predicted    -0.1413303E-05 ( -47.88%)
   displ. norm   :     0.0439555 α      lambda       -0.2127442E-05
   maximum displ.:     0.0218078 α      in ANC's #4, #7, #45, ...

........................................................................
.............................. CYCLE  127 ..............................
........................................................................

 iter      E             dE          RMSdq      gap      omega  full diag
   1   -191.2109531 -0.191211E+03  0.546E-03    1.69       0.0  T
   2   -191.2109531 -0.320471E-07  0.321E-03    1.70       2.9  T
   3   -191.2109530  0.148551E-06  0.118E-03    1.69       7.8  T
   4   -191.2109531 -0.170130E-06  0.183E-04    1.70      50.5  T
   5   -191.2109532 -0.185813E-08  0.968E-05    1.70      95.5  T
     SCC iter.                  ...        0 min,  0.102 sec
     gradient                   ...        0 min,  0.222 sec
 * total energy  :  -188.2473514 Eh     change       -0.2256983E-05 Eh
   gradient norm :     0.0004379 Eh/α   predicted    -0.1065321E-05 ( -52.80%)
   displ. norm   :     0.0545992 α      lambda       -0.2285723E-05
   maximum displ.:     0.0270368 α      in ANC's #4, #7, #3, ...

........................................................................
.............................. CYCLE  128 ..............................
........................................................................

 iter      E             dE          RMSdq      gap      omega  full diag
   1   -191.2109047 -0.191211E+03  0.670E-03    1.69       0.0  T
   2   -191.2109048 -0.624329E-07  0.395E-03    1.70       2.3  T
   3   -191.2109044  0.341340E-06  0.182E-03    1.69       5.1  T
   4   -191.2109048 -0.396164E-06  0.242E-04    1.70      38.2  T
   5   -191.2109048 -0.310865E-08  0.130E-04    1.70      71.2  T
   6   -191.2109048 -0.728676E-09  0.709E-05    1.70     130.5  T
     SCC iter.                  ...        0 min,  0.129 sec
     gradient                   ...        0 min,  0.229 sec
 * total energy  :  -188.2473538 Eh     change       -0.2423114E-05 Eh
   gradient norm :     0.0005437 Eh/α   predicted    -0.1146202E-05 ( -52.70%)
   displ. norm   :     0.0643736 α      lambda       -0.2329966E-05
   maximum displ.:     0.0319831 α      in ANC's #4, #7, #3, ...

........................................................................
.............................. CYCLE  129 ..............................
........................................................................

 iter      E             dE          RMSdq      gap      omega  full diag
   1   -191.2108346 -0.191211E+03  0.823E-03    1.69       0.0  T
   2   -191.2108347 -0.105707E-06  0.486E-03    1.70       1.9  T
   3   -191.2108340  0.658525E-06  0.253E-03    1.69       3.7  T
   4   -191.2108348 -0.771493E-06  0.319E-04    1.69      29.0  T
   5   -191.2108348 -0.547647E-08  0.169E-04    1.69      54.6  T
   6   -191.2108348 -0.133312E-08  0.925E-05    1.69      99.9  T
     SCC iter.                  ...        0 min,  0.135 sec
     gradient                   ...        0 min,  0.226 sec
 * total energy  :  -188.2473561 Eh     change       -0.2289353E-05 Eh
   gradient norm :     0.0004649 Eh/α   predicted    -0.1169136E-05 ( -48.93%)
   displ. norm   :     0.0615164 α      lambda        0.4046855E-06
   maximum displ.:     0.0305357 α      in ANC's #4, #7, #3, ...

........................................................................
.............................. CYCLE  130 ..............................
........................................................................

 iter      E             dE          RMSdq      gap      omega  full diag
   1   -191.2107062 -0.191211E+03  0.789E-03    1.69       0.0  T
   2   -191.2107063 -0.102460E-06  0.466E-03    1.69       2.0  T
   3   -191.2107057  0.617535E-06  0.246E-03    1.69       3.8  T
   4   -191.2107065 -0.725149E-06  0.312E-04    1.69      29.6  T
   5   -191.2107065 -0.532302E-08  0.164E-04    1.69      56.5  T
   6   -191.2107065 -0.124379E-08  0.900E-05    1.69     102.7  T
     SCC iter.                  ...        0 min,  0.126 sec
     gradient                   ...        0 min,  0.237 sec
 * total energy  :  -188.2473559 Eh     change        0.1946906E-06 Eh
   gradient norm :     0.0006732 Eh/α   predicted     0.2013683E-06 (   3.43%)
   displ. norm   :     0.0114425 α      lambda       -0.2004820E-05
   maximum displ.:     0.0042712 α      in ANC's #45, #62, #31, ...

........................................................................
.............................. CYCLE  131 ..............................
........................................................................

 iter      E             dE          RMSdq      gap      omega  full diag
   1   -191.2108441 -0.191211E+03  0.303E-03    1.70       0.0  T
   2   -191.2108441 -0.146070E-07  0.178E-03    1.69       5.2  T
   3   -191.2108440  0.624098E-07  0.811E-04    1.70      11.4  T
   4   -191.2108441 -0.724926E-07  0.126E-04    1.70      73.3  T
   5   -191.2108441 -0.722366E-09  0.663E-05    1.69     139.4  T
     SCC iter.                  ...        0 min,  0.111 sec
     gradient                   ...        0 min,  0.243 sec
 * total energy  :  -188.2473577 Eh     change       -0.1772227E-05 Eh
   gradient norm :     0.0003065 Eh/α   predicted    -0.1004072E-05 ( -43.34%)
   displ. norm   :     0.0140033 α      lambda       -0.9507299E-06
   maximum displ.:     0.0054855 α      in ANC's #31, #45, #36, ...

........................................................................
.............................. CYCLE  132 ..............................
........................................................................

 iter      E             dE          RMSdq      gap      omega  full diag
   1   -191.2109407 -0.191211E+03  0.303E-03    1.70       0.0  T
   2   -191.2109407 -0.106674E-07  0.176E-03    1.70       5.3  T
   3   -191.2109406  0.515257E-07  0.710E-04    1.70      13.0  T
   4   -191.2109407 -0.597687E-07  0.117E-04    1.70      78.7  T
   5   -191.2109407 -0.557947E-09  0.689E-05    1.70     134.2  T
     SCC iter.                  ...        0 min,  0.094 sec
     gradient                   ...        0 min,  0.224 sec
 * total energy  :  -188.2473586 Eh     change       -0.9261065E-06 Eh
   gradient norm :     0.0002079 Eh/α   predicted    -0.4769513E-06 ( -48.50%)
   displ. norm   :     0.0123493 α      lambda        0.1262006E-06
   maximum displ.:     0.0047980 α      in ANC's #31, #45, #36, ...

........................................................................
.............................. CYCLE  133 ..............................
........................................................................

 iter      E             dE          RMSdq      gap      omega  full diag
   1   -191.2110286 -0.191211E+03  0.272E-03    1.70       0.0  T
   2   -191.2110286 -0.859737E-08  0.158E-03    1.70       5.8  T
   3   -191.2110286  0.407087E-07  0.635E-04    1.70      14.6  T
   4   -191.2110286 -0.472657E-07  0.105E-04    1.70      88.2  T
   5   -191.2110286 -0.426809E-09  0.615E-05    1.70     150.3  T
     SCC iter.                  ...        0 min,  0.105 sec
     gradient                   ...        0 min,  0.217 sec
 * total energy  :  -188.2473585 Eh     change        0.8482613E-07 Eh
   gradient norm :     0.0004087 Eh/α   predicted     0.5986502E-07 ( -29.43%)
   displ. norm   :     0.0273109 α      lambda       -0.9085984E-06
   maximum displ.:     0.0141995 α      in ANC's #4, #7, #3, ...

........................................................................
.............................. CYCLE  134 ..............................
........................................................................

 iter      E             dE          RMSdq      gap      omega  full diag
   1   -191.2108871 -0.191211E+03  0.343E-03    1.70       0.0  T
   2   -191.2108872 -0.124101E-07  0.202E-03    1.70       4.6  T
   3   -191.2108871  0.816567E-07  0.859E-04    1.70      10.8  T
   4   -191.2108872 -0.927806E-07  0.107E-04    1.70      86.5  T
   5   -191.2108872 -0.666603E-09  0.536E-05    1.70     172.4  T
     SCC iter.                  ...        0 min,  0.109 sec
     gradient                   ...        0 min,  0.258 sec
 * total energy  :  -188.2473595 Eh     change       -0.9752604E-06 Eh
   gradient norm :     0.0002186 Eh/α   predicted    -0.4575011E-06 ( -53.09%)
   displ. norm   :     0.0392069 α      lambda       -0.7594760E-06
   maximum displ.:     0.0204159 α      in ANC's #4, #3, #7, ...

........................................................................
.............................. CYCLE  135 ..............................
........................................................................

 iter      E             dE          RMSdq      gap      omega  full diag
   1   -191.2107987 -0.191211E+03  0.450E-03    1.70       0.0  T
   2   -191.2107987 -0.165167E-07  0.264E-03    1.70       3.5  T
   3   -191.2107986  0.107986E-06  0.983E-04    1.70       9.4  T
   4   -191.2107987 -0.122291E-06  0.128E-04    1.70      72.4  T
   5   -191.2107987 -0.937007E-09  0.637E-05    1.70     145.1  T
     SCC iter.                  ...        0 min,  0.125 sec
     gradient                   ...        0 min,  0.236 sec
 * total energy  :  -188.2473604 Eh     change       -0.9019178E-06 Eh
   gradient norm :     0.0001705 Eh/α   predicted    -0.3805068E-06 ( -57.81%)
   displ. norm   :     0.0567161 α      lambda       -0.9530507E-06
   maximum displ.:     0.0290166 α      in ANC's #4, #3, #1, ...

........................................................................
.............................. CYCLE  136 ..............................
........................................................................

 iter      E             dE          RMSdq      gap      omega  full diag
   1   -191.2107306 -0.191211E+03  0.600E-03    1.70       0.0  T
   2   -191.2107307 -0.213973E-07  0.351E-03    1.70       2.6  T
   3   -191.2107305  0.130561E-06  0.107E-03    1.70       8.7  T
   4   -191.2107307 -0.146731E-06  0.149E-04    1.70      62.0  T
   5   -191.2107307 -0.135489E-08  0.749E-05    1.70     123.5  T
     SCC iter.                  ...        0 min,  0.163 sec
     gradient                   ...        0 min,  0.390 sec
 * total energy  :  -188.2473615 Eh     change       -0.1146916E-05 Eh
   gradient norm :     0.0002373 Eh/α   predicted    -0.4787737E-06 ( -58.26%)
   displ. norm   :     0.0722236 α      lambda       -0.1052389E-05
   maximum displ.:     0.0366014 α      in ANC's #4, #3, #1, ...

........................................................................
.............................. CYCLE  137 ..............................
........................................................................

 iter      E             dE          RMSdq      gap      omega  full diag
   1   -191.2107293 -0.191211E+03  0.719E-03    1.70       0.0  T
   2   -191.2107293 -0.290694E-07  0.422E-03    1.70       2.2  T
   3   -191.2107292  0.155690E-06  0.117E-03    1.70       7.9  T
   4   -191.2107293 -0.175430E-06  0.169E-04    1.70      54.7  T
   5   -191.2107293 -0.167842E-08  0.877E-05    1.70     105.4  T
     SCC iter.                  ...        0 min,  0.146 sec
     gradient                   ...        0 min,  0.306 sec
 * total energy  :  -188.2473628 Eh     change       -0.1225925E-05 Eh
   gradient norm :     0.0002629 Eh/α   predicted    -0.5299122E-06 ( -56.77%)
   displ. norm   :     0.0645259 α      lambda       -0.8697462E-06
   maximum displ.:     0.0320888 α      in ANC's #4, #3, #1, ...

........................................................................
.............................. CYCLE  138 ..............................
........................................................................

 iter      E             dE          RMSdq      gap      omega  full diag
   1   -191.2107726 -0.191211E+03  0.585E-03    1.70       0.0  T
   2   -191.2107726 -0.212870E-07  0.344E-03    1.70       2.7  T
   3   -191.2107725  0.818216E-07  0.837E-04    1.70      11.0  T
   4   -191.2107726 -0.937136E-07  0.136E-04    1.70      67.8  T
   5   -191.2107726 -0.908187E-09  0.787E-05    1.70     117.5  T
     SCC iter.                  ...        0 min,  0.139 sec
     gradient                   ...        0 min,  0.293 sec
 * total energy  :  -188.2473638 Eh     change       -0.1005806E-05 Eh
   gradient norm :     0.0002269 Eh/α   predicted    -0.4368189E-06 ( -56.57%)
   displ. norm   :     0.0623402 α      lambda       -0.8105480E-06
   maximum displ.:     0.0303649 α      in ANC's #4, #1, #3, ...

........................................................................
.............................. CYCLE  139 ..............................
........................................................................

 iter      E             dE          RMSdq      gap      omega  full diag
   1   -191.2108478 -0.191211E+03  0.536E-03    1.69       0.0  T
   2   -191.2108478 -0.188224E-07  0.315E-03    1.69       2.9  T
   3   -191.2108478  0.617477E-07  0.723E-04    1.69      12.8  T
   4   -191.2108478 -0.709400E-07  0.128E-04    1.69      72.4  T
   5   -191.2108478 -0.867004E-09  0.720E-05    1.69     128.4  T
     SCC iter.                  ...        0 min,  0.158 sec
     gradient                   ...        0 min,  0.251 sec
 * total energy  :  -188.2473647 Eh     change       -0.9634443E-06 Eh
   gradient norm :     0.0001624 Eh/α   predicted    -0.4088221E-06 ( -57.57%)
   displ. norm   :     0.0572228 α      lambda       -0.7949831E-06
   maximum displ.:     0.0262235 α      in ANC's #4, #1, #3, ...

........................................................................
.............................. CYCLE  140 ..............................
........................................................................

 iter      E             dE          RMSdq      gap      omega  full diag
   1   -191.2108996 -0.191211E+03  0.493E-03    1.69       0.0  T
   2   -191.2108996 -0.163610E-07  0.290E-03    1.69       3.2  T
   3   -191.2108995  0.452051E-07  0.610E-04    1.69      15.2  T
   4   -191.2108996 -0.526441E-07  0.116E-04    1.69      79.8  T
   5   -191.2108996 -0.741352E-09  0.650E-05    1.69     142.3  T
     SCC iter.                  ...        0 min,  0.151 sec
     gradient                   ...        0 min,  0.379 sec
 * total energy  :  -188.2473656 Eh     change       -0.9170834E-06 Eh
   gradient norm :     0.0001672 Eh/α   predicted    -0.4016234E-06 ( -56.21%)
   displ. norm   :     0.0484186 α      lambda       -0.7319180E-06
   maximum displ.:     0.0239622 α      in ANC's #1, #3, #4, ...

........................................................................
.............................. CYCLE  141 ..............................
........................................................................

 iter      E             dE          RMSdq      gap      omega  full diag
   1   -191.2109128 -0.191211E+03  0.463E-03    1.69       0.0  T
   2   -191.2109128 -0.117386E-07  0.272E-03    1.69       3.4  T
   3   -191.2109128  0.359162E-07  0.528E-04    1.69      17.5  T
   4   -191.2109128 -0.416737E-07  0.107E-04    1.69      86.4  T
   5   -191.2109128 -0.674845E-09  0.560E-05    1.69     165.1  T
     SCC iter.                  ...        0 min,  0.162 sec
     gradient                   ...        0 min,  0.325 sec
 * total energy  :  -188.2473665 Eh     change       -0.8225527E-06 Eh
   gradient norm :     0.0002016 Eh/α   predicted    -0.3679884E-06 ( -55.26%)
   displ. norm   :     0.0379596 α      lambda       -0.5699217E-06
   maximum displ.:     0.0197249 α      in ANC's #1, #3, #4, ...

........................................................................
.............................. CYCLE  142 ..............................
........................................................................

 iter      E             dE          RMSdq      gap      omega  full diag
   1   -191.2108858 -0.191211E+03  0.416E-03    1.69       0.0  T
   2   -191.2108858 -0.949788E-08  0.244E-03    1.69       3.8  T
   3   -191.2108857  0.403544E-07  0.554E-04    1.69      16.7  T
   4   -191.2108858 -0.467186E-07  0.895E-05    1.69     103.3  T
   5   -191.2108858 -0.315595E-09  0.480E-05    1.69     192.6  T
     SCC iter.                  ...        0 min,  0.111 sec
     gradient                   ...        0 min,  0.302 sec
 * total energy  :  -188.2473671 Eh     change       -0.6375054E-06 Eh
   gradient norm :     0.0002011 Eh/α   predicted    -0.2885117E-06 ( -54.74%)
   displ. norm   :     0.0326618 α      lambda       -0.4138428E-06
   maximum displ.:     0.0177205 α      in ANC's #1, #3, #2, ...

........................................................................
.............................. CYCLE  143 ..............................
........................................................................

 iter      E             dE          RMSdq      gap      omega  full diag
   1   -191.2108330 -0.191211E+03  0.374E-03    1.69       0.0  T
   2   -191.2108330 -0.730492E-08  0.219E-03    1.69       4.2  T
   3   -191.2108330  0.317823E-07  0.505E-04    1.69      18.3  T
   4   -191.2108330 -0.363145E-07  0.869E-05    1.69     106.4  T
   5   -191.2108330 -0.314316E-09  0.499E-05    1.69     185.2  T
     SCC iter.                  ...        0 min,  0.166 sec
     gradient                   ...        0 min,  0.311 sec
 * total energy  :  -188.2473676 Eh     change       -0.4872478E-06 Eh
   gradient norm :     0.0001525 Eh/α   predicted    -0.2106997E-06 ( -56.76%)
   displ. norm   :     0.0278244 α      lambda       -0.3457599E-06
   maximum displ.:     0.0156829 α      in ANC's #1, #3, #2, ...

........................................................................
.............................. CYCLE  144 ..............................
........................................................................

 iter      E             dE          RMSdq      gap      omega  full diag
   1   -191.2108111 -0.191211E+03  0.331E-03    1.69       0.0  T
   2   -191.2108111 -0.528777E-08  0.194E-03    1.69       4.8  T
   3   -191.2108111  0.243596E-07  0.454E-04    1.69      20.4  T
   4   -191.2108111 -0.275165E-07  0.774E-05    1.69     119.5  T
   5   -191.2108111 -0.264095E-09  0.449E-05    1.69     206.0  T
     SCC iter.                  ...        0 min,  0.158 sec
     gradient                   ...        0 min,  0.316 sec
 * total energy  :  -188.2473680 Eh     change       -0.4340105E-06 Eh
   gradient norm :     0.0001079 Eh/α   predicted    -0.1774462E-06 ( -59.11%)
   displ. norm   :     0.0269004 α      lambda       -0.3647248E-06
   maximum displ.:     0.0154166 α      in ANC's #1, #3, #2, ...

........................................................................
.............................. CYCLE  145 ..............................
........................................................................

 iter      E             dE          RMSdq      gap      omega  full diag
   1   -191.2107922 -0.191211E+03  0.341E-03    1.69       0.0  T
   2   -191.2107922 -0.556554E-08  0.199E-03    1.69       4.6  T
   3   -191.2107922  0.270585E-07  0.489E-04    1.69      18.9  T
   4   -191.2107922 -0.305157E-07  0.817E-05    1.69     113.1  T
   5   -191.2107922 -0.243716E-09  0.481E-05    1.69     192.4  T
     SCC iter.                  ...        0 min,  0.197 sec
     gradient                   ...        0 min,  0.354 sec
 * total energy  :  -188.2473685 Eh     change       -0.4381392E-06 Eh
   gradient norm :     0.0001211 Eh/α   predicted    -0.1851978E-06 ( -57.73%)
   displ. norm   :     0.0266080 α      lambda       -0.2997955E-06
   maximum displ.:     0.0155179 α      in ANC's #1, #3, #13, ...

........................................................................
.............................. CYCLE  146 ..............................
........................................................................

 iter      E             dE          RMSdq      gap      omega  full diag
   1   -191.2108006 -0.191211E+03  0.330E-03    1.69       0.0  T
   2   -191.2108006 -0.555028E-08  0.194E-03    1.69       4.8  T
   3   -191.2108006  0.285049E-07  0.496E-04    1.69      18.6  T
   4   -191.2108006 -0.324391E-07  0.805E-05    1.69     114.8  T
   5   -191.2108006 -0.184343E-09  0.481E-05    1.69     192.4  T
     SCC iter.                  ...        0 min,  0.140 sec
     gradient                   ...        0 min,  0.360 sec
 * total energy  :  -188.2473688 Eh     change       -0.3630258E-06 Eh
   gradient norm :     0.0001378 Eh/α   predicted    -0.1537417E-06 ( -57.65%)
   displ. norm   :     0.0210256 α      lambda       -0.2271166E-06
   maximum displ.:     0.0125881 α      in ANC's #1, #3, #13, ...

........................................................................
.............................. CYCLE  147 ..............................
........................................................................

 iter      E             dE          RMSdq      gap      omega  full diag
   1   -191.2108024 -0.191211E+03  0.249E-03    1.70       0.0  T
   2   -191.2108024 -0.412263E-08  0.147E-03    1.70       6.3  T
   3   -191.2108024  0.211028E-07  0.414E-04    1.70      22.3  T
   4   -191.2108024 -0.240409E-07  0.695E-05    1.70     133.0  T
   5   -191.2108024 -0.203045E-09  0.396E-05    1.70     233.3  T
     SCC iter.                  ...        0 min,  0.158 sec
     gradient                   ...        0 min,  0.258 sec
 * total energy  :  -188.2473691 Eh     change       -0.2824637E-06 Eh
   gradient norm :     0.0001205 Eh/α   predicted    -0.1159204E-06 ( -58.96%)
   displ. norm   :     0.0200060 α      lambda       -0.2319094E-06
   maximum displ.:     0.0121209 α      in ANC's #1, #3, #13, ...

........................................................................
.............................. CYCLE  148 ..............................
........................................................................

 iter      E             dE          RMSdq      gap      omega  full diag
   1   -191.2108088 -0.191211E+03  0.219E-03    1.70       0.0  T
   2   -191.2108088 -0.467787E-08  0.130E-03    1.70       7.1  T
   3   -191.2108088  0.194664E-07  0.398E-04    1.70      23.2  T
   4   -191.2108088 -0.222530E-07  0.735E-05    1.70     125.8  T
   5   -191.2108088 -0.362832E-09  0.382E-05    1.70     242.3  T
     SCC iter.                  ...        0 min,  0.131 sec
     gradient                   ...        0 min,  0.278 sec
 * total energy  :  -188.2473694 Eh     change       -0.2919405E-06 Eh
   gradient norm :     0.0000888 Eh/α   predicted    -0.1180357E-06 ( -59.57%)
   displ. norm   :     0.0207921 α      lambda       -0.2283486E-06
   maximum displ.:     0.0128035 α      in ANC's #1, #3, #13, ...

........................................................................
.............................. CYCLE  149 ..............................
........................................................................

 iter      E             dE          RMSdq      gap      omega  full diag
   1   -191.2108178 -0.191211E+03  0.206E-03    1.70       0.0  T
   2   -191.2108178 -0.512577E-08  0.122E-03    1.70       7.5  T
   3   -191.2108178  0.150452E-07  0.355E-04    1.70      26.0  T
   4   -191.2108178 -0.170785E-07  0.783E-05    1.70     118.0  T
   5   -191.2108178 -0.556838E-09  0.351E-05    1.70     263.7  T
     SCC iter.                  ...        0 min,  0.206 sec
     gradient                   ...        0 min,  0.383 sec
 * total energy  :  -188.2473697 Eh     change       -0.2858774E-06 Eh
   gradient norm :     0.0000908 Eh/α   predicted    -0.1158277E-06 ( -59.48%)
   displ. norm   :     0.0208396 α      lambda       -0.2142125E-06
   maximum displ.:     0.0130710 α      in ANC's #1, #3, #13, ...

........................................................................
.............................. CYCLE  150 ..............................
........................................................................

 iter      E             dE          RMSdq      gap      omega  full diag
   1   -191.2108241 -0.191211E+03  0.183E-03    1.70       0.0  T
   2   -191.2108241 -0.361339E-08  0.109E-03    1.70       8.5  T
   3   -191.2108241  0.676857E-08  0.246E-04    1.70      37.6  T
   4   -191.2108241 -0.756799E-08  0.691E-05    1.70     133.9  T
   5   -191.2108241 -0.496527E-09  0.278E-05    1.70     332.7  T
     SCC iter.                  ...        0 min,  0.161 sec
     gradient                   ...        0 min,  0.314 sec
 * total energy  :  -188.2473700 Eh     change       -0.2844636E-06 Eh
   gradient norm :     0.0001030 Eh/α   predicted    -0.1092004E-06 ( -61.61%)
   displ. norm   :     0.0239451 α      lambda       -0.2627239E-06
   maximum displ.:     0.0151217 α      in ANC's #1, #3, #13, ...
 * RMSD in coord.:     0.0793689 α      energy gain  -0.4827318E-04 Eh

generating ANC from exact Hessian ...
Using Lindh-Hessian (1995)
 Shifting diagonal of input Hessian by    9.9680849775553842E-003
 Lowest  eigenvalues of input Hessian
    0.000000    0.000000    0.000000    0.000000    0.000000    0.000000
    0.010000    0.010029    0.010072    0.010195    0.010256    0.010289
    0.010350    0.010362    0.010529    0.010640    0.010733    0.010786
 Highest eigenvalues
    2.146312    2.266789    2.338627    2.341358    2.431298    3.071159


........................................................................
.............................. CYCLE  151 ..............................
........................................................................

 iter      E             dE          RMSdq      gap      omega  full diag
   1   -191.2108338 -0.191211E+03  0.190E-03    1.70       0.0  T
   2   -191.2108338 -0.361834E-08  0.114E-03    1.70       8.1  T
   3   -191.2108338  0.370352E-08  0.201E-04    1.70      46.0  T
   4   -191.2108338 -0.420613E-08  0.642E-05    1.70     144.1  T
   5   -191.2108338 -0.432266E-09  0.266E-05    1.70     348.1  T
     SCC iter.                  ...        0 min,  0.215 sec
     gradient                   ...        0 min,  0.316 sec
 * total energy  :  -188.2473703 Eh     change       -0.3555327E-06 Eh
   gradient norm :     0.0001051 Eh/α   predicted     0.0000000E+00 (-100.00%)
   displ. norm   :     0.0001576 α      lambda        0.0000000E+00
   maximum displ.:     0.0000877 α      in ANC's #344, #322, #233, ...

........................................................................
.............................. CYCLE  152 ..............................
........................................................................

 iter      E             dE          RMSdq      gap      omega  full diag
   1   -191.2108265 -0.191211E+03  0.174E-04    1.70       0.0  T
   2   -191.2108265 -0.382727E-09  0.840E-05    1.70     110.0  T
   3   -191.2108265  0.318323E-10  0.447E-05    1.70     206.7  T
     SCC iter.                  ...        0 min,  0.113 sec
     gradient                   ...        0 min,  0.290 sec
 * total energy  :  -188.2473703 Eh     change       -0.1080926E-07 Eh
   gradient norm :     0.0000619 Eh/α   predicted    -0.3182012E-08 ( -70.56%)
   displ. norm   :     0.0001576 α      lambda        0.0000000E+00
   maximum displ.:     0.0000877 α      in ANC's #344, #322, #233, ...

   *** GEOMETRY OPTIMIZATION CONVERGED AFTER 152 ITERATIONS ***

------------------------------------------------------------------------
 total energy gain   :        -0.8873786 Eh     -556.8385 kcal/mol
 total RMSD          :         2.4896159 a0        1.3174 Å
 total power (kW/mol):       -15.3277122 (step)  -28.1594 (real)
------------------------------------------------------------------------

 ANCopt (total)                0 d,  0 h,  1 min, 22.737 sec
 optimizer setup                ...        0 min,  0.001 sec (  0.002%)
 model hessian                  ...        0 min,  0.650 sec (  0.786%)
 ANC generation                 ...        0 min,  0.129 sec (  0.156%)
 coordinate transformation      ...        0 min,  0.025 sec (  0.030%)
 single point calculation       ...        1 min, 21.709 sec ( 98.758%)
 optimization log               ...        0 min,  0.114 sec (  0.138%)
 hessian update                 ...        0 min,  0.023 sec (  0.028%)
 rational function              ...        0 min,  0.067 sec (  0.081%)

================
 final structure:
================
117
 xtb: 6.7.1 (edcfbbe)
O           -0.00620258997430        3.35863551296145       -1.15827445056168
P           -0.47205563120501        2.23201299205932       -0.31741948716796
O           -1.47496833546704        2.51158420192347        0.77131394360108
O           -1.04038007700880        1.03885813560028       -1.28976924929620
C           -1.48849002037402       -0.01656101373474       -0.52266210929974
C           -2.85582453184460       -0.08339730162504       -0.17188734059139
C           -3.27063475941990       -1.09046409610524        0.66286404126550
C           -2.36520184823971       -2.03315258356140        1.18789841847486
C           -2.79282835028265       -3.04691000210046        2.07213492331462
C           -1.89965523905045       -3.92432121995962        2.61962863981898
C           -0.53405625078640       -3.81280965656965        2.31785082888489
C           -0.08848921369963       -2.84707741248335        1.45756760965503
C           -0.98842839469276       -1.94652078091189        0.84784135944473
C           -0.56700772314258       -0.92050206790227       -0.04257457988039
C            0.85272561350478       -0.73924674557580       -0.41300581125186
C            1.47177812336909        0.46278209532644       -0.12110297588751
O            0.77127758878761        1.47642730643792        0.47274917750704
C            2.86747953225800        0.62746739564632       -0.32431088201491
C            3.58667827269097       -0.40226764804115       -0.87654612078934
C            2.96881442302163       -1.59557368147221       -1.29760933354828
C            3.69557688364229       -2.62003870781424       -1.94018493170359
C            3.07337169890150       -3.76086021204316       -2.36388854295307
C            1.69282951729120       -3.91968298211746       -2.17013434952545
C            0.96337687964638       -2.95002741363234       -1.53894151892356
C            1.57919096000255       -1.76950957462762       -1.06948209231781
C           -3.80085868081786        0.93390279080735       -0.66321548518035
C           -4.57206961495884        1.65126775909155        0.24640111071188
C           -5.48986320043400        2.58635442837812       -0.19481011647432
C           -5.65532591330462        2.80894881430292       -1.55182331208603
C           -4.87614423446971        2.11448851606925       -2.46220537953115
C           -3.94931821603268        1.18580493381577       -2.02308760228262
C            3.55429722926291        1.86300458443748        0.09907864211881
C            3.14609886804466        3.11407632649607       -0.35284863522452
C            3.81132633368506        4.25494182196329        0.06236760042298
C            4.88920978225853        4.16314210828105        0.92778160615778
C            5.30471096085137        2.92003988945630        1.37699924411726
C            4.64379188144235        1.77735254215002        0.96343973720460
H           -1.77930939544697        3.95188598345007        1.00544850022614
H           -4.31392830155057       -1.15877734162947        0.93844930311429
H           -3.84502950580158       -3.11035369732681        2.31227941687708
H           -2.23473134597015       -4.69869261404171        3.29436856860574
H            0.16839194893557       -4.49547001388116        2.77380244567847
H            0.96623042234952       -2.76347944643310        1.24214023320208
H            4.65116420069796       -0.28466725965567       -1.02756598988283
H            4.75548919522601       -2.47836631399715       -2.09944476534388
H            3.63509417162573       -4.53984156062489       -2.85866760811902
H            1.20588230546662       -4.81508800335012       -2.52882432294072
H           -0.10112620852584       -3.07575773700810       -1.40451159900782
H           -4.42271869193035        1.48652798347266        1.30104573532069
H           -6.07388246056508        3.14919391825134        0.52092554258932
H           -6.38367664905689        3.52735566403965       -1.89814338431337
H           -4.99248755572132        2.29542177046833       -3.52136783670341
H           -3.34282663599113        0.64349447703111       -2.73462543616558
H            2.30465196601209        3.19417336369543       -1.02252967837294
H            3.48245566716835        5.22108039829833       -0.29328501629850
H            5.40356643256740        5.05652222694267        1.25151190723237
H            6.14477825015207        2.84079402352741        2.05248834779933
H            4.96037634986400        0.80750415158753        1.32213299566847
C           -2.33054924240576        6.76395491172683        2.85536309558758
C           -1.76495512926637        5.49551827737663        2.32612440907843
N           -2.19411797902669        4.91644319184191        1.25893151462293
C           -3.19764178405934        5.31262557526091        0.36044097535998
C           -4.44094369876151        5.78689297550814        0.76485509545668
C           -5.37624001679119        6.15443662032830       -0.18784804227537
C           -5.07430375574805        6.06091547594743       -1.53585023787186
C           -3.84664663431202        5.55552393858829       -1.93717322925999
C           -2.91321856408581        5.16540909157423       -0.99657014515414
C           -0.62773668682071        4.89571880327063        3.02056599243734
C           -0.57463687513940        4.89724053072381        4.41692363436157
C            0.49191090294893        4.31315928575406        5.07245753513609
C            1.52971875234791        3.74518356972863        4.34847604066231
C            1.49836364305537        3.76371884868367        2.96321264662708
C            0.42660166983589        4.32948311074609        2.29797752391446
H           -3.08628485422745        6.51543435296557        3.60200413650569
H           -1.55512382869092        7.35121474241314        3.34173343927635
H           -2.80327281227139        7.34602139077130        2.06684792893257
H           -4.68700005795567        5.82643429961088        1.81288575441309
H           -6.34835732626941        6.50806822752427        0.12259290919885
H           -5.80147888081142        6.36516533516372       -2.27384434128224
H           -3.61721520592163        5.45624870709342       -2.98728193412188
H           -1.96082412151976        4.75405513404963       -1.29494314970703
H           -1.39740442937029        5.30712658257933        4.98063005777355
H            0.51566748518635        4.30011295842659        6.15226173638579
H            2.36462456007905        3.29236484262541        4.86248482486345
H            2.30607676905001        3.33236577159845        2.39268289503328
H            0.42901298218937        4.35575066764194        1.21952719048956
C           -6.52598246895544        8.37318324844021        2.92603743598830
O           -6.49181141319229        6.99073165996323        3.24431955125165
C           -7.45369205250771        6.21820491451809        2.68689039853709
O           -8.30309290750441        6.69428948960063        1.95630914950186
C           -7.31851143713333        4.82116209570341        3.07897944783050
C           -8.16319587846306        3.83655561474007        2.68562891403323
C           -9.39115278013400        3.97836757268388        1.85150740172263
N           -7.87539434092505        2.54057157986675        3.05750507370750
C           -6.58836967479442        2.11610994377054        3.32925133963667
C           -6.40311812226369        0.64695200336624        3.13428685590713
C           -5.68329695680230        3.05025331199643        3.70549455949604
C           -4.22890028532070        2.91450855942827        3.79182723361467
O           -3.49148409601882        3.87646041452704        3.92064693182140
O           -3.76108239859219        1.65808110518932        3.71492900857994
C           -2.34657959023458        1.49307873221376        3.71952461598447
C           -6.20766208176393        4.43496019143857        4.02696773484557
H           -5.80632745852314        8.85235753309820        3.58536408142155
H           -6.24960956845899        8.53067154838032        1.88036118193619
H           -7.52699055144019        8.77803844494944        3.08977463959006
H           -9.59863351923947        5.02404046440798        1.65361658264171
H           -9.25816745441417        3.46002736485591        0.90128001922256
H          -10.24112247174271        3.53293880211172        2.36796883440769
H           -8.53131865470465        1.83018304432482        2.76109083797779
H           -5.40878252479558        0.32950436938594        3.42161487335128
H           -7.13296300372258        0.11519022841734        3.74601880681224
H           -6.57601706611711        0.38209546671822        2.09031566302585
H           -1.89471864537439        2.09952604285943        4.50691338607389
H           -2.16765038209002        0.43454436502153        3.89502342196646
H           -1.93015491920472        1.79078339206403        2.75461775502038
H           -5.38792382046204        5.14868191105278        3.98362269192420
H           -6.59076981416658        4.44241971396517        5.05650621407478

 Bond Distances (Angstroems)
 ---------------------------
O1-P2=1.4810         P2-O1=1.4810         P2-O3=1.5064         P2-O4=1.6408         P2-O17=1.6556        O3-P2=1.5064         
O4-P2=1.6408         O4-C5=1.3796         C5-O4=1.3796         C5-C6=1.4132         C5-C14=1.3772        C6-C5=1.4132         
C6-C7=1.3722         C6-C26=1.4729        C7-C6=1.3722         C7-C8=1.4086         C7-H39=1.0812        C8-C7=1.4086         
C8-C9=1.4115         C8-C13=1.4208        C9-C8=1.4115         C9-C10=1.3665        C9-H40=1.0811        C10-C9=1.3665        
C10-C11=1.4030       C10-H41=1.0804       C11-C10=1.4030       C11-C12=1.3679       C11-H42=1.0804       C12-C11=1.3679       
C12-C13=1.4116       C12-H43=1.0797       C13-C8=1.4208        C13-C12=1.4116       C13-C14=1.4224       C14-C5=1.3772        
C14-C13=1.4224       C14-C15=1.4784       C15-C14=1.4784       C15-C16=1.3832       C15-C25=1.4213       C16-C15=1.3832       
C16-O17=1.3678       C16-C18=1.4200       O17-P2=1.6556        O17-C16=1.3678       C18-C16=1.4200       C18-C19=1.3721       
C18-C32=1.4756       C19-C18=1.3721       C19-C20=1.4082       C19-H44=1.0816       C20-C19=1.4082       C20-C21=1.4109       
C20-C25=1.4189       C21-C20=1.4109       C21-C22=1.3668       C21-H45=1.0811       C22-C21=1.3668       C22-C23=1.4031       
C22-H46=1.0803       C23-C22=1.4031       C23-C24=1.3677       C23-H47=1.0805       C24-C23=1.3677       C24-C25=1.4118       
C24-H48=1.0803       C25-C15=1.4213       C25-C20=1.4189       C25-C24=1.4118       C26-C6=1.4729        C26-C27=1.3917       
C26-C31=1.3910       C27-C26=1.3917       C27-C28=1.3825       C27-H49=1.0778       C28-C27=1.3825       C28-C29=1.3851       
C28-H50=1.0817       C29-C28=1.3851       C29-C30=1.3850       C29-H51=1.0801       C30-C29=1.3850       C30-C31=1.3836       
C30-H52=1.0808       C31-C26=1.3910       C31-C30=1.3836       C31-H53=1.0808       C32-C18=1.4756       C32-C33=1.3914       
C32-C37=1.3934       C33-C32=1.3914       C33-C34=1.3844       C33-H54=1.0784       C34-C33=1.3844       C34-C35=1.3854       
C34-H55=1.0808       C35-C34=1.3854       C35-C36=1.3855       C35-H56=1.0805       C36-C35=1.3855       C36-C37=1.3833       
C36-H57=1.0809       C37-C32=1.3934       C37-C36=1.3833       C37-H58=1.0814       H38-N61=1.0801       H39-C7=1.0812        
H40-C9=1.0811        H41-C10=1.0804       H42-C11=1.0804       H43-C12=1.0797       H44-C19=1.0816       H45-C21=1.0811       
H46-C22=1.0803       H47-C23=1.0805       H48-C24=1.0803       H49-C27=1.0778       H50-C28=1.0817       H51-C29=1.0801       
H52-C30=1.0808       H53-C31=1.0808       H54-C33=1.0784       H55-C34=1.0808       H56-C35=1.0805       H57-C36=1.0809       
H58-C37=1.0814       C59-C60=1.4862       C59-H74=1.0910       C59-H75=1.0875       C59-H76=1.0881       C60-C59=1.4862       
C60-N61=1.2878       C60-C68=1.4613       N61-H38=1.0801       N61-C60=1.2878       N61-C62=1.4040       C62-N61=1.4040       
C62-C63=1.3908       C62-C67=1.3943       C63-C62=1.3908       C63-C64=1.3847       C63-H77=1.0773       C64-C63=1.3847       
C64-C65=1.3846       C64-H78=1.0800       C65-C64=1.3846       C65-C66=1.3869       C65-H79=1.0798       C66-C65=1.3869       
C66-C67=1.3814       C66-H80=1.0795       C67-C62=1.3943       C67-C66=1.3814       C67-H81=1.0795       C68-C60=1.4613       
C68-C69=1.3974       C68-C73=1.3980       C69-C68=1.3974       C69-C70=1.3814       C69-H82=1.0783       C70-C69=1.3814       
C70-C71=1.3870       C70-H83=1.0801       C71-C70=1.3870       C71-C72=1.3857       C71-H84=1.0800       C72-C71=1.3857       
C72-C73=1.3825       C72-H85=1.0789       C73-C68=1.3980       C73-C72=1.3825       C73-H86=1.0788       H74-C59=1.0910       
H75-C59=1.0875       H76-C59=1.0881       H77-C63=1.0773       H78-C64=1.0800       H79-C65=1.0798       H80-C66=1.0795       
H81-C67=1.0795       H82-C69=1.0783       H83-C70=1.0801       H84-C71=1.0800       H85-C72=1.0789       H86-C73=1.0788       
C87-O88=1.4190       C87-H103=1.0873      C87-H104=1.0930      C87-H105=1.0921      O88-C87=1.4190       O88-C89=1.3538       
C89-O88=1.3538       C89-O90=1.2173       C89-C91=1.4573       O90-C89=1.2173       C91-C89=1.4573       C91-C92=1.3556       
C91-C102=1.5106      C92-C91=1.3556       C92-C93=1.4912       C92-N94=1.3787       C93-C92=1.4912       C93-H106=1.0843      
C93-H107=1.0905      C93-H108=1.0898      N94-C92=1.3787       N94-C95=1.3822       N94-H109=1.0113      C95-N94=1.3822       
C95-C96=1.4936       C95-C97=1.3540       C96-C95=1.4936       C96-H110=1.0826      C96-H111=1.0907      C96-H112=1.0908      
C97-C95=1.3540       C97-C98=1.4633       C97-C102=1.5152      C98-C97=1.4633       C98-O99=1.2189       C98-O100=1.3429      
O99-C98=1.2189       O100-C98=1.3429      O100-C101=1.4241     C101-O100=1.4241     C101-H113=1.0918     C101-H114=1.0878     
C101-H115=1.0923     C102-C91=1.5106      C102-C97=1.5152      C102-H116=1.0878     C102-H117=1.0985     H103-C87=1.0873      
H104-C87=1.0930      H105-C87=1.0921      H106-C93=1.0843      H107-C93=1.0905      H108-C93=1.0898      H109-N94=1.0113      
H110-C96=1.0826      H111-C96=1.0907      H112-C96=1.0908      H113-C101=1.0918     H114-C101=1.0878     H115-C101=1.0923     
H116-C102=1.0878     H117-C102=1.0985     
 C  H  Rav=1.0836 sigma=0.0052  Rmin=1.0773  Rmax=1.0985    47
 C  C  Rav=1.4080 sigma=0.0396  Rmin=1.3540  Rmax=1.5152    59
 N  H  Rav=1.0457 sigma=0.0344  Rmin=1.0113  Rmax=1.0801     2
 N  C  Rav=1.3632 sigma=0.0446  Rmin=1.2878  Rmax=1.4040     4
 O  C  Rav=1.3404 sigma=0.0755  Rmin=1.2173  Rmax=1.4241     8
 P  O  Rav=1.5710 sigma=0.0779  Rmin=1.4810  Rmax=1.6556     4

 selected bond angles (degree)
 --------------------
O3-P2-O1=118.59                O4-P2-O1=109.01                O4-P2-O3=109.43                O17-P2-O1=112.45               
O17-P2-O3=103.87               O17-P2-O4=102.19               C5-O4-P2=109.84                C6-C5-O4=119.24                
C14-C5-O4=118.60               C14-C5-C6=121.99               C7-C6-C5=118.57                C26-C6-C5=120.35               
C26-C6-C7=121.05               C8-C7-C6=121.57                H39-C7-C6=119.54               H39-C7-C8=118.88               
C9-C8-C7=121.29                C13-C8-C7=119.53               C13-C8-C9=119.16               C10-C9-C8=120.94               
H40-C9-C8=118.43               H40-C9-C10=120.63              C11-C10-C9=119.93              H41-C10-C9=120.51              
H41-C10-C11=119.55             

 selected dihedral angles (degree)
 ---------------------------------
C5-O4-P2-O1=180.44            C5-O4-P2-O3=311.60            C5-O4-P2-O17= 61.25           C6-C5-O4-P2= 93.96            
C14-C5-O4-P2=278.60           C7-C6-C5-O4=184.18            C7-C6-C5-C14=359.38           C26-C6-C5-O4=  2.35           
C26-C6-C5-C14=177.55          C8-C7-C6-C5=  1.09            C8-C7-C6-C26=182.93           H39-C7-C6-C5=180.23           
H39-C7-C6-C26=  2.08          C9-C8-C7-C6=178.42            C9-C8-C7-H39=359.28           C13-C8-C7-C6=359.91           
C13-C8-C7-H39=180.76          C10-C9-C8-C7=182.67           C10-C9-C8-C13=  1.19          H40-C9-C8-C7=  2.30           
H40-C9-C8-C13=180.82          C11-C10-C9-C8=  0.83          C11-C10-C9-H40=181.21         H41-C10-C9-C8=180.10          
H41-C10-C9-H40=  0.48         
           -------------------------------------------------
          |                Final Singlepoint                |
           -------------------------------------------------

          ...................................................
          :                      SETUP                      :
          :.................................................:
          :  # basis functions                 327          :
          :  # atomic orbitals                 326          :
          :  # shells                          186          :
          :  # electrons                       340          :
          :  max. iterations                   250          :
          :  Hamiltonian                  GFN2-xTB          :
          :  restarted?                      false          :
          :  GBSA solvation                   true          :
          :  PC potential                    false          :
          :  electronic temp.          300.0000000     K    :
          :  accuracy                    0.2000000          :
          :  -> integral cutoff          0.3198970E+02      :
          :  -> integral neglect         0.2000000E-08      :
          :  -> SCF convergence          0.2000000E-06 Eh   :
          :  -> wf. convergence          0.2000000E-04 e    :
          :  Broyden damping             0.4000000          :
          :  net charge                          0          :
          :  unpaired electrons                  0          :
          ...................................................

 iter      E             dE          RMSdq      gap      omega  full diag
   1   -191.2108265 -0.191211E+03  0.193E-05    1.70       0.0  T
   2   -191.2108265 -0.349587E-11  0.151E-05    1.70     610.8  T
   3   -191.2108265 -0.214300E-10  0.670E-06    1.70    1380.5  T

   *** convergence criteria satisfied after 3 iterations ***

         #    Occupation            Energy/Eh            Energy/eV
      -------------------------------------------------------------
         1        2.0000           -0.7375618             -20.0701
       ...           ...                  ...                  ...
       164        2.0000           -0.3985601             -10.8454
       165        2.0000           -0.3972516             -10.8098
       166        2.0000           -0.3833095             -10.4304
       167        2.0000           -0.3802571             -10.3473
       168        2.0000           -0.3759531             -10.2302
       169        2.0000           -0.3699907             -10.0680
       170        2.0000           -0.3644008              -9.9159 (HOMO)
       171                         -0.3020651              -8.2196 (LUMO)
       172                         -0.2776564              -7.5554
       173                         -0.2651720              -7.2157
       174                         -0.2542663              -6.9189
       175                         -0.2445647              -6.6549
       ...                                ...                  ...
       326                          1.3026461              35.4468
      -------------------------------------------------------------
                  HL-Gap            0.0623357 Eh            1.6962 eV
             Fermi-level           -0.3332329 Eh           -9.0677 eV

 SCC (total)                   0 d,  0 h,  0 min,  0.477 sec
 SCC setup                      ...        0 min,  0.006 sec (  1.333%)
 Dispersion                     ...        0 min,  0.004 sec (  0.784%)
 classical contributions        ...        0 min,  0.001 sec (  0.224%)
 integral evaluation            ...        0 min,  0.094 sec ( 19.791%)
 iterations                     ...        0 min,  0.082 sec ( 17.226%)
 molecular gradient             ...        0 min,  0.286 sec ( 59.938%)
 printout                       ...        0 min,  0.003 sec (  0.689%)

         :::::::::::::::::::::::::::::::::::::::::::::::::::::
         ::                     SUMMARY                     ::
         :::::::::::::::::::::::::::::::::::::::::::::::::::::
         :: total energy            -188.247370333025 Eh    ::
         :: total w/o Gsasa/hb      -188.170638632411 Eh    ::
         :: gradient norm              0.000062767286 Eh/a0 ::
         :: HOMO-LUMO gap              1.696240999956 eV    ::
         ::.................................................::
         :: SCC energy              -191.199762668828 Eh    ::
         :: -> isotropic ES            0.278358353406 Eh    ::
         :: -> anisotropic ES         -0.033802208492 Eh    ::
         :: -> anisotropic XC          0.083342899534 Eh    ::
         :: -> dispersion             -0.184061965592 Eh    ::
         :: -> Gsolv                  -0.094161384962 Eh    ::
         ::    -> Gelec               -0.017429684348 Eh    ::
         ::    -> Gsasa               -0.078939843752 Eh    ::
         ::    -> Ghb                  0.000000000000 Eh    ::
         ::    -> Gshift               0.002208143139 Eh    ::
         :: repulsion energy           2.952392335803 Eh    ::
         :: add. restraining           0.000000000000 Eh    ::
         :: total charge              -0.000000000000 e     ::
         :::::::::::::::::::::::::::::::::::::::::::::::::::::

           -------------------------------------------------
          |                Property Printout                |
           -------------------------------------------------

    * Orbital Energies and Occupations

         #    Occupation            Energy/Eh            Energy/eV
      -------------------------------------------------------------
         1        2.0000           -0.7375618             -20.0701
       ...           ...                  ...                  ...
       158        2.0000           -0.4060983             -11.0505
       159        2.0000           -0.4049315             -11.0187
       160        2.0000           -0.4035950             -10.9824
       161        2.0000           -0.4021584             -10.9433
       162        2.0000           -0.4014507             -10.9240
       163        2.0000           -0.3989702             -10.8565
       164        2.0000           -0.3985601             -10.8454
       165        2.0000           -0.3972516             -10.8098
       166        2.0000           -0.3833095             -10.4304
       167        2.0000           -0.3802571             -10.3473
       168        2.0000           -0.3759531             -10.2302
       169        2.0000           -0.3699907             -10.0680
       170        2.0000           -0.3644008              -9.9159 (HOMO)
       171                         -0.3020651              -8.2196 (LUMO)
       172                         -0.2776564              -7.5554
       173                         -0.2651720              -7.2157
       174                         -0.2542663              -6.9189
       175                         -0.2445647              -6.6549
       176                         -0.2387214              -6.4959
       177                         -0.2376822              -6.4677
       178                         -0.2353939              -6.4054
       179                         -0.2338242              -6.3627
       180                         -0.2322085              -6.3187
       181                         -0.2200981              -5.9892
       ...                                ...                  ...
       326                          1.3026461              35.4468
      -------------------------------------------------------------
                  HL-Gap            0.0623357 Eh            1.6962 eV
             Fermi-level           -0.3332329 Eh           -9.0677 eV

     #   Z          covCN         q      C6AA      α(0)
     1   8 O        0.808    -0.571    25.433     6.760
     2  15 P        3.899     0.627   135.282    20.893
     3   8 O        0.833    -0.574    25.500     6.770
     4   8 O        1.661    -0.318    19.323     5.934
     5   6 C        3.304     0.156    22.999     7.670
     6   6 C        2.970    -0.002    28.072     8.691
     7   6 C        2.926    -0.052    29.304     8.877
     8   6 C        2.984     0.006    27.889     8.663
     9   6 C        2.920    -0.038    28.938     8.821
    10   6 C        2.915    -0.033    28.818     8.803
    11   6 C        2.916    -0.032    28.810     8.802
    12   6 C        2.917    -0.036    28.885     8.813
    13   6 C        2.986     0.009    27.805     8.650
    14   6 C        2.973    -0.010    28.261     8.720
    15   6 C        2.973    -0.012    28.304     8.727
    16   6 C        3.066     0.152    24.654     8.142
    17   8 O        1.661    -0.319    19.339     5.937
    18   6 C        2.970    -0.008    28.227     8.715
    19   6 C        2.925    -0.052    29.287     8.875
    20   6 C        2.984     0.005    27.903     8.665
    21   6 C        2.919    -0.036    28.906     8.817
    22   6 C        2.915    -0.033    28.818     8.803
    23   6 C        2.916    -0.032    28.805     8.801
    24   6 C        2.917    -0.035    28.880     8.812
    25   6 C        2.986     0.010    27.776     8.645
    26   6 C        2.978     0.029    27.341     8.577
    27   6 C        2.926    -0.036    28.907     8.817
    28   6 C        2.918    -0.035    28.863     8.810
    29   6 C        2.920    -0.035    28.870     8.811
    30   6 C        2.919    -0.032    28.788     8.799
    31   6 C        2.923    -0.029    28.724     8.789
    32   6 C        2.978     0.021    27.522     8.605
    33   6 C        2.922    -0.031    28.783     8.798
    34   6 C        2.919    -0.030    28.753     8.793
    35   6 C        2.919    -0.034    28.838     8.806
    36   6 C        2.918    -0.033    28.813     8.802
    37   6 C        2.925    -0.038    28.940     8.822
    38   1 H        0.877     0.283     0.766     1.370
    39   1 H        0.925     0.039     2.465     2.455
    40   1 H        0.926     0.035     2.519     2.482
    41   1 H        0.926     0.034     2.532     2.488
    42   1 H        0.926     0.032     2.564     2.504
    43   1 H        0.926     0.030     2.586     2.515
    44   1 H        0.925     0.038     2.469     2.457
    45   1 H        0.926     0.033     2.547     2.496
    46   1 H        0.926     0.032     2.552     2.498
    47   1 H        0.926     0.031     2.574     2.509
    48   1 H        0.926     0.028     2.615     2.529
    49   1 H        0.926     0.043     2.409     2.427
    50   1 H        0.925     0.022     2.710     2.575
    51   1 H        0.926     0.031     2.578     2.511
    52   1 H        0.926     0.030     2.582     2.513
    53   1 H        0.926     0.028     2.610     2.526
    54   1 H        0.926     0.051     2.313     2.378
    55   1 H        0.926     0.027     2.625     2.534
    56   1 H        0.926     0.030     2.583     2.513
    57   1 H        0.926     0.031     2.573     2.508
    58   1 H        0.925     0.028     2.615     2.529
    59   6 C        3.757    -0.130    23.042     6.844
    60   6 C        2.887     0.132    25.106     8.215
    61   7 N        2.697    -0.072    22.641     7.067
    62   6 C        2.913     0.066    26.514     8.444
    63   6 C        2.919    -0.041    29.025     8.835
    64   6 C        2.920    -0.027    28.683     8.783
    65   6 C        2.919    -0.025    28.639     8.776
    66   6 C        2.920    -0.021    28.542     8.761
    67   6 C        2.925    -0.039    28.965     8.826
    68   6 C        2.982     0.009    27.811     8.651
    69   6 C        2.923    -0.021    28.532     8.760
    70   6 C        2.917    -0.027    28.679     8.782
    71   6 C        2.919    -0.020    28.505     8.755
    72   6 C        2.918    -0.020    28.498     8.754
    73   6 C        2.922    -0.019    28.483     8.752
    74   1 H        0.924     0.115     1.651     2.010
    75   1 H        0.925     0.085     1.925     2.170
    76   1 H        0.925     0.080     1.976     2.198
    77   1 H        0.926     0.062     2.179     2.308
    78   1 H        0.926     0.053     2.282     2.362
    79   1 H        0.926     0.050     2.321     2.382
    80   1 H        0.926     0.048     2.348     2.396
    81   1 H        0.926     0.064     2.148     2.292
    82   1 H        0.926     0.067     2.119     2.276
    83   1 H        0.926     0.052     2.296     2.369
    84   1 H        0.926     0.049     2.331     2.388
    85   1 H        0.926     0.048     2.343     2.394
    86   1 H        0.926     0.056     2.244     2.343
    87   6 C        3.651     0.035    20.302     6.472
    88   8 O        1.705    -0.278    18.609     5.824
    89   6 C        2.723     0.346    21.128     7.525
    90   8 O        0.856    -0.464    23.009     6.431
    91   6 C        2.958    -0.067    29.677     8.935
    92   6 C        2.894     0.085    26.110     8.378
    93   6 C        3.758    -0.132    23.093     6.851
    94   7 N        2.718    -0.129    23.797     7.245
    95   6 C        2.891     0.081    26.186     8.390
    96   6 C        3.759    -0.129    23.029     6.842
    97   6 C        2.957    -0.066    29.645     8.931
    98   6 C        2.721     0.349    21.070     7.514
    99   8 O        0.857    -0.472    23.166     6.453
   100   8 O        1.703    -0.272    18.516     5.810
   101   6 C        3.650     0.030    20.385     6.486
   102   6 C        3.823    -0.056    21.566     6.609
   103   1 H        0.925     0.070     2.085     2.258
   104   1 H        0.924     0.057     2.239     2.340
   105   1 H        0.924     0.062     2.177     2.307
   106   1 H        0.925     0.090     1.878     2.143
   107   1 H        0.924     0.068     2.112     2.273
   108   1 H        0.925     0.069     2.099     2.265
   109   1 H        0.860     0.200     1.107     1.648
   110   1 H        0.925     0.080     1.982     2.202
   111   1 H        0.924     0.072     2.063     2.246
   112   1 H        0.924     0.066     2.126     2.280
   113   1 H        0.924     0.056     2.247     2.344
   114   1 H        0.925     0.060     2.205     2.322
   115   1 H        0.924     0.079     1.993     2.208
   116   1 H        0.925     0.069     2.097     2.265
   117   1 H        0.923     0.044     2.394     2.420

 Mol. C6AA /au·bohr⁶  :     183462.580530
 Mol. C8AA /au·bohr⁸  :    4618039.079440
 Mol. α(0) /au        :        681.456758


Wiberg/Mayer (AO) data.
largest (>0.10) Wiberg bond orders for each atom

 ---------------------------------------------------------------------------
     #   Z sym  total        # sym  WBO       # sym  WBO       # sym  WBO
 ---------------------------------------------------------------------------
     1   8 O    1.993 --     2 P    1.754
     2  15 P    5.556 --     1 O    1.754     3 O    1.587     4 O    1.066
                            17 O    1.039
     3   8 O    2.028 --     2 P    1.587    38 H    0.153
     4   8 O    2.292 --     2 P    1.066     5 C    0.983
     5   6 C    3.922 --    14 C    1.456     6 C    1.246     4 O    0.983
     6   6 C    3.987 --     7 C    1.505     5 C    1.246    26 C    1.033
     7   6 C    3.983 --     6 C    1.505     8 C    1.280    39 H    0.966
                            14 C    0.102
     8   6 C    3.988 --     7 C    1.280     9 C    1.279    13 C    1.250
     9   6 C    3.985 --    10 C    1.554     8 C    1.279    40 H    0.968
                            12 C    0.117
    10   6 C    3.987 --     9 C    1.554    11 C    1.323    41 H    0.971
    11   6 C    3.986 --    12 C    1.551    10 C    1.323    42 H    0.971
    12   6 C    3.990 --    11 C    1.551    13 C    1.287    43 H    0.966
                             9 C    0.117
    13   6 C    3.985 --    12 C    1.287     8 C    1.250    14 C    1.236
    14   6 C    3.984 --     5 C    1.456    13 C    1.236    15 C    1.032
                             7 C    0.102
    15   6 C    3.984 --    16 C    1.445    25 C    1.238    14 C    1.032
    16   6 C    3.922 --    15 C    1.445    18 C    1.235    17 O    1.009
    17   8 O    2.306 --     2 P    1.039    16 C    1.009
    18   6 C    3.986 --    19 C    1.512    16 C    1.235    32 C    1.031
    19   6 C    3.984 --    18 C    1.512    20 C    1.277    44 H    0.966
    20   6 C    3.987 --    21 C    1.280    19 C    1.277    25 C    1.251
    21   6 C    3.985 --    22 C    1.553    20 C    1.280    45 H    0.968
                            24 C    0.116
    22   6 C    3.986 --    21 C    1.553    23 C    1.323    46 H    0.971
    23   6 C    3.986 --    24 C    1.551    22 C    1.323    47 H    0.971
    24   6 C    3.990 --    23 C    1.551    25 C    1.285    48 H    0.967
                            21 C    0.116
    25   6 C    3.986 --    24 C    1.285    20 C    1.251    15 C    1.238
    26   6 C    3.988 --    31 C    1.396    27 C    1.391     6 C    1.033
                            29 C    0.107
    27   6 C    3.987 --    28 C    1.450    26 C    1.391    49 H    0.965
                            30 C    0.109
    28   6 C    3.992 --    27 C    1.450    29 C    1.434    50 H    0.969
                            31 C    0.109
    29   6 C    3.988 --    30 C    1.437    28 C    1.434    51 H    0.970
                            26 C    0.107
    30   6 C    3.992 --    31 C    1.447    29 C    1.437    52 H    0.971
                            27 C    0.109
    31   6 C    3.988 --    30 C    1.447    26 C    1.396    53 H    0.970
                            28 C    0.109
    32   6 C    3.988 --    33 C    1.397    37 C    1.393    18 C    1.031
                            35 C    0.107
    33   6 C    3.986 --    34 C    1.445    32 C    1.397    54 H    0.963
                            36 C    0.110
    34   6 C    3.992 --    33 C    1.445    35 C    1.438    55 H    0.971
                            37 C    0.110
    35   6 C    3.988 --    34 C    1.438    36 C    1.434    56 H    0.971
                            32 C    0.107
    36   6 C    3.992 --    37 C    1.450    35 C    1.434    57 H    0.971
                            33 C    0.110
    37   6 C    3.987 --    36 C    1.450    32 C    1.393    58 H    0.970
                            34 C    0.110
    38   1 H    0.920 --    61 N    0.723     3 O    0.153
    39   1 H    0.998 --     7 C    0.966
    40   1 H    0.998 --     9 C    0.968
    41   1 H    0.998 --    10 C    0.971
    42   1 H    0.999 --    11 C    0.971
    43   1 H    0.999 --    12 C    0.966
    44   1 H    0.997 --    19 C    0.966
    45   1 H    0.998 --    21 C    0.968
    46   1 H    0.998 --    22 C    0.971
    47   1 H    0.999 --    23 C    0.971
    48   1 H    0.999 --    24 C    0.967
    49   1 H    0.998 --    27 C    0.965
    50   1 H    0.999 --    28 C    0.969
    51   1 H    0.999 --    29 C    0.970
    52   1 H    0.998 --    30 C    0.971
    53   1 H    0.999 --    31 C    0.970
    54   1 H    0.997 --    33 C    0.963
    55   1 H    0.999 --    34 C    0.971
    56   1 H    0.999 --    35 C    0.971
    57   1 H    0.998 --    36 C    0.971
    58   1 H    0.999 --    37 C    0.970
    59   6 C    3.984 --    60 C    1.046    75 H    0.970    76 H    0.966
                            74 H    0.928
    60   6 C    3.933 --    61 N    1.616    68 C    1.074    59 C    1.046
    61   7 N    3.646 --    60 C    1.616    62 C    1.036    38 H    0.723
    62   6 C    3.955 --    63 C    1.381    67 C    1.368    61 N    1.036
    63   6 C    3.981 --    64 C    1.441    62 C    1.381    77 H    0.961
                            66 C    0.106
    64   6 C    3.990 --    63 C    1.441    65 C    1.440    78 H    0.967
                            67 C    0.110
    65   6 C    3.984 --    64 C    1.440    66 C    1.426    79 H    0.970
    66   6 C    3.990 --    67 C    1.458    65 C    1.426    80 H    0.969
                            63 C    0.106
    67   6 C    3.982 --    66 C    1.458    62 C    1.368    81 H    0.960
                            64 C    0.110
    68   6 C    3.984 --    73 C    1.368    69 C    1.364    60 C    1.074
    69   6 C    3.979 --    70 C    1.460    68 C    1.364    82 H    0.965
                            72 C    0.107
    70   6 C    3.990 --    69 C    1.460    71 C    1.426    83 H    0.969
                            73 C    0.105
    71   6 C    3.984 --    72 C    1.434    70 C    1.426    84 H    0.970
    72   6 C    3.990 --    73 C    1.451    71 C    1.434    85 H    0.966
                            69 C    0.107
    73   6 C    3.984 --    72 C    1.451    68 C    1.368    86 H    0.958
                            70 C    0.105
    74   1 H    0.984 --    59 C    0.928
    75   1 H    0.992 --    59 C    0.970
    76   1 H    0.993 --    59 C    0.966
    77   1 H    0.996 --    63 C    0.961
    78   1 H    0.997 --    64 C    0.967
    79   1 H    0.997 --    65 C    0.970
    80   1 H    0.996 --    66 C    0.969
    81   1 H    0.996 --    67 C    0.960
    82   1 H    0.995 --    69 C    0.965
    83   1 H    0.996 --    70 C    0.969
    84   1 H    0.997 --    71 C    0.970
    85   1 H    0.997 --    72 C    0.966
    86   1 H    0.997 --    73 C    0.958
    87   6 C    3.928 --   103 H    0.981   105 H    0.977   104 H    0.976
                            88 O    0.963
    88   8 O    2.279 --    89 C    1.090    87 C    0.963    90 O    0.151
    89   6 C    3.921 --    90 O    1.654    88 O    1.090    91 C    1.079
    90   8 O    1.987 --    89 C    1.654    88 O    0.151
    91   6 C    3.970 --    92 C    1.614    89 C    1.079   102 C    0.996
    92   6 C    3.966 --    91 C    1.614    94 N    1.152    93 C    1.031
    93   6 C    3.986 --    92 C    1.031   106 H    0.969   108 H    0.963
                           107 H    0.961
    94   7 N    3.505 --    92 C    1.152    95 C    1.144   109 H    0.928
    95   6 C    3.966 --    97 C    1.628    94 N    1.144    96 C    1.028
    96   6 C    3.988 --    95 C    1.028   110 H    0.972   112 H    0.963
                           111 H    0.962
    97   6 C    3.971 --    95 C    1.628    98 C    1.066   102 C    0.994
    98   6 C    3.918 --    99 O    1.647   100 O    1.108    97 C    1.066
    99   8 O    1.974 --    98 C    1.647   100 O    0.152
   100   8 O    2.294 --    98 C    1.108   101 C    0.954    99 O    0.152
   101   6 C    3.921 --   114 H    0.982   113 H    0.977   115 H    0.963
                           100 O    0.954
   102   6 C    3.993 --    91 C    0.996    97 C    0.994   116 H    0.963
                           117 H    0.954
   103   1 H    0.995 --    87 C    0.981
   104   1 H    0.996 --    87 C    0.976
   105   1 H    0.996 --    87 C    0.977
   106   1 H    0.991 --    93 C    0.969
   107   1 H    0.995 --    93 C    0.961
   108   1 H    0.995 --    93 C    0.963
   109   1 H    0.959 --    94 N    0.928
   110   1 H    0.993 --    96 C    0.972
   111   1 H    0.994 --    96 C    0.962
   112   1 H    0.995 --    96 C    0.963
   113   1 H    0.997 --   101 C    0.977
   114   1 H    0.996 --   101 C    0.982
   115   1 H    0.993 --   101 C    0.963
   116   1 H    0.995 --   102 C    0.963
   117   1 H    0.998 --   102 C    0.954
 ---------------------------------------------------------------------------

Topologies differ in total number of bonds
Writing topology from bond orders to xtbtopo.mol

molecular dipole:
                 x           y           z       tot (Debye)
 q only:       -2.916       0.964       3.183
   full:       -2.765       0.488       2.894      10.247
molecular quadrupole (traceless):
                xx          xy          yy          xz          yz          zz
 q only:       21.444      -8.701       4.550     -16.857      30.969     -25.994
  q+dip:       28.331      -7.067      -7.488     -16.794      26.431     -20.843
   full:       24.097      -3.259      -4.594     -17.397      27.332     -19.503

           -------------------------------------------------
          |                Geometry Summary                 |
           -------------------------------------------------

      molecular mass/u    :      920.9834508
   center of mass at/Å    :       -1.9342001       2.2029788       1.0288266
  moments of inertia/u·Å² :        0.8878933E+04   0.1885161E+05   0.2185873E+05
rotational constants/cm⁻¹ :        0.1898610E-02   0.8942279E-03   0.7712082E-03

 * 113 selected distances

     #   Z          #   Z                                           value/Å
     1   8 O        2  15 P                                       1.4809912
     2  15 P        3   8 O                                       1.5064312
     2  15 P        4   8 O                                       1.6407546
     4   8 O        5   6 C                                       1.3795528
     5   6 C        6   6 C                                       1.4131929
     6   6 C        7   6 C                                       1.3722468
     7   6 C        8   6 C                                       1.4085921
     8   6 C        9   6 C                                       1.4115393
     9   6 C       10   6 C                                       1.3665132
    10   6 C       11   6 C                                       1.4029845
    11   6 C       12   6 C                                       1.3679387
     8   6 C       13   6 C                                       1.4207918
    12   6 C       13   6 C                                       1.4116158
     5   6 C       14   6 C                                       1.3772158
    13   6 C       14   6 C                                       1.4223750
    15   6 C       16   6 C                                       1.3832234
     2  15 P       17   8 O                                       1.6556432 (max)
    16   6 C       17   8 O                                       1.3677859
    16   6 C       18   6 C                                       1.4199991
    18   6 C       19   6 C                                       1.3720660
    19   6 C       20   6 C                                       1.4082008
    20   6 C       21   6 C                                       1.4108919
    21   6 C       22   6 C                                       1.3667985
    22   6 C       23   6 C                                       1.4030903
    23   6 C       24   6 C                                       1.3677492
    15   6 C       25   6 C                                       1.4213215
    20   6 C       25   6 C                                       1.4189255
    24   6 C       25   6 C                                       1.4118222
    26   6 C       27   6 C                                       1.3916830
    27   6 C       28   6 C                                       1.3825338
    28   6 C       29   6 C                                       1.3850673
    29   6 C       30   6 C                                       1.3849892
    26   6 C       31   6 C                                       1.3909520
    30   6 C       31   6 C                                       1.3835767
    32   6 C       33   6 C                                       1.3914184
    33   6 C       34   6 C                                       1.3843795
    34   6 C       35   6 C                                       1.3853525
    35   6 C       36   6 C                                       1.3855473
    32   6 C       37   6 C                                       1.3933612
    36   6 C       37   6 C                                       1.3833222
     7   6 C       39   1 H                                       1.0812380
     9   6 C       40   1 H                                       1.0811207
    10   6 C       41   1 H                                       1.0803709
    11   6 C       42   1 H                                       1.0804401
    12   6 C       43   1 H                                       1.0797367
    19   6 C       44   1 H                                       1.0815578
    21   6 C       45   1 H                                       1.0811332
    22   6 C       46   1 H                                       1.0803475
    23   6 C       47   1 H                                       1.0805214
    24   6 C       48   1 H                                       1.0802993
    27   6 C       49   1 H                                       1.0778313
    28   6 C       50   1 H                                       1.0817322
    29   6 C       51   1 H                                       1.0800653
    30   6 C       52   1 H                                       1.0807858
    31   6 C       53   1 H                                       1.0808418
    33   6 C       54   1 H                                       1.0783883
    34   6 C       55   1 H                                       1.0807723
    35   6 C       56   1 H                                       1.0805056
    36   6 C       57   1 H                                       1.0808694
    37   6 C       58   1 H                                       1.0814309
    59   6 C       60   6 C                                       1.4862443
    60   6 C       61   7 N                                       1.2877926
    61   7 N       62   6 C                                       1.4040321
    62   6 C       63   6 C                                       1.3907841
    63   6 C       64   6 C                                       1.3847423
    64   6 C       65   6 C                                       1.3845656
    65   6 C       66   6 C                                       1.3869474
    62   6 C       67   6 C                                       1.3942915
    66   6 C       67   6 C                                       1.3813805
    68   6 C       69   6 C                                       1.3973679
    69   6 C       70   6 C                                       1.3814486
    70   6 C       71   6 C                                       1.3870080
    71   6 C       72   6 C                                       1.3857423
    68   6 C       73   6 C                                       1.3979938
    72   6 C       73   6 C                                       1.3824981
    59   6 C       74   1 H                                       1.0910416
    59   6 C       75   1 H                                       1.0875270
    59   6 C       76   1 H                                       1.0881293
    63   6 C       77   1 H                                       1.0772538
    64   6 C       78   1 H                                       1.0800191
    65   6 C       79   1 H                                       1.0798088
    66   6 C       80   1 H                                       1.0794549
    67   6 C       81   1 H                                       1.0794878
    69   6 C       82   1 H                                       1.0782941
    70   6 C       83   1 H                                       1.0801444
    71   6 C       84   1 H                                       1.0799619
    72   6 C       85   1 H                                       1.0788746
    73   6 C       86   1 H                                       1.0787730
    87   6 C       88   8 O                                       1.4190292
    88   8 O       89   6 C                                       1.3537871
    89   6 C       90   8 O                                       1.2173280
    91   6 C       92   6 C                                       1.3556057
    92   6 C       94   7 N                                       1.3786575
    94   7 N       95   6 C                                       1.3821890
    95   6 C       97   6 C                                       1.3540088
    98   6 C       99   8 O                                       1.2189048
    98   6 C      100   8 O                                       1.3428988
   100   8 O      101   6 C                                       1.4241016
    87   6 C      103   1 H                                       1.0873009
    87   6 C      104   1 H                                       1.0929884
    87   6 C      105   1 H                                       1.0921241
    93   6 C      106   1 H                                       1.0842698
    93   6 C      107   1 H                                       1.0905476
    93   6 C      108   1 H                                       1.0897651
    94   7 N      109   1 H                                       1.0113111 (min)
    96   6 C      110   1 H                                       1.0826051
    96   6 C      111   1 H                                       1.0907155
    96   6 C      112   1 H                                       1.0908341
   101   6 C      113   1 H                                       1.0917591
   101   6 C      114   1 H                                       1.0878009
   101   6 C      115   1 H                                       1.0922834
   102   6 C      116   1 H                                       1.0877723
   102   6 C      117   1 H                                       1.0985340

 * 6 distinct bonds (by element types)

   Z      Z             #   av. dist./Å        max./Å        min./Å
   1 H    6 C          47     1.0835757     1.0985340     1.0772538
Note: The following floating-point exceptions are signalling: IEEE_DIVIDE_BY_ZERO IEEE_UNDERFLOW_FLAG IEEE_DENORMAL
normal termination of xtb
   6 C    6 C          49     1.3928960     1.4862443     1.3540088
   1 H    7 N           1     1.0113111     1.0113111     1.0113111
   6 C    7 N           4     1.3631678     1.4040321     1.2877926
   6 C    8 O           8     1.3404235     1.4241016     1.2173280
   8 O   15 P           4     1.5709550     1.6556432     1.4809912


optimized geometry written to: xtbopt.xyz


           -------------------------------------------------
          | TOTAL ENERGY             -188.247370333025 Eh   |
          | GRADIENT NORM               0.000062767286 Eh/α |
          | HOMO-LUMO GAP               1.696240999956 eV   |
           -------------------------------------------------

------------------------------------------------------------------------
 * finished run on 2026/09/10 at 23:23:53.692     
------------------------------------------------------------------------
 total:
 * wall-time:     0 d,  0 h,  1 min, 24.151 sec
 *  cpu-time:     0 d,  0 h,  0 min, 18.500 sec
 * ratio c/w:     0.220 speedup
 SCF:
 * wall-time:     0 d,  0 h,  0 min,  0.787 sec
 *  cpu-time:     0 d,  0 h,  0 min,  0.141 sec
 * ratio c/w:     0.179 speedup
 ANC optimizer:
 * wall-time:     0 d,  0 h,  1 min, 23.227 sec
 *  cpu-time:     0 d,  0 h,  0 min, 18.344 sec
 * ratio c/w:     0.220 speedup

