15

N     -1.371415   -1.145158    0.115485
C     -0.026559   -1.163192    0.107458
C      0.688251    0.025727   -0.017954
C      2.192260   -0.022763   -0.007678
F      2.671059   -0.269215    1.237397
F      2.773828    1.122960   -0.436690
F      2.661054   -1.021192   -0.800476
C     -0.024517    1.224344   -0.122438
C     -1.417425    1.207523   -0.110595
C     -2.078556   -0.007851    0.010417
H     -1.876795   -2.029618    0.205703
H      0.445365   -2.137655    0.201060
H      0.502934    2.176074   -0.214651
H     -1.979347    2.136296   -0.194105
H     -3.160137   -0.096281    0.027067
