117
 energy: -188.258157678734 gnorm: 0.000065349654 xtb: 6.7.1 (edcfbbe)
O            0.86505886128546        3.16542731914544       -1.65661013904191
P            0.00795506446681        2.78395022542827       -0.51458590707912
O           -0.76496061647315        3.83625228747514        0.21919904670548
O           -0.99714967222829        1.58918955662258       -1.01810392532167
C           -1.66229289656229        0.91123779244382       -0.03101061150191
C           -3.02522562708059        1.19674875249040        0.24645812304025
C           -3.65546645347752        0.45759618440190        1.22094196251813
C           -2.97833258569757       -0.50871809619054        1.98543740323287
C           -3.62842916653616       -1.21535015442506        3.02011568498267
C           -2.94290333771199       -2.10393461683635        3.79928756370986
C           -1.57220345421839       -2.31306190430997        3.58299062258366
C           -0.91815828855893       -1.65703267390447        2.57667581160015
C           -1.60397057174888       -0.75624918494091        1.73325923374477
C           -0.97022725895679       -0.05334712425738        0.67241814979308
C            0.45065720925014       -0.29541576111597        0.34422249957567
C            1.34153412481148        0.75870694430169        0.41066043513862
O            0.87606242870785        2.01812175875667        0.68724422028174
C            2.73901125815416        0.53773941706633        0.30317392400951
C            3.19020176917376       -0.73103528834203        0.03751271250377
C            2.30437268136337       -1.80338936903712       -0.18064328974445
C            2.76791418200529       -3.08559019926973       -0.54368298120012
C            1.89087742704252       -4.11017638619883       -0.76474147463660
C            0.51051792138912       -3.89167295139782       -0.63916579247123
C            0.03091293871483       -2.66361747229551       -0.27524868193262
C            0.91078250128534       -1.58933805313620       -0.02191514371629
C           -3.75791177142265        2.25994569874288       -0.45983365958798
C           -4.67551118374375        3.04313767562596        0.24296203201623
C           -5.39394973420657        4.03732503683497       -0.39336587882735
C           -5.19474946579496        4.28781220438812       -1.74087613955833
C           -4.28780233858060        3.51823438565189       -2.44860979832101
C           -3.58482844560663        2.50543046207209       -1.82037251217015
C            3.71068828998734        1.62194316951065        0.54772991402678
C            3.67654887532739        2.81427895923550       -0.16902951054229
C            4.61005171068571        3.80644667457383        0.08617301462199
C            5.58195242984690        3.62454530320791        1.05675997129420
C            5.62318857106512        2.43779990834445        1.77073544788843
C            4.69722806205052        1.44215332858536        1.51582166675177
H           -2.07731992885583        4.53082841490610        0.88948308193744
H           -4.70625044543168        0.61779413649585        1.41659509775324
H           -4.67952599518105       -1.02893890821255        3.18948844250436
H           -3.44490841862287       -2.64066332687523        4.59105096134021
H           -1.03205013302593       -2.99761123708449        4.22077745549929
H            0.13867125833498       -1.82017632684735        2.42650738781967
H            4.25390050260292       -0.90903035461392       -0.04166900185422
H            3.83260773864477       -3.23719063780641       -0.65359370810974
H            2.25174784734857       -5.08847467900123       -1.04708689410824
H           -0.17534525560308       -4.70257731618840       -0.83755659155364
H           -1.03389733026635       -2.50102754654046       -0.19363668165413
H           -4.81825994361302        2.87162775806439        1.30107501789105
H           -6.11564488158561        4.61898375825529        0.16198290289996
H           -5.74581404341297        5.07376548886226       -2.23557393219221
H           -4.13174101184469        3.69924553236767       -3.50218805913033
H           -2.90364709088441        1.89558851623062       -2.39279468554775
H            2.92727058272059        2.95510653791075       -0.93222856930561
H            4.58416821279898        4.72206310956800       -0.48792199050389
H            6.30705265468726        4.40124728600812        1.25167149505048
H            6.38030019717094        2.28636712982137        2.52670231562167
H            4.72606822476146        0.51929094236859        2.07798936175796
C           -3.90442472934609        6.17317579736858        3.21718493337345
C           -3.15365794013890        5.10226937773380        2.50357113132821
N           -2.76482099494943        5.22615072438683        1.26747345509036
C           -3.04692854491248        6.21317414791483        0.31268898449639
C           -4.20858723680941        6.98395699380112        0.29701513640475
C           -4.42266331479312        7.89094786834850       -0.72633703409654
C           -3.49580795565092        8.04205301155861       -1.74331351063502
C           -2.35063851973488        7.25888080347808       -1.74523091723052
C           -2.13009838473941        6.34739498445307       -0.73269353513173
C           -2.85564850138382        3.87501117812504        3.23525556573087
C           -3.73342418760458        3.44465439386876        4.24214954307446
C           -3.49530139792959        2.27136364826375        4.92883602480698
C           -2.36274179683761        1.51628645587382        4.65828266963642
C           -1.48266519110667        1.93573836642811        3.67589166588637
C           -1.72882421909183        3.09205437688211        2.96064643660282
H           -4.98171643404800        6.06306454797069        3.09193567297339
H           -3.68292105861370        6.12645929395656        4.28156654468607
H           -3.59867627598230        7.14799165426435        2.83757859246301
H           -4.97285656853078        6.86237810590611        1.04337529684276
H           -5.32686802797275        8.48094186295468       -0.72786825259289
H           -3.66845706874713        8.75552954845909       -2.53501014177947
H           -1.62699263558317        7.35368952706858       -2.54072807640574
H           -1.25077351901815        5.72455035150294       -0.74138225791046
H           -4.62615291736402        4.00859859717755        4.46487169643478
H           -4.19257248295742        1.94591569600893        5.68680675516764
H           -2.16726043384933        0.60948116111057        5.20977227088140
H           -0.59422725942440        1.36194930367889        3.46459184503706
H           -1.02509706026124        3.39573309118388        2.20669510023792
C           -1.52091766269490        4.74798178866442        6.92597340556739
O           -0.98332876137767        5.18134390740978        5.68633512519925
C            0.04931119070739        4.44894434226018        5.19690390260699
O            0.46777579211221        3.47815479651017        5.80081263346742
C            0.52466061074024        4.98810577701075        3.93030037471010
C            1.47027351360723        4.38822766086807        3.16355094545096
C            2.20848430060978        3.13604421056423        3.49565986838930
N            1.81887012534991        4.93092926629016        1.95598471988205
C            1.18392393951281        5.99769242641626        1.36613582080395
C            1.62215641214355        6.23070678975677       -0.04034750623990
C            0.25585078714533        6.68830503939724        2.06789805045779
C           -0.52032539877146        7.83564266875605        1.60520956262416
O           -1.57435318130788        8.17399061322929        2.11746440067061
O            0.02437000155054        8.54239168133494        0.59592169589062
C           -0.67895796012768        9.71188512879518        0.19863359848820
C           -0.10279010150082        6.28766151917424        3.48555174059119
H           -2.30179560641057        5.46048097282779        7.18021764123955
H           -1.93108023823731        3.73975823560461        6.83113234663900
H           -0.74594682455996        4.73922844951514        7.69573695794510
H            1.94138908937994        2.78189054926827        4.48448409570842
H            1.96583457197158        2.37268614331354        2.75814209815451
H            3.28210829006309        3.31701126135582        3.44772133404771
H            2.41962544753171        4.37249087830641        1.36070976973807
H            1.09224953900209        7.05686561481382       -0.49574537802965
H            2.69048074178459        6.44304138231043       -0.05947658257051
H            1.44309855489586        5.32409893948416       -0.62111727558629
H           -0.74254550291962       10.41447144421645        1.03262183031755
H           -0.10647432275823       10.14108463203331       -0.61961489703116
H           -1.68990405382378        9.45863769217458       -0.12775325989577
H           -1.19123746873808        6.21877859688470        3.56888390561383
H            0.19572213567272        7.09079240975431        4.17301045365133
