      -----------------------------------------------------------      
     |                   =====================                   |     
     |                           x T B                           |     
     |                   =====================                   |     
     |                         S. Grimme                         |     
     |          Mulliken Center for Theoretical Chemistry        |     
     |                    University of Bonn                     |     
      -----------------------------------------------------------      

   * xtb version 6.7.1 (edcfbbe) compiled by 'VssAdministrator@runnervm171ch' on 2026-06-10

   xtb is free software: you can redistribute it and/or modify it under
   the terms of the GNU Lesser General Public License as published by
   the Free Software Foundation, either version 3 of the License, or
   (at your option) any later version.
   
   xtb is distributed in the hope that it will be useful,
   but WITHOUT ANY WARRANTY; without even the implied warranty of
   MERCHANTABILITY or FITNESS FOR A PARTICULAR PURPOSE.  See the
   GNU Lesser General Public License for more details.
   
   Cite this work as:
   * C. Bannwarth, E. Caldeweyher, S. Ehlert, A. Hansen, P. Pracht,
     J. Seibert, S. Spicher, S. Grimme, WIREs Comput. Mol. Sci., 2020, 11,
     e01493. DOI: 10.1002/wcms.1493
   
   for GFN2-xTB:
   * C. Bannwarth, S. Ehlert and S. Grimme., J. Chem. Theory Comput., 2019,
     15, 1652-1671. DOI: 10.1021/acs.jctc.8b01176
   for GFN1-xTB:
   * S. Grimme, C. Bannwarth, P. Shushkov, J. Chem. Theory Comput., 2017,
     13, 1989-2009. DOI: 10.1021/acs.jctc.7b00118
   for GFN0-xTB:
   * P. Pracht, E. Caldeweyher, S. Ehlert, S. Grimme, ChemRxiv, 2019, preprint.
     DOI: 10.26434/chemrxiv.8326202.v1
   for GFN-FF:
   * S. Spicher and S. Grimme, Angew. Chem. Int. Ed., 2020, 59, 15665-15673.
     DOI: 10.1002/anie.202004239
   
   for ALPB and GBSA implicit solvation:
   * S. Ehlert, M. Stahn, S. Spicher, S. Grimme, J. Chem. Theory Comput.,
     2021, 17, 4250-4261. DOI: 10.1021/acs.jctc.1c00471
   
   for ddCOSMO and CPCM-X implicit solvation:
   * M. Stahn, S. Ehlert, S. Grimme, J. Phys. Chem. A,
     2023, XX, XXXX-XXXX. DOI: 10.1021/acs.jpca.3c04382
   
   for DFT-D4:
   * E. Caldeweyher, C. Bannwarth and S. Grimme, J. Chem. Phys., 2017,
     147, 034112. DOI: 10.1063/1.4993215
   * E. Caldeweyher, S. Ehlert, A. Hansen, H. Neugebauer, S. Spicher,
     C. Bannwarth and S. Grimme, J. Chem. Phys., 2019, 150, 154122.
     DOI: 10.1063/1.5090222
   * E. Caldeweyher, J.-M. Mewes, S. Ehlert and S. Grimme, Phys. Chem. Chem. Phys.
     2020, 22, 8499-8512. DOI: 10.1039/D0CP00502A
   
   for sTDA-xTB:
   * S. Grimme and C. Bannwarth, J. Chem. Phys., 2016, 145, 054103.
     DOI: 10.1063/1.4959605
   
   in the mass-spec context:
   * V. Asgeirsson, C. Bauer and S. Grimme, Chem. Sci., 2017, 8, 4879.
     DOI: 10.1039/c7sc00601b
   * J. Koopman and S. Grimme, ACS Omega 2019, 4, 12, 15120-15133.
     DOI: 10.1021/acsomega.9b02011
   
   for metadynamics refer to:
   * S. Grimme, J. Chem. Theory Comput., 2019, 155, 2847-2862
     DOI: 10.1021/acs.jctc.9b00143
   
   for SPH calculations refer to:
   * S. Spicher and S. Grimme, J. Chem. Theory Comput., 2021, 17, 1701-1714
     DOI: 10.1021/acs.jctc.0c01306
   
   for ONIOM refer to:
   * C. Plett, A. Katbashev, S. Ehlert, S. Grimme, M. Bursch,
     Phys. Chem. Chem. Phys., 2023, 25, 17860-17868. DOI: 10.1039/D3CP02178E
   
   for DIPRO refer to:
   * J. Kohn, N. Gildemeister, S. Grimme, D. Fazzi, A. Hansen,
     J. Chem. Phys., 2023, just accepted.
   
   for PTB refer to:
   * S. Grimme, M. Mueller, A. Hansen, J. Chem. Phys., 2023, 158, 124111.
     DOI: 10.1063/5.0137838
   
   with help from (in alphabetical order)
   P. Atkinson, C. Bannwarth, F. Bohle, G. Brandenburg, E. Caldeweyher
   M. Checinski, S. Dohm, S. Ehlert, S. Ehrlich, I. Gerasimov, C. Hölzer
   A. Katbashev, J. Kohn, J. Koopman, C. Lavigne, S. Lehtola, F. März, M. Müller,
   F. Musil, H. Neugebauer, J. Pisarek, C. Plett, P. Pracht, F. Pultar,
   J. Seibert, P. Shushkov, S. Spicher, M. Stahn, M. Steiner, T. Strunk,
   J. Stückrath, T. Rose, and J. Unsleber
   
 * started run on 2026/09/10 at 23:07:03.471     
   ID    Z sym.   atoms
    1    6 C      1, 2, 4-16
    2    7 N      3
    3    1 H      17-31

           -------------------------------------------------
          |                Calculation Setup                |
           -------------------------------------------------

          program call               : C:\Users\HUIWEI\miniconda3\envs\phase2ff\Library\bin\xtb.exe input.xyz --gfn 2 --chrg 0 --uhf 0 --alpb ch2cl2 --acc 0.2 --opt extreme
          coordinate file            : input.xyz
          omp threads                :                     1


           -------------------------------------------------
          |                 G F N 2 - x T B                 |
           -------------------------------------------------

        Reference                      10.1021/acs.jctc.8b01176
      * Hamiltonian:
        H0-scaling (s, p, d)           1.850000    2.230000    2.230000
        zeta-weighting                 0.500000
      * Dispersion:
        s8                             2.700000
        a1                             0.520000
        a2                             5.000000
        s9                             5.000000
      * Repulsion:
        kExp                           1.500000    1.000000
        rExp                           1.000000
      * Coulomb:
        alpha                          2.000000
        third order                    shell-resolved
        anisotropic                    true
        a3                             3.000000
        a5                             4.000000
        cn-shift                       1.200000
        cn-exp                         4.000000
        max-rad                        5.000000

      * Solvation model:               ALPB
        Solvent                        ch2cl2
        Parameter file                 internal GFN2-xTB/ALPB
        Dielectric constant                8.9300E+00
        Reference state                gsolv [1 M gas/solution]
        Free energy shift                  4.1487E-03 Eh       2.6033E+00 kcal/mol
        Temperature                        2.9815E+02 K
        Density                            1.3300E+00 kg/L
        Solvent mass                       8.4930E+01 g/mol
        Interaction kernel             P16
        Born radius scaling (c1)           1.5691E+00
        Born radii integrator          GBOBC
        Born offset                        0.0000E+00 a0       0.0000E+00 AA
        H-bond correction              false
        Ion screening                  false
        Surface tension                    1.0000E-05 Eh       1.5569E+01 dyn/cm
        Grid points                               230 per atom

          ...................................................
          :                      SETUP                      :
          :.................................................:
          :  # basis functions                  79          :
          :  # atomic orbitals                  79          :
          :  # shells                           47          :
          :  # electrons                        80          :
          :  max. iterations                   250          :
          :  Hamiltonian                  GFN2-xTB          :
          :  restarted?                      false          :
          :  GBSA solvation                   true          :
          :  PC potential                    false          :
          :  electronic temp.          300.0000000     K    :
          :  accuracy                    0.2000000          :
          :  -> integral cutoff          0.3198970E+02      :
          :  -> integral neglect         0.2000000E-08      :
          :  -> SCF convergence          0.2000000E-06 Eh   :
          :  -> wf. convergence          0.2000000E-04 e    :
          :  Broyden damping             0.4000000          :
          :  net charge                          0          :
          :  unpaired electrons                  0          :
          ...................................................

 iter      E             dE          RMSdq      gap      omega  full diag
   1    -43.4386954 -0.434387E+02  0.375E+00    2.79       0.0  T
   2    -43.4649165 -0.262211E-01  0.223E+00    2.63       1.0  T
   3    -43.4568435  0.807300E-02  0.852E-01    2.49       1.0  T
   4    -43.4691960 -0.123524E-01  0.236E-01    2.44       1.0  T
   5    -43.4700839 -0.887926E-03  0.582E-02    2.46       1.0  T
   6    -43.4701126 -0.286652E-04  0.290E-02    2.45       1.0  T
   7    -43.4701172 -0.463893E-05  0.132E-02    2.46       1.4  T
   8    -43.4701181 -0.917412E-06  0.262E-03    2.46       6.9  T
   9    -43.4701182 -0.102027E-06  0.114E-03    2.46      15.7  T
  10    -43.4701182 -0.583601E-08  0.499E-04    2.46      36.0  T
  11    -43.4701182 -0.118476E-08  0.177E-04    2.46     101.6  T
  12    -43.4701182 -0.355939E-09  0.916E-05    2.46     196.2  T

   *** convergence criteria satisfied after 12 iterations ***

         #    Occupation            Energy/Eh            Energy/eV
      -------------------------------------------------------------
         1        2.0000           -0.6515273             -17.7290
       ...           ...                  ...                  ...
        34        2.0000           -0.4182557             -11.3813
        35        2.0000           -0.4148087             -11.2875
        36        2.0000           -0.4086314             -11.1194
        37        2.0000           -0.4048063             -11.0153
        38        2.0000           -0.3973525             -10.8125
        39        2.0000           -0.3874084             -10.5419
        40        2.0000           -0.3547209              -9.6524 (HOMO)
        41                         -0.2644313              -7.1955 (LUMO)
        42                         -0.2218720              -6.0374
        43                         -0.2150585              -5.8520
        44                         -0.2075825              -5.6486
        45                         -0.1815418              -4.9400
       ...                                ...                  ...
        79                          0.7003634              19.0579
      -------------------------------------------------------------
                  HL-Gap            0.0902896 Eh            2.4569 eV
             Fermi-level           -0.3095761 Eh           -8.4240 eV

 SCC (total)                   0 d,  0 h,  0 min,  0.029 sec
 SCC setup                      ...        0 min,  0.001 sec (  2.988%)
 Dispersion                     ...        0 min,  0.000 sec (  0.934%)
 classical contributions        ...        0 min,  0.000 sec (  0.228%)
 integral evaluation            ...        0 min,  0.004 sec ( 12.351%)
 iterations                     ...        0 min,  0.013 sec ( 46.028%)
 molecular gradient             ...        0 min,  0.011 sec ( 36.703%)
 printout                       ...        0 min,  0.000 sec (  0.721%)

         :::::::::::::::::::::::::::::::::::::::::::::::::::::
         ::                     SUMMARY                     ::
         :::::::::::::::::::::::::::::::::::::::::::::::::::::
         :: total energy             -42.687356286844 Eh    ::
         :: total w/o Gsasa/hb       -42.667879252397 Eh    ::
         :: gradient norm              0.019460109526 Eh/a0 ::
         :: HOMO-LUMO gap              2.456905200921 eV    ::
         ::.................................................::
         :: SCC energy               -43.470270500203 Eh    ::
         :: -> isotropic ES            0.011996455081 Eh    ::
         :: -> anisotropic ES          0.006413968083 Eh    ::
         :: -> anisotropic XC          0.031169027644 Eh    ::
         :: -> dispersion             -0.029849325377 Eh    ::
         :: -> Gsolv                  -0.020497731635 Eh    ::
         ::    -> Gelec               -0.001020697189 Eh    ::
         ::    -> Gsasa               -0.023625731807 Eh    ::
         ::    -> Ghb                  0.000000000000 Eh    ::
         ::    -> Gshift               0.004148697361 Eh    ::
         :: repulsion energy           0.782914213359 Eh    ::
         :: add. restraining           0.000000000000 Eh    ::
         :: total charge               0.000000000000 e     ::
         :::::::::::::::::::::::::::::::::::::::::::::::::::::

      ----------------------------------------------------------- 
     |                   =====================                   |
     |                        A N C O P T                        |
     |                   =====================                   |
     |               Approximate Normal Coordinate               |
     |                Rational Function Optimizer                |
      ----------------------------------------------------------- 
      ----------------------------------------------------------- 
     |                   =====================                   |
     |                        A N C O P T                        |
     |                   =====================                   |
     |               Approximate Normal Coordinate               |
     |                Rational Function Optimizer                |
      ----------------------------------------------------------- 

          ...................................................
          :                      SETUP                      :
          :.................................................:
          :   optimization level           extreme          :
          :   max. optcycles                   620          :
          :   ANC micro-cycles                  20          :
          :   degrees of freedom                87          :
          :.................................................:
          :   RF solver                   davidson          :
          :   write xtbopt.log                true          :
          :   linear?                        false          :
          :   energy convergence         0.5000000E-07 Eh   :
          :   grad. convergence          0.5000000E-04 Eh/α :
          :   maxmium RF displ.          1.0000000          :
          :   Hlow (freq-cutoff)         0.1000000E-01      :
          :   Hmax (freq-cutoff)         5.0000000          :
          :   S6 in model hess.         20.0000000          :
          ...................................................

generating ANC from exact Hessian ...
Using Lindh-Hessian (1995)
 Shifting diagonal of input Hessian by    9.3945791681555296E-003
 Lowest  eigenvalues of input Hessian
    0.000000    0.000000    0.000000    0.000000    0.000000    0.000000
    0.010000    0.010516    0.010574    0.011350    0.013357    0.014471
    0.017700    0.018220    0.019295    0.022930    0.024238    0.024960
 Highest eigenvalues
    1.893307    1.949075    1.999885    2.015753    2.044111    2.237799


........................................................................
.............................. CYCLE    1 ..............................
........................................................................

 iter      E             dE          RMSdq      gap      omega  full diag
   1    -43.4701182 -0.434701E+02  0.395E-05    2.46       0.0  T
   2    -43.4701182 -0.768807E-11  0.269E-05    2.46     668.3  T
   3    -43.4701182 -0.482459E-11  0.175E-05    2.46    1026.6  T
     SCC iter.                  ...        0 min,  0.004 sec
     gradient                   ...        0 min,  0.013 sec
 * total energy  :   -42.6873563 Eh     change       -0.4237677E-10 Eh
   gradient norm :     0.0194602 Eh/α   predicted     0.0000000E+00 (-100.00%)
   displ. norm   :     0.0644186 α      lambda       -0.7491108E-03
   maximum displ.:     0.0454338 α      in ANC's #26, #50, #59, ...

........................................................................
.............................. CYCLE    2 ..............................
........................................................................

 iter      E             dE          RMSdq      gap      omega  full diag
   1    -43.4736237 -0.434736E+02  0.733E-02    2.46       0.0  T
   2    -43.4736276 -0.388108E-05  0.427E-02    2.46       1.0  T
   3    -43.4736278 -0.192659E-06  0.597E-03    2.46       3.0  T
   4    -43.4736279 -0.104535E-06  0.169E-03    2.46      10.7  T
   5    -43.4736279 -0.902052E-08  0.964E-04    2.46      18.6  T
   6    -43.4736279 -0.714524E-08  0.227E-04    2.46      79.0  T
   7    -43.4736279 -0.195222E-09  0.617E-05    2.46     291.1  T
   8    -43.4736279 -0.512799E-10  0.279E-05    2.46     642.9  T
     SCC iter.                  ...        0 min,  0.013 sec
     gradient                   ...        0 min,  0.013 sec
 * total energy  :   -42.6877761 Eh     change       -0.4198294E-03 Eh
   gradient norm :     0.0056878 Eh/α   predicted    -0.3784371E-03 (  -9.86%)
   displ. norm   :     0.0138633 α      lambda       -0.5191149E-04
   maximum displ.:     0.0067308 α      in ANC's #26, #59, #50, ...

........................................................................
.............................. CYCLE    3 ..............................
........................................................................

 iter      E             dE          RMSdq      gap      omega  full diag
   1    -43.4746339 -0.434746E+02  0.147E-02    2.46       0.0  T
   2    -43.4746341 -0.201425E-06  0.846E-03    2.46       2.1  T
   3    -43.4746341 -0.680602E-08  0.150E-03    2.46      12.0  T
   4    -43.4746341 -0.630676E-08  0.424E-04    2.46      42.3  T
   5    -43.4746341 -0.183153E-08  0.237E-04    2.46      75.8  T
   6    -43.4746341 -0.458854E-09  0.622E-05    2.46     288.8  T
   7    -43.4746341 -0.129461E-10  0.244E-05    2.46     735.0  T
     SCC iter.                  ...        0 min,  0.009 sec
     gradient                   ...        0 min,  0.012 sec
 * total energy  :   -42.6878039 Eh     change       -0.2779030E-04 Eh
   gradient norm :     0.0010603 Eh/α   predicted    -0.2596561E-04 (  -6.57%)
   displ. norm   :     0.0069943 α      lambda       -0.2221503E-05
   maximum displ.:     0.0028779 α      in ANC's #2, #8, #14, ...

........................................................................
.............................. CYCLE    4 ..............................
........................................................................

 iter      E             dE          RMSdq      gap      omega  full diag
   1    -43.4745215 -0.434745E+02  0.567E-03    2.46       0.0  T
   2    -43.4745215 -0.101995E-07  0.331E-03    2.46       5.4  T
   3    -43.4745215  0.314364E-08  0.477E-04    2.46      37.7  T
   4    -43.4745215 -0.538782E-08  0.179E-04    2.46     100.4  T
   5    -43.4745215 -0.433360E-09  0.816E-05    2.46     220.2  T
     SCC iter.                  ...        0 min,  0.007 sec
     gradient                   ...        0 min,  0.012 sec
 * total energy  :   -42.6878054 Eh     change       -0.1461758E-05 Eh
   gradient norm :     0.0003659 Eh/α   predicted    -0.1114439E-05 ( -23.76%)
   displ. norm   :     0.0036630 α      lambda       -0.1616445E-06
   maximum displ.:     0.0024399 α      in ANC's #2, #5, #3, ...

........................................................................
.............................. CYCLE    5 ..............................
........................................................................

 iter      E             dE          RMSdq      gap      omega  full diag
   1    -43.4745061 -0.434745E+02  0.183E-03    2.46       0.0  T
   2    -43.4745061 -0.549591E-09  0.108E-03    2.46      16.7  T
   3    -43.4745061  0.959254E-09  0.206E-04    2.46      87.1  T
   4    -43.4745061 -0.123906E-08  0.386E-05    2.46     465.7  T
   5    -43.4745061 -0.154188E-11  0.183E-05    2.46     981.9  T
     SCC iter.                  ...        0 min,  0.007 sec
     gradient                   ...        0 min,  0.012 sec
 * total energy  :   -42.6878056 Eh     change       -0.2463733E-06 Eh
   gradient norm :     0.0001170 Eh/α   predicted    -0.1213577E-06 ( -50.74%)
   displ. norm   :     0.0070345 α      lambda       -0.1685592E-06
   maximum displ.:     0.0048129 α      in ANC's #2, #5, #3, ...

........................................................................
.............................. CYCLE    6 ..............................
........................................................................

 iter      E             dE          RMSdq      gap      omega  full diag
   1    -43.4745091 -0.434745E+02  0.300E-03    2.46       0.0  T
   2    -43.4745091 -0.850285E-09  0.175E-03    2.46      10.3  T
   3    -43.4745091  0.380581E-09  0.170E-04    2.46     105.5  T
   4    -43.4745091 -0.723468E-09  0.508E-05    2.46     353.8  T
     SCC iter.                  ...        0 min,  0.006 sec
     gradient                   ...        0 min,  0.012 sec
 * total energy  :   -42.6878058 Eh     change       -0.1937836E-06 Eh
   gradient norm :     0.0001178 Eh/α   predicted    -0.8556008E-07 ( -55.85%)
   displ. norm   :     0.0112148 α      lambda       -0.1629102E-06
   maximum displ.:     0.0074409 α      in ANC's #2, #5, #3, ...

........................................................................
.............................. CYCLE    7 ..............................
........................................................................

 iter      E             dE          RMSdq      gap      omega  full diag
   1    -43.4745135 -0.434745E+02  0.467E-03    2.46       0.0  T
   2    -43.4745135 -0.134075E-08  0.273E-03    2.46       6.6  T
   3    -43.4745135  0.129994E-09  0.183E-04    2.46      98.3  T
   4    -43.4745135 -0.705974E-09  0.676E-05    2.46     265.8  T
     SCC iter.                  ...        0 min,  0.005 sec
     gradient                   ...        0 min,  0.013 sec
 * total energy  :   -42.6878060 Eh     change       -0.2319656E-06 Eh
   gradient norm :     0.0002086 Eh/α   predicted    -0.9175395E-07 ( -60.45%)
   displ. norm   :     0.0173059 α      lambda       -0.2566487E-06
   maximum displ.:     0.0110237 α      in ANC's #2, #3, #5, ...

........................................................................
.............................. CYCLE    8 ..............................
........................................................................

 iter      E             dE          RMSdq      gap      omega  full diag
   1    -43.4745141 -0.434745E+02  0.718E-03    2.46       0.0  T
   2    -43.4745141 -0.281275E-08  0.420E-03    2.46       4.3  T
   3    -43.4745141 -0.175788E-10  0.249E-04    2.46      72.2  T
   4    -43.4745141 -0.115772E-08  0.968E-05    2.46     185.6  T
   5    -43.4745141 -0.235545E-10  0.244E-05    2.46     734.6  T
     SCC iter.                  ...        0 min,  0.007 sec
     gradient                   ...        0 min,  0.012 sec
 * total energy  :   -42.6878064 Eh     change       -0.3397398E-06 Eh
   gradient norm :     0.0002196 Eh/α   predicted    -0.1290615E-06 ( -62.01%)
   displ. norm   :     0.0257588 α      lambda       -0.3566456E-06
   maximum displ.:     0.0162285 α      in ANC's #2, #3, #5, ...

........................................................................
.............................. CYCLE    9 ..............................
........................................................................

 iter      E             dE          RMSdq      gap      omega  full diag
   1    -43.4745164 -0.434745E+02  0.108E-02    2.46       0.0  T
   2    -43.4745165 -0.699412E-08  0.634E-03    2.46       2.8  T
   3    -43.4745165  0.293056E-08  0.502E-04    2.46      35.8  T
   4    -43.4745165 -0.578350E-08  0.143E-04    2.46     125.5  T
   5    -43.4745165 -0.525446E-10  0.500E-05    2.46     359.1  T
     SCC iter.                  ...        0 min,  0.007 sec
     gradient                   ...        0 min,  0.013 sec
 * total energy  :   -42.6878068 Eh     change       -0.4577022E-06 Eh
   gradient norm :     0.0001590 Eh/α   predicted    -0.1794122E-06 ( -60.80%)
   displ. norm   :     0.0307115 α      lambda       -0.3728907E-06
   maximum displ.:     0.0192918 α      in ANC's #2, #3, #5, ...

........................................................................
.............................. CYCLE   10 ..............................
........................................................................

 iter      E             dE          RMSdq      gap      omega  full diag
   1    -43.4745169 -0.434745E+02  0.131E-02    2.46       0.0  T
   2    -43.4745169 -0.116003E-07  0.768E-03    2.46       2.3  T
   3    -43.4745169  0.101318E-07  0.779E-04    2.46      23.0  T
   4    -43.4745169 -0.147697E-07  0.170E-04    2.46     105.4  T
   5    -43.4745169 -0.100378E-09  0.717E-05    2.46     250.5  T
     SCC iter.                  ...        0 min,  0.006 sec
     gradient                   ...        0 min,  0.012 sec
 * total energy  :   -42.6878073 Eh     change       -0.4598125E-06 Eh
   gradient norm :     0.0000961 Eh/α   predicted    -0.1890819E-06 ( -58.88%)
   displ. norm   :     0.0292983 α      lambda       -0.2960245E-06
   maximum displ.:     0.0184245 α      in ANC's #2, #3, #1, ...

........................................................................
.............................. CYCLE   11 ..............................
........................................................................

 iter      E             dE          RMSdq      gap      omega  full diag
   1    -43.4745233 -0.434745E+02  0.128E-02    2.46       0.0  T
   2    -43.4745233 -0.121554E-07  0.747E-03    2.46       2.4  T
   3    -43.4745233  0.146060E-07  0.881E-04    2.46      20.4  T
   4    -43.4745233 -0.193971E-07  0.159E-04    2.46     113.2  T
   5    -43.4745233 -0.110717E-09  0.717E-05    2.46     250.6  T
     SCC iter.                  ...        0 min,  0.007 sec
     gradient                   ...        0 min,  0.013 sec
 * total energy  :   -42.6878077 Eh     change       -0.3774527E-06 Eh
   gradient norm :     0.0001093 Eh/α   predicted    -0.1536083E-06 ( -59.30%)
   displ. norm   :     0.0273426 α      lambda       -0.2516525E-06
   maximum displ.:     0.0170954 α      in ANC's #2, #3, #1, ...

........................................................................
.............................. CYCLE   12 ..............................
........................................................................

 iter      E             dE          RMSdq      gap      omega  full diag
   1    -43.4745351 -0.434745E+02  0.121E-02    2.46       0.0  T
   2    -43.4745352 -0.110251E-07  0.708E-03    2.46       2.5  T
   3    -43.4745351  0.144563E-07  0.865E-04    2.46      20.8  T
   4    -43.4745352 -0.187965E-07  0.146E-04    2.46     123.0  T
   5    -43.4745352 -0.103718E-09  0.687E-05    2.46     261.4  T
     SCC iter.                  ...        0 min,  0.006 sec
     gradient                   ...        0 min,  0.013 sec
 * total energy  :   -42.6878080 Eh     change       -0.3246152E-06 Eh
   gradient norm :     0.0001189 Eh/α   predicted    -0.1310234E-06 ( -59.64%)
   displ. norm   :     0.0250491 α      lambda       -0.2111571E-06
   maximum displ.:     0.0156828 α      in ANC's #3, #2, #1, ...

........................................................................
.............................. CYCLE   13 ..............................
........................................................................

 iter      E             dE          RMSdq      gap      omega  full diag
   1    -43.4745424 -0.434745E+02  0.112E-02    2.46       0.0  T
   2    -43.4745424 -0.912355E-08  0.657E-03    2.46       2.7  T
   3    -43.4745424  0.128605E-07  0.796E-04    2.46      22.6  T
   4    -43.4745424 -0.164619E-07  0.123E-04    2.46     146.0  T
   5    -43.4745424 -0.810516E-10  0.597E-05    2.46     300.8  T
     SCC iter.                  ...        0 min,  0.006 sec
     gradient                   ...        0 min,  0.012 sec
 * total energy  :   -42.6878083 Eh     change       -0.2728265E-06 Eh
   gradient norm :     0.0000953 Eh/α   predicted    -0.1091078E-06 ( -60.01%)
   displ. norm   :     0.0191760 α      lambda       -0.1383653E-06
   maximum displ.:     0.0127859 α      in ANC's #3, #2, #1, ...

........................................................................
.............................. CYCLE   14 ..............................
........................................................................

 iter      E             dE          RMSdq      gap      omega  full diag
   1    -43.4745527 -0.434746E+02  0.870E-03    2.46       0.0  T
   2    -43.4745527 -0.454772E-08  0.510E-03    2.46       3.5  T
   3    -43.4745527  0.590851E-08  0.540E-04    2.46      33.3  T
   4    -43.4745527 -0.779600E-08  0.871E-05    2.46     206.2  T
   5    -43.4745527 -0.300489E-10  0.445E-05    2.46     403.9  T
     SCC iter.                  ...        0 min,  0.006 sec
     gradient                   ...        0 min,  0.013 sec
 * total energy  :   -42.6878085 Eh     change       -0.1870714E-06 Eh
   gradient norm :     0.0000479 Eh/α   predicted    -0.7365343E-07 ( -60.63%)
   displ. norm   :     0.0107285 α      lambda       -0.7642222E-07
   maximum displ.:     0.0076632 α      in ANC's #3, #2, #1, ...

........................................................................
.............................. CYCLE   15 ..............................
........................................................................

 iter      E             dE          RMSdq      gap      omega  full diag
   1    -43.4745566 -0.434746E+02  0.493E-03    2.46       0.0  T
   2    -43.4745566 -0.118585E-08  0.289E-03    2.46       6.2  T
   3    -43.4745566  0.150749E-08  0.264E-04    2.46      68.0  T
   4    -43.4745566 -0.203457E-08  0.417E-05    2.46     430.4  T
   5    -43.4745566 -0.406430E-11  0.223E-05    2.46     804.0  T
     SCC iter.                  ...        0 min,  0.006 sec
     gradient                   ...        0 min,  0.012 sec
 * total energy  :   -42.6878086 Eh     change       -0.1028616E-06 Eh
   gradient norm :     0.0000323 Eh/α   predicted    -0.3941633E-07 ( -61.68%)
   displ. norm   :     0.0082482 α      lambda       -0.5334547E-07
   maximum displ.:     0.0062727 α      in ANC's #3, #2, #1, ...

........................................................................
.............................. CYCLE   16 ..............................
........................................................................

 iter      E             dE          RMSdq      gap      omega  full diag
   1    -43.4745593 -0.434746E+02  0.380E-03    2.46       0.0  T
   2    -43.4745593 -0.559560E-09  0.223E-03    2.46       8.1  T
   3    -43.4745593  0.431022E-09  0.155E-04    2.46     115.8  T
   4    -43.4745593 -0.695714E-09  0.352E-05    2.46     509.8  T
     SCC iter.                  ...        0 min,  0.006 sec
     gradient                   ...        0 min,  0.012 sec
 * total energy  :   -42.6878086 Eh     change       -0.8215951E-07 Eh
   gradient norm :     0.0000369 Eh/α   predicted    -0.2936478E-07 ( -64.26%)
   displ. norm   :     0.0060013 α      lambda       -0.4015887E-07
   maximum displ.:     0.0046689 α      in ANC's #3, #1, #2, ...

........................................................................
.............................. CYCLE   17 ..............................
........................................................................

 iter      E             dE          RMSdq      gap      omega  full diag
   1    -43.4745596 -0.434746E+02  0.275E-03    2.46       0.0  T
   2    -43.4745596 -0.312781E-09  0.161E-03    2.46      11.2  T
   3    -43.4745596  0.137113E-09  0.106E-04    2.46     169.4  T
   4    -43.4745596 -0.279975E-09  0.313E-05    2.46     574.3  T
     SCC iter.                  ...        0 min,  0.006 sec
     gradient                   ...        0 min,  0.012 sec
 * total energy  :   -42.6878087 Eh     change       -0.6277111E-07 Eh
   gradient norm :     0.0000310 Eh/α   predicted    -0.2229296E-07 ( -64.49%)
   displ. norm   :     0.0054069 α      lambda       -0.3384223E-07
   maximum displ.:     0.0040676 α      in ANC's #3, #1, #2, ...

........................................................................
.............................. CYCLE   18 ..............................
........................................................................

 iter      E             dE          RMSdq      gap      omega  full diag
   1    -43.4745614 -0.434746E+02  0.243E-03    2.46       0.0  T
   2    -43.4745614 -0.273289E-09  0.142E-03    2.46      12.6  T
   3    -43.4745614  0.413465E-10  0.864E-05    2.46     208.0  T
   4    -43.4745614 -0.160107E-09  0.326E-05    2.46     550.8  T
     SCC iter.                  ...        0 min,  0.006 sec
     gradient                   ...        0 min,  0.012 sec
 * total energy  :   -42.6878088 Eh     change       -0.5245026E-07 Eh
   gradient norm :     0.0000251 Eh/α   predicted    -0.2034710E-07 ( -61.21%)
   displ. norm   :     0.0065599 α      lambda       -0.3813109E-07
   maximum displ.:     0.0050280 α      in ANC's #3, #4, #1, ...

........................................................................
.............................. CYCLE   19 ..............................
........................................................................

 iter      E             dE          RMSdq      gap      omega  full diag
   1    -43.4745610 -0.434746E+02  0.295E-03    2.46       0.0  T
   2    -43.4745610 -0.476852E-09  0.172E-03    2.46      10.4  T
   3    -43.4745610  0.348876E-10  0.108E-04    2.46     166.4  T
   4    -43.4745610 -0.227558E-09  0.435E-05    2.46     413.3  T
     SCC iter.                  ...        0 min,  0.006 sec
     gradient                   ...        0 min,  0.011 sec
 * total energy  :   -42.6878088 Eh     change       -0.5754649E-07 Eh
   gradient norm :     0.0000174 Eh/α   predicted    -0.2230458E-07 ( -61.24%)
   displ. norm   :     0.0056569 α      lambda       -0.2855327E-07
   maximum displ.:     0.0042635 α      in ANC's #3, #4, #1, ...

........................................................................
.............................. CYCLE   20 ..............................
........................................................................

 iter      E             dE          RMSdq      gap      omega  full diag
   1    -43.4745626 -0.434746E+02  0.251E-03    2.46       0.0  T
   2    -43.4745626 -0.370235E-09  0.147E-03    2.46      12.2  T
   3    -43.4745626  0.223750E-10  0.946E-05    2.46     189.9  T
   4    -43.4745626 -0.171156E-09  0.394E-05    2.46     455.9  T
     SCC iter.                  ...        0 min,  0.005 sec
     gradient                   ...        0 min,  0.012 sec
 * total energy  :   -42.6878089 Eh     change       -0.4328483E-07 Eh
   gradient norm :     0.0000167 Eh/α   predicted    -0.1667590E-07 ( -61.47%)
   displ. norm   :     0.0065320 α      lambda       -0.3028021E-07
   maximum displ.:     0.0050114 α      in ANC's #3, #4, #1, ...

   *** GEOMETRY OPTIMIZATION CONVERGED AFTER 20 ITERATIONS ***

------------------------------------------------------------------------
 total energy gain   :        -0.0004526 Eh       -0.2840 kcal/mol
 total RMSD          :         0.0429817 a0        0.0227 Å
 total power (kW/mol):        -0.0594116 (step)   -2.3329 (real)
------------------------------------------------------------------------

 ANCopt (total)                0 d,  0 h,  0 min,  0.509 sec
 optimizer setup                ...        0 min,  0.000 sec (  0.078%)
 model hessian                  ...        0 min,  0.006 sec (  1.090%)
 ANC generation                 ...        0 min,  0.001 sec (  0.182%)
 coordinate transformation      ...        0 min,  0.000 sec (  0.060%)
 single point calculation       ...        0 min,  0.494 sec ( 96.984%)
 optimization log               ...        0 min,  0.004 sec (  0.862%)
 hessian update                 ...        0 min,  0.001 sec (  0.102%)
 rational function              ...        0 min,  0.002 sec (  0.388%)

================
 final structure:
================
31
 xtb: 6.7.1 (edcfbbe)
C           -0.55656452482122       -1.37010823868303       -1.62395424231745
C           -0.20026638385418       -0.37355594976073       -0.55296727938067
N           -1.05437106060300        0.18458670232418        0.20071894662276
C           -2.40870068358562       -0.04187225010457        0.25208142225694
C           -2.92928072653877       -1.19335965717812        0.85014436158991
C           -4.29355414694709       -1.34178457308325        1.00689228126420
C           -5.16335397405880       -0.35723827241284        0.56737538266743
C           -4.65414488394667        0.78874583344511       -0.02344379915226
C           -3.29198642675131        0.95445136896883       -0.17346837853254
C            1.20986295833674        0.00116257741087       -0.38078212350469
C            2.23954976014740       -0.62072780032042       -1.08678470999757
C            3.55404559891378       -0.23742508008177       -0.89834685145602
C            3.88805912624225        0.77521840223087       -0.00689067094088
C            5.31487955117680        1.17623501867746        0.20596064347653
C            2.86117514615644        1.39354635864667        0.70132476420284
C            1.54810965250706        1.01461931359304        0.52016141928961
H           -0.16907187630937       -1.04306816181626       -2.58724793059113
H           -1.63814306349494       -1.47347003999487       -1.69298732960762
H           -0.12678304506532       -2.34290227701337       -1.38853181935655
H           -2.24880026296666       -1.95904245231032        1.19656042920935
H           -4.68122535301902       -2.23815771639574        1.47098715811891
H           -6.22986699447664       -0.48047811813381        0.68658754107745
H           -5.32577382388330        1.56262806042363       -0.36828937734319
H           -2.89109944464272        1.84646494998167       -0.63338032245157
H            2.02556810396530       -1.41332330211542       -1.78700482927530
H            4.33598477240798       -0.73386009300648       -1.45629841413362
H            5.39052660172361        2.24022048669988        0.42001715460049
H            5.91996409916327        0.94552019543288       -0.66787857885858
H            5.72845804811008        0.63298190447185        1.05698042088924
H            3.09830872396313        2.18294604991764        1.40083421122795
H            0.75479195174977        1.49837185845441        1.06900800842313

 Bond Distances (Angstroems)
 ---------------------------
C1-C2=1.5057         C1-H17=1.0886        C1-H18=1.0887        C1-H19=1.0892        C2-C1=1.5057         C2-N3=1.2685         
C2-C10=1.4692        N3-C2=1.2685         N3-C4=1.3741         C4-N3=1.3741         C4-C5=1.3981         C4-C9=1.3978         
C5-C4=1.3981         C5-C6=1.3812         C5-H20=1.0814        C6-C5=1.3812         C6-C7=1.3853         C6-H21=1.0813        
C7-C6=1.3853         C7-C8=1.3862         C7-H22=1.0802        C8-C7=1.3862         C8-C9=1.3804         C8-H23=1.0812        
C9-C4=1.3978         C9-C8=1.3804         C9-H24=1.0807        C10-C2=1.4692        C10-C11=1.3948       C10-C16=1.3976       
C11-C10=1.3948       C11-C12=1.3821       C11-H25=1.0790       C12-C11=1.3821       C12-C13=1.3899       C12-H26=1.0813       
C13-C12=1.3899       C13-C14=1.4973       C13-C15=1.3923       C14-C13=1.4973       C14-H27=1.0879       C14-H28=1.0876       
C14-H29=1.0911       C15-C13=1.3923       C15-C16=1.3786       C15-H30=1.0811       C16-C10=1.3976       C16-C15=1.3786       
C16-H31=1.0792       H17-C1=1.0886        H18-C1=1.0887        H19-C1=1.0892        H20-C5=1.0814        H21-C6=1.0813        
H22-C7=1.0802        H23-C8=1.0812        H24-C9=1.0807        H25-C11=1.0790       H26-C12=1.0813       H27-C14=1.0879       
H28-C14=1.0876       H29-C14=1.0911       H30-C15=1.0811       H31-C16=1.0792       
 C  H  Rav=1.0839 sigma=0.0042  Rmin=1.0790  Rmax=1.0911    15
 C  C  Rav=1.4091 sigma=0.0419  Rmin=1.3786  Rmax=1.5057    15
 N  C  Rav=1.3213 sigma=0.0528  Rmin=1.2685  Rmax=1.3741     2

 selected bond angles (degree)
 --------------------
H17-C1-C2=110.26               H18-C1-C2=110.06               H18-C1-H17=109.03              H19-C1-C2=110.12               
H19-C1-H17=108.61              H19-C1-H18=108.72              N3-C2-C1=123.68                C10-C2-C1=118.64               
C10-C2-N3=117.67               C4-N3-C2=127.83                C5-C4-N3=121.25                C9-C4-N3=119.60                
C9-C4-C5=118.82                C6-C5-C4=120.32                H20-C5-C4=119.07               H20-C5-C6=120.60               
C7-C6-C5=120.52                H21-C6-C5=119.47               H21-C6-C7=120.02               C8-C7-C6=119.48                
H22-C7-C6=120.25               H22-C7-C8=120.27               C9-C8-C7=120.53                H23-C8-C7=119.97               
H23-C8-C9=119.50               C8-C9-C4=120.33                H24-C9-C4=118.91               H24-C9-C8=120.76               
C11-C10-C2=122.38              C16-C10-C2=119.52              C16-C10-C11=118.10             

 selected dihedral angles (degree)
 ---------------------------------
N3-C2-C1-H17=124.41           N3-C2-C1-H18=  4.09           N3-C2-C1-H19=244.25           C10-C2-C1-H17=305.71          
C10-C2-C1-H18=185.39          C10-C2-C1-H19= 65.55          C4-N3-C2-C1=  3.80            C4-N3-C2-C10=182.51           
C5-C4-N3-C2= 74.92            C9-C4-N3-C2=248.18            C6-C5-C4-N3=173.73            C6-C5-C4-C9=  0.42            
H20-C5-C4-N3=354.37           H20-C5-C4-C9=181.06           C7-C6-C5-C4=  0.38            C7-C6-C5-H20=179.73           
H21-C6-C5-C4=179.98           H21-C6-C5-H20=359.33          C8-C7-C6-C5=359.46            C8-C7-C6-H21=179.86           
H22-C7-C6-C5=179.62           H22-C7-C6-H21=  0.03          C9-C8-C7-C6=359.89            C9-C8-C7-H22=179.73           
H23-C8-C7-C6=180.07           H23-C8-C7-H22=359.90          C8-C9-C4-N3=185.51            C8-C9-C4-C5=358.93            
H24-C9-C4-N3=  6.40           H24-C9-C4-C5=179.83           C4-C9-C8-C7=  0.92            C4-C9-C8-H23=180.74           
H24-C9-C8-C7=180.01           H24-C9-C8-H23=359.83          C11-C10-C2-C1=353.98          C11-C10-C2-N3=175.20          
C16-C10-C2-C1=174.05          C16-C10-C2-N3=355.27          
           -------------------------------------------------
          |                Final Singlepoint                |
           -------------------------------------------------

          ...................................................
          :                      SETUP                      :
          :.................................................:
          :  # basis functions                  79          :
          :  # atomic orbitals                  79          :
          :  # shells                           47          :
          :  # electrons                        80          :
          :  max. iterations                   250          :
          :  Hamiltonian                  GFN2-xTB          :
          :  restarted?                      false          :
          :  GBSA solvation                   true          :
          :  PC potential                    false          :
          :  electronic temp.          300.0000000     K    :
          :  accuracy                    0.2000000          :
          :  -> integral cutoff          0.3198970E+02      :
          :  -> integral neglect         0.2000000E-08      :
          :  -> SCF convergence          0.2000000E-06 Eh   :
          :  -> wf. convergence          0.2000000E-04 e    :
          :  Broyden damping             0.4000000          :
          :  net charge                          0          :
          :  unpaired electrons                  0          :
          ...................................................

 iter      E             dE          RMSdq      gap      omega  full diag
   1    -43.4745626 -0.434746E+02  0.634E-06    2.46       0.0  T
   2    -43.4745626 -0.348166E-12  0.415E-06    2.46    4326.8  T
   3    -43.4745626 -0.383693E-12  0.200E-06    2.46    8973.5  T

   *** convergence criteria satisfied after 3 iterations ***

         #    Occupation            Energy/Eh            Energy/eV
      -------------------------------------------------------------
         1        2.0000           -0.6515703             -17.7301
       ...           ...                  ...                  ...
        34        2.0000           -0.4181632             -11.3788
        35        2.0000           -0.4147502             -11.2859
        36        2.0000           -0.4086684             -11.1204
        37        2.0000           -0.4048026             -11.0152
        38        2.0000           -0.3972876             -10.8107
        39        2.0000           -0.3876116             -10.5474
        40        2.0000           -0.3546710              -9.6511 (HOMO)
        41                         -0.2641970              -7.1892 (LUMO)
        42                         -0.2217932              -6.0353
        43                         -0.2149964              -5.8503
        44                         -0.2074843              -5.6459
        45                         -0.1816741              -4.9436
       ...                                ...                  ...
        79                          0.7001746              19.0527
      -------------------------------------------------------------
                  HL-Gap            0.0904740 Eh            2.4619 eV
             Fermi-level           -0.3094340 Eh           -8.4201 eV

 SCC (total)                   0 d,  0 h,  0 min,  0.022 sec
 SCC setup                      ...        0 min,  0.001 sec (  3.861%)
 Dispersion                     ...        0 min,  0.000 sec (  1.323%)
 classical contributions        ...        0 min,  0.000 sec (  0.324%)
 integral evaluation            ...        0 min,  0.004 sec ( 18.325%)
 iterations                     ...        0 min,  0.005 sec ( 24.859%)
 molecular gradient             ...        0 min,  0.011 sec ( 50.369%)
 printout                       ...        0 min,  0.000 sec (  0.883%)

         :::::::::::::::::::::::::::::::::::::::::::::::::::::
         ::                     SUMMARY                     ::
         :::::::::::::::::::::::::::::::::::::::::::::::::::::
         :: total energy             -42.687808860754 Eh    ::
         :: total w/o Gsasa/hb       -42.668330757235 Eh    ::
         :: gradient norm              0.000029298847 Eh/a0 ::
         :: HOMO-LUMO gap              2.461922199174 eV    ::
         ::.................................................::
         :: SCC energy               -43.474714050666 Eh    ::
         :: -> isotropic ES            0.012058690127 Eh    ::
         :: -> anisotropic ES          0.006350902013 Eh    ::
         :: -> anisotropic XC          0.030990038387 Eh    ::
         :: -> dispersion             -0.029848116164 Eh    ::
         :: -> Gsolv                  -0.020516383305 Eh    ::
         ::    -> Gelec               -0.001038279786 Eh    ::
         ::    -> Gsasa               -0.023626800880 Eh    ::
         ::    -> Ghb                  0.000000000000 Eh    ::
         ::    -> Gshift               0.004148697361 Eh    ::
         :: repulsion energy           0.786905189912 Eh    ::
         :: add. restraining           0.000000000000 Eh    ::
         :: total charge               0.000000000000 e     ::
         :::::::::::::::::::::::::::::::::::::::::::::::::::::

           -------------------------------------------------
          |                Property Printout                |
           -------------------------------------------------

    * Orbital Energies and Occupations

         #    Occupation            Energy/Eh            Energy/eV
      -------------------------------------------------------------
         1        2.0000           -0.6515703             -17.7301
       ...           ...                  ...                  ...
        28        2.0000           -0.4654184             -12.6647
        29        2.0000           -0.4605147             -12.5312
        30        2.0000           -0.4573218             -12.4444
        31        2.0000           -0.4410740             -12.0022
        32        2.0000           -0.4315758             -11.7438
        33        2.0000           -0.4303151             -11.7095
        34        2.0000           -0.4181632             -11.3788
        35        2.0000           -0.4147502             -11.2859
        36        2.0000           -0.4086684             -11.1204
        37        2.0000           -0.4048026             -11.0152
        38        2.0000           -0.3972876             -10.8107
        39        2.0000           -0.3876116             -10.5474
        40        2.0000           -0.3546710              -9.6511 (HOMO)
        41                         -0.2641970              -7.1892 (LUMO)
        42                         -0.2217932              -6.0353
        43                         -0.2149964              -5.8503
        44                         -0.2074843              -5.6459
        45                         -0.1816741              -4.9436
        46                         -0.0841264              -2.2892
        47                         -0.0804467              -2.1891
        48                          0.0764952               2.0815
        49                          0.1053704               2.8673
        50                          0.1116808               3.0390
        51                          0.1305305               3.5519
       ...                                ...                  ...
        79                          0.7001746              19.0527
      -------------------------------------------------------------
                  HL-Gap            0.0904740 Eh            2.4619 eV
             Fermi-level           -0.3094340 Eh           -8.4201 eV

     #   Z          covCN         q      C6AA      α(0)
     1   6 C        3.755    -0.116    22.781     6.806
     2   6 C        2.898     0.113    25.519     8.283
     3   7 N        1.848    -0.223    26.722     7.661
     4   6 C        2.922     0.084    26.137     8.384
     5   6 C        2.922    -0.052    29.301     8.877
     6   6 C        2.919    -0.033    28.822     8.804
     7   6 C        2.919    -0.044    29.102     8.846
     8   6 C        2.919    -0.033    28.812     8.802
     9   6 C        2.924    -0.050    29.254     8.870
    10   6 C        2.982    -0.003    28.102     8.696
    11   6 C        2.921    -0.034    28.854     8.809
    12   6 C        2.923    -0.041    29.014     8.833
    13   6 C        2.966     0.023    27.487     8.600
    14   6 C        3.757    -0.112    22.691     6.791
    15   6 C        2.922    -0.038    28.955     8.824
    16   6 C        2.924    -0.028    28.701     8.786
    17   1 H        0.925     0.055     2.259     2.350
    18   1 H        0.925     0.042     2.419     2.432
    19   1 H        0.925     0.056     2.240     2.341
    20   1 H        0.925     0.022     2.702     2.571
    21   1 H        0.925     0.025     2.661     2.551
    22   1 H        0.926     0.023     2.690     2.565
    23   1 H        0.926     0.026     2.648     2.545
    24   1 H        0.926     0.026     2.637     2.539
    25   1 H        0.926     0.040     2.448     2.447
    26   1 H        0.925     0.035     2.511     2.478
    27   1 H        0.925     0.049     2.333     2.388
    28   1 H        0.925     0.048     2.350     2.397
    29   1 H        0.924     0.054     2.266     2.354
    30   1 H        0.926     0.037     2.489     2.467
    31   1 H        0.926     0.051     2.308     2.376

 Mol. C6AA /au·bohr⁶  :      11515.651973
 Mol. C8AA /au·bohr⁸  :     279737.450604
 Mol. α(0) /au        :        171.472710


Wiberg/Mayer (AO) data.
largest (>0.10) Wiberg bond orders for each atom

 ---------------------------------------------------------------------------
     #   Z sym  total        # sym  WBO       # sym  WBO       # sym  WBO
 ---------------------------------------------------------------------------
     1   6 C    3.996 --     2 C    1.008    18 H    0.982    17 H    0.968
                            19 H    0.964
     2   6 C    3.964 --     3 N    1.761    10 C    1.063     1 C    1.008
     3   7 N    3.227 --     2 C    1.761     4 C    1.136
     4   6 C    3.976 --     9 C    1.341     5 C    1.340     3 N    1.136
     5   6 C    3.985 --     6 C    1.457     4 C    1.340    20 H    0.971
                             8 C    0.104
     6   6 C    3.992 --     5 C    1.457     7 C    1.431    21 H    0.970
                             9 C    0.105
     7   6 C    3.990 --     6 C    1.431     8 C    1.425    22 H    0.972
     8   6 C    3.992 --     9 C    1.463     7 C    1.425    23 H    0.970
                             5 C    0.104
     9   6 C    3.986 --     8 C    1.463     4 C    1.341    24 H    0.971
                             6 C    0.105
    10   6 C    3.988 --    11 C    1.380    16 C    1.365     2 C    1.063
    11   6 C    3.986 --    12 C    1.459    10 C    1.380    25 H    0.967
                            15 C    0.101
    12   6 C    3.991 --    11 C    1.459    13 C    1.404    26 H    0.969
                            16 C    0.102
    13   6 C    3.984 --    12 C    1.404    15 C    1.392    14 C    1.029
    14   6 C    3.995 --    13 C    1.029    28 H    0.982    27 H    0.979
                            29 H    0.964
    15   6 C    3.991 --    16 C    1.474    13 C    1.392    30 H    0.969
                            11 C    0.101
    16   6 C    3.989 --    15 C    1.474    10 C    1.365    31 H    0.966
                            12 C    0.102
    17   1 H    0.997 --     1 C    0.968
    18   1 H    0.998 --     1 C    0.982
    19   1 H    0.996 --     1 C    0.964
    20   1 H    0.999 --     5 C    0.971
    21   1 H    0.999 --     6 C    0.970
    22   1 H    0.999 --     7 C    0.972
    23   1 H    0.998 --     8 C    0.970
    24   1 H    0.999 --     9 C    0.971
    25   1 H    0.998 --    11 C    0.967
    26   1 H    0.998 --    12 C    0.969
    27   1 H    0.997 --    14 C    0.979
    28   1 H    0.997 --    14 C    0.982
    29   1 H    0.995 --    14 C    0.964
    30   1 H    0.998 --    15 C    0.969
    31   1 H    0.997 --    16 C    0.966
 ---------------------------------------------------------------------------

Topologies differ in total number of bonds
Writing topology from bond orders to xtbtopo.mol

molecular dipole:
                 x           y           z       tot (Debye)
 q only:        1.270      -0.099      -0.360
   full:        1.174      -0.323      -0.539       3.384
molecular quadrupole (traceless):
                xx          xy          yy          xz          yz          zz
 q only:        2.742       2.063      -0.865       1.472       2.124      -1.877
  q+dip:        5.614       2.046      -0.429       0.933       2.575      -5.186
   full:        3.223       2.052      -0.456       1.603       1.618      -2.767

           -------------------------------------------------
          |                Geometry Summary                 |
           -------------------------------------------------

      molecular mass/u    :      209.2868530
   center of mass at/Å    :       -0.2169802       0.0412119      -0.0392502
  moments of inertia/u·Å² :        0.2734890E+03   0.2344225E+04   0.2462499E+04
rotational constants/cm⁻¹ :        0.6163916E-01   0.7191131E-02   0.6845743E-02

 * 29 selected distances

     #   Z          #   Z                                           value/Å
     2   6 C        3   7 N                                       1.2684878
     3   7 N        4   6 C                                       1.3740927
     4   6 C        5   6 C                                       1.3980724 (max)
     5   6 C        6   6 C                                       1.3812466
     6   6 C        7   6 C                                       1.3853009
     7   6 C        8   6 C                                       1.3862327
     4   6 C        9   6 C                                       1.3978367
     8   6 C        9   6 C                                       1.3803774
    10   6 C       11   6 C                                       1.3947912
    11   6 C       12   6 C                                       1.3821467
    12   6 C       13   6 C                                       1.3898584
    13   6 C       15   6 C                                       1.3922606
    10   6 C       16   6 C                                       1.3975711
    15   6 C       16   6 C                                       1.3786034
     1   6 C       17   1 H                                       1.0885958
     1   6 C       18   1 H                                       1.0886972
     1   6 C       19   1 H                                       1.0892494
     5   6 C       20   1 H                                       1.0813548
     6   6 C       21   1 H                                       1.0812761
     7   6 C       22   1 H                                       1.0802082
     8   6 C       23   1 H                                       1.0811558
     9   6 C       24   1 H                                       1.0807025
    11   6 C       25   1 H                                       1.0790293 (min)
    12   6 C       26   1 H                                       1.0812894
    14   6 C       27   1 H                                       1.0879375
    14   6 C       28   1 H                                       1.0876359
    14   6 C       29   1 H                                       1.0910573
    15   6 C       30   1 H                                       1.0810633
    16   6 C       31   1 H                                       1.0791674

 * 3 distinct bonds (by element types)

   Z      Z             #   av. dist./Å        max./Å        min./Å
   1 H    6 C          15     1.0838947     1.0910573     1.0790293
   6 C    6 C          12     1.3886915     1.3980724     1.3786034
   6 C    7 N           2     1.3212903     1.3740927     1.2684878


optimized geometry written to: xtbopt.xyz


           -------------------------------------------------
          | TOTAL ENERGY              -42.687808860754 Eh   |
          | GRADIENT NORM               0.000029298847 Eh/α |
          | HOMO-LUMO GAP               2.461922199174 eV   |
           -------------------------------------------------

------------------------------------------------------------------------
 * finished run on 2026/09/10 at 23:07:04.067     
Note: The following floating-point exceptions are signalling: IEEE_DIVIDE_BY_ZERO IEEE_UNDERFLOW_FLAG IEEE_DENORMAL
normal termination of xtb
------------------------------------------------------------------------
 total:
 * wall-time:     0 d,  0 h,  0 min,  0.596 sec
 *  cpu-time:     0 d,  0 h,  0 min,  0.094 sec
 * ratio c/w:     0.157 speedup
 SCF:
 * wall-time:     0 d,  0 h,  0 min,  0.030 sec
 *  cpu-time:     0 d,  0 h,  0 min,  0.000 sec
 * ratio c/w:     0.000 speedup
 ANC optimizer:
 * wall-time:     0 d,  0 h,  0 min,  0.535 sec
 *  cpu-time:     0 d,  0 h,  0 min,  0.094 sec
 * ratio c/w:     0.175 speedup

