 Entering Gaussian System
 *********************************************
 Gaussian 98:
 frequency output generated by the xtb code
 *********************************************
                         Standard orientation:
 --------------------------------------------------------------------
  Center     Atomic     Atomic              Coordinates (Angstroms)
  Number     Number      Type              X           Y           Z
 --------------------------------------------------------------------
    1          6             0       -1.128513   -0.493408   -1.550757
    2          6             0       -0.231497   -0.547991   -0.341408
    3          7             0        0.970034   -0.926003   -0.325803
    4          6             0        1.697746   -1.415376   -1.390757
    5          6             0        2.804861   -0.700031   -1.851573
    6          6             0        3.605476   -1.224632   -2.846551
    7          6             0        3.332955   -2.473218   -3.384008
    8          6             0        2.246125   -3.195091   -2.918942
    9          6             0        1.428226   -2.672782   -1.935527
   10          6             0       -0.867775   -0.139878    0.935720
   11          6             0       -1.299824   -1.103416    1.812028
   12          6             0       -1.964398   -0.752356    2.995950
   13          6             0       -2.191972    0.561385    3.294918
   14          6             0       -1.744864    1.583179    2.430734
   15          6             0       -1.948829    2.948103    2.726448
   16          6             0       -1.489611    3.923688    1.887007
   17          6             0       -0.796305    3.578168    0.716287
   18          6             0       -0.587196    2.265336    0.397303
   19          6             0       -1.064274    1.233044    1.234304
   20          1             0       -1.707607    0.428004   -1.554037
   21          1             0       -0.549453   -0.574769   -2.469241
   22          1             0       -1.831006   -1.326068   -1.502760
   23          1             0        3.014488    0.270852   -1.426456
   24          1             0        4.453004   -0.656807   -3.203751
   25          1             0        3.965729   -2.881574   -4.158312
   26          1             0        2.027924   -4.170448   -3.331019
   27          1             0        0.581578   -3.235429   -1.567494
   28          1             0       -1.132215   -2.146206    1.583499
   29          1             0       -2.297822   -1.532630    3.664583
   30          1             0       -2.711604    0.838575    4.201286
   31          1             0       -2.472572    3.206965    3.636124
   32          1             0       -1.648737    4.966393    2.121245
   33          1             0       -0.425098    4.360349    0.069724
   34          1             0       -0.036982    2.004069   -0.495369
 --------------------------------------------------------------------
     1 basis functions        1 primitive gaussians
     1 alpha electrons        1 beta electrons

 Harmonic frequencies (cm**-1), IR intensities (km*mol⁻¹),
 Raman scattering activities (A**4/amu), Raman depolarization ratios,
 reduced masses (AMU), force constants (mDyne/A) and normal coordinates:
                      1                      2                      3
                        a                      a                      a 
 Frequencies --    12.9404                33.1493                46.2548
 Red. masses --    10.2031                 9.9789                10.6323
 Frc consts  --     0.0000                 0.0000                 0.0000
 IR Inten    --     0.1812                 0.7966                 0.1082
 Raman Activ --     0.0000                 0.0000                 0.0000
 Depolar     --     0.0000                 0.0000                 0.0000
 Atom AN      X      Y      Z        X      Y      Z        X      Y      Z
   1   6     0.16   0.29  -0.05    -0.17  -0.27   0.07     0.20   0.03   0.17
   2   6     0.11   0.13  -0.02    -0.09  -0.12   0.03     0.17  -0.07   0.19
   3   7     0.07  -0.02  -0.00    -0.04   0.05  -0.00     0.15  -0.17   0.19
   4   6     0.03  -0.06  -0.01    -0.02   0.07   0.01     0.07  -0.08   0.08
   5   6     0.18  -0.21   0.11     0.17  -0.05   0.27     0.01  -0.03   0.04
   6   6     0.14  -0.26   0.10     0.20  -0.01   0.28    -0.11   0.09  -0.13
   7   6    -0.05  -0.17  -0.02     0.04   0.13   0.02    -0.18   0.16  -0.25
   8   6    -0.20  -0.02  -0.13    -0.14   0.24  -0.24    -0.12   0.10  -0.19
   9   6    -0.16   0.04  -0.13    -0.17   0.21  -0.25     0.01  -0.02  -0.02
  10   6     0.11   0.08  -0.00    -0.06  -0.08   0.03     0.12  -0.05   0.15
  11   6     0.24   0.04   0.01    -0.05  -0.03   0.09     0.03  -0.01   0.16
  12   6     0.22  -0.04   0.02     0.02   0.05   0.11    -0.14   0.05   0.04
  13   6     0.07  -0.06   0.02     0.08   0.07   0.07    -0.23   0.07  -0.08
  14   6    -0.05  -0.01   0.01     0.06   0.02  -0.00    -0.12   0.03  -0.07
  15   6    -0.19  -0.04   0.02     0.12   0.04  -0.06    -0.20   0.04  -0.20
  16   6    -0.29   0.02   0.02     0.09  -0.02  -0.13    -0.07  -0.00  -0.18
  17   6    -0.25   0.09   0.03     0.01  -0.09  -0.16     0.15  -0.06  -0.03
  18   6    -0.11   0.12   0.02    -0.04  -0.11  -0.11     0.22  -0.08   0.09
  19   6    -0.02   0.06   0.00    -0.01  -0.06  -0.02     0.08  -0.04   0.06
  20   1     0.03   0.07   0.02    -0.06  -0.08   0.01     0.05   0.00   0.07
  21   1     0.06   0.14  -0.01    -0.06  -0.09   0.01     0.06   0.04   0.05
  22   1     0.06   0.07  -0.07    -0.04  -0.09   0.05     0.06   0.00   0.02
  23   1     0.09  -0.08   0.06     0.08  -0.05   0.14     0.02  -0.02   0.04
  24   1     0.07  -0.11   0.06     0.10  -0.03   0.14    -0.05   0.04  -0.05
  25   1    -0.02  -0.06  -0.01     0.02   0.05   0.01    -0.08   0.08  -0.11
  26   1    -0.10   0.01  -0.06    -0.07   0.10  -0.13    -0.05   0.04  -0.08
  27   1    -0.08   0.04  -0.06    -0.09   0.08  -0.13     0.01  -0.02   0.00
  28   1     0.10   0.02   0.00    -0.03  -0.01   0.04     0.02  -0.01   0.07
  29   1     0.09  -0.02   0.01     0.01   0.02   0.05    -0.06   0.03   0.01
  30   1     0.01  -0.03   0.01     0.04   0.03   0.02    -0.11   0.03  -0.05
  31   1    -0.06  -0.03   0.01     0.05   0.03  -0.01    -0.11   0.03  -0.09
  32   1    -0.12  -0.00   0.01     0.04  -0.00  -0.05    -0.04   0.00  -0.08
  33   1    -0.09   0.04   0.01    -0.01  -0.04  -0.06     0.07  -0.03  -0.00
  34   1    -0.02   0.05   0.01    -0.03  -0.05  -0.04     0.11  -0.04   0.06
                      4                      5                      6
                        a                      a                      a 
 Frequencies --    59.3184                94.7557               119.3685
 Red. masses --    10.3460                 7.9130                 5.4258
 Frc consts  --     0.0000                 0.0000                 0.0000
 IR Inten    --     1.3196                 1.8783                 0.2680
 Raman Activ --     0.0000                 0.0000                 0.0000
 Depolar     --     0.0000                 0.0000                 0.0000
 Atom AN      X      Y      Z        X      Y      Z        X      Y      Z
   1   6     0.09   0.34  -0.14    -0.29   0.11   0.14     0.12  -0.16  -0.07
   2   6    -0.09  -0.03  -0.02    -0.09  -0.01  -0.02     0.05  -0.05  -0.02
   3   7    -0.22  -0.40   0.07    -0.13  -0.08  -0.20     0.03  -0.12   0.13
   4   6    -0.12  -0.21   0.06    -0.11  -0.05  -0.18     0.07  -0.14   0.16
   5   6    -0.20  -0.02   0.16    -0.09  -0.01  -0.08     0.04  -0.09   0.17
   6   6    -0.09   0.18   0.14     0.08  -0.00   0.06    -0.06   0.05   0.01
   7   6     0.09   0.20   0.01     0.22  -0.04   0.08    -0.13   0.13  -0.14
   8   6     0.17   0.01  -0.10     0.17  -0.06  -0.06    -0.04   0.03  -0.08
   9   6     0.06  -0.19  -0.07     0.00  -0.06  -0.20     0.07  -0.11   0.09
  10   6    -0.08  -0.03  -0.02     0.07   0.01   0.07    -0.02   0.07  -0.09
  11   6     0.01  -0.00   0.06     0.11   0.02   0.10    -0.04   0.05  -0.12
  12   6     0.11   0.04   0.10     0.09   0.03   0.09     0.01   0.00  -0.08
  13   6     0.14   0.05   0.08    -0.04   0.02   0.01     0.08  -0.00  -0.01
  14   6     0.06   0.02   0.00    -0.06   0.02  -0.01     0.05   0.02   0.00
  15   6     0.10   0.03  -0.01    -0.20   0.02  -0.10     0.07   0.00   0.09
  16   6     0.05   0.01  -0.07    -0.12   0.01  -0.06    -0.04   0.05   0.08
  17   6    -0.04  -0.03  -0.11     0.13   0.01   0.09    -0.14   0.10   0.01
  18   6    -0.07  -0.04  -0.09     0.21   0.01   0.14    -0.11   0.12  -0.05
  19   6    -0.04  -0.02  -0.04     0.08   0.01   0.07    -0.02   0.06  -0.06
  20   1    -0.02   0.07   0.03     0.14   0.17  -0.05     0.33   0.14  -0.26
  21   1     0.08   0.23  -0.02    -0.16  -0.23   0.02     0.00  -0.46  -0.00
  22   1     0.07   0.06  -0.17    -0.28   0.21   0.20    -0.24   0.20   0.20
  23   1    -0.10  -0.01   0.08    -0.05   0.00  -0.02     0.02  -0.04   0.08
  24   1    -0.04   0.10   0.07     0.03   0.01   0.05    -0.03   0.03  -0.00
  25   1     0.05   0.10  -0.00     0.11  -0.02   0.06    -0.07   0.07  -0.08
  26   1     0.09   0.01  -0.06     0.08  -0.02  -0.02    -0.02   0.02  -0.05
  27   1     0.03  -0.10  -0.05    -0.01  -0.03  -0.09     0.03  -0.05   0.03
  28   1     0.00  -0.00   0.02     0.04   0.01   0.03    -0.02   0.02  -0.05
  29   1     0.05   0.02   0.05     0.04   0.01   0.03     0.00  -0.01  -0.03
  30   1     0.06   0.02   0.03    -0.04   0.01  -0.01     0.04  -0.01   0.01
  31   1     0.05   0.02   0.01    -0.10   0.00  -0.06     0.04  -0.02   0.04
  32   1     0.02   0.00  -0.02    -0.07   0.00  -0.04    -0.01   0.01   0.04
  33   1    -0.02  -0.02  -0.04     0.07   0.00   0.04    -0.06   0.04  -0.00
  34   1    -0.03  -0.02  -0.03     0.11   0.00   0.07    -0.04   0.05  -0.02
                      7                      8                      9
                        a                      a                      a 
 Frequencies --   143.8446               150.5210               171.6421
 Red. masses --     9.4676                10.0900                 9.3017
 Frc consts  --     0.0000                 0.0000                 0.0000
 IR Inten    --     0.1861                 0.8726                 0.9632
 Raman Activ --     0.0000                 0.0000                 0.0000
 Depolar     --     0.0000                 0.0000                 0.0000
 Atom AN      X      Y      Z        X      Y      Z        X      Y      Z
   1   6     0.11   0.32  -0.14     0.01  -0.12  -0.15    -0.05  -0.27  -0.13
   2   6    -0.05   0.05  -0.04    -0.08  -0.01  -0.09    -0.08  -0.02  -0.10
   3   7    -0.02   0.17   0.06    -0.07   0.05   0.04    -0.08  -0.00   0.01
   4   6     0.01   0.20   0.07    -0.02   0.02   0.09    -0.03  -0.07   0.07
   5   6     0.01   0.13   0.00    -0.02   0.03   0.09    -0.04  -0.03   0.12
   6   6    -0.05   0.01   0.01    -0.06   0.04   0.06    -0.06   0.04   0.07
   7   6    -0.14  -0.01   0.11    -0.10   0.06   0.03    -0.07   0.08  -0.00
   8   6    -0.16   0.06   0.18    -0.08   0.04   0.07    -0.02   0.01   0.01
   9   6    -0.09   0.18   0.17    -0.04   0.02   0.10    -0.01  -0.06   0.06
  10   6    -0.10  -0.13  -0.02    -0.10   0.01  -0.11    -0.04   0.07  -0.11
  11   6    -0.11  -0.13  -0.03     0.32   0.00   0.09    -0.15   0.03  -0.22
  12   6     0.08  -0.08   0.06     0.34  -0.02   0.10     0.14  -0.01  -0.05
  13   6     0.18  -0.07   0.09    -0.08  -0.04  -0.11     0.28  -0.02   0.07
  14   6     0.08  -0.08   0.01    -0.26  -0.03  -0.19     0.13   0.01   0.03
  15   6     0.00  -0.06  -0.13    -0.17  -0.03  -0.11    -0.20  -0.02  -0.08
  16   6    -0.06  -0.13  -0.24     0.22  -0.01   0.12    -0.28   0.03  -0.07
  17   6     0.08  -0.18  -0.14     0.31   0.01   0.17     0.11   0.10   0.14
  18   6     0.15  -0.20  -0.01    -0.04   0.01  -0.05     0.31   0.12   0.17
  19   6     0.05  -0.13   0.02    -0.23  -0.00  -0.18     0.19   0.07   0.04
  20   1     0.19   0.19  -0.10    -0.00  -0.04  -0.08    -0.15  -0.16  -0.00
  21   1     0.05  -0.05  -0.02     0.02  -0.05  -0.03     0.01   0.04  -0.03
  22   1    -0.12   0.22  -0.02     0.00  -0.04  -0.04     0.11  -0.19  -0.09
  23   1     0.02   0.04  -0.02    -0.00   0.01   0.03    -0.02  -0.02   0.05
  24   1    -0.01  -0.02  -0.02    -0.02   0.01   0.01    -0.02   0.02   0.02
  25   1    -0.05  -0.03   0.03    -0.04   0.02  -0.00    -0.03   0.04  -0.02
  26   1    -0.06   0.01   0.07    -0.03   0.01   0.02    -0.00   0.01  -0.01
  27   1    -0.03   0.08   0.07    -0.01   0.01   0.04     0.01  -0.03   0.02
  28   1    -0.07  -0.04  -0.02     0.18   0.01   0.06    -0.11   0.01  -0.11
  29   1     0.04  -0.02   0.03     0.19  -0.00   0.08     0.06  -0.01  -0.01
  30   1     0.09  -0.01   0.04    -0.03  -0.02  -0.04     0.12  -0.01   0.05
  31   1    -0.01   0.00  -0.05    -0.07  -0.01  -0.05    -0.12  -0.02  -0.06
  32   1    -0.05  -0.03  -0.11     0.13  -0.00   0.08    -0.17   0.00  -0.06
  33   1     0.03  -0.06  -0.05     0.18   0.01   0.10     0.05   0.04   0.07
  34   1     0.07  -0.07   0.02    -0.01   0.00  -0.02     0.13   0.04   0.07
                     10                     11                     12
                        a                      a                      a 
 Frequencies --   230.3647               241.3345               299.9891
 Red. masses --     9.8487                10.2115                 9.8310
 Frc consts  --     0.0000                 0.0000                 0.0000
 IR Inten    --     0.3467                 0.4554                 0.1902
 Raman Activ --     0.0000                 0.0000                 0.0000
 Depolar     --     0.0000                 0.0000                 0.0000
 Atom AN      X      Y      Z        X      Y      Z        X      Y      Z
   1   6    -0.37   0.15   0.19    -0.22   0.17   0.03     0.08  -0.11  -0.40
   2   6    -0.05   0.11  -0.05    -0.08   0.02  -0.07    -0.19  -0.03  -0.16
   3   7    -0.09   0.07  -0.04    -0.05   0.10  -0.16    -0.15   0.10  -0.17
   4   6     0.00  -0.04   0.11     0.18  -0.01   0.03    -0.02   0.04  -0.04
   5   6     0.04  -0.04   0.22     0.33  -0.17   0.08     0.07  -0.04   0.04
   6   6    -0.06   0.06   0.11     0.14  -0.11  -0.12     0.04  -0.03   0.00
   7   6    -0.17   0.14  -0.02    -0.07   0.03  -0.34    -0.05   0.03  -0.10
   8   6    -0.04   0.02   0.10     0.12  -0.05  -0.03     0.03  -0.02   0.01
   9   6     0.03  -0.08   0.21     0.31  -0.10   0.16     0.07  -0.02   0.05
  10   6     0.17   0.06   0.01    -0.14  -0.04  -0.02    -0.03  -0.04  -0.00
  11   6     0.27  -0.05  -0.08    -0.21   0.01   0.02     0.21   0.05   0.23
  12   6     0.01  -0.13  -0.21    -0.00   0.07   0.13    -0.04   0.09   0.10
  13   6    -0.09  -0.14  -0.24     0.07   0.08   0.17    -0.31   0.07  -0.03
  14   6     0.11  -0.06  -0.04    -0.10   0.03   0.02     0.06   0.03   0.13
  15   6     0.14  -0.07  -0.00    -0.10   0.04  -0.02     0.17   0.05   0.15
  16   6     0.02  -0.06  -0.06     0.02   0.02   0.01    -0.10   0.01  -0.04
  17   6    -0.07   0.00  -0.14     0.07  -0.04   0.06    -0.14  -0.05  -0.04
  18   6     0.09   0.02  -0.07    -0.09  -0.06   0.02     0.17  -0.06   0.19
  19   6     0.17   0.03  -0.01    -0.16  -0.04   0.00     0.12  -0.04   0.17
  20   1    -0.14   0.02   0.15    -0.07   0.04   0.07     0.03  -0.03  -0.19
  21   1    -0.19   0.10  -0.00    -0.10   0.10  -0.02     0.12  -0.05  -0.05
  22   1    -0.07   0.01   0.09    -0.06   0.04  -0.01     0.02  -0.03  -0.17
  23   1     0.02  -0.02   0.09     0.14  -0.07   0.04     0.04  -0.02   0.02
  24   1    -0.02   0.02   0.03     0.04  -0.03  -0.04     0.02  -0.02   0.01
  25   1    -0.09   0.07  -0.05    -0.09   0.05  -0.18    -0.04   0.02  -0.06
  26   1    -0.01   0.01   0.02     0.02  -0.02   0.00     0.01  -0.01   0.01
  27   1     0.02  -0.03   0.08     0.12  -0.05   0.08     0.03  -0.01   0.03
  28   1     0.11  -0.00  -0.04    -0.09  -0.00   0.01     0.09   0.01   0.11
  29   1    -0.04  -0.05  -0.09     0.03   0.02   0.06    -0.03   0.02   0.02
  30   1    -0.10  -0.06  -0.10     0.08   0.03   0.08    -0.20   0.02  -0.07
  31   1     0.06  -0.02   0.01    -0.04   0.02  -0.02     0.09   0.02   0.06
  32   1    -0.01  -0.02  -0.01     0.03   0.01   0.00    -0.07   0.01  -0.05
  33   1    -0.07   0.01  -0.06     0.06  -0.02   0.03    -0.09  -0.02  -0.05
  34   1     0.03   0.01  -0.02    -0.03  -0.02   0.01     0.08  -0.03   0.08
                     13                     14                     15
                        a                      a                      a 
 Frequencies --   356.9028               371.6360               400.4439
 Red. masses --    10.3259                 9.0616                 9.5037
 Frc consts  --     0.0000                 0.0000                 0.0000
 IR Inten    --     0.2781                 0.8376                 1.6327
 Raman Activ --     0.0000                 0.0000                 0.0000
 Depolar     --     0.0000                 0.0000                 0.0000
 Atom AN      X      Y      Z        X      Y      Z        X      Y      Z
   1   6    -0.08   0.06   0.01    -0.01   0.01   0.01    -0.06   0.01   0.12
   2   6    -0.10  -0.37   0.01    -0.01  -0.00   0.00     0.04   0.01   0.03
   3   7    -0.04  -0.16   0.04    -0.02  -0.02   0.02     0.03  -0.08   0.17
   4   6     0.10   0.10   0.03     0.01   0.01   0.01     0.08  -0.02   0.11
   5   6     0.10   0.09  -0.02    -0.24   0.19  -0.30     0.01  -0.01  -0.05
   6   6     0.01  -0.01  -0.06     0.25  -0.19   0.29    -0.01  -0.02  -0.09
   7   6    -0.02  -0.04   0.03     0.01  -0.01  -0.01     0.10  -0.08   0.00
   8   6    -0.05   0.02   0.06    -0.25   0.19  -0.29     0.01   0.03  -0.05
   9   6     0.01   0.13   0.03     0.25  -0.17   0.30     0.03   0.06  -0.05
  10   6    -0.05  -0.19  -0.03    -0.01  -0.00  -0.00    -0.22   0.04  -0.12
  11   6    -0.07  -0.03   0.17     0.00  -0.00   0.00    -0.08  -0.01  -0.13
  12   6    -0.04   0.09   0.15     0.00  -0.00   0.00     0.21  -0.03   0.03
  13   6     0.02   0.14  -0.16    -0.00  -0.00  -0.01    -0.10  -0.05  -0.07
  14   6     0.17  -0.07  -0.29     0.01  -0.00  -0.01    -0.29   0.02  -0.10
  15   6     0.06  -0.18   0.00     0.01  -0.01   0.00     0.30   0.06   0.18
  16   6    -0.13   0.02   0.18    -0.01  -0.00   0.00    -0.11   0.02  -0.10
  17   6    -0.12   0.14   0.15    -0.00   0.01   0.00    -0.13   0.01  -0.11
  18   6     0.10   0.19  -0.08     0.01   0.01  -0.00     0.31  -0.00   0.21
  19   6     0.18  -0.06  -0.28     0.01   0.00  -0.01    -0.27   0.03  -0.09
  20   1     0.03   0.05   0.10    -0.01  -0.00   0.01    -0.03  -0.01   0.08
  21   1    -0.03   0.08  -0.01    -0.00   0.00   0.00    -0.07   0.03   0.00
  22   1    -0.07   0.05  -0.08     0.00  -0.00   0.00    -0.00  -0.01   0.06
  23   1     0.05   0.03  -0.02    -0.14   0.11  -0.18     0.01   0.01  -0.04
  24   1     0.00  -0.01  -0.04     0.15  -0.12   0.18    -0.02   0.01  -0.05
  25   1    -0.01  -0.03   0.01    -0.00  -0.00  -0.00     0.04  -0.04   0.02
  26   1    -0.03   0.00   0.03    -0.16   0.11  -0.18    -0.03   0.02  -0.02
  27   1    -0.01   0.07   0.02     0.15  -0.10   0.18    -0.01   0.02  -0.04
  28   1    -0.04  -0.02   0.08     0.00  -0.00   0.00     0.03   0.00  -0.03
  29   1    -0.02   0.06   0.08     0.00   0.00   0.00     0.18  -0.01   0.07
  30   1    -0.00   0.12  -0.08    -0.00   0.00  -0.00     0.02  -0.04   0.02
  31   1     0.02  -0.14   0.03     0.00  -0.00   0.00     0.25   0.04   0.14
  32   1    -0.06  -0.01   0.09    -0.00  -0.00   0.00    -0.02   0.01  -0.03
  33   1    -0.06   0.07   0.07    -0.00   0.00   0.00    -0.03  -0.00  -0.04
  34   1     0.05   0.14  -0.04     0.00   0.01  -0.00     0.23  -0.02   0.15
                     16                     17                     18
                        a                      a                      a 
 Frequencies --   430.0791               443.4553               476.4183
 Red. masses --     9.6974                10.5254                10.9258
 Frc consts  --     0.0000                 0.0000                 0.0000
 IR Inten    --     0.4120                 4.7759                 1.4001
 Raman Activ --     0.0000                 0.0000                 0.0000
 Depolar     --     0.0000                 0.0000                 0.0000
 Atom AN      X      Y      Z        X      Y      Z        X      Y      Z
   1   6     0.07  -0.00   0.01     0.16   0.00   0.11    -0.07   0.03  -0.05
   2   6     0.04   0.05   0.02     0.10   0.10   0.10     0.01   0.23  -0.07
   3   7     0.05   0.12  -0.10     0.16   0.32  -0.17     0.00   0.21   0.10
   4   6    -0.10  -0.01  -0.11    -0.26  -0.02  -0.26     0.09  -0.15   0.27
   5   6    -0.04  -0.03   0.03    -0.11  -0.09   0.05    -0.05  -0.12  -0.01
   6   6     0.01   0.02   0.08     0.05   0.02   0.17    -0.09   0.02  -0.12
   7   6    -0.06   0.07  -0.01    -0.12   0.16  -0.07     0.20  -0.10   0.04
   8   6     0.02  -0.03   0.03     0.08  -0.07   0.07    -0.01   0.08  -0.14
   9   6    -0.04  -0.08   0.01    -0.09  -0.19   0.01     0.02  -0.03  -0.02
  10   6     0.11  -0.01   0.07    -0.02  -0.02   0.03    -0.04   0.17  -0.06
  11   6    -0.29   0.00  -0.11    -0.02   0.03   0.11    -0.05   0.31   0.10
  12   6     0.26   0.03   0.20    -0.15   0.02   0.05    -0.07   0.08   0.18
  13   6    -0.13   0.01  -0.07     0.10   0.05   0.02    -0.12   0.04   0.14
  14   6    -0.24  -0.04  -0.18    -0.01  -0.08  -0.15     0.08  -0.18   0.00
  15   6    -0.12  -0.06  -0.07     0.16  -0.14   0.08    -0.02  -0.30   0.02
  16   6     0.27  -0.04   0.18    -0.17  -0.11  -0.04    -0.00  -0.35   0.01
  17   6    -0.27  -0.01  -0.15     0.05  -0.00   0.06     0.05  -0.07  -0.04
  18   6     0.12   0.01   0.02     0.12   0.03  -0.06     0.09   0.00  -0.20
  19   6     0.32   0.00   0.13    -0.21  -0.00  -0.27     0.09   0.10  -0.07
  20   1     0.02  -0.00  -0.02     0.04  -0.00   0.00    -0.05  -0.01  -0.04
  21   1     0.04  -0.01   0.02     0.07  -0.01   0.05    -0.04  -0.01  -0.03
  22   1     0.02  -0.00  -0.00     0.05  -0.00   0.03     0.01  -0.01   0.04
  23   1    -0.02  -0.02   0.04    -0.03  -0.06   0.10    -0.05   0.00  -0.06
  24   1     0.02  -0.01   0.05     0.06  -0.02   0.12    -0.09   0.07  -0.07
  25   1    -0.02   0.03  -0.01    -0.04   0.07  -0.04     0.07  -0.03   0.03
  26   1     0.04  -0.02   0.02     0.11  -0.05   0.05    -0.06   0.06  -0.10
  27   1     0.01  -0.04   0.02     0.02  -0.10   0.04    -0.03  -0.01  -0.09
  28   1    -0.20  -0.01  -0.09     0.05   0.01   0.07    -0.01   0.09   0.03
  29   1     0.19   0.02   0.12    -0.05   0.01   0.02    -0.00  -0.01   0.02
  30   1    -0.02   0.02  -0.02     0.09   0.06   0.03    -0.05   0.07   0.01
  31   1    -0.02  -0.03  -0.01     0.12  -0.07   0.07    -0.03  -0.08  -0.01
  32   1     0.18  -0.01   0.12    -0.08  -0.04  -0.00    -0.03  -0.11   0.02
  33   1    -0.20   0.00  -0.10     0.07   0.02   0.08    -0.02   0.03   0.03
  34   1     0.01   0.01  -0.01     0.12   0.03   0.03     0.00  -0.01  -0.07
                     19                     20                     21
                        a                      a                      a 
 Frequencies --   480.2068               503.8637               525.6396
 Red. masses --    11.1106                11.5134                10.9899
 Frc consts  --     0.0000                 0.0000                 0.0000
 IR Inten    --     1.3401                 1.9623                 1.0303
 Raman Activ --     0.0000                 0.0000                 0.0000
 Depolar     --     0.0000                 0.0000                 0.0000
 Atom AN      X      Y      Z        X      Y      Z        X      Y      Z
   1   6    -0.08   0.03  -0.06     0.00   0.04   0.00    -0.04  -0.00  -0.08
   2   6     0.19   0.01  -0.22    -0.08  -0.04   0.06     0.01  -0.24  -0.07
   3   7     0.19   0.01  -0.17     0.10   0.51   0.05     0.12   0.09  -0.26
   4   6     0.18  -0.18   0.01    -0.04  -0.18   0.23     0.19  -0.16  -0.00
   5   6     0.01   0.07   0.04    -0.12  -0.24  -0.01     0.07   0.05   0.04
   6   6    -0.04   0.15   0.01    -0.07   0.02  -0.08    -0.01   0.15  -0.04
   7   6    -0.05   0.05   0.24     0.21  -0.06  -0.00    -0.03   0.03   0.23
   8   6    -0.14  -0.01  -0.02     0.04   0.11  -0.13    -0.14  -0.01  -0.05
   9   6    -0.10  -0.12   0.04    -0.03  -0.12   0.00    -0.06  -0.14   0.06
  10   6     0.18  -0.12  -0.14    -0.14  -0.18   0.06     0.15  -0.01   0.03
  11   6     0.03   0.03  -0.07    -0.00  -0.30   0.03    -0.00   0.06   0.07
  12   6     0.02   0.31  -0.14     0.06  -0.08  -0.01    -0.15  -0.16   0.10
  13   6     0.05   0.26   0.01     0.05  -0.01  -0.22    -0.02  -0.16   0.27
  14   6    -0.04   0.12  -0.07     0.12   0.11  -0.04    -0.17  -0.17   0.04
  15   6    -0.06   0.06   0.14     0.01   0.15  -0.05     0.11  -0.05  -0.21
  16   6    -0.06  -0.01   0.11    -0.02   0.23   0.03     0.09   0.12  -0.10
  17   6    -0.11  -0.28   0.16    -0.02   0.04   0.08     0.02   0.30  -0.16
  18   6    -0.02  -0.24   0.08    -0.08   0.01   0.06    -0.03   0.19   0.16
  19   6    -0.05  -0.19  -0.01     0.06  -0.10   0.02    -0.09   0.02   0.01
  20   1    -0.03   0.01   0.05     0.03   0.03   0.03     0.04   0.03   0.05
  21   1    -0.11   0.02  -0.07     0.03   0.04   0.02    -0.00   0.05  -0.02
  22   1    -0.02   0.01   0.04    -0.03   0.04  -0.07    -0.05   0.03  -0.11
  23   1    -0.07   0.04   0.01    -0.08  -0.04  -0.04    -0.06   0.04   0.00
  24   1    -0.04   0.04  -0.05    -0.08   0.09  -0.03    -0.04   0.05  -0.08
  25   1    -0.01   0.01   0.08     0.07  -0.02   0.00    -0.01   0.01   0.06
  26   1    -0.04   0.03  -0.08    -0.02   0.06  -0.09    -0.04   0.03  -0.09
  27   1    -0.06   0.01   0.01    -0.02  -0.07  -0.09    -0.06   0.01  -0.00
  28   1    -0.03  -0.01   0.05    -0.01  -0.09   0.01     0.00   0.02   0.02
  29   1    -0.00   0.10  -0.03    -0.01   0.03   0.04    -0.04  -0.08  -0.01
  30   1     0.04   0.06   0.02    -0.02  -0.01  -0.08     0.04  -0.04   0.10
  31   1     0.00  -0.02   0.06    -0.03   0.01  -0.02     0.08   0.03  -0.04
  32   1     0.03   0.01  -0.01    -0.02   0.07  -0.01     0.03   0.02   0.06
  33   1    -0.01  -0.09   0.04    -0.00  -0.01  -0.01     0.03   0.06  -0.06
  34   1     0.02  -0.04   0.03    -0.04   0.04  -0.01     0.03   0.02   0.08
                     22                     23                     24
                        a                      a                      a 
 Frequencies --   546.9360               570.0211               589.7753
 Red. masses --    10.0214                 9.9710                10.9891
 Frc consts  --     0.0000                 0.0000                 0.0000
 IR Inten    --     1.8922                 2.9062                 1.8439
 Raman Activ --     0.0000                 0.0000                 0.0000
 Depolar     --     0.0000                 0.0000                 0.0000
 Atom AN      X      Y      Z        X      Y      Z        X      Y      Z
   1   6     0.02   0.03   0.08     0.02   0.01  -0.03     0.05  -0.01   0.05
   2   6     0.14  -0.11  -0.04     0.15   0.58  -0.10    -0.09  -0.16   0.11
   3   7     0.19  -0.01  -0.02    -0.11  -0.17  -0.09     0.01   0.18  -0.16
   4   6     0.02  -0.05  -0.12     0.09   0.02  -0.01     0.10   0.08  -0.00
   5   6     0.01   0.03  -0.03     0.06   0.12   0.09     0.02   0.27   0.25
   6   6     0.07   0.06   0.03    -0.11   0.00   0.02    -0.36  -0.07   0.16
   7   6    -0.09   0.08   0.05    -0.03  -0.05   0.08    -0.05  -0.14   0.08
   8   6    -0.02  -0.04   0.05    -0.05  -0.11  -0.09    -0.04  -0.33  -0.27
   9   6    -0.09  -0.08  -0.00     0.11   0.01  -0.03     0.32   0.02  -0.14
  10   6    -0.18  -0.01  -0.20    -0.01  -0.18   0.10     0.08   0.08   0.11
  11   6    -0.17   0.07  -0.12    -0.11  -0.22   0.12    -0.06   0.01  -0.05
  12   6     0.28   0.03   0.17    -0.03  -0.07   0.17     0.08  -0.03   0.00
  13   6    -0.38  -0.03  -0.06    -0.02  -0.01  -0.07    -0.02  -0.02  -0.09
  14   6     0.23  -0.05   0.20     0.06  -0.06  -0.11    -0.03   0.07   0.01
  15   6     0.17  -0.02   0.01     0.15  -0.03  -0.14    -0.00   0.05   0.16
  16   6    -0.14   0.02  -0.13    -0.06   0.16  -0.03    -0.08  -0.08  -0.03
  17   6     0.23   0.07   0.09     0.03   0.12   0.06     0.08  -0.07   0.03
  18   6    -0.23   0.03  -0.05    -0.08   0.07   0.08    -0.01  -0.02  -0.15
  19   6     0.06  -0.02   0.08     0.02  -0.13  -0.04    -0.01   0.09  -0.01
  20   1     0.02   0.02   0.11    -0.13  -0.09  -0.17     0.06   0.03   0.02
  21   1    -0.07   0.04  -0.02    -0.04  -0.12  -0.03     0.09   0.03   0.06
  22   1    -0.02   0.03   0.04     0.13  -0.10   0.22    -0.03   0.03  -0.10
  23   1    -0.02  -0.01   0.04     0.01   0.05   0.00     0.01   0.09   0.02
  24   1     0.04  -0.01   0.02    -0.04  -0.01  -0.04    -0.11  -0.04  -0.02
  25   1    -0.02   0.01   0.02     0.01   0.02   0.02     0.06   0.07   0.02
  26   1     0.04  -0.02   0.01    -0.04  -0.02  -0.04    -0.06  -0.08  -0.08
  27   1    -0.01  -0.02   0.03     0.00   0.04  -0.01     0.06   0.06  -0.03
  28   1    -0.07   0.02  -0.03    -0.05  -0.07   0.05    -0.03   0.01  -0.05
  29   1     0.16  -0.01   0.06    -0.01   0.02   0.09     0.03  -0.00   0.01
  30   1    -0.21  -0.02  -0.07    -0.00   0.04  -0.03    -0.01  -0.02  -0.02
  31   1    -0.04   0.01  -0.05     0.04  -0.04  -0.03     0.02   0.03   0.05
  32   1    -0.17  -0.00  -0.09    -0.05   0.03   0.02    -0.02  -0.01  -0.04
  33   1     0.07   0.01   0.02     0.03   0.01  -0.00     0.04   0.00   0.05
  34   1    -0.16  -0.00  -0.07    -0.03   0.05   0.01     0.00  -0.01  -0.03
                     25                     26                     27
                        a                      a                      a 
 Frequencies --   600.7461               629.7208               660.2153
 Red. masses --    10.8773                10.8039                10.0540
 Frc consts  --     0.0000                 0.0000                 0.0000
 IR Inten    --     9.0177                 2.2717                 0.2150
 Raman Activ --     0.0000                 0.0000                 0.0000
 Depolar     --     0.0000                 0.0000                 0.0000
 Atom AN      X      Y      Z        X      Y      Z        X      Y      Z
   1   6    -0.05   0.02  -0.01     0.09   0.01   0.13     0.04  -0.01   0.06
   2   6     0.12  -0.03  -0.13     0.04   0.05   0.08    -0.01  -0.03   0.03
   3   7     0.19   0.14   0.24     0.03  -0.06  -0.15    -0.02  -0.04   0.05
   4   6    -0.04   0.06   0.05     0.06  -0.03  -0.17    -0.32   0.23  -0.26
   5   6    -0.16   0.13   0.05     0.15   0.04   0.04     0.11  -0.17   0.20
   6   6    -0.17  -0.15   0.21     0.04   0.14  -0.09    -0.24   0.09  -0.22
   7   6    -0.08  -0.03  -0.16    -0.03   0.02   0.19     0.21  -0.15   0.13
   8   6     0.12  -0.21  -0.06    -0.12  -0.06  -0.08    -0.16   0.21  -0.21
   9   6     0.11   0.10  -0.19     0.01  -0.15   0.05     0.18  -0.05   0.21
  10   6    -0.18  -0.09  -0.28    -0.53   0.03  -0.14     0.05  -0.01  -0.07
  11   6     0.13   0.07   0.02     0.07  -0.05   0.11     0.04   0.06  -0.07
  12   6    -0.08   0.10  -0.07    -0.09  -0.12   0.02     0.05   0.12  -0.09
  13   6    -0.01   0.04   0.17     0.06  -0.05  -0.08    -0.04   0.05   0.06
  14   6     0.09  -0.11   0.04     0.20   0.10   0.13     0.02  -0.08  -0.02
  15   6    -0.03  -0.09  -0.24    -0.23   0.08   0.05     0.07  -0.09  -0.11
  16   6     0.15   0.09   0.06     0.18  -0.05   0.12     0.00   0.02  -0.01
  17   6    -0.13   0.07  -0.06    -0.13  -0.03  -0.11    -0.01   0.01   0.02
  18   6     0.03   0.01   0.24     0.26   0.02  -0.04    -0.07  -0.02   0.12
  19   6     0.01  -0.14   0.03    -0.03   0.11  -0.04    -0.01  -0.08   0.02
  20   1    -0.00   0.02   0.10     0.00  -0.01   0.02     0.02   0.00   0.02
  21   1    -0.12   0.04  -0.07     0.01  -0.01   0.03     0.01   0.00   0.02
  22   1    -0.03   0.02   0.05     0.04  -0.01   0.06     0.01   0.00   0.01
  23   1     0.01   0.02   0.03     0.01   0.01   0.03     0.14  -0.12   0.16
  24   1    -0.01  -0.07   0.11     0.01   0.01  -0.07    -0.01  -0.00   0.03
  25   1     0.04   0.05  -0.03    -0.01   0.00   0.05     0.14  -0.10   0.13
  26   1     0.04  -0.09   0.05    -0.01  -0.00  -0.07    -0.01   0.01   0.04
  27   1     0.06   0.00  -0.02    -0.01  -0.01   0.03     0.15  -0.10   0.16
  28   1     0.08   0.01   0.08     0.16   0.00   0.06    -0.01   0.01  -0.00
  29   1    -0.02   0.00  -0.05    -0.01  -0.01   0.04     0.02   0.01  -0.04
  30   1    -0.01   0.01   0.04     0.01  -0.01  -0.03    -0.01   0.01   0.02
  31   1    -0.06  -0.04  -0.09    -0.17   0.04  -0.05     0.02  -0.04  -0.03
  32   1     0.02   0.01   0.06     0.02  -0.00  -0.03    -0.01  -0.00   0.03
  33   1    -0.08  -0.02  -0.08    -0.15   0.02  -0.06     0.01  -0.02  -0.01
  34   1    -0.02   0.01   0.05     0.01   0.00  -0.05    -0.02  -0.01   0.03
                     28                     29                     30
                        a                      a                      a 
 Frequencies --   710.8517               725.8566               759.0684
 Red. masses --     8.7709                 9.1885                 4.7353
 Frc consts  --     0.0000                 0.0000                 0.0000
 IR Inten    --    16.8144                 2.1084                 0.3524
 Raman Activ --     0.0000                 0.0000                 0.0000
 Depolar     --     0.0000                 0.0000                 0.0000
 Atom AN      X      Y      Z        X      Y      Z        X      Y      Z
   1   6    -0.15   0.01  -0.25    -0.07  -0.01  -0.11    -0.05   0.00  -0.06
   2   6     0.14  -0.01  -0.20     0.04   0.00  -0.07    -0.00  -0.01  -0.00
   3   7     0.21   0.01   0.23     0.06   0.00   0.06    -0.01  -0.00  -0.04
   4   6    -0.01  -0.00  -0.05     0.01  -0.01   0.02     0.04  -0.03   0.08
   5   6    -0.03   0.02  -0.03    -0.03   0.00  -0.02    -0.04   0.01  -0.02
   6   6    -0.06   0.06  -0.06    -0.04   0.01  -0.02    -0.05  -0.01  -0.01
   7   6    -0.03   0.02   0.00    -0.01   0.01  -0.03    -0.00   0.00  -0.06
   8   6    -0.06  -0.01  -0.10    -0.01   0.02  -0.02    -0.01   0.05  -0.00
   9   6    -0.02  -0.02  -0.04    -0.01   0.02  -0.02    -0.02   0.05  -0.02
  10   6    -0.02  -0.05  -0.00     0.25  -0.01   0.12     0.25   0.00   0.13
  11   6    -0.00  -0.06   0.15    -0.13  -0.01  -0.02    -0.13  -0.01  -0.06
  12   6    -0.16  -0.21   0.15     0.16  -0.07   0.18    -0.06  -0.02  -0.01
  13   6     0.07  -0.10   0.02    -0.06  -0.04  -0.05    -0.15  -0.01  -0.09
  14   6    -0.23   0.10  -0.05     0.38   0.04   0.23     0.06   0.01   0.03
  15   6    -0.04   0.18   0.22    -0.21   0.06  -0.05     0.11   0.01   0.07
  16   6    -0.08   0.01  -0.04     0.09   0.02   0.06     0.15   0.01   0.09
  17   6     0.09   0.00   0.01    -0.17  -0.01  -0.11     0.06  -0.00   0.03
  18   6     0.03   0.04  -0.23     0.11   0.01  -0.01     0.17   0.00   0.09
  19   6     0.21   0.08   0.06    -0.40   0.01  -0.25    -0.24  -0.00  -0.14
  20   1    -0.04   0.01   0.03    -0.02   0.00  -0.01    -0.01   0.00  -0.04
  21   1    -0.17   0.02  -0.15    -0.05   0.01  -0.05     0.02  -0.00   0.00
  22   1    -0.05   0.01   0.01    -0.02  -0.00  -0.01    -0.02   0.00  -0.04
  23   1     0.11  -0.09   0.16     0.05  -0.04   0.06     0.04  -0.03   0.04
  24   1     0.11  -0.08   0.13     0.04  -0.03   0.06     0.04  -0.03   0.07
  25   1     0.14  -0.08   0.17     0.06  -0.04   0.07     0.07  -0.05   0.07
  26   1     0.12  -0.09   0.11     0.05  -0.03   0.06     0.04  -0.03   0.07
  27   1     0.12  -0.10   0.15     0.05  -0.04   0.06     0.05  -0.03   0.05
  28   1    -0.01  -0.02   0.02    -0.15  -0.01  -0.07     0.17   0.01   0.09
  29   1    -0.03  -0.04   0.07    -0.16  -0.03  -0.05     0.20   0.01   0.12
  30   1     0.05  -0.01   0.02    -0.21  -0.01  -0.12     0.26   0.01   0.14
  31   1     0.02   0.09   0.07     0.04   0.03   0.04    -0.31  -0.00  -0.18
  32   1     0.03   0.02  -0.05     0.13   0.01   0.05    -0.32  -0.00  -0.19
  33   1    -0.00   0.04   0.03     0.13   0.01   0.08    -0.29  -0.01  -0.17
  34   1     0.00   0.02  -0.08     0.20   0.00   0.10    -0.20  -0.00  -0.13
                     31                     32                     33
                        a                      a                      a 
 Frequencies --   766.4029               778.9358               810.9494
 Red. masses --     7.1258                10.8129                 8.5091
 Frc consts  --     0.0000                 0.0000                 0.0000
 IR Inten    --    21.8939                 0.4319                45.4251
 Raman Activ --     0.0000                 0.0000                 0.0000
 Depolar     --     0.0000                 0.0000                 0.0000
 Atom AN      X      Y      Z        X      Y      Z        X      Y      Z
   1   6     0.00   0.01   0.10    -0.02   0.00  -0.05     0.14  -0.00   0.14
   2   6    -0.16   0.06   0.14     0.04   0.01  -0.03     0.06  -0.03  -0.06
   3   7    -0.15   0.08  -0.03     0.04  -0.01   0.02    -0.04  -0.08  -0.40
   4   6     0.23  -0.17   0.21    -0.03   0.02  -0.03     0.11  -0.08   0.15
   5   6     0.03   0.12  -0.14    -0.01  -0.02   0.02    -0.12  -0.01   0.04
   6   6     0.09   0.13  -0.13    -0.02  -0.02   0.02    -0.23  -0.12   0.07
   7   6    -0.16   0.11  -0.01     0.02  -0.01  -0.00     0.07  -0.04  -0.20
   8   6    -0.09  -0.11  -0.12     0.01   0.01   0.01     0.03   0.27   0.10
   9   6    -0.10  -0.04  -0.15     0.01   0.00   0.02    -0.04   0.15   0.04
  10   6    -0.11   0.06   0.07    -0.01  -0.21   0.07    -0.03  -0.07  -0.10
  11   6     0.05  -0.04  -0.04     0.04  -0.43  -0.04    -0.06  -0.02  -0.04
  12   6     0.06   0.14  -0.13     0.10   0.28  -0.19    -0.10  -0.02  -0.04
  13   6     0.05   0.09  -0.05    -0.08   0.17   0.11    -0.16  -0.03   0.05
  14   6     0.01  -0.04  -0.05    -0.06   0.05   0.14     0.09   0.01   0.11
  15   6     0.04  -0.14  -0.10    -0.11  -0.07   0.20    -0.11   0.07   0.00
  16   6    -0.01  -0.09  -0.02     0.05  -0.38  -0.06    -0.06   0.05  -0.02
  17   6     0.00   0.03  -0.02     0.13   0.33  -0.24    -0.06   0.00  -0.03
  18   6    -0.10  -0.00   0.11     0.03   0.22  -0.04    -0.01   0.02  -0.14
  19   6     0.01  -0.00   0.09    -0.05   0.03   0.03     0.14  -0.02   0.01
  20   1     0.00   0.00  -0.07    -0.01  -0.00   0.00     0.03  -0.01   0.05
  21   1     0.13  -0.02   0.11    -0.04  -0.00  -0.03     0.02  -0.01   0.03
  22   1     0.01  -0.01  -0.05    -0.00  -0.00   0.02     0.05  -0.01   0.07
  23   1     0.14  -0.07   0.14    -0.02   0.00  -0.01     0.00  -0.02   0.02
  24   1     0.21  -0.13   0.13    -0.02   0.01  -0.01    -0.02  -0.02   0.13
  25   1     0.19  -0.15   0.28    -0.02   0.02  -0.03     0.12  -0.10   0.08
  26   1     0.19  -0.15   0.14    -0.02   0.02  -0.01     0.00   0.03   0.14
  27   1     0.12  -0.10   0.16    -0.01   0.01  -0.02     0.04  -0.00   0.05
  28   1    -0.01  -0.01  -0.03    -0.05  -0.15   0.08     0.20  -0.00   0.13
  29   1    -0.02   0.06  -0.03    -0.01   0.13  -0.01     0.22  -0.02   0.10
  30   1    -0.02   0.02  -0.03    -0.03  -0.03   0.05     0.14  -0.02   0.12
  31   1     0.06  -0.06   0.00    -0.03   0.06   0.03     0.11   0.03   0.08
  32   1     0.02  -0.04   0.07    -0.03  -0.12   0.03     0.17   0.02   0.08
  33   1     0.05  -0.00   0.01    -0.01   0.17   0.00     0.16   0.02   0.11
  34   1     0.00  -0.03   0.06     0.00   0.01  -0.00     0.12   0.03   0.02
                     34                     35                     36
                        a                      a                      a 
 Frequencies --   815.2796               854.0083               868.1349
 Red. masses --     6.1469                10.5640                 3.2991
 Frc consts  --     0.0000                 0.0000                 0.0000
 IR Inten    --    28.7918                 0.5595                 0.9258
 Raman Activ --     0.0000                 0.0000                 0.0000
 Depolar     --     0.0000                 0.0000                 0.0000
 Atom AN      X      Y      Z        X      Y      Z        X      Y      Z
   1   6     0.13   0.01   0.13     0.00   0.02   0.07    -0.00   0.01   0.00
   2   6     0.03  -0.02  -0.04    -0.10   0.05   0.05    -0.01   0.00   0.00
   3   7    -0.03  -0.05  -0.28    -0.10   0.07   0.13    -0.00  -0.00   0.01
   4   6     0.08  -0.06   0.10    -0.03   0.02   0.03    -0.00   0.01   0.01
   5   6    -0.08  -0.01   0.03     0.04   0.00  -0.05     0.13  -0.09   0.15
   6   6    -0.15  -0.08   0.05     0.12   0.07  -0.06     0.12  -0.07   0.13
   7   6     0.04  -0.03  -0.13    -0.05   0.04   0.08     0.03  -0.02   0.05
   8   6     0.02   0.18   0.07    -0.02  -0.14  -0.06    -0.10   0.06  -0.12
   9   6    -0.03   0.09   0.02     0.02  -0.05  -0.03    -0.18   0.12  -0.21
  10   6    -0.07  -0.06  -0.11     0.05  -0.11  -0.02     0.00  -0.00  -0.00
  11   6     0.12   0.00   0.06     0.06  -0.15  -0.10     0.00  -0.00  -0.00
  12   6     0.13  -0.01   0.08     0.06   0.09  -0.13     0.00   0.00  -0.01
  13   6     0.14  -0.02   0.18    -0.26  -0.03   0.44    -0.01  -0.00   0.01
  14   6    -0.20  -0.00  -0.08    -0.04  -0.10   0.09     0.00  -0.00   0.00
  15   6     0.07   0.05   0.09     0.04   0.08  -0.07    -0.00   0.00  -0.00
  16   6     0.05   0.04   0.03    -0.05   0.29   0.08    -0.00   0.01   0.00
  17   6     0.08  -0.00   0.05    -0.08  -0.10   0.13    -0.00  -0.00   0.00
  18   6     0.11   0.01  -0.03     0.23  -0.00  -0.38     0.01   0.00  -0.01
  19   6    -0.05  -0.01  -0.08     0.08  -0.04  -0.19     0.00  -0.00  -0.01
  20   1     0.02  -0.01   0.04    -0.02  -0.01  -0.05    -0.00   0.00  -0.01
  21   1     0.01  -0.01   0.02     0.07  -0.02   0.07     0.00  -0.00   0.00
  22   1     0.05  -0.01   0.08     0.02  -0.01   0.00     0.00  -0.00   0.00
  23   1    -0.00  -0.01   0.01     0.02  -0.01   0.01    -0.24   0.18  -0.30
  24   1    -0.02  -0.01   0.09     0.04  -0.01  -0.03    -0.22   0.17  -0.28
  25   1     0.08  -0.06   0.06    -0.02   0.02   0.01    -0.06   0.04  -0.06
  26   1     0.00   0.02   0.09     0.02  -0.03  -0.05     0.19  -0.14   0.21
  27   1     0.03  -0.01   0.04    -0.01  -0.00  -0.02     0.35  -0.25   0.42
  28   1    -0.30  -0.02  -0.14    -0.02  -0.06   0.01    -0.00  -0.00  -0.00
  29   1    -0.32  -0.04  -0.19     0.07  -0.06  -0.10     0.00  -0.00  -0.00
  30   1    -0.32  -0.03  -0.15    -0.06  -0.10   0.16     0.00  -0.00   0.01
  31   1    -0.11   0.02  -0.05     0.01   0.00  -0.01     0.01   0.00   0.00
  32   1    -0.16   0.01  -0.11     0.00   0.09  -0.02     0.01   0.00   0.00
  33   1    -0.21   0.01  -0.11    -0.04   0.01   0.06    -0.00   0.00   0.00
  34   1    -0.11   0.03  -0.10     0.07   0.12  -0.14    -0.01   0.00  -0.01
                     37                     38                     39
                        a                      a                      a 
 Frequencies --   877.3525               882.8341               892.9332
 Red. masses --     3.6857                 3.8536                 4.0497
 Frc consts  --     0.0000                 0.0000                 0.0000
 IR Inten    --     0.3020                 1.3470                 0.9195
 Raman Activ --     0.0000                 0.0000                 0.0000
 Depolar     --     0.0000                 0.0000                 0.0000
 Atom AN      X      Y      Z        X      Y      Z        X      Y      Z
   1   6    -0.02   0.02  -0.02     0.01   0.01   0.03    -0.03  -0.01  -0.03
   2   6     0.01  -0.01   0.02    -0.01   0.00  -0.00     0.01   0.01   0.01
   3   7     0.01   0.00   0.01    -0.02   0.00  -0.06     0.01  -0.00   0.01
   4   6    -0.00   0.00  -0.01     0.07  -0.05   0.07    -0.00   0.00  -0.00
   5   6     0.00  -0.00   0.01    -0.16   0.14  -0.19     0.00  -0.00   0.00
   6   6    -0.00  -0.00  -0.00    -0.03  -0.00  -0.01     0.00  -0.00   0.00
   7   6    -0.00   0.00  -0.01     0.21  -0.15   0.21     0.00   0.00   0.00
   8   6     0.00   0.00   0.00     0.04  -0.00   0.06    -0.00   0.00  -0.00
   9   6     0.00  -0.00   0.01    -0.13   0.09  -0.13    -0.00   0.00  -0.00
  10   6     0.04   0.00   0.03    -0.01   0.00  -0.00     0.05   0.01   0.04
  11   6    -0.11  -0.01  -0.06    -0.00  -0.00  -0.00    -0.32  -0.03  -0.18
  12   6     0.02   0.00   0.01    -0.00   0.00  -0.00     0.02   0.01  -0.00
  13   6     0.04   0.00   0.02     0.00   0.00   0.00     0.27   0.02   0.17
  14   6     0.05   0.00   0.03     0.00  -0.00   0.00    -0.09  -0.01  -0.05
  15   6    -0.25  -0.01  -0.15    -0.01  -0.00  -0.01     0.08  -0.00   0.03
  16   6    -0.13  -0.01  -0.08    -0.00  -0.00  -0.00     0.05   0.01   0.04
  17   6     0.20  -0.00   0.12     0.01   0.00   0.00    -0.02  -0.00  -0.01
  18   6     0.19   0.00   0.12     0.00  -0.00   0.00    -0.07  -0.00  -0.06
  19   6    -0.06   0.00  -0.03    -0.00   0.00   0.00     0.05  -0.00   0.03
  20   1    -0.01  -0.00  -0.03     0.00   0.00  -0.01     0.00   0.00  -0.01
  21   1     0.01  -0.01   0.00     0.02  -0.01   0.02     0.01   0.01   0.00
  22   1    -0.01   0.00  -0.01     0.01  -0.00  -0.00    -0.01   0.00  -0.03
  23   1    -0.01   0.01  -0.01     0.30  -0.22   0.37    -0.00   0.00  -0.01
  24   1     0.00  -0.00   0.01    -0.02   0.01  -0.01    -0.00   0.00  -0.01
  25   1     0.01  -0.01   0.01    -0.31   0.22  -0.38    -0.00   0.00  -0.00
  26   1     0.00  -0.00   0.00    -0.11   0.09  -0.12     0.01  -0.00   0.01
  27   1    -0.01   0.01  -0.01     0.22  -0.16   0.26     0.00  -0.00   0.00
  28   1     0.18   0.01   0.09     0.01  -0.00   0.00     0.55   0.02   0.28
  29   1    -0.02  -0.00  -0.01     0.00   0.00   0.00     0.02   0.00   0.01
  30   1    -0.10  -0.00  -0.05    -0.01  -0.00  -0.00    -0.47  -0.02  -0.26
  31   1     0.49   0.01   0.28     0.01  -0.00   0.01    -0.12  -0.01  -0.07
  32   1     0.17   0.00   0.09     0.00  -0.00   0.00    -0.08   0.00  -0.04
  33   1    -0.30  -0.01  -0.18    -0.01  -0.00  -0.01     0.01   0.00   0.01
  34   1    -0.40   0.01  -0.25    -0.01  -0.00  -0.01     0.15   0.00   0.08
                     40                     41                     42
                        a                      a                      a 
 Frequencies --   916.4885               922.6602               922.8864
 Red. masses --     3.6831                 3.8137                 3.7166
 Frc consts  --     0.0000                 0.0000                 0.0000
 IR Inten    --     0.1490                 0.1170                 0.1126
 Raman Activ --     0.0000                 0.0000                 0.0000
 Depolar     --     0.0000                 0.0000                 0.0000
 Atom AN      X      Y      Z        X      Y      Z        X      Y      Z
   1   6     0.02  -0.01   0.01     0.01  -0.01   0.01    -0.01   0.01  -0.00
   2   6    -0.01   0.01  -0.02    -0.01   0.00  -0.01     0.00  -0.01   0.01
   3   7    -0.01   0.00   0.00    -0.01   0.00  -0.01     0.01   0.00  -0.00
   4   6    -0.00   0.00   0.00     0.01  -0.00  -0.01     0.00  -0.00  -0.01
   5   6    -0.00  -0.00  -0.00    -0.11   0.09  -0.13    -0.08   0.06  -0.09
   6   6     0.01   0.00  -0.00     0.15  -0.12   0.19     0.11  -0.09   0.14
   7   6    -0.00   0.00   0.00    -0.01   0.01  -0.03    -0.01   0.01  -0.03
   8   6    -0.00  -0.01  -0.00    -0.11   0.09  -0.13    -0.08   0.07  -0.09
   9   6     0.01   0.00  -0.00     0.08  -0.06   0.11     0.06  -0.05   0.08
  10   6     0.02  -0.01  -0.00    -0.03   0.00  -0.01     0.03   0.00   0.02
  11   6     0.09   0.01   0.05    -0.06  -0.00  -0.03     0.09   0.01   0.05
  12   6    -0.19  -0.01  -0.10     0.15   0.01   0.09    -0.21  -0.01  -0.12
  13   6     0.07   0.00   0.04    -0.10  -0.00  -0.05     0.13   0.01   0.07
  14   6     0.04   0.00   0.02    -0.02  -0.00  -0.01     0.02   0.00   0.01
  15   6    -0.20  -0.00  -0.11    -0.06  -0.00  -0.04     0.09   0.00   0.05
  16   6     0.24   0.01   0.14     0.07   0.01   0.05    -0.11  -0.01  -0.07
  17   6     0.09   0.01   0.04     0.05   0.00   0.03    -0.06  -0.00  -0.04
  18   6    -0.16  -0.00  -0.09    -0.09  -0.00  -0.06     0.12   0.00   0.08
  19   6     0.00  -0.00  -0.00     0.05   0.00   0.03    -0.08  -0.00  -0.04
  20   1     0.01   0.00   0.02     0.00  -0.00   0.01    -0.01  -0.00  -0.02
  21   1    -0.00   0.00  -0.00    -0.00   0.00  -0.00     0.01  -0.01   0.01
  22   1     0.00  -0.00   0.01     0.00  -0.00   0.01     0.00  -0.00  -0.00
  23   1     0.00  -0.00  -0.00     0.19  -0.14   0.23     0.14  -0.10   0.17
  24   1    -0.00   0.00  -0.00    -0.28   0.20  -0.33    -0.20   0.14  -0.24
  25   1    -0.00   0.00   0.00     0.04  -0.03   0.05     0.03  -0.03   0.04
  26   1     0.00  -0.00   0.00     0.18  -0.13   0.21     0.13  -0.09   0.15
  27   1    -0.00   0.00  -0.00    -0.13   0.09  -0.15    -0.09   0.06  -0.11
  28   1    -0.19  -0.01  -0.09     0.13   0.01   0.07    -0.19  -0.01  -0.10
  29   1     0.36   0.01   0.20    -0.29  -0.01  -0.16     0.40   0.02   0.22
  30   1    -0.15  -0.00  -0.09     0.19   0.01   0.11    -0.27  -0.01  -0.15
  31   1     0.34   0.01   0.20     0.10  -0.00   0.06    -0.15  -0.00  -0.09
  32   1    -0.43  -0.01  -0.25    -0.13  -0.00  -0.07     0.19   0.00   0.11
  33   1    -0.14   0.00  -0.08    -0.08  -0.00  -0.05     0.11  -0.00   0.06
  34   1     0.26  -0.01   0.16     0.15  -0.00   0.09    -0.21   0.00  -0.13
                     43                     44                     45
                        a                      a                      a 
 Frequencies --   925.9988               930.8489               950.7943
 Red. masses --     2.8488                 3.1987                10.5738
 Frc consts  --     0.0000                 0.0000                 0.0000
 IR Inten    --     0.0349                 0.0239                13.2358
 Raman Activ --     0.0000                 0.0000                 0.0000
 Depolar     --     0.0000                 0.0000                 0.0000
 Atom AN      X      Y      Z        X      Y      Z        X      Y      Z
   1   6    -0.01   0.00  -0.01    -0.01   0.02  -0.01     0.27   0.08   0.20
   2   6     0.00   0.00   0.00     0.01  -0.02   0.02    -0.18  -0.09  -0.22
   3   7     0.01  -0.00   0.01     0.02  -0.00  -0.00    -0.22   0.11   0.03
   4   6    -0.05   0.04  -0.05     0.00  -0.00  -0.01    -0.10   0.07   0.15
   5   6    -0.01   0.00  -0.01    -0.00   0.01   0.00    -0.06  -0.20  -0.09
   6   6     0.09  -0.05   0.10    -0.00  -0.01   0.01     0.16   0.11  -0.06
   7   6    -0.14   0.10  -0.16     0.00  -0.00  -0.01    -0.12   0.08   0.15
   8   6     0.16  -0.13   0.19     0.00   0.01   0.00    -0.05  -0.18  -0.08
   9   6    -0.05   0.04  -0.06    -0.01  -0.00   0.00     0.17   0.12  -0.07
  10   6    -0.00   0.00   0.00    -0.01   0.01   0.00     0.20  -0.17  -0.21
  11   6    -0.00  -0.00  -0.00    -0.03   0.00  -0.01    -0.05   0.17   0.00
  12   6     0.00   0.00  -0.00     0.04   0.00   0.02    -0.05  -0.08   0.08
  13   6    -0.00   0.00   0.00     0.00   0.00   0.00     0.03  -0.05  -0.05
  14   6     0.00  -0.00   0.00    -0.08  -0.00  -0.04     0.00   0.04  -0.02
  15   6     0.00  -0.00  -0.00    -0.05  -0.00  -0.04    -0.11   0.13   0.21
  16   6    -0.00   0.00   0.00     0.18   0.00   0.10     0.02  -0.09  -0.05
  17   6     0.00  -0.00   0.00    -0.27  -0.01  -0.15     0.05   0.11  -0.11
  18   6    -0.00  -0.00  -0.00     0.16   0.00   0.10    -0.05   0.03   0.12
  19   6    -0.00   0.00   0.00     0.06   0.00   0.04     0.04  -0.18  -0.08
  20   1    -0.00   0.00  -0.00    -0.02  -0.00  -0.03    -0.02  -0.04   0.08
  21   1    -0.00  -0.00  -0.00     0.00  -0.01   0.00    -0.02  -0.05   0.00
  22   1    -0.00  -0.00  -0.00    -0.00   0.00   0.00     0.14  -0.03   0.25
  23   1     0.09  -0.07   0.11     0.00  -0.00   0.01    -0.01  -0.06  -0.00
  24   1    -0.21   0.16  -0.26    -0.01   0.00  -0.00     0.04   0.03  -0.02
  25   1     0.28  -0.20   0.34     0.00  -0.00   0.00    -0.03   0.02   0.04
  26   1    -0.36   0.25  -0.42    -0.00   0.00   0.00    -0.01  -0.05  -0.02
  27   1     0.16  -0.11   0.19    -0.00  -0.00  -0.00     0.04   0.03  -0.02
  28   1     0.00  -0.00   0.00     0.05   0.00   0.02     0.03   0.03   0.08
  29   1    -0.00   0.00  -0.00    -0.07  -0.00  -0.04     0.02  -0.06  -0.01
  30   1     0.00  -0.00   0.00     0.01  -0.00   0.00     0.01   0.01  -0.02
  31   1     0.00  -0.00  -0.00     0.18   0.00   0.10    -0.03   0.08   0.04
  32   1     0.00   0.00   0.00    -0.37  -0.01  -0.22     0.03  -0.01  -0.05
  33   1    -0.01  -0.00  -0.00     0.52   0.00   0.31     0.04   0.02  -0.03
  34   1     0.00  -0.00   0.00    -0.38   0.01  -0.23    -0.04   0.02   0.01
                     46                     47                     48
                        a                      a                      a 
 Frequencies --   988.7775               995.7645              1007.8529
 Red. masses --     8.9185                 6.8436                 6.9241
 Frc consts  --     0.0000                 0.0000                 0.0000
 IR Inten    --     5.1146                16.0921                16.3714
 Raman Activ --     0.0000                 0.0000                 0.0000
 Depolar     --     0.0000                 0.0000                 0.0000
 Atom AN      X      Y      Z        X      Y      Z        X      Y      Z
   1   6     0.01  -0.23  -0.03     0.16   0.25  -0.22     0.35  -0.21   0.00
   2   6     0.13   0.17  -0.04    -0.07  -0.34   0.09    -0.13   0.09  -0.21
   3   7     0.01  -0.10  -0.15     0.06   0.04  -0.09    -0.23   0.06   0.04
   4   6    -0.02  -0.00   0.06     0.02  -0.00   0.01    -0.04   0.02   0.04
   5   6    -0.17  -0.38  -0.12    -0.06  -0.12  -0.04     0.11   0.23   0.06
   6   6     0.06   0.07   0.00    -0.01   0.01   0.01     0.04  -0.00  -0.04
   7   6    -0.17   0.10   0.21    -0.05   0.03   0.06     0.08  -0.06  -0.10
   8   6    -0.05  -0.06  -0.00    -0.01  -0.01   0.00     0.02  -0.02  -0.03
   9   6     0.32   0.31  -0.08     0.09   0.09  -0.03    -0.18  -0.17   0.04
  10   6    -0.08   0.09   0.09    -0.08   0.14   0.21     0.04   0.08   0.12
  11   6     0.02  -0.12  -0.00     0.00  -0.09  -0.01    -0.00  -0.11  -0.02
  12   6    -0.00   0.02   0.01     0.03   0.06  -0.07    -0.02   0.01   0.02
  13   6    -0.01   0.03   0.01     0.01   0.02  -0.01    -0.00   0.03   0.00
  14   6    -0.01  -0.00   0.02    -0.02  -0.00   0.04    -0.01   0.01   0.02
  15   6     0.06  -0.06  -0.11     0.09  -0.10  -0.16     0.05  -0.05  -0.08
  16   6    -0.01   0.02   0.01    -0.02   0.05   0.03    -0.00   0.00   0.00
  17   6    -0.04  -0.06   0.05    -0.04  -0.08   0.08    -0.03  -0.05   0.05
  18   6     0.04  -0.01  -0.04     0.03  -0.03  -0.06     0.04  -0.01  -0.02
  19   6    -0.04   0.11   0.06    -0.06   0.19   0.09    -0.05   0.09   0.04
  20   1     0.19   0.07   0.24    -0.21  -0.10  -0.08     0.21   0.03   0.48
  21   1    -0.05   0.12  -0.05    -0.27  -0.12  -0.23    -0.25   0.11  -0.22
  22   1    -0.18   0.09  -0.21     0.23  -0.08   0.43    -0.07   0.09   0.11
  23   1    -0.08  -0.12   0.02    -0.03  -0.04   0.01     0.07   0.07  -0.01
  24   1    -0.01   0.08   0.05    -0.01   0.02   0.03     0.03  -0.05  -0.06
  25   1    -0.05   0.03   0.05    -0.01   0.01   0.02     0.02  -0.02  -0.03
  26   1    -0.07  -0.02   0.07    -0.02  -0.00   0.02     0.05  -0.00  -0.05
  27   1     0.08   0.14   0.03     0.03   0.03   0.00    -0.04  -0.09  -0.02
  28   1     0.00  -0.03  -0.04     0.02  -0.01  -0.04     0.04  -0.02  -0.02
  29   1    -0.03   0.05   0.04    -0.01   0.06   0.02    -0.01   0.05   0.05
  30   1    -0.00   0.02  -0.00    -0.00  -0.03   0.00     0.00   0.02  -0.00
  31   1     0.02  -0.03  -0.02     0.02  -0.06  -0.04     0.01  -0.02  -0.02
  32   1    -0.01  -0.00   0.02    -0.03  -0.00   0.05    -0.01  -0.01   0.02
  33   1    -0.00  -0.01   0.03    -0.03  -0.01   0.03    -0.00  -0.01   0.03
  34   1    -0.02   0.00  -0.03     0.02  -0.06   0.01    -0.04   0.02  -0.04
                     49                     50                     51
                        a                      a                      a 
 Frequencies --  1079.9306              1080.2891              1108.3462
 Red. masses --     7.1039                 6.6736                 6.7033
 Frc consts  --     0.0000                 0.0000                 0.0000
 IR Inten    --     0.7564                 0.2090                13.7041
 Raman Activ --     0.0000                 0.0000                 0.0000
 Depolar     --     0.0000                 0.0000                 0.0000
 Atom AN      X      Y      Z        X      Y      Z        X      Y      Z
   1   6    -0.02   0.03   0.03     0.01  -0.01  -0.00     0.01  -0.06  -0.14
   2   6    -0.01  -0.03  -0.04    -0.01   0.01  -0.00     0.03   0.09   0.20
   3   7     0.01   0.00   0.02    -0.01   0.01   0.02    -0.02  -0.01  -0.05
   4   6     0.00   0.00  -0.01    -0.00   0.01   0.00     0.02   0.01   0.02
   5   6     0.01  -0.01  -0.01     0.09  -0.07  -0.12     0.00  -0.02  -0.02
   6   6    -0.03  -0.04   0.00    -0.23  -0.27   0.03    -0.02  -0.01   0.01
   7   6    -0.03   0.02   0.04    -0.26   0.18   0.32     0.01   0.02   0.01
   8   6     0.02   0.04   0.01     0.16   0.31   0.05    -0.00  -0.02  -0.01
   9   6     0.01  -0.01  -0.01     0.09  -0.06  -0.11    -0.02  -0.00   0.01
  10   6     0.02  -0.00  -0.03     0.00  -0.00   0.00    -0.06  -0.09   0.11
  11   6     0.04  -0.08  -0.07    -0.00   0.01   0.01    -0.17   0.29   0.28
  12   6    -0.04  -0.05   0.07     0.00   0.00  -0.01     0.14   0.12  -0.27
  13   6    -0.03   0.02   0.04     0.00  -0.00  -0.00     0.10  -0.17  -0.17
  14   6    -0.02   0.09   0.03     0.00  -0.01  -0.01    -0.04  -0.04   0.07
  15   6     0.10   0.05  -0.18    -0.01  -0.01   0.03     0.02   0.04  -0.04
  16   6     0.16  -0.33  -0.24    -0.02   0.04   0.03     0.03  -0.05  -0.05
  17   6    -0.21  -0.15   0.36     0.03   0.02  -0.05    -0.03  -0.01   0.06
  18   6    -0.10   0.15   0.15     0.01  -0.02  -0.02     0.00   0.06  -0.01
  19   6     0.04   0.07  -0.08    -0.00  -0.01   0.01     0.02  -0.14  -0.04
  20   1    -0.02  -0.00  -0.05     0.01   0.00   0.02     0.03   0.01   0.08
  21   1     0.04  -0.02   0.04    -0.01   0.01  -0.01    -0.11   0.04  -0.11
  22   1     0.02  -0.02   0.00    -0.01   0.00  -0.00    -0.04   0.02   0.01
  23   1     0.03   0.00  -0.02     0.28   0.00  -0.22     0.04  -0.01  -0.03
  24   1    -0.00  -0.04  -0.02    -0.01  -0.29  -0.17    -0.01   0.02   0.02
  25   1    -0.01   0.01   0.01    -0.07   0.06   0.10     0.03   0.04   0.00
  26   1     0.03   0.02  -0.02     0.27   0.12  -0.16     0.02  -0.00  -0.02
  27   1     0.01  -0.03  -0.03     0.09  -0.23  -0.22    -0.01   0.03   0.04
  28   1     0.04  -0.01  -0.08    -0.00   0.00   0.00    -0.19   0.00   0.37
  29   1    -0.02   0.01   0.04     0.00  -0.00  -0.00     0.10  -0.07  -0.18
  30   1     0.00   0.07  -0.00     0.00  -0.00   0.00    -0.01  -0.41   0.04
  31   1     0.07   0.36  -0.14    -0.01  -0.04   0.02     0.02   0.11  -0.03
  32   1     0.12  -0.06  -0.21    -0.01   0.01   0.03     0.02  -0.01  -0.04
  33   1    -0.13   0.07   0.20     0.02  -0.01  -0.03    -0.03   0.03   0.04
  34   1     0.03   0.36  -0.01    -0.01  -0.04  -0.00     0.03   0.18  -0.03
                     52                     53                     54
                        a                      a                      a 
 Frequencies --  1115.8698              1127.8389              1170.1607
 Red. masses --     4.0955                 7.2611                 2.7907
 Frc consts  --     0.0000                 0.0000                 0.0000
 IR Inten    --     0.7750                44.7867                 7.3571
 Raman Activ --     0.0000                 0.0000                 0.0000
 Depolar     --     0.0000                 0.0000                 0.0000
 Atom AN      X      Y      Z        X      Y      Z        X      Y      Z
   1   6    -0.00  -0.00  -0.04     0.01  -0.04  -0.23     0.00  -0.02  -0.07
   2   6     0.01   0.01   0.05     0.02   0.06   0.39     0.02   0.03   0.15
   3   7     0.01   0.03   0.00    -0.02  -0.01  -0.09    -0.01  -0.00  -0.04
   4   6    -0.09  -0.14  -0.01     0.01  -0.00   0.03    -0.02   0.01   0.04
   5   6    -0.03   0.19   0.15     0.00  -0.01  -0.02     0.00   0.01   0.00
   6   6     0.14   0.08  -0.07    -0.00   0.00   0.00     0.01   0.02  -0.00
   7   6    -0.13  -0.17   0.00     0.01   0.01   0.00    -0.00  -0.00  -0.00
   8   6     0.03   0.18   0.08    -0.01  -0.01  -0.01    -0.01  -0.01  -0.00
   9   6     0.21   0.05  -0.14    -0.01   0.00   0.00    -0.00  -0.01  -0.00
  10   6    -0.01  -0.01   0.02    -0.09   0.02   0.12    -0.00  -0.07  -0.00
  11   6    -0.02   0.03   0.03     0.05  -0.02  -0.07     0.00   0.05  -0.01
  12   6     0.02   0.01  -0.03     0.01  -0.04  -0.01     0.02  -0.10  -0.02
  13   6     0.00  -0.01  -0.01    -0.12   0.09   0.20     0.01   0.09  -0.02
  14   6     0.00  -0.01  -0.01     0.12  -0.07  -0.20    -0.01   0.02   0.02
  15   6    -0.01   0.01   0.01    -0.13   0.07   0.22     0.05   0.10  -0.09
  16   6     0.00  -0.01  -0.01     0.03  -0.03  -0.05    -0.05  -0.04   0.09
  17   6     0.00   0.00  -0.00     0.04   0.01  -0.07     0.01   0.06  -0.01
  18   6    -0.01   0.01   0.01    -0.11   0.07   0.18     0.07  -0.11  -0.11
  19   6     0.01  -0.03  -0.02     0.12  -0.12  -0.20    -0.04  -0.16   0.08
  20   1     0.00   0.00   0.01     0.01  -0.00   0.09     0.00  -0.00   0.02
  21   1    -0.03   0.00  -0.03    -0.18   0.04  -0.17    -0.05   0.01  -0.05
  22   1    -0.00   0.00   0.01    -0.03   0.03   0.04    -0.02   0.01   0.00
  23   1    -0.33   0.02   0.28     0.04  -0.00  -0.02     0.04   0.01  -0.02
  24   1     0.10  -0.18  -0.19    -0.01   0.02   0.02    -0.00   0.02   0.01
  25   1    -0.25  -0.36  -0.01     0.02   0.02   0.00    -0.01  -0.01  -0.00
  26   1    -0.18   0.03   0.18     0.01  -0.01  -0.00    -0.01  -0.01   0.01
  27   1     0.15  -0.28  -0.29    -0.00   0.02   0.02     0.01  -0.03  -0.02
  28   1    -0.01   0.00   0.03     0.10   0.05  -0.22     0.00   0.02  -0.01
  29   1     0.02  -0.02  -0.03     0.11  -0.21  -0.18     0.14  -0.28  -0.24
  30   1    -0.00  -0.03   0.01    -0.01   0.20   0.01     0.04   0.40  -0.10
  31   1    -0.00   0.01   0.00    -0.04  -0.07   0.08     0.06   0.42  -0.11
  32   1     0.01   0.00  -0.02     0.13   0.06  -0.22    -0.22  -0.13   0.39
  33   1     0.00  -0.01  -0.01     0.10  -0.16  -0.16    -0.09   0.19   0.15
  34   1     0.01   0.03  -0.00    -0.00   0.14   0.03    -0.00  -0.16  -0.01
                     55                     56                     57
                        a                      a                      a 
 Frequencies --  1179.2816              1180.6262              1188.2393
 Red. masses --     1.6956                 1.3925                 2.4817
 Frc consts  --     0.0000                 0.0000                 0.0000
 IR Inten    --     0.2818                 0.5955                20.1056
 Raman Activ --     0.0000                 0.0000                 0.0000
 Depolar     --     0.0000                 0.0000                 0.0000
 Atom AN      X      Y      Z        X      Y      Z        X      Y      Z
   1   6    -0.01   0.01  -0.01    -0.01   0.00  -0.01    -0.03  -0.00  -0.05
   2   6    -0.00  -0.01   0.02     0.01  -0.00   0.01     0.08  -0.00   0.10
   3   7     0.00   0.00  -0.00     0.01   0.00  -0.01     0.03  -0.03  -0.09
   4   6     0.00  -0.01  -0.01     0.02   0.06   0.02    -0.11   0.05   0.13
   5   6     0.01  -0.01  -0.01    -0.04   0.04   0.06     0.07   0.04  -0.04
   6   6    -0.00  -0.01  -0.00     0.00   0.05   0.03     0.05   0.13   0.03
   7   6     0.01   0.01  -0.00    -0.05  -0.07  -0.00    -0.00   0.01   0.01
   8   6    -0.00   0.00   0.00     0.02  -0.00  -0.02    -0.11  -0.09   0.03
   9   6    -0.01   0.01   0.01     0.05  -0.05  -0.07    -0.01  -0.07  -0.03
  10   6     0.00   0.06  -0.01     0.00   0.01  -0.01     0.01  -0.03  -0.06
  11   6    -0.01   0.00   0.02     0.00  -0.00  -0.00     0.01   0.03  -0.02
  12   6     0.00   0.01  -0.00    -0.00   0.00   0.01    -0.02   0.01   0.03
  13   6     0.01   0.02  -0.02     0.00  -0.00  -0.00     0.00  -0.01  -0.00
  14   6    -0.06  -0.02   0.11    -0.01  -0.00   0.01    -0.01   0.02   0.01
  15   6    -0.02  -0.01   0.04    -0.00  -0.00   0.00     0.00   0.01  -0.01
  16   6    -0.03  -0.01   0.06    -0.00  -0.00   0.00     0.01   0.00  -0.01
  17   6     0.04  -0.05  -0.06     0.00  -0.01  -0.00    -0.00   0.03   0.00
  18   6     0.00   0.00  -0.01    -0.00   0.00   0.00     0.01  -0.02  -0.01
  19   6     0.06  -0.09  -0.12     0.01  -0.01  -0.01     0.01  -0.06  -0.01
  20   1    -0.00  -0.00  -0.01    -0.00  -0.00  -0.00    -0.00   0.00  -0.01
  21   1    -0.00  -0.00  -0.00    -0.00  -0.00  -0.00    -0.02   0.01  -0.02
  22   1     0.01  -0.01   0.01     0.00  -0.00  -0.00    -0.01   0.00  -0.01
  23   1    -0.02  -0.00   0.01     0.18   0.03  -0.12     0.37   0.05  -0.27
  24   1     0.01  -0.04  -0.03    -0.11   0.37   0.31    -0.05   0.25   0.19
  25   1     0.05   0.07   0.00    -0.40  -0.59  -0.02     0.05   0.08   0.00
  26   1    -0.03  -0.00   0.02     0.30   0.03  -0.24    -0.37  -0.06   0.27
  27   1    -0.00  -0.00  -0.00    -0.01   0.06   0.04     0.10  -0.38  -0.32
  28   1     0.08   0.05  -0.16     0.01   0.01  -0.02     0.05   0.04  -0.11
  29   1    -0.10   0.19   0.17    -0.02   0.04   0.04    -0.07   0.12   0.11
  30   1    -0.01  -0.12   0.02    -0.00  -0.03   0.01    -0.01  -0.13   0.03
  31   1     0.03   0.30  -0.06     0.00   0.02  -0.00    -0.00  -0.02   0.00
  32   1    -0.23  -0.12   0.41    -0.02  -0.01   0.04     0.01   0.00  -0.01
  33   1     0.21  -0.39  -0.36     0.02  -0.04  -0.04    -0.04   0.08   0.06
  34   1     0.06   0.36  -0.08     0.01   0.04  -0.01    -0.00  -0.04   0.00
                     58                     59                     60
                        a                      a                      a 
 Frequencies --  1197.0389              1222.0654              1236.4420
 Red. masses --     3.4638                 6.4013                 8.6164
 Frc consts  --     0.0000                 0.0000                 0.0000
 IR Inten    --     5.7894                 4.1299                87.0445
 Raman Activ --     0.0000                 0.0000                 0.0000
 Depolar     --     0.0000                 0.0000                 0.0000
 Atom AN      X      Y      Z        X      Y      Z        X      Y      Z
   1   6    -0.01   0.02   0.09     0.01  -0.00   0.04     0.05   0.01   0.09
   2   6    -0.01  -0.05  -0.21    -0.02   0.00  -0.13    -0.16  -0.00  -0.28
   3   7     0.03  -0.01   0.03     0.01   0.01   0.04    -0.02   0.06   0.20
   4   6     0.00  -0.00  -0.02     0.05  -0.01  -0.05     0.26  -0.12  -0.32
   5   6     0.03   0.00  -0.02     0.01  -0.01  -0.01     0.07  -0.05  -0.08
   6   6    -0.00   0.03   0.02    -0.02  -0.01   0.01    -0.11  -0.06   0.06
   7   6    -0.01   0.00   0.01    -0.00   0.00   0.01    -0.03   0.02   0.04
   8   6    -0.03  -0.01   0.03    -0.01   0.02   0.02    -0.01   0.11   0.08
   9   6     0.01  -0.03  -0.02     0.01  -0.01  -0.01     0.05  -0.05  -0.08
  10   6    -0.01   0.08   0.03    -0.04  -0.14   0.11    -0.08   0.08   0.23
  11   6    -0.01  -0.12   0.02     0.00   0.01  -0.01    -0.09   0.04   0.16
  12   6     0.03  -0.02  -0.06    -0.07  -0.02   0.12     0.06   0.00  -0.12
  13   6     0.00  -0.03  -0.01    -0.06   0.04   0.10     0.03   0.11  -0.06
  14   6     0.00  -0.05  -0.00     0.07   0.52  -0.15    -0.03  -0.14   0.06
  15   6    -0.01  -0.07   0.02     0.05  -0.03  -0.08     0.00   0.06  -0.01
  16   6    -0.01   0.01   0.01     0.07  -0.13  -0.11    -0.03   0.01   0.05
  17   6    -0.01  -0.10   0.03    -0.03   0.02   0.05     0.06  -0.01  -0.09
  18   6    -0.02   0.09   0.03    -0.04  -0.11   0.08     0.03   0.05  -0.05
  19   6    -0.03   0.31   0.04     0.04   0.14  -0.08    -0.07  -0.27   0.11
  20   1    -0.00   0.00  -0.03     0.01   0.00  -0.00     0.01  -0.00   0.02
  21   1     0.07  -0.02   0.06     0.03  -0.00   0.03     0.05  -0.02   0.05
  22   1     0.02  -0.02  -0.01     0.00  -0.00  -0.00     0.02  -0.01   0.03
  23   1     0.11   0.01  -0.09    -0.01  -0.00  -0.00    -0.05  -0.02   0.01
  24   1    -0.03   0.11   0.09    -0.02   0.04   0.04    -0.09   0.17   0.18
  25   1     0.00   0.01   0.00    -0.00   0.00   0.00    -0.00   0.02   0.01
  26   1    -0.14  -0.01   0.11    -0.03   0.00   0.03    -0.15   0.02   0.13
  27   1     0.03  -0.12  -0.10     0.01  -0.02  -0.02     0.02  -0.00  -0.01
  28   1    -0.22  -0.16   0.44     0.06   0.03  -0.10     0.13   0.10  -0.25
  29   1     0.12  -0.22  -0.21     0.14  -0.31  -0.23     0.06  -0.07  -0.10
  30   1     0.04   0.33  -0.08    -0.05  -0.33   0.12     0.02   0.07  -0.02
  31   1    -0.00   0.01   0.00    -0.01  -0.27   0.03    -0.01  -0.07   0.02
  32   1     0.02   0.01  -0.03    -0.16  -0.13   0.28     0.04   0.03  -0.08
  33   1     0.14  -0.30  -0.24     0.01  -0.04  -0.02    -0.04   0.10   0.06
  34   1     0.00   0.11  -0.00    -0.01   0.02   0.01     0.03   0.22  -0.06
                     61                     62                     63
                        a                      a                      a 
 Frequencies --  1249.2570              1278.3252              1282.6692
 Red. masses --     5.3791                 4.3414                 8.2731
 Frc consts  --     0.0000                 0.0000                 0.0000
 IR Inten    --    12.4746                 4.1314                 3.7802
 Raman Activ --     0.0000                 0.0000                 0.0000
 Depolar     --     0.0000                 0.0000                 0.0000
 Atom AN      X      Y      Z        X      Y      Z        X      Y      Z
   1   6     0.04  -0.01   0.03     0.02   0.00  -0.02    -0.03   0.03   0.10
   2   6    -0.10   0.04  -0.07    -0.06   0.02   0.07     0.15  -0.10  -0.36
   3   7    -0.04   0.04   0.12    -0.02   0.07   0.07     0.14  -0.07  -0.13
   4   6     0.15  -0.08  -0.19    -0.13  -0.37  -0.12    -0.28   0.05   0.25
   5   6     0.04  -0.03  -0.05    -0.03   0.03   0.05    -0.11   0.03   0.11
   6   6    -0.07  -0.04   0.03    -0.03   0.12   0.10     0.10   0.11  -0.01
   7   6    -0.02   0.01   0.02     0.04   0.08   0.02     0.05   0.00  -0.04
   8   6     0.00   0.07   0.04     0.15   0.11  -0.06     0.02  -0.09  -0.07
   9   6     0.04  -0.03  -0.05     0.09  -0.06  -0.11    -0.03   0.04   0.06
  10   6    -0.03   0.02   0.09     0.04   0.00  -0.06    -0.13   0.07   0.24
  11   6    -0.01  -0.03   0.02     0.03   0.00  -0.06    -0.12  -0.04   0.24
  12   6     0.01   0.08  -0.03    -0.02  -0.02   0.03     0.06   0.05  -0.11
  13   6    -0.04  -0.06   0.08    -0.01  -0.02   0.01     0.01   0.12  -0.03
  14   6     0.11  -0.12  -0.19    -0.00   0.04  -0.00     0.02  -0.13  -0.03
  15   6    -0.04  -0.01   0.08    -0.00   0.01   0.00     0.01   0.00  -0.01
  16   6    -0.03   0.01   0.04     0.01  -0.00  -0.02    -0.05  -0.01   0.09
  17   6    -0.06   0.04   0.10     0.00   0.00  -0.01     0.00  -0.03  -0.00
  18   6    -0.06   0.00   0.10    -0.00  -0.02   0.00    -0.00   0.10   0.00
  19   6     0.17   0.15  -0.30    -0.00  -0.02   0.00     0.01  -0.02  -0.02
  20   1     0.01  -0.00   0.03    -0.01  -0.01   0.01    -0.01   0.00  -0.06
  21   1     0.00   0.01   0.00    -0.02   0.00  -0.02     0.07  -0.03   0.07
  22   1    -0.02   0.02   0.01    -0.00   0.01   0.02     0.02  -0.02  -0.05
  23   1    -0.04  -0.01   0.02     0.33   0.05  -0.25     0.18   0.03  -0.12
  24   1    -0.05   0.08   0.09     0.06  -0.20  -0.17     0.09  -0.18  -0.18
  25   1    -0.00   0.01   0.01    -0.13  -0.18  -0.00    -0.03  -0.07  -0.02
  26   1    -0.08   0.01   0.08    -0.31  -0.01   0.25     0.03  -0.02  -0.04
  27   1     0.01   0.02   0.01    -0.09   0.37   0.30    -0.02   0.03   0.03
  28   1     0.00  -0.01   0.00    -0.03  -0.03   0.07     0.13   0.09  -0.26
  29   1    -0.02   0.06   0.03    -0.02   0.03   0.04     0.09  -0.13  -0.16
  30   1    -0.03  -0.20   0.06    -0.00   0.01   0.00    -0.01  -0.11   0.02
  31   1     0.04   0.44  -0.08    -0.00  -0.04   0.01     0.02   0.12  -0.03
  32   1     0.02   0.02  -0.03    -0.02  -0.01   0.03     0.05   0.03  -0.09
  33   1     0.03  -0.07  -0.04    -0.01   0.02   0.02     0.02  -0.05  -0.04
  34   1    -0.09  -0.53   0.14     0.00   0.04  -0.01    -0.02  -0.11   0.03
                     64                     65                     66
                        a                      a                      a 
 Frequencies --  1316.9957              1337.4558              1370.5586
 Red. masses --    11.4613                 9.5725                 8.8274
 Frc consts  --     0.0000                 0.0000                 0.0000
 IR Inten    --     2.9080                 0.7839                 4.0303
 Raman Activ --     0.0000                 0.0000                 0.0000
 Depolar     --     0.0000                 0.0000                 0.0000
 Atom AN      X      Y      Z        X      Y      Z        X      Y      Z
   1   6    -0.00  -0.01  -0.00     0.01   0.02   0.02     0.03   0.01   0.08
   2   6     0.01   0.00   0.01     0.00  -0.05  -0.02     0.03  -0.03  -0.19
   3   7    -0.01  -0.00  -0.01     0.02  -0.01  -0.01     0.06  -0.03  -0.02
   4   6     0.23   0.34   0.02     0.01   0.04   0.01    -0.03   0.02   0.03
   5   6    -0.34  -0.06   0.25    -0.03   0.00   0.03    -0.03  -0.01   0.02
   6   6     0.07  -0.24  -0.21     0.02  -0.03  -0.03     0.01   0.03   0.01
   7   6     0.26   0.37   0.01     0.02   0.02  -0.00     0.01  -0.01  -0.01
   8   6    -0.26  -0.03   0.19    -0.04  -0.01   0.03    -0.01  -0.03  -0.01
   9   6     0.08  -0.33  -0.27     0.01  -0.01  -0.01    -0.01   0.03   0.03
  10   6    -0.00  -0.04   0.01     0.02   0.49  -0.08    -0.16   0.05   0.31
  11   6     0.00   0.02  -0.01    -0.01  -0.18   0.04     0.03   0.10  -0.07
  12   6    -0.00   0.02  -0.00     0.03  -0.24  -0.03     0.07   0.10  -0.13
  13   6     0.01  -0.02  -0.01    -0.08   0.21   0.13    -0.05  -0.32   0.12
  14   6    -0.01   0.00   0.02     0.11  -0.09  -0.19     0.06  -0.06  -0.11
  15   6    -0.00  -0.02   0.00     0.02   0.34  -0.06    -0.10   0.02   0.18
  16   6     0.00   0.01  -0.01    -0.04  -0.12   0.08     0.13   0.16  -0.23
  17   6    -0.01   0.01   0.01     0.09  -0.22  -0.15     0.03   0.03  -0.06
  18   6     0.01  -0.01  -0.01    -0.08   0.13   0.13    -0.09  -0.33   0.16
  19   6    -0.00   0.02   0.01     0.05  -0.19  -0.08     0.11   0.07  -0.19
  20   1     0.00   0.00  -0.00    -0.01  -0.01  -0.02    -0.03  -0.02  -0.07
  21   1     0.00   0.01  -0.00    -0.01  -0.01  -0.01    -0.04  -0.02  -0.02
  22   1    -0.01   0.00  -0.00     0.00  -0.00  -0.02    -0.01   0.01  -0.08
  23   1     0.02  -0.00  -0.02    -0.00   0.00   0.00     0.03   0.00  -0.02
  24   1     0.03  -0.09  -0.08     0.00   0.00  -0.00     0.01  -0.03  -0.03
  25   1    -0.06  -0.09  -0.00     0.01   0.01  -0.00    -0.00  -0.01  -0.01
  26   1    -0.11  -0.01   0.08     0.02  -0.00  -0.01     0.02  -0.01  -0.02
  27   1    -0.01   0.03   0.03     0.00  -0.01  -0.01     0.00  -0.03  -0.02
  28   1     0.01   0.01  -0.02    -0.13  -0.12   0.24    -0.04   0.01   0.08
  29   1     0.00   0.01  -0.00    -0.04   0.01   0.07    -0.06   0.17   0.09
  30   1     0.00   0.02  -0.01    -0.05  -0.17   0.09     0.02   0.21  -0.04
  31   1     0.00   0.00  -0.00    -0.01  -0.11   0.03    -0.04  -0.02   0.06
  32   1     0.01   0.01  -0.01    -0.09  -0.08   0.16    -0.11  -0.03   0.19
  33   1     0.01  -0.01  -0.01    -0.08   0.11   0.12    -0.10   0.21   0.17
  34   1     0.00   0.00  -0.00    -0.03   0.01   0.04     0.01   0.19  -0.02
                     67                     68                     69
                        a                      a                      a 
 Frequencies --  1374.8809              1391.0375              1417.4813
 Red. masses --     3.1975                 9.8105                 9.5064
 Frc consts  --     0.0000                 0.0000                 0.0000
 IR Inten    --    17.1178                 0.1435                 0.1708
 Raman Activ --     0.0000                 0.0000                 0.0000
 Depolar     --     0.0000                 0.0000                 0.0000
 Atom AN      X      Y      Z        X      Y      Z        X      Y      Z
   1   6     0.28   0.01   0.32     0.01   0.00   0.02     0.01  -0.01  -0.00
   2   6    -0.03   0.01   0.00    -0.00  -0.02  -0.02    -0.00   0.03   0.01
   3   7    -0.01   0.01   0.01     0.01  -0.01  -0.00    -0.01   0.00   0.00
   4   6     0.01  -0.01  -0.01    -0.00   0.00   0.00     0.02   0.02   0.00
   5   6     0.01   0.00  -0.00    -0.00  -0.00   0.00     0.02  -0.02  -0.03
   6   6    -0.00  -0.01  -0.00     0.00   0.00   0.00    -0.03   0.01   0.03
   7   6    -0.00  -0.00   0.00     0.00  -0.00  -0.00     0.01   0.02   0.00
   8   6    -0.00   0.00   0.00    -0.00  -0.00   0.00     0.03  -0.01  -0.03
   9   6     0.00  -0.00  -0.01    -0.00   0.00   0.00    -0.02  -0.01   0.02
  10   6     0.03  -0.02  -0.04    -0.03  -0.10   0.06     0.00  -0.33   0.02
  11   6    -0.01  -0.01   0.01     0.13   0.04  -0.24    -0.05   0.14   0.08
  12   6    -0.01  -0.02   0.01    -0.13   0.19   0.21     0.09   0.05  -0.17
  13   6     0.01   0.04  -0.03    -0.01  -0.12   0.02    -0.05  -0.26   0.10
  14   6    -0.03   0.02   0.05     0.25  -0.12  -0.45     0.08  -0.11  -0.14
  15   6     0.02  -0.02  -0.03    -0.02   0.02   0.04     0.04   0.42  -0.09
  16   6    -0.01  -0.02   0.02    -0.11   0.02   0.19     0.03  -0.17  -0.04
  17   6    -0.01   0.01   0.02     0.10  -0.07  -0.17    -0.03  -0.23   0.06
  18   6     0.01   0.04  -0.03     0.02  -0.00  -0.04     0.01   0.39  -0.03
  19   6    -0.01  -0.02   0.01    -0.23   0.08   0.40    -0.08   0.14   0.14
  20   1    -0.29  -0.20  -0.38    -0.01  -0.01  -0.02    -0.01  -0.01  -0.00
  21   1    -0.43  -0.04  -0.25    -0.02  -0.01  -0.01     0.00   0.02   0.00
  22   1    -0.23   0.19  -0.44     0.00  -0.00  -0.02    -0.03   0.02   0.01
  23   1    -0.00   0.00   0.00     0.00   0.00  -0.00    -0.02  -0.01   0.01
  24   1    -0.00   0.01   0.01     0.00  -0.00  -0.00    -0.00  -0.02  -0.01
  25   1     0.00   0.00   0.00     0.00  -0.00  -0.00    -0.02  -0.03   0.00
  26   1    -0.00   0.00   0.00     0.00  -0.00  -0.00    -0.03  -0.01   0.02
  27   1     0.00  -0.00  -0.00     0.00  -0.00  -0.00    -0.01  -0.01   0.00
  28   1     0.01   0.00  -0.01    -0.01  -0.02   0.04     0.06   0.08  -0.12
  29   1     0.01  -0.02  -0.01     0.02  -0.05  -0.03    -0.05   0.15   0.07
  30   1     0.00  -0.01   0.00    -0.02  -0.22   0.05     0.01   0.17  -0.03
  31   1     0.00  -0.01  -0.01     0.02   0.26  -0.05    -0.02  -0.22   0.05
  32   1     0.02   0.00  -0.03     0.03   0.04  -0.05    -0.09  -0.11   0.16
  33   1     0.02  -0.04  -0.03    -0.01   0.06   0.02     0.02  -0.12  -0.02
  34   1     0.01  -0.02   0.01     0.04   0.24  -0.06    -0.03  -0.16   0.05
                     70                     71                     72
                        a                      a                      a 
 Frequencies --  1434.0534              1451.8888              1460.9743
 Red. masses --     8.9685                 9.7348                 2.0126
 Frc consts  --     0.0000                 0.0000                 0.0000
 IR Inten    --     4.8371                 5.7413                 3.3446
 Raman Activ --     0.0000                 0.0000                 0.0000
 Depolar     --     0.0000                 0.0000                 0.0000
 Atom AN      X      Y      Z        X      Y      Z        X      Y      Z
   1   6     0.00   0.00  -0.00    -0.01   0.02   0.01    -0.01  -0.22   0.07
   2   6    -0.01   0.01   0.02    -0.00  -0.01  -0.08    -0.02  -0.03  -0.01
   3   7    -0.02  -0.04  -0.01     0.03  -0.01   0.00    -0.02   0.01   0.02
   4   6     0.21   0.30   0.02     0.04  -0.03  -0.05     0.07  -0.03  -0.07
   5   6     0.09  -0.21  -0.22    -0.07  -0.03   0.04    -0.05  -0.04   0.02
   6   6    -0.24   0.12   0.28     0.01   0.06   0.03    -0.01   0.07   0.05
   7   6     0.15   0.22   0.01     0.03  -0.02  -0.04     0.04  -0.01  -0.04
   8   6     0.22  -0.16  -0.28    -0.06  -0.03   0.03    -0.05  -0.04   0.02
   9   6    -0.24  -0.00   0.20     0.00   0.07   0.04    -0.01   0.07   0.05
  10   6     0.00   0.04  -0.01    -0.12   0.08   0.23     0.00   0.01   0.00
  11   6     0.01  -0.01  -0.02     0.07   0.19  -0.14     0.00  -0.00  -0.01
  12   6    -0.01  -0.02   0.01     0.08  -0.21  -0.14    -0.00  -0.01   0.00
  13   6     0.00   0.04  -0.01    -0.10  -0.11   0.18    -0.00   0.01  -0.00
  14   6    -0.01   0.01   0.01     0.07   0.38  -0.14    -0.00   0.01   0.01
  15   6     0.00  -0.04   0.00     0.06  -0.06  -0.11     0.00  -0.01  -0.01
  16   6    -0.01   0.01   0.02    -0.08  -0.17   0.15    -0.01   0.00   0.01
  17   6     0.01   0.02  -0.01    -0.07   0.25   0.11     0.01  -0.00  -0.01
  18   6    -0.00  -0.03   0.00     0.08   0.02  -0.14    -0.00  -0.00   0.00
  19   6     0.01  -0.02  -0.01    -0.05  -0.36   0.09     0.00   0.00  -0.00
  20   1    -0.00  -0.00   0.02     0.03   0.02   0.02     0.18   0.09  -0.48
  21   1    -0.01  -0.03  -0.00    -0.01  -0.05   0.00    -0.02   0.70  -0.07
  22   1     0.00  -0.00  -0.03     0.04  -0.04  -0.03    -0.07   0.06   0.35
  23   1    -0.12  -0.08   0.05     0.05   0.00  -0.04     0.04  -0.00  -0.04
  24   1    -0.01  -0.19  -0.11     0.02  -0.04  -0.04     0.02  -0.04  -0.04
  25   1    -0.20  -0.30  -0.01     0.01  -0.00  -0.01     0.00  -0.02  -0.01
  26   1    -0.18  -0.08   0.11     0.05  -0.00  -0.04     0.04  -0.01  -0.03
  27   1    -0.03  -0.13  -0.06     0.02  -0.04  -0.04     0.02  -0.05  -0.04
  28   1    -0.01  -0.01   0.02    -0.08  -0.00   0.15    -0.00  -0.00   0.00
  29   1     0.00  -0.01  -0.00    -0.09   0.14   0.15    -0.00  -0.00   0.00
  30   1    -0.00  -0.02   0.01    -0.01   0.13   0.01    -0.00  -0.00   0.00
  31   1     0.00   0.02  -0.01     0.03   0.04  -0.05     0.00   0.00  -0.00
  32   1     0.01   0.01  -0.02     0.09   0.01  -0.15     0.00   0.00  -0.01
  33   1    -0.00   0.01   0.00     0.09  -0.12  -0.14     0.00   0.00  -0.00
  34   1     0.00   0.01  -0.00     0.01  -0.09  -0.02    -0.00   0.01  -0.00
                     73                     74                     75
                        a                      a                      a 
 Frequencies --  1465.0170              1468.6229              1506.8731
 Red. masses --     2.5610                 7.8747                10.8142
 Frc consts  --     0.0000                 0.0000                 0.0000
 IR Inten    --     6.0320                34.6303                 0.4963
 Raman Activ --     0.0000                 0.0000                 0.0000
 Depolar     --     0.0000                 0.0000                 0.0000
 Atom AN      X      Y      Z        X      Y      Z        X      Y      Z
   1   6    -0.14   0.03   0.16     0.03  -0.06  -0.04     0.00   0.00  -0.00
   2   6     0.04  -0.02  -0.00     0.08  -0.04  -0.07    -0.01   0.03   0.05
   3   7    -0.05   0.01  -0.02     0.06  -0.04  -0.07    -0.03   0.01   0.01
   4   6    -0.09   0.04   0.10    -0.24   0.15   0.29     0.02  -0.02  -0.02
   5   6     0.10   0.05  -0.05     0.23   0.12  -0.12    -0.01  -0.01   0.01
   6   6    -0.00  -0.11  -0.06    -0.01  -0.25  -0.15    -0.00   0.02   0.01
   7   6    -0.06   0.03   0.07    -0.13   0.07   0.16     0.00  -0.01  -0.01
   8   6     0.10   0.05  -0.06     0.24   0.11  -0.14    -0.02   0.00   0.01
   9   6    -0.01  -0.11  -0.06    -0.02  -0.25  -0.13     0.01   0.01  -0.00
  10   6    -0.00  -0.01   0.01    -0.04   0.04   0.07     0.08  -0.19  -0.14
  11   6    -0.00   0.01   0.01     0.00   0.04  -0.00    -0.13   0.03   0.24
  12   6     0.01  -0.00  -0.01     0.03  -0.06  -0.06     0.14  -0.20  -0.24
  13   6    -0.00  -0.01   0.01    -0.03  -0.03   0.06    -0.08  -0.00   0.14
  14   6     0.00   0.01  -0.00     0.03   0.10  -0.05     0.01   0.27  -0.03
  15   6     0.00   0.01  -0.01     0.01  -0.03  -0.02     0.07  -0.17  -0.11
  16   6    -0.00  -0.01   0.01    -0.03  -0.03   0.05    -0.20   0.01   0.35
  17   6    -0.00  -0.00   0.00    -0.00   0.05  -0.00     0.19  -0.18  -0.31
  18   6     0.00   0.01  -0.00     0.01  -0.03  -0.01    -0.10  -0.10   0.17
  19   6     0.00   0.00  -0.00    -0.01  -0.06   0.02     0.04   0.31  -0.08
  20   1     0.46   0.29  -0.19    -0.15  -0.10  -0.05    -0.00  -0.00   0.01
  21   1    -0.31  -0.03  -0.17     0.13   0.17   0.06    -0.01  -0.02  -0.01
  22   1     0.42  -0.37  -0.22    -0.18   0.16   0.15     0.00  -0.00  -0.02
  23   1    -0.07   0.00   0.06    -0.17   0.01   0.15     0.01  -0.00  -0.01
  24   1    -0.03   0.07   0.07    -0.07   0.15   0.15     0.00  -0.01  -0.01
  25   1    -0.01   0.01   0.02    -0.04   0.03   0.05     0.01   0.00  -0.00
  26   1    -0.07   0.00   0.06    -0.17   0.01   0.15     0.01   0.00  -0.01
  27   1    -0.04   0.07   0.07    -0.08   0.15   0.15     0.00  -0.00  -0.00
  28   1     0.00   0.00  -0.01    -0.02   0.00   0.03     0.03   0.05  -0.07
  29   1    -0.00   0.01   0.00    -0.02   0.04   0.03    -0.04   0.09   0.06
  30   1    -0.00   0.01  -0.00    -0.00   0.03   0.01    -0.01   0.09   0.02
  31   1     0.00  -0.00  -0.00     0.01   0.03  -0.01     0.03   0.11  -0.06
  32   1     0.00  -0.00  -0.00     0.02   0.01  -0.04     0.06   0.07  -0.11
  33   1     0.00  -0.00  -0.00     0.01  -0.01  -0.02    -0.04   0.12   0.07
  34   1    -0.01  -0.02  -0.00     0.01   0.01  -0.01    -0.00   0.14   0.01
                     76                     77                     78
                        a                      a                      a 
 Frequencies --  1564.8358              1570.6627              1595.1599
 Red. masses --    11.7019                11.4457                11.4587
 Frc consts  --     0.0000                 0.0000                 0.0000
 IR Inten    --     0.0651                 2.6942                88.6432
 Raman Activ --     0.0000                 0.0000                 0.0000
 Depolar     --     0.0000                 0.0000                 0.0000
 Atom AN      X      Y      Z        X      Y      Z        X      Y      Z
   1   6    -0.00   0.00  -0.00     0.00   0.00  -0.00    -0.00  -0.00   0.00
   2   6     0.02  -0.00  -0.04     0.00  -0.00  -0.01    -0.03   0.00  -0.01
   3   7     0.01  -0.01  -0.01     0.01   0.02   0.00     0.05  -0.02  -0.01
   4   6     0.02   0.05   0.01    -0.24  -0.36  -0.02    -0.16   0.07   0.16
   5   6    -0.04  -0.01   0.02     0.22   0.16  -0.08     0.32  -0.06  -0.31
   6   6     0.02   0.03   0.00    -0.10  -0.32  -0.11    -0.19   0.26   0.32
   7   6    -0.05  -0.06   0.00     0.31   0.48   0.03     0.14  -0.05  -0.15
   8   6     0.04   0.03  -0.02    -0.21  -0.22   0.04    -0.35   0.04   0.31
   9   6    -0.01  -0.03  -0.01     0.04   0.30   0.15     0.19  -0.23  -0.29
  10   6    -0.13  -0.08   0.25    -0.01   0.00   0.02     0.02   0.08  -0.04
  11   6     0.18   0.09  -0.34     0.01  -0.00  -0.02    -0.02  -0.06   0.05
  12   6    -0.14   0.20   0.23    -0.02   0.05   0.03    -0.02   0.10   0.02
  13   6     0.07  -0.14  -0.11     0.01  -0.06  -0.01     0.00  -0.13   0.00
  14   6    -0.17   0.06   0.31    -0.02   0.03   0.03     0.00   0.05  -0.01
  15   6     0.09   0.10  -0.16     0.01   0.01  -0.02     0.01   0.01  -0.02
  16   6    -0.16  -0.07   0.27    -0.02  -0.01   0.04    -0.02  -0.02   0.03
  17   6     0.13  -0.23  -0.21     0.02  -0.03  -0.03     0.00   0.01  -0.00
  18   6    -0.06   0.19   0.10    -0.01   0.03   0.01     0.00  -0.01  -0.00
  19   6     0.17  -0.10  -0.30     0.02  -0.02  -0.04     0.01  -0.05  -0.01
  20   1    -0.00  -0.00   0.01    -0.00  -0.00   0.00     0.01   0.00  -0.01
  21   1     0.01  -0.00   0.01     0.00  -0.00   0.00    -0.01   0.01  -0.00
  22   1    -0.00   0.00  -0.00     0.00   0.00   0.00     0.00  -0.00   0.00
  23   1     0.01  -0.00  -0.01    -0.05   0.03   0.06    -0.08  -0.04   0.05
  24   1     0.01   0.00  -0.00    -0.06   0.02   0.06     0.00  -0.09  -0.06
  25   1     0.01   0.02   0.00    -0.09  -0.12  -0.00     0.03  -0.03  -0.04
  26   1    -0.01   0.01   0.01     0.02  -0.05  -0.05     0.09   0.03  -0.06
  27   1    -0.01   0.01   0.01     0.05  -0.05  -0.07     0.01   0.08   0.04
  28   1    -0.04  -0.02   0.07     0.00  -0.00  -0.00     0.01  -0.00  -0.03
  29   1     0.02  -0.04  -0.03     0.01  -0.00  -0.01     0.01  -0.00  -0.02
  30   1     0.02   0.02  -0.04     0.00   0.01  -0.01     0.01   0.03  -0.02
  31   1     0.01  -0.05  -0.02     0.00  -0.01  -0.00     0.00  -0.00  -0.00
  32   1     0.03   0.01  -0.04     0.00   0.00  -0.01     0.01  -0.00  -0.01
  33   1    -0.02   0.04   0.04    -0.00   0.00   0.00     0.00  -0.00  -0.00
  34   1    -0.03  -0.04   0.04    -0.00  -0.00   0.01     0.00  -0.00  -0.00
                     79                     80                     81
                        a                      a                      a 
 Frequencies --  1596.9936              1608.7376              1740.6004
 Red. masses --    11.4452                11.3952                12.8157
 Frc consts  --     0.0000                 0.0000                 0.0000
 IR Inten    --     3.7773                 0.0504               295.5312
 Raman Activ --     0.0000                 0.0000                 0.0000
 Depolar     --     0.0000                 0.0000                 0.0000
 Atom AN      X      Y      Z        X      Y      Z        X      Y      Z
   1   6     0.00   0.00  -0.00     0.00  -0.00   0.00    -0.03   0.01  -0.02
   2   6    -0.00  -0.02   0.04    -0.00   0.00   0.00     0.69  -0.23  -0.01
   3   7    -0.03   0.01   0.00    -0.00   0.00   0.00    -0.62   0.22   0.08
   4   6     0.06   0.01  -0.04     0.01  -0.00  -0.01     0.04  -0.04  -0.07
   5   6    -0.09   0.00   0.08    -0.01   0.00   0.01     0.04  -0.01  -0.03
   6   6     0.05  -0.04  -0.06     0.00  -0.01  -0.01    -0.02   0.02   0.03
   7   6    -0.05  -0.02   0.03    -0.00   0.00   0.00     0.01  -0.01  -0.01
   8   6     0.09   0.00  -0.08     0.01  -0.00  -0.01    -0.02   0.01   0.02
   9   6    -0.05   0.03   0.06    -0.01   0.01   0.01     0.01  -0.02  -0.03
  10   6     0.11   0.34  -0.23     0.02  -0.00  -0.03    -0.04   0.02   0.04
  11   6    -0.13  -0.27   0.26    -0.01  -0.04   0.02     0.00  -0.00   0.01
  12   6    -0.06   0.40   0.07    -0.01   0.05   0.02     0.01  -0.00  -0.00
  13   6     0.00  -0.53   0.03     0.02  -0.01  -0.03    -0.00   0.00   0.00
  14   6     0.03   0.23  -0.06    -0.01  -0.23   0.03     0.01  -0.00  -0.01
  15   6     0.02  -0.01  -0.04     0.10   0.46  -0.20    -0.00   0.00   0.00
  16   6    -0.03  -0.04   0.06    -0.13  -0.30   0.24     0.00  -0.00  -0.00
  17   6     0.01   0.01  -0.02    -0.05   0.39   0.08    -0.00   0.00   0.00
  18   6     0.01   0.02  -0.01    -0.00  -0.49   0.02    -0.00  -0.00  -0.00
  19   6     0.00  -0.18  -0.00     0.04   0.20  -0.08    -0.00   0.00   0.01
  20   1    -0.00  -0.00  -0.00    -0.00  -0.00   0.00    -0.04  -0.03  -0.03
  21   1    -0.00   0.00  -0.00    -0.00  -0.00   0.00     0.03  -0.01   0.02
  22   1     0.00   0.00   0.01    -0.00   0.00  -0.00    -0.03   0.03  -0.02
  23   1     0.02   0.01  -0.02     0.00   0.00  -0.00    -0.01  -0.01   0.00
  24   1     0.00   0.02   0.01    -0.00   0.00   0.00    -0.00  -0.01  -0.00
  25   1    -0.00   0.01   0.01    -0.00   0.00   0.00     0.00  -0.00  -0.00
  26   1    -0.02  -0.00   0.02    -0.00  -0.00   0.00     0.00   0.00  -0.00
  27   1    -0.00  -0.02  -0.01     0.00  -0.00  -0.00     0.01   0.01   0.01
  28   1     0.06  -0.02  -0.12     0.01  -0.00  -0.02    -0.00  -0.00  -0.00
  29   1     0.05  -0.02  -0.10     0.01  -0.01  -0.02    -0.00  -0.00  -0.00
  30   1     0.03   0.11  -0.06     0.00  -0.02  -0.01    -0.00   0.00  -0.00
  31   1     0.01   0.01  -0.01     0.01  -0.12  -0.00     0.00  -0.00   0.00
  32   1     0.01   0.00  -0.02     0.06  -0.03  -0.10    -0.00  -0.00   0.00
  33   1     0.01  -0.00  -0.01     0.06  -0.03  -0.10     0.00  -0.00  -0.00
  34   1    -0.00  -0.02  -0.00     0.03   0.10  -0.05     0.00  -0.00   0.00
                     82                     83                     84
                        a                      a                      a 
 Frequencies --  2999.6938              3025.3142              3030.1138
 Red. masses --     1.8358                 1.4066                 1.8987
 Frc consts  --     0.0000                 0.0000                 0.0000
 IR Inten    --    10.2041                12.4109                30.6293
 Raman Activ --     0.0000                 0.0000                 0.0000
 Depolar     --     0.0000                 0.0000                 0.0000
 Atom AN      X      Y      Z        X      Y      Z        X      Y      Z
   1   6     0.14   0.23  -0.03    -0.03  -0.05   0.18     0.21  -0.17  -0.11
   2   6     0.01   0.00   0.00     0.00  -0.00   0.01     0.01  -0.01  -0.00
   3   7    -0.00   0.00   0.00    -0.00   0.00  -0.00    -0.00   0.00   0.00
   4   6    -0.00   0.00   0.00     0.00  -0.00  -0.00    -0.00   0.00   0.00
   5   6    -0.00  -0.00  -0.00     0.00   0.00   0.00     0.00   0.00   0.00
   6   6    -0.00   0.00   0.00    -0.00  -0.00   0.00     0.00   0.00  -0.00
   7   6    -0.00  -0.00   0.00    -0.00   0.00   0.00     0.00  -0.00  -0.00
   8   6     0.00  -0.00  -0.00     0.00   0.00   0.00    -0.00  -0.00  -0.00
   9   6    -0.00  -0.00   0.00    -0.00  -0.00   0.00     0.00   0.00  -0.00
  10   6    -0.00   0.00  -0.00     0.00  -0.00  -0.00    -0.00   0.00   0.00
  11   6     0.00  -0.00  -0.00    -0.00   0.00   0.00    -0.00  -0.00   0.00
  12   6     0.00   0.00  -0.00    -0.00  -0.00   0.00     0.00   0.00  -0.00
  13   6     0.00  -0.00  -0.00    -0.00   0.00   0.00     0.00  -0.00  -0.00
  14   6     0.00  -0.00  -0.00    -0.00   0.00   0.00    -0.00   0.00   0.00
  15   6    -0.00   0.00   0.00    -0.00   0.00   0.00     0.00  -0.00  -0.00
  16   6    -0.00   0.00   0.00     0.00   0.00  -0.00     0.00  -0.00  -0.00
  17   6    -0.00  -0.00   0.00     0.00   0.00  -0.00    -0.00  -0.00   0.00
  18   6    -0.00   0.00   0.00    -0.00   0.00   0.00     0.00  -0.00  -0.00
  19   6     0.00   0.00  -0.00    -0.00   0.00   0.00    -0.00   0.00  -0.00
  20   1     0.14  -0.15  -0.01    -0.24   0.38   0.02    -0.42   0.71  -0.01
  21   1    -0.03   0.04   0.07     0.47  -0.07  -0.71    -0.23   0.01   0.39
  22   1    -0.60  -0.71   0.05    -0.12  -0.14   0.03    -0.07  -0.14  -0.01
  23   1     0.00   0.00   0.00    -0.00  -0.00  -0.00    -0.00  -0.00  -0.00
  24   1    -0.00  -0.00   0.00     0.00   0.00  -0.00    -0.00  -0.00   0.00
  25   1    -0.00  -0.00   0.00     0.00  -0.00  -0.00    -0.00   0.00   0.00
  26   1    -0.00  -0.00  -0.00    -0.00  -0.00  -0.00     0.00   0.00   0.00
  27   1     0.01   0.01  -0.01     0.01   0.01  -0.01    -0.02  -0.01   0.01
  28   1    -0.00   0.01   0.00     0.00  -0.00  -0.00    -0.00   0.00  -0.00
  29   1    -0.00  -0.00   0.00     0.00   0.00  -0.00    -0.00  -0.00   0.00
  30   1     0.00  -0.00  -0.00     0.00  -0.00  -0.00    -0.00   0.00   0.00
  31   1     0.00  -0.00  -0.00     0.00  -0.00  -0.00    -0.00   0.00   0.00
  32   1     0.00  -0.00  -0.00     0.00  -0.00  -0.00    -0.00   0.00   0.00
  33   1     0.00   0.00  -0.00    -0.00  -0.00   0.00     0.00   0.01  -0.00
  34   1     0.00  -0.00  -0.01     0.00   0.00  -0.00    -0.01   0.00   0.01
                     85                     86                     87
                        a                      a                      a 
 Frequencies --  3062.6136              3066.1523              3066.3824
 Red. masses --     1.7576                 1.7737                 1.7699
 Frc consts  --     0.0000                 0.0000                 0.0000
 IR Inten    --    14.9184                 4.7416                 8.2288
 Raman Activ --     0.0000                 0.0000                 0.0000
 Depolar     --     0.0000                 0.0000                 0.0000
 Atom AN      X      Y      Z        X      Y      Z        X      Y      Z
   1   6    -0.00   0.00   0.00     0.00  -0.00  -0.00    -0.00   0.00   0.00
   2   6    -0.00   0.00   0.00     0.00  -0.00  -0.00     0.00   0.00   0.00
   3   7    -0.00  -0.00  -0.00    -0.00   0.00   0.00    -0.00  -0.00   0.00
   4   6     0.01   0.00  -0.00     0.00   0.00  -0.00     0.00   0.00   0.00
   5   6     0.00   0.00   0.00     0.00   0.00   0.00     0.02   0.08   0.04
   6   6     0.01   0.01  -0.00    -0.01  -0.01   0.00    -0.18  -0.12   0.07
   7   6    -0.04   0.02   0.05     0.00  -0.00  -0.00     0.05  -0.04  -0.06
   8   6    -0.04  -0.19  -0.08    -0.00  -0.00  -0.00    -0.00  -0.02  -0.01
   9   6     0.11   0.07  -0.05     0.00   0.00  -0.00     0.04   0.03  -0.02
  10   6     0.00  -0.00  -0.00    -0.00   0.00   0.00    -0.00   0.00  -0.00
  11   6     0.00  -0.00  -0.00    -0.00   0.01   0.00     0.00  -0.00  -0.00
  12   6     0.00   0.00  -0.00    -0.01  -0.03   0.03     0.00   0.00  -0.00
  13   6     0.00  -0.00  -0.00     0.05  -0.03  -0.08    -0.00   0.00   0.01
  14   6     0.00   0.00  -0.00    -0.00  -0.00   0.00     0.00   0.00  -0.00
  15   6     0.00  -0.00  -0.00    -0.10   0.05   0.17     0.01  -0.00  -0.01
  16   6    -0.00   0.00   0.00     0.02  -0.11  -0.02    -0.00   0.01   0.00
  17   6    -0.00  -0.00   0.00     0.02   0.03  -0.03    -0.00  -0.00   0.00
  18   6     0.00  -0.00  -0.00    -0.01   0.01   0.01     0.00  -0.00  -0.00
  19   6     0.00   0.00  -0.00     0.00   0.00  -0.00    -0.00  -0.00   0.00
  20   1     0.00  -0.01   0.00    -0.00   0.00  -0.00     0.00  -0.00  -0.00
  21   1     0.01  -0.00  -0.01    -0.00   0.00   0.00     0.00   0.00  -0.00
  22   1    -0.01  -0.01   0.00    -0.00  -0.00  -0.00    -0.00  -0.00   0.00
  23   1    -0.00  -0.01  -0.00    -0.00  -0.02  -0.01    -0.07  -0.30  -0.13
  24   1    -0.06  -0.04   0.02     0.04   0.02  -0.01     0.64   0.43  -0.27
  25   1     0.15  -0.10  -0.19    -0.01   0.01   0.01    -0.20   0.13   0.24
  26   1     0.15   0.68   0.29     0.00   0.01   0.00     0.01   0.05   0.02
  27   1    -0.42  -0.28   0.18    -0.01  -0.01   0.01    -0.15  -0.10   0.06
  28   1    -0.00   0.01   0.00     0.01  -0.06  -0.01    -0.00   0.01   0.00
  29   1    -0.00  -0.00   0.00     0.05   0.13  -0.11    -0.00  -0.01   0.01
  30   1    -0.00   0.00   0.00    -0.17   0.09   0.29     0.01  -0.01  -0.02
  31   1    -0.00   0.00   0.00     0.36  -0.18  -0.62    -0.02   0.01   0.03
  32   1     0.00  -0.00  -0.00    -0.06   0.42   0.09     0.00  -0.02  -0.01
  33   1     0.00   0.00  -0.00    -0.06  -0.13   0.11     0.00   0.00  -0.00
  34   1    -0.00   0.00   0.00     0.03  -0.02  -0.05    -0.00   0.00   0.00
                     88                     89                     90
                        a                      a                      a 
 Frequencies --  3069.2060              3071.0451              3073.7474
 Red. masses --     1.7582                 1.7782                 1.8491
 Frc consts  --     0.0000                 0.0000                 0.0000
 IR Inten    --     5.7774                 8.6932                94.8323
 Raman Activ --     0.0000                 0.0000                 0.0000
 Depolar     --     0.0000                 0.0000                 0.0000
 Atom AN      X      Y      Z        X      Y      Z        X      Y      Z
   1   6    -0.00   0.00   0.00     0.00  -0.00  -0.00     0.00  -0.00  -0.00
   2   6    -0.00   0.00   0.00     0.00  -0.00  -0.00    -0.00  -0.00  -0.00
   3   7     0.00  -0.00  -0.00     0.00   0.00  -0.00     0.00  -0.00  -0.00
   4   6    -0.00   0.00   0.00     0.00   0.00  -0.00    -0.01   0.00   0.01
   5   6     0.00   0.00   0.00    -0.00  -0.00  -0.00     0.01   0.04   0.01
   6   6    -0.00  -0.00   0.00    -0.00  -0.00   0.00    -0.05  -0.04   0.02
   7   6     0.00  -0.00  -0.00    -0.00   0.00   0.00    -0.06   0.04   0.08
   8   6    -0.00  -0.00  -0.00    -0.00  -0.00  -0.00    -0.02  -0.11  -0.05
   9   6    -0.00  -0.00   0.00    -0.00  -0.00   0.00    -0.16  -0.11   0.07
  10   6    -0.00   0.00   0.00    -0.00   0.00   0.00    -0.00   0.00   0.00
  11   6    -0.01   0.06   0.01    -0.01   0.04   0.01    -0.00   0.01   0.00
  12   6    -0.04  -0.09   0.08    -0.02  -0.04   0.04    -0.00  -0.00   0.00
  13   6     0.08  -0.05  -0.15     0.02  -0.01  -0.04    -0.00   0.00   0.01
  14   6     0.00  -0.00  -0.01     0.00  -0.00  -0.01    -0.00   0.00   0.00
  15   6     0.02  -0.01  -0.04     0.05  -0.03  -0.09    -0.00   0.00   0.00
  16   6    -0.01   0.07   0.02     0.00  -0.01  -0.01     0.00  -0.00  -0.00
  17   6    -0.03  -0.06   0.05     0.06   0.12  -0.10    -0.00  -0.00   0.00
  18   6     0.03  -0.02  -0.05    -0.07   0.04   0.12     0.00  -0.00  -0.00
  19   6     0.00  -0.00  -0.00    -0.00   0.00   0.00     0.00  -0.00  -0.00
  20   1     0.00  -0.00   0.00    -0.01   0.01  -0.00    -0.01   0.01  -0.00
  21   1     0.00  -0.00  -0.00    -0.00   0.00   0.01    -0.01  -0.00   0.01
  22   1    -0.00  -0.00   0.00     0.00   0.00  -0.00     0.01   0.01  -0.00
  23   1    -0.00  -0.01  -0.00     0.00   0.00   0.00    -0.03  -0.14  -0.06
  24   1     0.01   0.00  -0.00     0.00   0.00  -0.00     0.19   0.12  -0.08
  25   1    -0.00   0.00   0.00     0.00  -0.00  -0.00     0.22  -0.14  -0.27
  26   1     0.00   0.01   0.00     0.00   0.01   0.00     0.08   0.37   0.16
  27   1     0.00   0.00  -0.00     0.00   0.00  -0.00     0.57   0.38  -0.25
  28   1     0.03  -0.21  -0.05     0.02  -0.15  -0.03     0.01  -0.04  -0.01
  29   1     0.15   0.35  -0.30     0.07   0.16  -0.14     0.00   0.00  -0.00
  30   1    -0.31   0.16   0.54    -0.09   0.05   0.15     0.02  -0.01  -0.03
  31   1    -0.09   0.04   0.15    -0.18   0.09   0.32     0.00  -0.00  -0.01
  32   1     0.04  -0.26  -0.06    -0.01   0.06   0.01    -0.00   0.01   0.00
  33   1     0.10   0.22  -0.18    -0.21  -0.45   0.37     0.00   0.00  -0.00
  34   1    -0.11   0.06   0.18     0.27  -0.13  -0.45    -0.00   0.00   0.01
                     91                     92                     93
                        a                      a                      a 
 Frequencies --  3075.3747              3079.2177              3080.2892
 Red. masses --     1.8214                 1.8583                 1.8555
 Frc consts  --     0.0000                 0.0000                 0.0000
 IR Inten    --    42.6234               100.0494               130.7137
 Raman Activ --     0.0000                 0.0000                 0.0000
 Depolar     --     0.0000                 0.0000                 0.0000
 Atom AN      X      Y      Z        X      Y      Z        X      Y      Z
   1   6    -0.00  -0.00   0.00     0.00  -0.00  -0.00     0.00   0.00  -0.00
   2   6     0.00  -0.00   0.00     0.00  -0.00  -0.00     0.00   0.00  -0.00
   3   7    -0.00   0.00  -0.00    -0.00   0.00   0.00    -0.00  -0.00  -0.00
   4   6    -0.00   0.00   0.00     0.00  -0.00  -0.00    -0.00   0.00   0.00
   5   6     0.00  -0.00  -0.00    -0.00  -0.01  -0.01     0.04   0.19   0.08
   6   6    -0.00  -0.00   0.00    -0.00  -0.00   0.00     0.03   0.02  -0.01
   7   6    -0.00   0.00   0.00     0.00  -0.00  -0.00    -0.08   0.05   0.10
   8   6    -0.00  -0.01  -0.00    -0.00  -0.00  -0.00     0.02   0.08   0.04
   9   6    -0.01  -0.01   0.00    -0.00  -0.00   0.00     0.04   0.03  -0.02
  10   6     0.00  -0.00  -0.01    -0.00  -0.00   0.00    -0.00  -0.00   0.00
  11   6     0.03  -0.21  -0.04    -0.00   0.01   0.00     0.00  -0.00  -0.00
  12   6     0.02   0.06  -0.05     0.00   0.01  -0.01     0.00   0.00  -0.00
  13   6     0.07  -0.03  -0.11    -0.00   0.00   0.01     0.00  -0.00  -0.00
  14   6     0.00  -0.00  -0.00    -0.00  -0.00   0.00    -0.00  -0.00   0.00
  15   6     0.01  -0.00  -0.02    -0.05   0.03   0.09    -0.00   0.00   0.01
  16   6    -0.00   0.02   0.00    -0.02   0.16   0.03    -0.00   0.01   0.00
  17   6     0.00   0.01  -0.01    -0.02  -0.05   0.04    -0.00  -0.00   0.00
  18   6    -0.01   0.00   0.02    -0.09   0.04   0.15    -0.00   0.00   0.01
  19   6    -0.00   0.00   0.00    -0.00   0.00   0.00    -0.00   0.00   0.00
  20   1    -0.00   0.00  -0.00    -0.00   0.01  -0.00     0.00  -0.00  -0.00
  21   1     0.00  -0.00  -0.00    -0.00   0.00   0.01    -0.00   0.00   0.00
  22   1     0.00   0.01   0.00     0.00   0.00  -0.00    -0.00  -0.00   0.00
  23   1    -0.00   0.00   0.00     0.01   0.04   0.02    -0.15  -0.67  -0.29
  24   1     0.01   0.01  -0.01     0.01   0.01  -0.00    -0.11  -0.07   0.05
  25   1     0.01  -0.01  -0.01    -0.01   0.00   0.01     0.27  -0.17  -0.33
  26   1     0.00   0.02   0.01     0.00   0.01   0.01    -0.06  -0.28  -0.12
  27   1     0.04   0.03  -0.02     0.01   0.00  -0.00    -0.14  -0.09   0.06
  28   1    -0.12   0.75   0.16     0.01  -0.05  -0.01    -0.00   0.00   0.00
  29   1    -0.09  -0.20   0.17    -0.01  -0.03   0.02    -0.00  -0.00   0.00
  30   1    -0.23   0.12   0.40     0.02  -0.01  -0.03    -0.00   0.00   0.00
  31   1    -0.03   0.02   0.06     0.18  -0.09  -0.31     0.01  -0.01  -0.02
  32   1     0.01  -0.06  -0.01     0.08  -0.55  -0.12     0.01  -0.04  -0.01
  33   1    -0.02  -0.03   0.03     0.09   0.18  -0.15     0.00   0.00  -0.00
  34   1     0.04  -0.02  -0.06     0.32  -0.15  -0.51     0.02  -0.01  -0.03
                     94                     95                     96
                        a                      a                      a 
 Frequencies --  3085.9184              3087.8634              3088.5640
 Red. masses --     1.9054                 1.9146                 1.9125
 Frc consts  --     0.0000                 0.0000                 0.0000
 IR Inten    --   162.4165                65.0474                13.3992
 Raman Activ --     0.0000                 0.0000                 0.0000
 Depolar     --     0.0000                 0.0000                 0.0000
 Atom AN      X      Y      Z        X      Y      Z        X      Y      Z
   1   6    -0.00   0.00   0.00     0.00  -0.00   0.00    -0.00   0.00   0.00
   2   6    -0.00   0.00   0.00     0.00  -0.00   0.00    -0.00   0.00   0.00
   3   7     0.00  -0.00  -0.00    -0.00   0.00   0.00     0.00  -0.00  -0.00
   4   6    -0.00   0.00   0.00     0.00  -0.00  -0.01     0.00  -0.00  -0.00
   5   6     0.00   0.01   0.00    -0.02  -0.12  -0.05    -0.01  -0.04  -0.02
   6   6     0.01   0.01  -0.00    -0.10  -0.07   0.04    -0.03  -0.02   0.01
   7   6     0.01  -0.01  -0.01    -0.10   0.07   0.12    -0.03   0.02   0.04
   8   6    -0.00  -0.01  -0.00     0.02   0.08   0.03     0.01   0.03   0.01
   9   6    -0.00  -0.00   0.00     0.04   0.03  -0.02     0.02   0.01  -0.01
  10   6    -0.00  -0.00   0.00     0.00   0.00  -0.00    -0.00   0.00   0.00
  11   6    -0.02   0.12   0.03     0.00  -0.01  -0.00    -0.01   0.07   0.01
  12   6     0.06   0.14  -0.12    -0.00  -0.01   0.01     0.03   0.08  -0.06
  13   6     0.04  -0.03  -0.08    -0.01   0.00   0.01     0.03  -0.02  -0.05
  14   6    -0.00  -0.00   0.00    -0.00  -0.00   0.00     0.00  -0.00  -0.00
  15   6    -0.01   0.00   0.02    -0.01   0.00   0.02     0.03  -0.01  -0.06
  16   6    -0.01   0.08   0.02    -0.01   0.05   0.01     0.02  -0.13  -0.03
  17   6     0.03   0.07  -0.05     0.02   0.04  -0.03    -0.05  -0.10   0.08
  18   6     0.03  -0.02  -0.05     0.02  -0.01  -0.04    -0.05   0.03   0.08
  19   6     0.00  -0.00  -0.00     0.00  -0.00  -0.00    -0.00   0.00   0.00
  20   1     0.00  -0.00   0.00    -0.00   0.00  -0.00    -0.00   0.00   0.00
  21   1     0.00  -0.00  -0.00     0.00  -0.00  -0.00     0.00  -0.00  -0.00
  22   1    -0.00  -0.00  -0.00    -0.00  -0.00  -0.00    -0.00   0.00   0.00
  23   1    -0.01  -0.03  -0.01     0.09   0.41   0.18     0.03   0.12   0.05
  24   1    -0.03  -0.02   0.01     0.32   0.21  -0.13     0.10   0.07  -0.04
  25   1    -0.04   0.02   0.05     0.34  -0.22  -0.42     0.11  -0.07  -0.14
  26   1     0.01   0.03   0.01    -0.06  -0.25  -0.11    -0.02  -0.09  -0.04
  27   1     0.01   0.01  -0.00    -0.14  -0.09   0.06    -0.05  -0.03   0.02
  28   1     0.07  -0.42  -0.09    -0.01   0.03   0.01     0.04  -0.23  -0.05
  29   1    -0.20  -0.46   0.40     0.02   0.04  -0.03    -0.11  -0.25   0.21
  30   1    -0.15   0.08   0.26     0.02  -0.01  -0.03    -0.10   0.05   0.17
  31   1     0.04  -0.02  -0.07     0.04  -0.02  -0.06    -0.11   0.05   0.19
  32   1     0.04  -0.26  -0.06     0.03  -0.17  -0.04    -0.07   0.45   0.10
  33   1    -0.10  -0.22   0.18    -0.06  -0.14   0.11     0.16   0.34  -0.28
  34   1    -0.11   0.05   0.18    -0.07   0.04   0.12     0.17  -0.08  -0.28
