      -----------------------------------------------------------      
     |                   =====================                   |     
     |                           x T B                           |     
     |                   =====================                   |     
     |                         S. Grimme                         |     
     |          Mulliken Center for Theoretical Chemistry        |     
     |                    University of Bonn                     |     
      -----------------------------------------------------------      

   * xtb version 6.7.1 (edcfbbe) compiled by 'VssAdministrator@runnervm171ch' on 2026-06-10

   xtb is free software: you can redistribute it and/or modify it under
   the terms of the GNU Lesser General Public License as published by
   the Free Software Foundation, either version 3 of the License, or
   (at your option) any later version.
   
   xtb is distributed in the hope that it will be useful,
   but WITHOUT ANY WARRANTY; without even the implied warranty of
   MERCHANTABILITY or FITNESS FOR A PARTICULAR PURPOSE.  See the
   GNU Lesser General Public License for more details.
   
   Cite this work as:
   * C. Bannwarth, E. Caldeweyher, S. Ehlert, A. Hansen, P. Pracht,
     J. Seibert, S. Spicher, S. Grimme, WIREs Comput. Mol. Sci., 2020, 11,
     e01493. DOI: 10.1002/wcms.1493
   
   for GFN2-xTB:
   * C. Bannwarth, S. Ehlert and S. Grimme., J. Chem. Theory Comput., 2019,
     15, 1652-1671. DOI: 10.1021/acs.jctc.8b01176
   for GFN1-xTB:
   * S. Grimme, C. Bannwarth, P. Shushkov, J. Chem. Theory Comput., 2017,
     13, 1989-2009. DOI: 10.1021/acs.jctc.7b00118
   for GFN0-xTB:
   * P. Pracht, E. Caldeweyher, S. Ehlert, S. Grimme, ChemRxiv, 2019, preprint.
     DOI: 10.26434/chemrxiv.8326202.v1
   for GFN-FF:
   * S. Spicher and S. Grimme, Angew. Chem. Int. Ed., 2020, 59, 15665-15673.
     DOI: 10.1002/anie.202004239
   
   for ALPB and GBSA implicit solvation:
   * S. Ehlert, M. Stahn, S. Spicher, S. Grimme, J. Chem. Theory Comput.,
     2021, 17, 4250-4261. DOI: 10.1021/acs.jctc.1c00471
   
   for ddCOSMO and CPCM-X implicit solvation:
   * M. Stahn, S. Ehlert, S. Grimme, J. Phys. Chem. A,
     2023, XX, XXXX-XXXX. DOI: 10.1021/acs.jpca.3c04382
   
   for DFT-D4:
   * E. Caldeweyher, C. Bannwarth and S. Grimme, J. Chem. Phys., 2017,
     147, 034112. DOI: 10.1063/1.4993215
   * E. Caldeweyher, S. Ehlert, A. Hansen, H. Neugebauer, S. Spicher,
     C. Bannwarth and S. Grimme, J. Chem. Phys., 2019, 150, 154122.
     DOI: 10.1063/1.5090222
   * E. Caldeweyher, J.-M. Mewes, S. Ehlert and S. Grimme, Phys. Chem. Chem. Phys.
     2020, 22, 8499-8512. DOI: 10.1039/D0CP00502A
   
   for sTDA-xTB:
   * S. Grimme and C. Bannwarth, J. Chem. Phys., 2016, 145, 054103.
     DOI: 10.1063/1.4959605
   
   in the mass-spec context:
   * V. Asgeirsson, C. Bauer and S. Grimme, Chem. Sci., 2017, 8, 4879.
     DOI: 10.1039/c7sc00601b
   * J. Koopman and S. Grimme, ACS Omega 2019, 4, 12, 15120-15133.
     DOI: 10.1021/acsomega.9b02011
   
   for metadynamics refer to:
   * S. Grimme, J. Chem. Theory Comput., 2019, 155, 2847-2862
     DOI: 10.1021/acs.jctc.9b00143
   
   for SPH calculations refer to:
   * S. Spicher and S. Grimme, J. Chem. Theory Comput., 2021, 17, 1701-1714
     DOI: 10.1021/acs.jctc.0c01306
   
   for ONIOM refer to:
   * C. Plett, A. Katbashev, S. Ehlert, S. Grimme, M. Bursch,
     Phys. Chem. Chem. Phys., 2023, 25, 17860-17868. DOI: 10.1039/D3CP02178E
   
   for DIPRO refer to:
   * J. Kohn, N. Gildemeister, S. Grimme, D. Fazzi, A. Hansen,
     J. Chem. Phys., 2023, just accepted.
   
   for PTB refer to:
   * S. Grimme, M. Mueller, A. Hansen, J. Chem. Phys., 2023, 158, 124111.
     DOI: 10.1063/5.0137838
   
   with help from (in alphabetical order)
   P. Atkinson, C. Bannwarth, F. Bohle, G. Brandenburg, E. Caldeweyher
   M. Checinski, S. Dohm, S. Ehlert, S. Ehrlich, I. Gerasimov, C. Hölzer
   A. Katbashev, J. Kohn, J. Koopman, C. Lavigne, S. Lehtola, F. März, M. Müller,
   F. Musil, H. Neugebauer, J. Pisarek, C. Plett, P. Pracht, F. Pultar,
   J. Seibert, P. Shushkov, S. Spicher, M. Stahn, M. Steiner, T. Strunk,
   J. Stückrath, T. Rose, and J. Unsleber
   
 * started run on 2026/09/10 at 22:57:26.833     
   ID    Z sym.   atoms
    1    6 C      1, 2, 4-19
    2    7 N      3
    3    1 H      20-34

           -------------------------------------------------
          |                Calculation Setup                |
           -------------------------------------------------

          program call               : C:\Users\HUIWEI\miniconda3\envs\phase2ff\Library\bin\xtb.exe xtbopt.xyz --gfn 2 --chrg 0 --uhf 0 --alpb toluene --acc 0.2 --hess --strict
          coordinate file            : xtbopt.xyz
          omp threads                :                     1


           -------------------------------------------------
          |                 G F N 2 - x T B                 |
           -------------------------------------------------

        Reference                      10.1021/acs.jctc.8b01176
      * Hamiltonian:
        H0-scaling (s, p, d)           1.850000    2.230000    2.230000
        zeta-weighting                 0.500000
      * Dispersion:
        s8                             2.700000
        a1                             0.520000
        a2                             5.000000
        s9                             5.000000
      * Repulsion:
        kExp                           1.500000    1.000000
        rExp                           1.000000
      * Coulomb:
        alpha                          2.000000
        third order                    shell-resolved
        anisotropic                    true
        a3                             3.000000
        a5                             4.000000
        cn-shift                       1.200000
        cn-exp                         4.000000
        max-rad                        5.000000

      * Solvation model:               ALPB
        Solvent                        toluene
        Parameter file                 internal GFN2-xTB/ALPB
        Dielectric constant                7.0000E+00
        Reference state                gsolv [1 M gas/solution]
        Free energy shift                  2.2081E-03 Eh       1.3856E+00 kcal/mol
        Temperature                        2.9815E+02 K
        Density                            8.6700E-01 kg/L
        Solvent mass                       7.8110E+01 g/mol
        Interaction kernel             P16
        Born radius scaling (c1)           1.7172E+00
        Born radii integrator          GBOBC
        Born offset                        0.0000E+00 a0       0.0000E+00 AA
        H-bond correction              false
        Ion screening                  false
        Surface tension                    1.0000E-05 Eh       1.5569E+01 dyn/cm
        Grid points                               230 per atom
q/qsh data taken from xtbrestart
CAMM data taken from xtbrestart

          ...................................................
          :                      SETUP                      :
          :.................................................:
          :  # basis functions                  91          :
          :  # atomic orbitals                  91          :
          :  # shells                           53          :
          :  # electrons                        92          :
          :  max. iterations                   250          :
          :  Hamiltonian                  GFN2-xTB          :
          :  restarted?                       true          :
          :  GBSA solvation                   true          :
          :  PC potential                    false          :
          :  electronic temp.          300.0000000     K    :
          :  accuracy                    0.2000000          :
          :  -> integral cutoff          0.3198970E+02      :
          :  -> integral neglect         0.2000000E-08      :
          :  -> SCF convergence          0.2000000E-06 Eh   :
          :  -> wf. convergence          0.2000000E-04 e    :
          :  Broyden damping             0.4000000          :
          :  net charge                          0          :
          :  unpaired electrons                  0          :
          ...................................................

 iter      E             dE          RMSdq      gap      omega  full diag
   1    -50.0387032 -0.500387E+02  0.106E-06    2.53       0.0  T
   2    -50.0387032 -0.497380E-13  0.827E-07    2.53   20747.8  T
   3    -50.0387032 -0.497380E-13  0.263E-07    2.53   65226.3  T

   *** convergence criteria satisfied after 3 iterations ***

         #    Occupation            Energy/Eh            Energy/eV
      -------------------------------------------------------------
         1        2.0000           -0.6569223             -17.8758
       ...           ...                  ...                  ...
        40        2.0000           -0.4201469             -11.4328
        41        2.0000           -0.4109893             -11.1836
        42        2.0000           -0.4032527             -10.9731
        43        2.0000           -0.4023146             -10.9475
        44        2.0000           -0.3977780             -10.8241
        45        2.0000           -0.3804553             -10.3527
        46        2.0000           -0.3568176              -9.7095 (HOMO)
        47                         -0.2636800              -7.1751 (LUMO)
        48                         -0.2386290              -6.4934
        49                         -0.2309818              -6.2853
        50                         -0.2155562              -5.8656
        51                         -0.2017962              -5.4912
       ...                                ...                  ...
        91                          0.6944662              18.8974
      -------------------------------------------------------------
                  HL-Gap            0.0931376 Eh            2.5344 eV
             Fermi-level           -0.3102488 Eh           -8.4423 eV

 SCC (total)                   0 d,  0 h,  0 min,  0.030 sec
 SCC setup                      ...        0 min,  0.002 sec (  5.094%)
 Dispersion                     ...        0 min,  0.001 sec (  2.732%)
 classical contributions        ...        0 min,  0.000 sec (  0.599%)
 integral evaluation            ...        0 min,  0.006 sec ( 18.289%)
 iterations                     ...        0 min,  0.007 sec ( 21.826%)
 molecular gradient             ...        0 min,  0.015 sec ( 50.328%)
 printout                       ...        0 min,  0.000 sec (  0.932%)

         :::::::::::::::::::::::::::::::::::::::::::::::::::::
         ::                     SUMMARY                     ::
         :::::::::::::::::::::::::::::::::::::::::::::::::::::
         :: total energy             -49.108403509567 Eh    ::
         :: total w/o Gsasa/hb       -49.087218564226 Eh    ::
         :: gradient norm              0.000156149172 Eh/a0 ::
         :: HOMO-LUMO gap              2.534402871178 eV    ::
         ::.................................................::
         :: SCC energy               -50.038671141037 Eh    ::
         :: -> isotropic ES            0.010366945621 Eh    ::
         :: -> anisotropic ES          0.006615637639 Eh    ::
         :: -> anisotropic XC          0.035669014471 Eh    ::
         :: -> dispersion             -0.037403049906 Eh    ::
         :: -> Gsolv                  -0.021495920907 Eh    ::
         ::    -> Gelec               -0.000310975565 Eh    ::
         ::    -> Gsasa               -0.023393088480 Eh    ::
         ::    -> Ghb                  0.000000000000 Eh    ::
         ::    -> Gshift               0.002208143139 Eh    ::
         :: repulsion energy           0.930267631470 Eh    ::
         :: add. restraining           0.000000000000 Eh    ::
         :: total charge              -0.000000000000 e     ::
         :::::::::::::::::::::::::::::::::::::::::::::::::::::

           ------------------------------------------------- 
          |                Numerical Hessian                |
           ------------------------------------------------- 
step length          :   0.00500
SCC accuracy         :   0.30000
Hessian scale factor :   1.00000
frozen atoms in %    :   0.00000    0
RMS gradient         :   0.00016
estimated CPU  time      0.01 min
estimated wall time      0.11 min

writing file <hessian>.

 projected vibrational frequencies (cm⁻¹)
eigval :       -0.00    -0.00    -0.00     0.00     0.00     0.00
eigval :       12.94    33.15    46.25    59.32    94.76   119.37
eigval :      143.84   150.52   171.64   230.36   241.33   299.99
eigval :      356.90   371.64   400.44   430.08   443.46   476.42
eigval :      480.21   503.86   525.64   546.94   570.02   589.78
eigval :      600.75   629.72   660.22   710.85   725.86   759.07
eigval :      766.40   778.94   810.95   815.28   854.01   868.13
eigval :      877.35   882.83   892.93   916.49   922.66   922.89
eigval :      926.00   930.85   950.79   988.78   995.76  1007.85
eigval :     1079.93  1080.29  1108.35  1115.87  1127.84  1170.16
eigval :     1179.28  1180.63  1188.24  1197.04  1222.07  1236.44
eigval :     1249.26  1278.33  1282.67  1317.00  1337.46  1370.56
eigval :     1374.88  1391.04  1417.48  1434.05  1451.89  1460.97
eigval :     1465.02  1468.62  1506.87  1564.84  1570.66  1595.16
eigval :     1596.99  1608.74  1740.60  2999.69  3025.31  3030.11
eigval :     3062.61  3066.15  3066.38  3069.21  3071.05  3073.75
eigval :     3075.37  3079.22  3080.29  3085.92  3087.86  3088.56
           -------------------------------------------------
          |                Property Printout                |
           -------------------------------------------------

    * Orbital Energies and Occupations

         #    Occupation            Energy/Eh            Energy/eV
      -------------------------------------------------------------
         1        2.0000           -0.6569223             -17.8758
       ...           ...                  ...                  ...
        34        2.0000           -0.4540370             -12.3550
        35        2.0000           -0.4458197             -12.1314
        36        2.0000           -0.4424439             -12.0395
        37        2.0000           -0.4307807             -11.7221
        38        2.0000           -0.4262107             -11.5978
        39        2.0000           -0.4227437             -11.5034
        40        2.0000           -0.4201469             -11.4328
        41        2.0000           -0.4109893             -11.1836
        42        2.0000           -0.4032527             -10.9731
        43        2.0000           -0.4023146             -10.9475
        44        2.0000           -0.3977780             -10.8241
        45        2.0000           -0.3804553             -10.3527
        46        2.0000           -0.3568176              -9.7095 (HOMO)
        47                         -0.2636800              -7.1751 (LUMO)
        48                         -0.2386290              -6.4934
        49                         -0.2309818              -6.2853
        50                         -0.2155562              -5.8656
        51                         -0.2017962              -5.4912
        52                         -0.1915585              -5.2126
        53                         -0.1473707              -4.0102
        54                         -0.0826910              -2.2501
        55                         -0.0608491              -1.6558
        56                          0.0666767               1.8144
        57                          0.1116174               3.0373
       ...                                ...                  ...
        91                          0.6944662              18.8974
      -------------------------------------------------------------
                  HL-Gap            0.0931376 Eh            2.5344 eV
             Fermi-level           -0.3102488 Eh           -8.4423 eV

     #   Z          covCN         q      C6AA      α(0)
     1   6 C        3.755    -0.115    22.759     6.802
     2   6 C        2.901     0.120    25.366     8.258
     3   7 N        1.844    -0.214    26.499     7.629
     4   6 C        2.927     0.084    26.136     8.384
     5   6 C        2.924    -0.048    29.184     8.859
     6   6 C        2.919    -0.031    28.775     8.797
     7   6 C        2.919    -0.042    29.034     8.836
     8   6 C        2.919    -0.032    28.786     8.798
     9   6 C        2.922    -0.050    29.246     8.868
    10   6 C        2.980     0.001    27.991     8.678
    11   6 C        2.922    -0.029    28.731     8.790
    12   6 C        2.914    -0.030    28.739     8.791
    13   6 C        2.918    -0.036    28.899     8.815
    14   6 C        2.986     0.014    27.686     8.631
    15   6 C        2.919    -0.034    28.857     8.809
    16   6 C        2.915    -0.029    28.736     8.790
    17   6 C        2.916    -0.030    28.741     8.791
    18   6 C        2.917    -0.034    28.842     8.807
    19   6 C        2.988     0.013    27.718     8.636
    20   1 H        0.925     0.054     2.270     2.356
    21   1 H        0.925     0.047     2.359     2.402
    22   1 H        0.924     0.058     2.224     2.332
    23   1 H        0.926     0.029     2.601     2.522
    24   1 H        0.926     0.027     2.636     2.539
    25   1 H        0.926     0.024     2.674     2.557
    26   1 H        0.926     0.026     2.649     2.545
    27   1 H        0.926     0.023     2.691     2.565
    28   1 H        0.926     0.033     2.543     2.494
    29   1 H        0.926     0.036     2.505     2.475
    30   1 H        0.926     0.036     2.508     2.477
    31   1 H        0.926     0.034     2.527     2.486
    32   1 H        0.926     0.033     2.547     2.496
    33   1 H        0.926     0.032     2.558     2.501
    34   1 H        0.926     0.031     2.568     2.506

 Mol. C6AA /au·bohr⁶  :      15407.724522
 Mol. C8AA /au·bohr⁸  :     382924.850175
 Mol. α(0) /au        :        200.024126


Wiberg/Mayer (AO) data.
largest (>0.10) Wiberg bond orders for each atom

 ---------------------------------------------------------------------------
     #   Z sym  total        # sym  WBO       # sym  WBO       # sym  WBO
 ---------------------------------------------------------------------------
     1   6 C    3.996 --     2 C    0.998    21 H    0.980    20 H    0.972
                            22 H    0.959
     2   6 C    3.963 --     3 N    1.826    10 C    0.999     1 C    0.998
     3   7 N    3.220 --     2 C    1.826     4 C    1.120
     4   6 C    3.975 --     5 C    1.348     9 C    1.347     3 N    1.120
     5   6 C    3.988 --     6 C    1.462     4 C    1.348    23 H    0.971
                             8 C    0.106
     6   6 C    3.992 --     5 C    1.462     7 C    1.426    24 H    0.971
                             9 C    0.104
     7   6 C    3.991 --     8 C    1.433     6 C    1.426    25 H    0.972
     8   6 C    3.992 --     9 C    1.455     7 C    1.433    26 H    0.970
                             5 C    0.106
     9   6 C    3.988 --     8 C    1.455     4 C    1.347    27 H    0.971
                             6 C    0.104
    10   6 C    3.987 --    11 C    1.515    19 C    1.245     2 C    0.999
                            13 C    0.115
    11   6 C    3.990 --    10 C    1.515    12 C    1.324    28 H    0.970
    12   6 C    3.991 --    13 C    1.555    11 C    1.324    29 H    0.970
    13   6 C    3.990 --    12 C    1.555    14 C    1.278    30 H    0.968
                            10 C    0.115
    14   6 C    3.990 --    15 C    1.279    13 C    1.278    19 C    1.254
    15   6 C    3.991 --    16 C    1.558    14 C    1.279    31 H    0.968
                            18 C    0.118
    16   6 C    3.992 --    15 C    1.558    17 C    1.321    32 H    0.971
    17   6 C    3.992 --    18 C    1.556    16 C    1.321    33 H    0.971
    18   6 C    3.992 --    17 C    1.556    19 C    1.282    34 H    0.966
                            15 C    0.118
    19   6 C    3.988 --    18 C    1.282    14 C    1.254    10 C    1.245
    20   1 H    0.997 --     1 C    0.972
    21   1 H    0.997 --     1 C    0.980
    22   1 H    0.996 --     1 C    0.959
    23   1 H    0.999 --     5 C    0.971
    24   1 H    0.998 --     6 C    0.971
    25   1 H    0.999 --     7 C    0.972
    26   1 H    0.999 --     8 C    0.970
    27   1 H    0.999 --     9 C    0.971
    28   1 H    0.998 --    11 C    0.970
    29   1 H    0.998 --    12 C    0.970
    30   1 H    0.998 --    13 C    0.968
    31   1 H    0.998 --    15 C    0.968
    32   1 H    0.998 --    16 C    0.971
    33   1 H    0.998 --    17 C    0.971
    34   1 H    0.999 --    18 C    0.966
 ---------------------------------------------------------------------------

Topologies differ in total number of bonds
Writing topology from bond orders to xtbtopo.mol

molecular dipole:
                 x           y           z       tot (Debye)
 q only:       -0.809       0.362       0.160
   full:       -0.966       0.323      -0.082       2.597
molecular quadrupole (traceless):
                xx          xy          yy          xz          yz          zz
 q only:       -1.991       2.081       0.789      -0.750      -0.116       1.203
  q+dip:       -6.258       3.879       5.207      -6.861       1.860       1.051
   full:       -3.880       3.331       2.868      -2.800       0.785       1.012

           -------------------------------------------------
          |               Frequency Printout                |
           -------------------------------------------------
 projected vibrational frequencies (cm⁻¹)
eigval :       -0.00    -0.00    -0.00     0.00     0.00     0.00
eigval :       12.94    33.15    46.25    59.32    94.76   119.37
eigval :      143.84   150.52   171.64   230.36   241.33   299.99
eigval :      356.90   371.64   400.44   430.08   443.46   476.42
eigval :      480.21   503.86   525.64   546.94   570.02   589.78
eigval :      600.75   629.72   660.22   710.85   725.86   759.07
eigval :      766.40   778.94   810.95   815.28   854.01   868.13
eigval :      877.35   882.83   892.93   916.49   922.66   922.89
eigval :      926.00   930.85   950.79   988.78   995.76  1007.85
eigval :     1079.93  1080.29  1108.35  1115.87  1127.84  1170.16
eigval :     1179.28  1180.63  1188.24  1197.04  1222.07  1236.44
eigval :     1249.26  1278.33  1282.67  1317.00  1337.46  1370.56
eigval :     1374.88  1391.04  1417.48  1434.05  1451.89  1460.97
eigval :     1465.02  1468.62  1506.87  1564.84  1570.66  1595.16
eigval :     1596.99  1608.74  1740.60  2999.69  3025.31  3030.11
eigval :     3062.61  3066.15  3066.38  3069.21  3071.05  3073.75
eigval :     3075.37  3079.22  3080.29  3085.92  3087.86  3088.56
 reduced masses (amu)
   1: 11.02   2: 11.24   3: 11.39   4: 10.94   5: 11.05   6: 11.06   7: 10.20   8:  9.98
   9: 10.63  10: 10.35  11:  7.91  12:  5.43  13:  9.47  14: 10.09  15:  9.30  16:  9.85
  17: 10.21  18:  9.83  19: 10.33  20:  9.06  21:  9.50  22:  9.70  23: 10.53  24: 10.93
  25: 11.11  26: 11.51  27: 10.99  28: 10.02  29:  9.97  30: 10.99  31: 10.88  32: 10.80
  33: 10.05  34:  8.77  35:  9.19  36:  4.74  37:  7.13  38: 10.81  39:  8.51  40:  6.15
  41: 10.56  42:  3.30  43:  3.69  44:  3.85  45:  4.05  46:  3.68  47:  3.81  48:  3.72
  49:  2.85  50:  3.20  51: 10.57  52:  8.92  53:  6.84  54:  6.92  55:  7.10  56:  6.67
  57:  6.70  58:  4.10  59:  7.26  60:  2.79  61:  1.70  62:  1.39  63:  2.48  64:  3.46
  65:  6.40  66:  8.62  67:  5.38  68:  4.34  69:  8.27  70: 11.46  71:  9.57  72:  8.83
  73:  3.20  74:  9.81  75:  9.51  76:  8.97  77:  9.73  78:  2.01  79:  2.56  80:  7.87
  81: 10.81  82: 11.70  83: 11.45  84: 11.46  85: 11.45  86: 11.40  87: 12.82  88:  1.84
  89:  1.41  90:  1.90  91:  1.76  92:  1.77  93:  1.77  94:  1.76  95:  1.78  96:  1.85
  97:  1.82  98:  1.86  99:  1.86 100:  1.91 101:  1.91 102:  1.91
 IR intensities (km·mol⁻¹)
   1:  0.05   2:  0.04   3:  0.02   4:  0.17   5:  0.15   6:  0.03   7:  0.18   8:  0.80
Molecule has no symmetry elements
It seems to be the C1 point group
   9:  0.11  10:  1.32  11:  1.88  12:  0.27  13:  0.19  14:  0.87  15:  0.96  16:  0.35
  17:  0.46  18:  0.19  19:  0.28  20:  0.84  21:  1.63  22:  0.41  23:  4.78  24:  1.40
  25:  1.34  26:  1.96  27:  1.03  28:  1.89  29:  2.91  30:  1.84  31:  9.02  32:  2.27
  33:  0.21  34: 16.81  35:  2.11  36:  0.35  37: 21.89  38:  0.43  39: 45.43  40: 28.79
  41:  0.56  42:  0.93  43:  0.30  44:  1.35  45:  0.92  46:  0.15  47:  0.12  48:  0.11
  49:  0.03  50:  0.02  51: 13.24  52:  5.11  53: 16.09  54: 16.37  55:  0.76  56:  0.21
  57: 13.70  58:  0.77  59: 44.79  60:  7.36  61:  0.28  62:  0.60  63: 20.11  64:  5.79
  65:  4.13  66: 87.04  67: 12.47  68:  4.13  69:  3.78  70:  2.91  71:  0.78  72:  4.03
  73: 17.12  74:  0.14  75:  0.17  76:  4.84  77:  5.74  78:  3.34  79:  6.03  80: 34.63
  81:  0.50  82:  0.07  83:  2.69  84: 88.64  85:  3.78  86:  0.05  87:295.53  88: 10.20
  89: 12.41  90: 30.63  91: 14.92  92:  4.74  93:  8.23  94:  5.78  95:  8.69  96: 94.83
  97: 42.62  98:100.05  99:130.71 100:162.42 101: 65.05 102: 13.40
 Raman intensities (Ä⁴*amu⁻¹)
   1:  0.00   2:  0.00   3:  0.00   4:  0.00   5:  0.00   6:  0.00   7:  0.00   8:  0.00
   9:  0.00  10:  0.00  11:  0.00  12:  0.00  13:  0.00  14:  0.00  15:  0.00  16:  0.00
  17:  0.00  18:  0.00  19:  0.00  20:  0.00  21:  0.00  22:  0.00  23:  0.00  24:  0.00
  25:  0.00  26:  0.00  27:  0.00  28:  0.00  29:  0.00  30:  0.00  31:  0.00  32:  0.00
  33:  0.00  34:  0.00  35:  0.00  36:  0.00  37:  0.00  38:  0.00  39:  0.00  40:  0.00
  41:  0.00  42:  0.00  43:  0.00  44:  0.00  45:  0.00  46:  0.00  47:  0.00  48:  0.00
  49:  0.00  50:  0.00  51:  0.00  52:  0.00  53:  0.00  54:  0.00  55:  0.00  56:  0.00
  57:  0.00  58:  0.00  59:  0.00  60:  0.00  61:  0.00  62:  0.00  63:  0.00  64:  0.00
  65:  0.00  66:  0.00  67:  0.00  68:  0.00  69:  0.00  70:  0.00  71:  0.00  72:  0.00
  73:  0.00  74:  0.00  75:  0.00  76:  0.00  77:  0.00  78:  0.00  79:  0.00  80:  0.00
  81:  0.00  82:  0.00  83:  0.00  84:  0.00  85:  0.00  86:  0.00  87:  0.00  88:  0.00
  89:  0.00  90:  0.00  91:  0.00  92:  0.00  93:  0.00  94:  0.00  95:  0.00  96:  0.00
  97:  0.00  98:  0.00  99:  0.00 100:  0.00 101:  0.00 102:  0.00
 output can be read by thermo (or use thermo option).
 writing <g98.out> molden fake output.
 recommended (thermochemical) frequency scaling factor: 1.0
           -------------------------------------------------
          |             Thermodynamic Functions             |
           -------------------------------------------------

c1  symmetry found (for desy threshold:  0.10E+00) used in thermo

          ...................................................
          :                      SETUP                      :
          :.................................................:
          :  # frequencies                          96      :
          :  # imaginary freq.                       0      :
          :  linear?                             false      :
          :  only rotor calc.                    false      :
          :  symmetry                               c1      :
          :  rotational number                       1      :
          :  scaling factor                  1.0000000      :
          :  rotor cutoff                   50.0000000 cm⁻¹ :
          :  imag. cutoff                  -20.0000000 cm⁻¹ :
          :.................................................:

    mode    ω/cm⁻¹     T·S(HO)/kcal·mol⁻¹    T·S(FR)/kcal·mol⁻¹   T·S(vib)
   ------------------------------------------------------------------------
       1     12.94    -2.23581 (  0.45%)    -1.45678 ( 99.55%)    -1.46026
       2     33.15    -1.67901 ( 16.19%)    -1.17823 ( 83.81%)    -1.25932
       3     46.25    -1.48222 ( 42.28%)    -1.07956 ( 57.72%)    -1.24979
       4     59.32    -1.33563 ( 66.45%)    -1.00588 ( 33.55%)    -1.22501
       5     94.76    -1.06124 ( 92.81%)    -0.86714 (  7.19%)    -1.04727
       6    119.37    -0.92742 ( 97.01%)    -0.79874 (  2.99%)    -0.92357
Note: The following floating-point exceptions are signalling: IEEE_DIVIDE_BY_ZERO IEEE_UNDERFLOW_FLAG IEEE_DENORMAL
normal termination of xtb
       7    143.84    -0.82054 ( 98.56%)    -0.74349 (  1.44%)    -0.81943
       8    150.52    -0.79476 ( 98.80%)    -0.73005 (  1.20%)    -0.79398
       9    171.64    -0.72075 ( 99.29%)    -0.69115 (  0.71%)    -0.72054
      10    230.36    -0.55936 ( 99.78%)    -0.60399 (  0.22%)    -0.55946
      11    241.33    -0.53459 ( 99.82%)    -0.59021 (  0.18%)    -0.53469
      12    299.99    -0.42247 ( 99.92%)    -0.52576 (  0.08%)    -0.42255
   ------------------------------------------------------------------------

   temp. (K)  partition function   enthalpy   heat capacity  entropy
                                   cal/mol     cal/K/mol   cal/K/mol   J/K/mol
 298.15  VIB  0.189E+07             8384.945     54.894     51.621
         ROT  0.491E+07              888.752      2.981     33.598
         INT  0.929E+13             9273.697     57.875     85.219
         TR   0.372E+28             1481.254      4.968     42.374
         TOT                       10754.9512    62.8430   127.5931   533.8495

       T/K    H(0)-H(T)+PV         H(T)/Eh          T*S/Eh         G(T)/Eh
   ------------------------------------------------------------------------
    298.15    0.171391E-01    0.285564E+00    0.606236E-01    0.224940E+00
   ------------------------------------------------------------------------

         :::::::::::::::::::::::::::::::::::::::::::::::::::::
         ::                  THERMODYNAMIC                  ::
         :::::::::::::::::::::::::::::::::::::::::::::::::::::
         :: total free energy         -48.883463066501 Eh   ::
         ::.................................................::
         :: total energy              -49.108403510179 Eh   ::
         :: zero point energy           0.268424937751 Eh   ::
         :: G(RRHO) w/o ZPVE           -0.043484494073 Eh   ::
         :: G(RRHO) contrib.            0.224940443678 Eh   ::
         :::::::::::::::::::::::::::::::::::::::::::::::::::::

           -------------------------------------------------
          | TOTAL ENERGY              -49.108403510179 Eh   |
          | TOTAL ENTHALPY            -48.822839466747 Eh   |
          | TOTAL FREE ENERGY         -48.883463066501 Eh   |
          | GRADIENT NORM               0.000156144037 Eh/α |
          | HOMO-LUMO GAP               2.534402784332 eV   |
           -------------------------------------------------

------------------------------------------------------------------------
 * finished run on 2026/09/10 at 22:57:33.387     
------------------------------------------------------------------------
 total:
 * wall-time:     0 d,  0 h,  0 min,  6.554 sec
 *  cpu-time:     0 d,  0 h,  0 min,  0.578 sec
 * ratio c/w:     0.088 speedup
 SCF:
 * wall-time:     0 d,  0 h,  0 min,  0.031 sec
 *  cpu-time:     0 d,  0 h,  0 min,  0.000 sec
 * ratio c/w:     0.000 speedup
 analytical hessian:
 * wall-time:     0 d,  0 h,  0 min,  6.476 sec
 *  cpu-time:     0 d,  0 h,  0 min,  0.578 sec
 * ratio c/w:     0.089 speedup

