34
MMFF starting geometry; not quantum validated
C -0.7964077057 -0.2929895806 -1.5763557599
C -0.0979926744 -0.5508788291 -0.2568917182
N 1.0399441682 -1.1665758752 -0.1223619709
C 1.7230107533 -1.6119011539 -1.2605920067
C 2.6569238873 -0.7854541716 -1.8904156770
C 3.3537924143 -1.2332869997 -3.0144182675
C 3.1284373693 -2.5185407647 -3.5061749560
C 2.2138750066 -3.3573170740 -2.8700795149
C 1.5191410669 -2.9058313800 -1.7461332104
C -0.8010131365 -0.0982273117 0.9695032763
C -1.2192828314 -1.1049187432 1.8492235697
C -1.9306406645 -0.7698951212 2.9945686205
C -2.2197932259 0.5677136788 3.2626565072
C -1.7877794001 1.5923354114 2.4026463697
C -2.0738851226 2.9346417206 2.7020684891
C -1.6333171165 3.9657747547 1.8734235157
C -0.8927360681 3.6695187224 0.7367548304
C -0.6020371533 2.3404622149 0.4225001632
C -1.0529597992 1.2719220899 1.2343420495
H -1.7642462324 0.1941530030 -1.4274782781
H -0.1766441590 0.3486335194 -2.2085311425
H -0.9771329769 -1.2419320859 -2.0892634122
H 2.8425138475 0.2095749170 -1.4964442125
H 4.0764631231 -0.5826313571 -3.4991409613
H 3.6733924995 -2.8702645865 -4.3783942650
H 2.0463248984 -4.3640780192 -3.2428313547
H 0.8166571253 -3.5626489425 -1.2416249679
H -0.9910797574 -2.1468595208 1.6370858891
H -2.2599248357 -1.5471467014 3.6792247054
H -2.7795048765 0.8086931567 4.1646813671
H -2.6412374538 3.1897876657 3.5949598833
H -1.8601405642 4.9989378791 2.1232077709
H -0.5334206909 4.4705170694 0.0957820314
H 0.0007002857 2.1487124150 -0.4621008866
