      -----------------------------------------------------------      
     |                   =====================                   |     
     |                           x T B                           |     
     |                   =====================                   |     
     |                         S. Grimme                         |     
     |          Mulliken Center for Theoretical Chemistry        |     
     |                    University of Bonn                     |     
      -----------------------------------------------------------      

   * xtb version 6.7.1 (edcfbbe) compiled by 'VssAdministrator@runnervm171ch' on 2026-06-10

   xtb is free software: you can redistribute it and/or modify it under
   the terms of the GNU Lesser General Public License as published by
   the Free Software Foundation, either version 3 of the License, or
   (at your option) any later version.
   
   xtb is distributed in the hope that it will be useful,
   but WITHOUT ANY WARRANTY; without even the implied warranty of
   MERCHANTABILITY or FITNESS FOR A PARTICULAR PURPOSE.  See the
   GNU Lesser General Public License for more details.
   
   Cite this work as:
   * C. Bannwarth, E. Caldeweyher, S. Ehlert, A. Hansen, P. Pracht,
     J. Seibert, S. Spicher, S. Grimme, WIREs Comput. Mol. Sci., 2020, 11,
     e01493. DOI: 10.1002/wcms.1493
   
   for GFN2-xTB:
   * C. Bannwarth, S. Ehlert and S. Grimme., J. Chem. Theory Comput., 2019,
     15, 1652-1671. DOI: 10.1021/acs.jctc.8b01176
   for GFN1-xTB:
   * S. Grimme, C. Bannwarth, P. Shushkov, J. Chem. Theory Comput., 2017,
     13, 1989-2009. DOI: 10.1021/acs.jctc.7b00118
   for GFN0-xTB:
   * P. Pracht, E. Caldeweyher, S. Ehlert, S. Grimme, ChemRxiv, 2019, preprint.
     DOI: 10.26434/chemrxiv.8326202.v1
   for GFN-FF:
   * S. Spicher and S. Grimme, Angew. Chem. Int. Ed., 2020, 59, 15665-15673.
     DOI: 10.1002/anie.202004239
   
   for ALPB and GBSA implicit solvation:
   * S. Ehlert, M. Stahn, S. Spicher, S. Grimme, J. Chem. Theory Comput.,
     2021, 17, 4250-4261. DOI: 10.1021/acs.jctc.1c00471
   
   for ddCOSMO and CPCM-X implicit solvation:
   * M. Stahn, S. Ehlert, S. Grimme, J. Phys. Chem. A,
     2023, XX, XXXX-XXXX. DOI: 10.1021/acs.jpca.3c04382
   
   for DFT-D4:
   * E. Caldeweyher, C. Bannwarth and S. Grimme, J. Chem. Phys., 2017,
     147, 034112. DOI: 10.1063/1.4993215
   * E. Caldeweyher, S. Ehlert, A. Hansen, H. Neugebauer, S. Spicher,
     C. Bannwarth and S. Grimme, J. Chem. Phys., 2019, 150, 154122.
     DOI: 10.1063/1.5090222
   * E. Caldeweyher, J.-M. Mewes, S. Ehlert and S. Grimme, Phys. Chem. Chem. Phys.
     2020, 22, 8499-8512. DOI: 10.1039/D0CP00502A
   
   for sTDA-xTB:
   * S. Grimme and C. Bannwarth, J. Chem. Phys., 2016, 145, 054103.
     DOI: 10.1063/1.4959605
   
   in the mass-spec context:
   * V. Asgeirsson, C. Bauer and S. Grimme, Chem. Sci., 2017, 8, 4879.
     DOI: 10.1039/c7sc00601b
   * J. Koopman and S. Grimme, ACS Omega 2019, 4, 12, 15120-15133.
     DOI: 10.1021/acsomega.9b02011
   
   for metadynamics refer to:
   * S. Grimme, J. Chem. Theory Comput., 2019, 155, 2847-2862
     DOI: 10.1021/acs.jctc.9b00143
   
   for SPH calculations refer to:
   * S. Spicher and S. Grimme, J. Chem. Theory Comput., 2021, 17, 1701-1714
     DOI: 10.1021/acs.jctc.0c01306
   
   for ONIOM refer to:
   * C. Plett, A. Katbashev, S. Ehlert, S. Grimme, M. Bursch,
     Phys. Chem. Chem. Phys., 2023, 25, 17860-17868. DOI: 10.1039/D3CP02178E
   
   for DIPRO refer to:
   * J. Kohn, N. Gildemeister, S. Grimme, D. Fazzi, A. Hansen,
     J. Chem. Phys., 2023, just accepted.
   
   for PTB refer to:
   * S. Grimme, M. Mueller, A. Hansen, J. Chem. Phys., 2023, 158, 124111.
     DOI: 10.1063/5.0137838
   
   with help from (in alphabetical order)
   P. Atkinson, C. Bannwarth, F. Bohle, G. Brandenburg, E. Caldeweyher
   M. Checinski, S. Dohm, S. Ehlert, S. Ehrlich, I. Gerasimov, C. Hölzer
   A. Katbashev, J. Kohn, J. Koopman, C. Lavigne, S. Lehtola, F. März, M. Müller,
   F. Musil, H. Neugebauer, J. Pisarek, C. Plett, P. Pracht, F. Pultar,
   J. Seibert, P. Shushkov, S. Spicher, M. Stahn, M. Steiner, T. Strunk,
   J. Stückrath, T. Rose, and J. Unsleber
   
 * started run on 2026/09/10 at 22:57:24.075     
   ID    Z sym.   atoms
    1    6 C      1, 2, 4-19
    2    7 N      3
    3    1 H      20-34

           -------------------------------------------------
          |                Calculation Setup                |
           -------------------------------------------------

          program call               : C:\Users\HUIWEI\miniconda3\envs\phase2ff\Library\bin\xtb.exe input.xyz --gfn 2 --chrg 0 --uhf 0 --alpb toluene --acc 0.2 --opt vtight
          coordinate file            : input.xyz
          omp threads                :                     1


           -------------------------------------------------
          |                 G F N 2 - x T B                 |
           -------------------------------------------------

        Reference                      10.1021/acs.jctc.8b01176
      * Hamiltonian:
        H0-scaling (s, p, d)           1.850000    2.230000    2.230000
        zeta-weighting                 0.500000
      * Dispersion:
        s8                             2.700000
        a1                             0.520000
        a2                             5.000000
        s9                             5.000000
      * Repulsion:
        kExp                           1.500000    1.000000
        rExp                           1.000000
      * Coulomb:
        alpha                          2.000000
        third order                    shell-resolved
        anisotropic                    true
        a3                             3.000000
        a5                             4.000000
        cn-shift                       1.200000
        cn-exp                         4.000000
        max-rad                        5.000000

      * Solvation model:               ALPB
        Solvent                        toluene
        Parameter file                 internal GFN2-xTB/ALPB
        Dielectric constant                7.0000E+00
        Reference state                gsolv [1 M gas/solution]
        Free energy shift                  2.2081E-03 Eh       1.3856E+00 kcal/mol
        Temperature                        2.9815E+02 K
        Density                            8.6700E-01 kg/L
        Solvent mass                       7.8110E+01 g/mol
        Interaction kernel             P16
        Born radius scaling (c1)           1.7172E+00
        Born radii integrator          GBOBC
        Born offset                        0.0000E+00 a0       0.0000E+00 AA
        H-bond correction              false
        Ion screening                  false
        Surface tension                    1.0000E-05 Eh       1.5569E+01 dyn/cm
        Grid points                               230 per atom

          ...................................................
          :                      SETUP                      :
          :.................................................:
          :  # basis functions                  91          :
          :  # atomic orbitals                  91          :
          :  # shells                           53          :
          :  # electrons                        92          :
          :  max. iterations                   250          :
          :  Hamiltonian                  GFN2-xTB          :
          :  restarted?                      false          :
          :  GBSA solvation                   true          :
          :  PC potential                    false          :
          :  electronic temp.          300.0000000     K    :
          :  accuracy                    0.2000000          :
          :  -> integral cutoff          0.3198970E+02      :
          :  -> integral neglect         0.2000000E-08      :
          :  -> SCF convergence          0.2000000E-06 Eh   :
          :  -> wf. convergence          0.2000000E-04 e    :
          :  Broyden damping             0.4000000          :
          :  net charge                          0          :
          :  unpaired electrons                  0          :
          ...................................................

 iter      E             dE          RMSdq      gap      omega  full diag
   1    -49.9451567 -0.499452E+02  0.410E+00    2.51       0.0  T
   2    -49.9704861 -0.253295E-01  0.244E+00    2.54       1.0  T
   3    -49.9584495  0.120366E-01  0.808E-01    2.40       1.0  T
   4    -49.9731601 -0.147105E-01  0.291E-01    2.40       1.0  T
   5    -49.9748383 -0.167823E-02  0.119E-01    2.38       1.0  T
   6    -49.9752855 -0.447189E-03  0.352E-02    2.38       1.0  T
   7    -49.9752910 -0.544575E-05  0.179E-02    2.39       1.0  T
   8    -49.9752945 -0.353822E-05  0.495E-03    2.38       3.5  T
   9    -49.9752951 -0.612294E-06  0.163E-03    2.39      10.5  T
  10    -49.9752951 -0.440475E-07  0.961E-04    2.39      17.8  T
  11    -49.9752951 -0.373972E-08  0.377E-04    2.39      45.5  T
  12    -49.9752952 -0.296155E-08  0.127E-04    2.39     135.5  T
  13    -49.9752952 -0.292317E-10  0.587E-05    2.39     291.9  T

   *** convergence criteria satisfied after 13 iterations ***

         #    Occupation            Energy/Eh            Energy/eV
      -------------------------------------------------------------
         1        2.0000           -0.6541339             -17.7999
       ...           ...                  ...                  ...
        40        2.0000           -0.4211636             -11.4604
        41        2.0000           -0.4091393             -11.1332
        42        2.0000           -0.4058525             -11.0438
        43        2.0000           -0.4051786             -11.0255
        44        2.0000           -0.3965681             -10.7912
        45        2.0000           -0.3760012             -10.2315
        46        2.0000           -0.3610671              -9.8251 (HOMO)
        47                         -0.2733845              -7.4392 (LUMO)
        48                         -0.2418102              -6.5800
        49                         -0.2294694              -6.2442
        50                         -0.2203568              -5.9962
        51                         -0.2116592              -5.7595
       ...                                ...                  ...
        91                          0.6813964              18.5417
      -------------------------------------------------------------
                  HL-Gap            0.0876826 Eh            2.3860 eV
             Fermi-level           -0.3172258 Eh           -8.6322 eV

 SCC (total)                   0 d,  0 h,  0 min,  0.042 sec
 SCC setup                      ...        0 min,  0.001 sec (  2.276%)
 Dispersion                     ...        0 min,  0.000 sec (  0.936%)
 classical contributions        ...        0 min,  0.000 sec (  0.195%)
 integral evaluation            ...        0 min,  0.005 sec ( 12.819%)
 iterations                     ...        0 min,  0.019 sec ( 45.783%)
 molecular gradient             ...        0 min,  0.016 sec ( 37.385%)
 printout                       ...        0 min,  0.000 sec (  0.567%)

         :::::::::::::::::::::::::::::::::::::::::::::::::::::
         ::                     SUMMARY                     ::
         :::::::::::::::::::::::::::::::::::::::::::::::::::::
         :: total energy             -49.100465541837 Eh    ::
         :: total w/o Gsasa/hb       -49.079023208374 Eh    ::
         :: gradient norm              0.089134749538 Eh/a0 ::
         :: HOMO-LUMO gap              2.385966294219 eV    ::
         ::.................................................::
         :: SCC energy               -49.975279396179 Eh    ::
         :: -> isotropic ES            0.010929312468 Eh    ::
         :: -> anisotropic ES          0.007287435669 Eh    ::
         :: -> anisotropic XC          0.037520842354 Eh    ::
         :: -> dispersion             -0.037425617107 Eh    ::
         :: -> Gsolv                  -0.021781938806 Eh    ::
         ::    -> Gelec               -0.000339605342 Eh    ::
         ::    -> Gsasa               -0.023650476602 Eh    ::
         ::    -> Ghb                  0.000000000000 Eh    ::
         ::    -> Gshift               0.002208143139 Eh    ::
         :: repulsion energy           0.874813854341 Eh    ::
         :: add. restraining           0.000000000000 Eh    ::
         :: total charge               0.000000000000 e     ::
         :::::::::::::::::::::::::::::::::::::::::::::::::::::

      ----------------------------------------------------------- 
     |                   =====================                   |
     |                        A N C O P T                        |
     |                   =====================                   |
     |               Approximate Normal Coordinate               |
     |                Rational Function Optimizer                |
      ----------------------------------------------------------- 
      ----------------------------------------------------------- 
     |                   =====================                   |
     |                        A N C O P T                        |
     |                   =====================                   |
     |               Approximate Normal Coordinate               |
     |                Rational Function Optimizer                |
      ----------------------------------------------------------- 

          ...................................................
          :                      SETUP                      :
          :.................................................:
          :   optimization level         verytight          :
          :   max. optcycles                   680          :
          :   ANC micro-cycles                  20          :
          :   degrees of freedom                96          :
          :.................................................:
          :   RF solver                   davidson          :
          :   write xtbopt.log                true          :
          :   linear?                        false          :
          :   energy convergence         0.1000000E-06 Eh   :
          :   grad. convergence          0.2000000E-03 Eh/α :
          :   maxmium RF displ.          1.0000000          :
          :   Hlow (freq-cutoff)         0.1000000E-01      :
          :   Hmax (freq-cutoff)         5.0000000          :
          :   S6 in model hess.         20.0000000          :
          ...................................................

generating ANC from exact Hessian ...
Using Lindh-Hessian (1995)
 Shifting diagonal of input Hessian by    9.5648391798034728E-003
 Lowest  eigenvalues of input Hessian
    0.000000    0.000000    0.000000    0.000000    0.000000    0.000000
    0.010000    0.010312    0.010508    0.011827    0.012261    0.014794
    0.015350    0.016049    0.018644    0.019244    0.021387    0.023938
 Highest eigenvalues
    1.876125    1.910562    1.947644    1.995334    2.055437    2.071728


........................................................................
.............................. CYCLE    1 ..............................
........................................................................

 iter      E             dE          RMSdq      gap      omega  full diag
   1    -49.9752952 -0.499753E+02  0.150E-05    2.39       0.0  T
   2    -49.9752952 -0.213163E-11  0.111E-05    2.39    1539.9  T
   3    -49.9752952 -0.282085E-11  0.500E-06    2.39    3431.1  T
     SCC iter.                  ...        0 min,  0.006 sec
     gradient                   ...        0 min,  0.021 sec
 * total energy  :   -49.1004655 Eh     change       -0.4802558E-10 Eh
   gradient norm :     0.0891347 Eh/α   predicted     0.0000000E+00 (-100.00%)
   displ. norm   :     0.2085573 α      lambda       -0.9056923E-02
   maximum displ.:     0.0899695 α      in ANC's #24, #10, #26, ...

........................................................................
.............................. CYCLE    2 ..............................
........................................................................

 iter      E             dE          RMSdq      gap      omega  full diag
   1    -50.0210191 -0.500210E+02  0.167E-01    2.44       0.0  T
   2    -50.0210769 -0.577535E-04  0.102E-01    2.47       1.0  T
   3    -50.0210406  0.362468E-04  0.461E-02    2.47       1.0  T
   4    -50.0210866 -0.459115E-04  0.123E-02    2.47       1.4  T
   5    -50.0210908 -0.424832E-05  0.390E-03    2.47       4.4  T
   6    -50.0210912 -0.356445E-06  0.159E-03    2.47      10.8  T
   7    -50.0210912 -0.130794E-07  0.591E-04    2.47      29.0  T
   8    -50.0210912 -0.391460E-08  0.248E-04    2.47      69.3  T
   9    -50.0210912 -0.633356E-09  0.725E-05    2.47     236.6  T
  10    -50.0210912 -0.375238E-10  0.372E-05    2.47     460.6  T
     SCC iter.                  ...        0 min,  0.015 sec
     gradient                   ...        0 min,  0.016 sec
 * total energy  :   -49.1064105 Eh     change       -0.5944914E-02 Eh
   gradient norm :     0.0318927 Eh/α   predicted    -0.4726367E-02 ( -20.50%)
   displ. norm   :     0.1542659 α      lambda       -0.1710520E-02
   maximum displ.:     0.0704035 α      in ANC's #5, #10, #7, ...

........................................................................
.............................. CYCLE    3 ..............................
........................................................................

 iter      E             dE          RMSdq      gap      omega  full diag
   1    -50.0387929 -0.500388E+02  0.924E-02    2.48       0.0  T
   2    -50.0388115 -0.186051E-04  0.563E-02    2.50       1.0  T
   3    -50.0388019  0.958483E-05  0.275E-02    2.50       1.0  T
   4    -50.0388167 -0.148544E-04  0.526E-03    2.50       3.3  T
   5    -50.0388174 -0.701715E-06  0.183E-03    2.50       9.4  T
   6    -50.0388175 -0.697278E-07  0.775E-04    2.50      22.1  T
   7    -50.0388175 -0.295392E-08  0.355E-04    2.50      48.4  T
   8    -50.0388175 -0.209569E-08  0.135E-04    2.50     126.6  T
   9    -50.0388175 -0.179014E-09  0.462E-05    2.50     370.8  T
     SCC iter.                  ...        0 min,  0.014 sec
     gradient                   ...        0 min,  0.020 sec
 * total energy  :   -49.1073797 Eh     change       -0.9692704E-03 Eh
   gradient norm :     0.0088707 Eh/α   predicted    -0.8758065E-03 (  -9.64%)
   displ. norm   :     0.1218786 α      lambda       -0.2695252E-03
   maximum displ.:     0.0791442 α      in ANC's #5, #10, #4, ...

........................................................................
.............................. CYCLE    4 ..............................
........................................................................

 iter      E             dE          RMSdq      gap      omega  full diag
   1    -50.0388984 -0.500389E+02  0.513E-02    2.49       0.0  T
   2    -50.0389006 -0.220814E-05  0.308E-02    2.49       1.0  T
   3    -50.0388964  0.423329E-05  0.148E-02    2.49       1.2  T
   4    -50.0389020 -0.563357E-05  0.126E-03    2.49      13.6  T
   5    -50.0389021 -0.353266E-07  0.515E-04    2.49      33.3  T
   6    -50.0389021 -0.308889E-08  0.268E-04    2.49      63.9  T
   7    -50.0389021 -0.300219E-09  0.898E-05    2.49     191.0  T
   8    -50.0389021 -0.118789E-09  0.400E-05    2.49     428.6  T
     SCC iter.                  ...        0 min,  0.013 sec
     gradient                   ...        0 min,  0.016 sec
 * total energy  :   -49.1075911 Eh     change       -0.2113914E-03 Eh
   gradient norm :     0.0053667 Eh/α   predicted    -0.1367676E-03 ( -35.30%)
   displ. norm   :     0.2419004 α      lambda       -0.3188896E-03
   maximum displ.:     0.1622133 α      in ANC's #5, #4, #3, ...

........................................................................
.............................. CYCLE    5 ..............................
........................................................................

 iter      E             dE          RMSdq      gap      omega  full diag
   1    -50.0364267 -0.500364E+02  0.939E-02    2.46       0.0  T
   2    -50.0364313 -0.466650E-05  0.558E-02    2.46       1.0  T
   3    -50.0364189  0.124457E-04  0.235E-02    2.45       1.0  T
   4    -50.0364341 -0.152431E-04  0.194E-03    2.46       8.8  T
   5    -50.0364342 -0.767554E-07  0.914E-04    2.46      18.8  T
   6    -50.0364342 -0.104544E-07  0.498E-04    2.46      34.5  T
   7    -50.0364342 -0.195336E-08  0.187E-04    2.46      91.7  T
   8    -50.0364342 -0.666390E-09  0.705E-05    2.46     243.3  T
     SCC iter.                  ...        0 min,  0.013 sec
     gradient                   ...        0 min,  0.015 sec
 * total energy  :   -49.1077938 Eh     change       -0.2026459E-03 Eh
   gradient norm :     0.0043424 Eh/α   predicted    -0.1687777E-03 ( -16.71%)
   displ. norm   :     0.1423402 α      lambda       -0.9686328E-04
   maximum displ.:     0.0884054 α      in ANC's #5, #4, #3, ...

........................................................................
.............................. CYCLE    6 ..............................
........................................................................

 iter      E             dE          RMSdq      gap      omega  full diag
   1    -50.0357939 -0.500358E+02  0.527E-02    2.45       0.0  T
   2    -50.0357946 -0.679647E-06  0.310E-02    2.45       1.0  T
   3    -50.0357930  0.154638E-05  0.796E-03    2.44       2.2  T
   4    -50.0357948 -0.180341E-05  0.879E-04    2.45      19.5  T
   5    -50.0357948 -0.161726E-07  0.396E-04    2.45      43.3  T
   6    -50.0357948 -0.102767E-08  0.231E-04    2.45      74.3  T
   7    -50.0357948 -0.803205E-09  0.725E-05    2.45     236.6  T
   8    -50.0357948 -0.886828E-10  0.299E-05    2.45     573.7  T
     SCC iter.                  ...        0 min,  0.013 sec
     gradient                   ...        0 min,  0.015 sec
 * total energy  :   -49.1078729 Eh     change       -0.7915849E-04 Eh
   gradient norm :     0.0044942 Eh/α   predicted    -0.4942815E-04 ( -37.56%)
   displ. norm   :     0.2159807 α      lambda       -0.1404351E-03
   maximum displ.:     0.1220700 α      in ANC's #5, #4, #3, ...

........................................................................
.............................. CYCLE    7 ..............................
........................................................................

 iter      E             dE          RMSdq      gap      omega  full diag
   1    -50.0358665 -0.500359E+02  0.779E-02    2.43       0.0  T
   2    -50.0358673 -0.789710E-06  0.457E-02    2.43       1.0  T
   3    -50.0358665  0.800455E-06  0.607E-03    2.43       2.8  T
   4    -50.0358675 -0.987348E-06  0.114E-03    2.43      15.0  T
   5    -50.0358675 -0.254226E-07  0.501E-04    2.43      34.2  T
   6    -50.0358675 -0.386855E-09  0.266E-04    2.43      64.6  T
   7    -50.0358675 -0.148549E-08  0.827E-05    2.43     207.3  T
   8    -50.0358675 -0.122576E-09  0.337E-05    2.43     509.2  T
     SCC iter.                  ...        0 min,  0.011 sec
     gradient                   ...        0 min,  0.016 sec
 * total energy  :   -49.1079772 Eh     change       -0.1043175E-03 Eh
   gradient norm :     0.0034000 Eh/α   predicted    -0.7350073E-04 ( -29.54%)
   displ. norm   :     0.1971142 α      lambda       -0.8875954E-04
   maximum displ.:     0.1066620 α      in ANC's #3, #4, #5, ...

........................................................................
.............................. CYCLE    8 ..............................
........................................................................

 iter      E             dE          RMSdq      gap      omega  full diag
   1    -50.0365170 -0.500365E+02  0.692E-02    2.42       0.0  T
   2    -50.0365175 -0.471599E-06  0.406E-02    2.43       1.0  T
   3    -50.0365171  0.409759E-06  0.440E-03    2.42       3.9  T
   4    -50.0365176 -0.522137E-06  0.966E-04    2.42      17.8  T
   5    -50.0365176 -0.184487E-07  0.436E-04    2.42      39.3  T
   6    -50.0365176 -0.274987E-09  0.229E-04    2.42      74.8  T
   7    -50.0365176 -0.121915E-08  0.666E-05    2.42     257.7  T
   8    -50.0365176 -0.790479E-10  0.266E-05    2.42     644.6  T
     SCC iter.                  ...        0 min,  0.014 sec
     gradient                   ...        0 min,  0.016 sec
 * total energy  :   -49.1080389 Eh     change       -0.6166381E-04 Eh
   gradient norm :     0.0024804 Eh/α   predicted    -0.4611074E-04 ( -25.22%)
   displ. norm   :     0.1256900 α      lambda       -0.4343112E-04
   maximum displ.:     0.0770423 α      in ANC's #3, #4, #5, ...

........................................................................
.............................. CYCLE    9 ..............................
........................................................................

 iter      E             dE          RMSdq      gap      omega  full diag
   1    -50.0373951 -0.500374E+02  0.417E-02    2.42       0.0  T
   2    -50.0373952 -0.149396E-06  0.244E-02    2.42       1.0  T
   3    -50.0373949  0.268989E-06  0.322E-03    2.42       5.3  T
   4    -50.0373953 -0.324260E-06  0.612E-04    2.42      28.0  T
   5    -50.0373953 -0.643367E-08  0.318E-04    2.42      53.9  T
   6    -50.0373953 -0.402473E-09  0.166E-04    2.42     103.3  T
   7    -50.0373953 -0.614044E-09  0.393E-05    2.42     436.7  T
     SCC iter.                  ...        0 min,  0.012 sec
     gradient                   ...        0 min,  0.015 sec
 * total energy  :   -49.1080711 Eh     change       -0.3222309E-04 Eh
   gradient norm :     0.0018011 Eh/α   predicted    -0.2205933E-04 ( -31.54%)
   displ. norm   :     0.1614105 α      lambda       -0.3372818E-04
   maximum displ.:     0.1075039 α      in ANC's #3, #7, #10, ...

........................................................................
.............................. CYCLE   10 ..............................
........................................................................

 iter      E             dE          RMSdq      gap      omega  full diag
   1    -50.0382611 -0.500383E+02  0.487E-02    2.42       0.0  T
   2    -50.0382613 -0.235268E-06  0.286E-02    2.42       1.0  T
   3    -50.0382603  0.999168E-06  0.577E-03    2.42       3.0  T
   4    -50.0382615 -0.115182E-05  0.828E-04    2.42      20.7  T
   5    -50.0382615 -0.790713E-08  0.480E-04    2.42      35.8  T
   6    -50.0382615 -0.238030E-08  0.203E-04    2.42      84.4  T
   7    -50.0382615 -0.751456E-09  0.548E-05    2.42     312.8  T
   8    -50.0382615 -0.472653E-10  0.247E-05    2.42     695.5  T
     SCC iter.                  ...        0 min,  0.014 sec
     gradient                   ...        0 min,  0.016 sec
 * total energy  :   -49.1081053 Eh     change       -0.3416613E-04 Eh
   gradient norm :     0.0021418 Eh/α   predicted    -0.1705955E-04 ( -50.07%)
   displ. norm   :     0.0777132 α      lambda       -0.2219120E-04
   maximum displ.:     0.0537287 α      in ANC's #3, #7, #10, ...

........................................................................
.............................. CYCLE   11 ..............................
........................................................................

 iter      E             dE          RMSdq      gap      omega  full diag
   1    -50.0381063 -0.500381E+02  0.222E-02    2.42       0.0  T
   2    -50.0381063 -0.559253E-07  0.131E-02    2.42       1.3  T
   3    -50.0381059  0.407907E-06  0.363E-03    2.42       4.7  T
   4    -50.0381064 -0.460618E-06  0.425E-04    2.42      40.4  T
   5    -50.0381064 -0.254825E-08  0.243E-04    2.42      70.5  T
   6    -50.0381064 -0.667256E-09  0.865E-05    2.42     198.2  T
   7    -50.0381064 -0.920721E-10  0.256E-05    2.42     669.9  T
     SCC iter.                  ...        0 min,  0.011 sec
     gradient                   ...        0 min,  0.015 sec
 * total energy  :   -49.1081248 Eh     change       -0.1950262E-04 Eh
   gradient norm :     0.0017961 Eh/α   predicted    -0.1116356E-04 ( -42.76%)
   displ. norm   :     0.2379453 α      lambda       -0.4389275E-04
   maximum displ.:     0.1584988 α      in ANC's #3, #7, #10, ...

........................................................................
.............................. CYCLE   12 ..............................
........................................................................

 iter      E             dE          RMSdq      gap      omega  full diag
   1    -50.0373458 -0.500373E+02  0.685E-02    2.41       0.0  T
   2    -50.0373462 -0.371421E-06  0.403E-02    2.41       1.0  T
   3    -50.0373431  0.310838E-05  0.984E-03    2.41       1.7  T
   4    -50.0373466 -0.349371E-05  0.120E-03    2.41      14.3  T
   5    -50.0373466 -0.153601E-07  0.700E-04    2.41      24.5  T
   6    -50.0373466 -0.521598E-08  0.201E-04    2.41      85.5  T
   7    -50.0373466 -0.697760E-09  0.649E-05    2.41     264.4  T
   8    -50.0373466 -0.473719E-10  0.311E-05    2.41     552.3  T
     SCC iter.                  ...        0 min,  0.016 sec
     gradient                   ...        0 min,  0.016 sec
 * total energy  :   -49.1081649 Eh     change       -0.4007979E-04 Eh
   gradient norm :     0.0015524 Eh/α   predicted    -0.2250281E-04 ( -43.85%)
   displ. norm   :     0.0952299 α      lambda       -0.1321959E-04
   maximum displ.:     0.0667811 α      in ANC's #3, #10, #1, ...

........................................................................
.............................. CYCLE   13 ..............................
........................................................................

 iter      E             dE          RMSdq      gap      omega  full diag
   1    -50.0375910 -0.500376E+02  0.308E-02    2.41       0.0  T
   2    -50.0375911 -0.854965E-07  0.181E-02    2.41       1.0  T
   3    -50.0375907  0.347327E-06  0.329E-03    2.41       5.2  T
   4    -50.0375911 -0.388937E-06  0.517E-04    2.41      33.2  T
   5    -50.0375911 -0.522100E-08  0.239E-04    2.41      71.8  T
   6    -50.0375911 -0.370690E-10  0.121E-04    2.41     141.3  T
   7    -50.0375911 -0.215472E-09  0.266E-05    2.41     645.6  T
     SCC iter.                  ...        0 min,  0.010 sec
     gradient                   ...        0 min,  0.016 sec
 * total energy  :   -49.1081794 Eh     change       -0.1449633E-04 Eh
   gradient norm :     0.0010299 Eh/α   predicted    -0.6638478E-05 ( -54.21%)
   displ. norm   :     0.1801061 α      lambda       -0.1601105E-04
   maximum displ.:     0.1225951 α      in ANC's #3, #10, #1, ...

........................................................................
.............................. CYCLE   14 ..............................
........................................................................

 iter      E             dE          RMSdq      gap      omega  full diag
   1    -50.0367651 -0.500368E+02  0.556E-02    2.40       0.0  T
   2    -50.0367654 -0.318464E-06  0.328E-02    2.40       1.0  T
   3    -50.0367646  0.839883E-06  0.519E-03    2.40       3.3  T
   4    -50.0367655 -0.966577E-06  0.112E-03    2.40      15.3  T
   5    -50.0367656 -0.223099E-07  0.523E-04    2.40      32.8  T
   6    -50.0367656 -0.163019E-08  0.264E-04    2.40      64.9  T
   7    -50.0367656 -0.108430E-08  0.588E-05    2.40     291.8  T
   8    -50.0367656 -0.584137E-10  0.261E-05    2.40     656.2  T
     SCC iter.                  ...        0 min,  0.015 sec
     gradient                   ...        0 min,  0.016 sec
 * total energy  :   -49.1081835 Eh     change       -0.4138990E-05 Eh
   gradient norm :     0.0024855 Eh/α   predicted    -0.8123084E-05 (  96.26%)
   displ. norm   :     0.0321471 α      lambda       -0.1407710E-04
   maximum displ.:     0.0184228 α      in ANC's #7, #3, #6, ...

........................................................................
.............................. CYCLE   15 ..............................
........................................................................

 iter      E             dE          RMSdq      gap      omega  full diag
   1    -50.0376591 -0.500377E+02  0.995E-03    2.40       0.0  T
   2    -50.0376592 -0.121435E-06  0.569E-03    2.40       3.0  T
   3    -50.0376592  0.172345E-07  0.138E-03    2.40      12.5  T
   4    -50.0376592 -0.250331E-07  0.545E-04    2.40      31.5  T
   5    -50.0376592 -0.702552E-08  0.199E-04    2.40      86.1  T
   6    -50.0376592  0.927827E-10  0.109E-04    2.40     156.7  T
     SCC iter.                  ...        0 min,  0.010 sec
     gradient                   ...        0 min,  0.017 sec
 * total energy  :   -49.1081918 Eh     change       -0.8260516E-05 Eh
   gradient norm :     0.0007170 Eh/α   predicted    -0.7047103E-05 ( -14.69%)
   displ. norm   :     0.0140796 α      lambda       -0.1669158E-05
   maximum displ.:     0.0079071 α      in ANC's #7, #6, #4, ...

........................................................................
.............................. CYCLE   16 ..............................
........................................................................

 iter      E             dE          RMSdq      gap      omega  full diag
   1    -50.0379074 -0.500379E+02  0.595E-03    2.41       0.0  T
   2    -50.0379074 -0.199363E-07  0.343E-03    2.41       5.0  T
   3    -50.0379074  0.175651E-07  0.862E-04    2.41      19.9  T
   4    -50.0379074 -0.210971E-07  0.279E-04    2.41      61.4  T
   5    -50.0379074 -0.173804E-08  0.106E-04    2.41     161.9  T
   6    -50.0379074 -0.100613E-10  0.517E-05    2.41     331.8  T
     SCC iter.                  ...        0 min,  0.015 sec
     gradient                   ...        0 min,  0.016 sec
 * total energy  :   -49.1081932 Eh     change       -0.1407041E-05 Eh
   gradient norm :     0.0003673 Eh/α   predicted    -0.8372808E-06 ( -40.49%)
   displ. norm   :     0.0163538 α      lambda       -0.9148648E-06
   maximum displ.:     0.0097986 α      in ANC's #4, #10, #3, ...

........................................................................
.............................. CYCLE   17 ..............................
........................................................................

 iter      E             dE          RMSdq      gap      omega  full diag
   1    -50.0379381 -0.500379E+02  0.604E-03    2.41       0.0  T
   2    -50.0379381 -0.730184E-08  0.351E-03    2.41       4.9  T
   3    -50.0379381  0.144842E-07  0.735E-04    2.41      23.3  T
   4    -50.0379381 -0.179100E-07  0.159E-04    2.41     107.6  T
   5    -50.0379381 -0.188081E-09  0.849E-05    2.41     202.1  T
     SCC iter.                  ...        0 min,  0.014 sec
     gradient                   ...        0 min,  0.030 sec
 * total energy  :   -49.1081943 Eh     change       -0.1121090E-05 Eh
   gradient norm :     0.0003027 Eh/α   predicted    -0.4584896E-06 ( -59.10%)
   displ. norm   :     0.0388215 α      lambda       -0.1644907E-05
   maximum displ.:     0.0225078 α      in ANC's #10, #4, #3, ...

........................................................................
.............................. CYCLE   18 ..............................
........................................................................

 iter      E             dE          RMSdq      gap      omega  full diag
   1    -50.0379661 -0.500380E+02  0.130E-02    2.41       0.0  T
   2    -50.0379661 -0.344099E-07  0.757E-03    2.41       2.3  T
   3    -50.0379661  0.469871E-07  0.139E-03    2.41      12.3  T
   4    -50.0379661 -0.617293E-07  0.357E-04    2.41      48.0  T
   5    -50.0379661 -0.819149E-09  0.183E-04    2.41      93.5  T
   6    -50.0379661 -0.531465E-09  0.438E-05    2.41     391.7  T
     SCC iter.                  ...        0 min,  0.010 sec
     gradient                   ...        0 min,  0.018 sec
 * total energy  :   -49.1081962 Eh     change       -0.1854189E-05 Eh
   gradient norm :     0.0005217 Eh/α   predicted    -0.8255700E-06 ( -55.48%)
   displ. norm   :     0.0477972 α      lambda       -0.1734927E-05
   maximum displ.:     0.0257095 α      in ANC's #4, #10, #5, ...

........................................................................
.............................. CYCLE   19 ..............................
........................................................................

 iter      E             dE          RMSdq      gap      omega  full diag
   1    -50.0379197 -0.500379E+02  0.163E-02    2.41       0.0  T
   2    -50.0379197 -0.588863E-07  0.945E-03    2.41       1.8  T
   3    -50.0379196  0.786037E-07  0.180E-03    2.41       9.5  T
   4    -50.0379197 -0.104414E-06  0.449E-04    2.41      38.2  T
   5    -50.0379197 -0.108781E-08  0.218E-04    2.41      78.8  T
   6    -50.0379197 -0.738318E-09  0.535E-05    2.41     320.3  T
   7    -50.0379197 -0.633875E-10  0.196E-05    2.41     875.2  T
     SCC iter.                  ...        0 min,  0.011 sec
     gradient                   ...        0 min,  0.016 sec
 * total energy  :   -49.1081983 Eh     change       -0.2120204E-05 Eh
   gradient norm :     0.0006612 Eh/α   predicted    -0.8700826E-06 ( -58.96%)
   displ. norm   :     0.0532202 α      lambda       -0.2072965E-05
   maximum displ.:     0.0302721 α      in ANC's #4, #5, #10, ...

........................................................................
.............................. CYCLE   20 ..............................
........................................................................

 iter      E             dE          RMSdq      gap      omega  full diag
   1    -50.0379287 -0.500379E+02  0.184E-02    2.41       0.0  T
   2    -50.0379288 -0.797567E-07  0.106E-02    2.41       1.6  T
   3    -50.0379286  0.116849E-06  0.217E-03    2.41       7.9  T
   4    -50.0379288 -0.154965E-06  0.511E-04    2.41      33.6  T
   5    -50.0379288 -0.622734E-09  0.237E-04    2.41      72.3  T
   6    -50.0379288 -0.126624E-08  0.488E-05    2.41     351.7  T
   7    -50.0379288 -0.423839E-10  0.230E-05    2.41     747.1  T
     SCC iter.                  ...        0 min,  0.011 sec
     gradient                   ...        0 min,  0.017 sec
 * total energy  :   -49.1082010 Eh     change       -0.2772779E-05 Eh
   gradient norm :     0.0006038 Eh/α   predicted    -0.1042172E-05 ( -62.41%)
   displ. norm   :     0.0838330 α      lambda       -0.3310027E-05
   maximum displ.:     0.0486048 α      in ANC's #4, #5, #10, ...
 * RMSD in coord.:     0.2942954 α      energy gain  -0.7735505E-02 Eh

generating ANC from exact Hessian ...
Using Lindh-Hessian (1995)
 Shifting diagonal of input Hessian by    9.4948093355073579E-003
 Lowest  eigenvalues of input Hessian
    0.000000    0.000000    0.000000    0.000000    0.000000    0.000000
    0.010000    0.010288    0.010501    0.012031    0.012472    0.015116
    0.015821    0.016443    0.019250    0.019834    0.022078    0.025033
 Highest eigenvalues
    1.972605    1.990586    2.004831    2.040106    2.104750    2.223795


........................................................................
.............................. CYCLE   21 ..............................
........................................................................

 iter      E             dE          RMSdq      gap      omega  full diag
   1    -50.0378724 -0.500379E+02  0.290E-02    2.41       0.0  T
   2    -50.0378726 -0.192409E-06  0.167E-02    2.41       1.0  T
   3    -50.0378723  0.283479E-06  0.335E-03    2.41       5.1  T
   4    -50.0378727 -0.375406E-06  0.788E-04    2.41      21.8  T
   5    -50.0378727 -0.155902E-08  0.353E-04    2.41      48.5  T
   6    -50.0378727 -0.274582E-08  0.794E-05    2.41     215.9  T
   7    -50.0378727 -0.125098E-09  0.356E-05    2.41     481.4  T
     SCC iter.                  ...        0 min,  0.012 sec
     gradient                   ...        0 min,  0.015 sec
 * total energy  :   -49.1082053 Eh     change       -0.4262528E-05 Eh
   gradient norm :     0.0003945 Eh/α   predicted     0.0000000E+00 (-100.00%)
   displ. norm   :     0.0115444 α      lambda       -0.1886742E-06
   maximum displ.:     0.0060967 α      in ANC's #1, #8, #5, ...

........................................................................
.............................. CYCLE   22 ..............................
........................................................................

 iter      E             dE          RMSdq      gap      omega  full diag
   1    -50.0380252 -0.500380E+02  0.440E-03    2.41       0.0  T
   2    -50.0380252 -0.701016E-08  0.257E-03    2.41       6.7  T
   3    -50.0380252  0.414506E-08  0.428E-04    2.41      40.1  T
   4    -50.0380252 -0.517403E-08  0.122E-04    2.41     140.2  T
   5    -50.0380252 -0.344819E-09  0.548E-05    2.41     313.0  T
     SCC iter.                  ...        0 min,  0.008 sec
     gradient                   ...        0 min,  0.015 sec
 * total energy  :   -49.1082065 Eh     change       -0.1157328E-05 Eh
   gradient norm :     0.0001674 Eh/α   predicted    -0.5168853E-06 ( -55.34%)
   displ. norm   :     0.0250257 α      lambda       -0.1294185E-05
   maximum displ.:     0.0131662 α      in ANC's #1, #2, #8, ...

........................................................................
.............................. CYCLE   23 ..............................
........................................................................

 iter      E             dE          RMSdq      gap      omega  full diag
   1    -50.0380627 -0.500381E+02  0.883E-03    2.41       0.0  T
   2    -50.0380627 -0.640444E-08  0.519E-03    2.41       3.3  T
   3    -50.0380627  0.111458E-07  0.626E-04    2.41      27.4  T
   4    -50.0380627 -0.142932E-07  0.110E-04    2.41     156.2  T
   5    -50.0380627 -0.628830E-10  0.704E-05    2.41     243.4  T
     SCC iter.                  ...        0 min,  0.008 sec
     gradient                   ...        0 min,  0.016 sec
 * total energy  :   -49.1082079 Eh     change       -0.1465657E-05 Eh
   gradient norm :     0.0003394 Eh/α   predicted    -0.6477724E-06 ( -55.80%)
   displ. norm   :     0.0319832 α      lambda       -0.1184166E-05
   maximum displ.:     0.0177121 α      in ANC's #1, #2, #8, ...

........................................................................
.............................. CYCLE   24 ..............................
........................................................................

 iter      E             dE          RMSdq      gap      omega  full diag
   1    -50.0379918 -0.500380E+02  0.106E-02    2.41       0.0  T
   2    -50.0379918 -0.824055E-08  0.622E-03    2.41       2.8  T
   3    -50.0379918  0.107212E-07  0.643E-04    2.41      26.7  T
   4    -50.0379918 -0.146450E-07  0.121E-04    2.41     141.4  T
   5    -50.0379918 -0.370051E-10  0.661E-05    2.41     259.6  T
     SCC iter.                  ...        0 min,  0.009 sec
     gradient                   ...        0 min,  0.015 sec
 * total energy  :   -49.1082093 Eh     change       -0.1356667E-05 Eh
   gradient norm :     0.0002981 Eh/α   predicted    -0.5931725E-06 ( -56.28%)
   displ. norm   :     0.0364253 α      lambda       -0.1154533E-05
   maximum displ.:     0.0210973 α      in ANC's #1, #2, #10, ...

........................................................................
.............................. CYCLE   25 ..............................
........................................................................

 iter      E             dE          RMSdq      gap      omega  full diag
   1    -50.0379336 -0.500379E+02  0.112E-02    2.41       0.0  T
   2    -50.0379336 -0.104162E-07  0.660E-03    2.41       2.6  T
   3    -50.0379336  0.208329E-07  0.866E-04    2.41      19.8  T
   4    -50.0379336 -0.262349E-07  0.157E-04    2.41     108.9  T
   5    -50.0379336 -0.774492E-10  0.948E-05    2.41     181.0  T
     SCC iter.                  ...        0 min,  0.009 sec
     gradient                   ...        0 min,  0.015 sec
 * total energy  :   -49.1082107 Eh     change       -0.1444330E-05 Eh
   gradient norm :     0.0002297 Eh/α   predicted    -0.5785802E-06 ( -59.94%)
   displ. norm   :     0.0583646 α      lambda       -0.1865659E-05
   maximum displ.:     0.0342332 α      in ANC's #1, #2, #10, ...

........................................................................
.............................. CYCLE   26 ..............................
........................................................................

 iter      E             dE          RMSdq      gap      omega  full diag
   1    -50.0378289 -0.500378E+02  0.172E-02    2.42       0.0  T
   2    -50.0378289 -0.314803E-07  0.101E-02    2.42       1.7  T
   3    -50.0378289  0.854439E-07  0.173E-03    2.42       9.9  T
   4    -50.0378290 -0.102300E-06  0.284E-04    2.42      60.4  T
   5    -50.0378290 -0.583050E-09  0.170E-04    2.42     101.0  T
   6    -50.0378290 -0.425594E-09  0.639E-05    2.42     268.5  T
     SCC iter.                  ...        0 min,  0.010 sec
     gradient                   ...        0 min,  0.015 sec
 * total energy  :   -49.1082131 Eh     change       -0.2375889E-05 Eh
   gradient norm :     0.0003040 Eh/α   predicted    -0.9348610E-06 ( -60.65%)
   displ. norm   :     0.1089769 α      lambda       -0.3349502E-05
   maximum displ.:     0.0638940 α      in ANC's #1, #2, #10, ...

........................................................................
.............................. CYCLE   27 ..............................
........................................................................

 iter      E             dE          RMSdq      gap      omega  full diag
   1    -50.0376614 -0.500377E+02  0.320E-02    2.42       0.0  T
   2    -50.0376615 -0.110035E-06  0.188E-02    2.42       1.0  T
   3    -50.0376612  0.340916E-06  0.343E-03    2.42       5.0  T
   4    -50.0376616 -0.403826E-06  0.578E-04    2.42      29.7  T
   5    -50.0376616 -0.263653E-08  0.345E-04    2.42      49.7  T
   6    -50.0376616 -0.189910E-08  0.108E-04    2.42     158.9  T
   7    -50.0376616 -0.161492E-09  0.381E-05    2.42     450.7  T
     SCC iter.                  ...        0 min,  0.011 sec
     gradient                   ...        0 min,  0.014 sec
 * total energy  :   -49.1082171 Eh     change       -0.3991226E-05 Eh
   gradient norm :     0.0006168 Eh/α   predicted    -0.1687992E-05 ( -57.71%)
   displ. norm   :     0.1580540 α      lambda       -0.4212156E-05
   maximum displ.:     0.0925651 α      in ANC's #1, #2, #10, ...

........................................................................
.............................. CYCLE   28 ..............................
........................................................................

 iter      E             dE          RMSdq      gap      omega  full diag
   1    -50.0374130 -0.500374E+02  0.470E-02    2.42       0.0  T
   2    -50.0374133 -0.239803E-06  0.276E-02    2.42       1.0  T
   3    -50.0374125  0.793124E-06  0.522E-03    2.43       3.3  T
   4    -50.0374134 -0.935361E-06  0.875E-04    2.42      19.6  T
   5    -50.0374134 -0.611128E-08  0.517E-04    2.42      33.2  T
   6    -50.0374134 -0.426043E-08  0.153E-04    2.42     112.4  T
   7    -50.0374134 -0.333721E-09  0.549E-05    2.42     312.7  T
     SCC iter.                  ...        0 min,  0.011 sec
     gradient                   ...        0 min,  0.015 sec
 * total energy  :   -49.1082215 Eh     change       -0.4401909E-05 Eh
   gradient norm :     0.0010424 Eh/α   predicted    -0.2132030E-05 ( -51.57%)
   displ. norm   :     0.1301448 α      lambda       -0.3713788E-05
   maximum displ.:     0.0761767 α      in ANC's #1, #2, #10, ...

........................................................................
.............................. CYCLE   29 ..............................
........................................................................

 iter      E             dE          RMSdq      gap      omega  full diag
   1    -50.0374989 -0.500375E+02  0.400E-02    2.43       0.0  T
   2    -50.0374990 -0.182726E-06  0.234E-02    2.43       1.0  T
   3    -50.0374985  0.556973E-06  0.439E-03    2.43       3.9  T
   4    -50.0374991 -0.662628E-06  0.781E-04    2.43      22.0  T
   5    -50.0374992 -0.403600E-08  0.454E-04    2.43      37.7  T
   6    -50.0374992 -0.367092E-08  0.120E-04    2.43     142.6  T
   7    -50.0374992 -0.184052E-09  0.471E-05    2.43     363.8  T
     SCC iter.                  ...        0 min,  0.012 sec
     gradient                   ...        0 min,  0.015 sec
 * total energy  :   -49.1082258 Eh     change       -0.4257619E-05 Eh
   gradient norm :     0.0009621 Eh/α   predicted    -0.1875094E-05 ( -55.96%)
   displ. norm   :     0.1497033 α      lambda       -0.5127588E-05
   maximum displ.:     0.0864913 α      in ANC's #1, #2, #10, ...

........................................................................
.............................. CYCLE   30 ..............................
........................................................................

 iter      E             dE          RMSdq      gap      omega  full diag
   1    -50.0378397 -0.500378E+02  0.477E-02    2.43       0.0  T
   2    -50.0378400 -0.293827E-06  0.278E-02    2.43       1.0  T
   3    -50.0378392  0.782187E-06  0.525E-03    2.44       3.3  T
   4    -50.0378401 -0.941927E-06  0.995E-04    2.43      17.2  T
   5    -50.0378401 -0.688311E-08  0.550E-04    2.43      31.2  T
   6    -50.0378401 -0.498536E-08  0.151E-04    2.43     113.4  T
   7    -50.0378401 -0.326757E-09  0.541E-05    2.43     316.9  T
     SCC iter.                  ...        0 min,  0.012 sec
     gradient                   ...        0 min,  0.015 sec
 * total energy  :   -49.1082313 Eh     change       -0.5493583E-05 Eh
   gradient norm :     0.0004235 Eh/α   predicted    -0.2589913E-05 ( -52.86%)
   displ. norm   :     0.2050183 α      lambda       -0.4405133E-05
   maximum displ.:     0.1175893 α      in ANC's #1, #2, #4, ...

........................................................................
.............................. CYCLE   31 ..............................
........................................................................

 iter      E             dE          RMSdq      gap      omega  full diag
   1    -50.0374918 -0.500375E+02  0.647E-02    2.44       0.0  T
   2    -50.0374924 -0.552527E-06  0.377E-02    2.44       1.0  T
   3    -50.0374911  0.133251E-05  0.697E-03    2.44       2.5  T
   4    -50.0374927 -0.163306E-05  0.138E-03    2.44      12.5  T
   5    -50.0374927 -0.824804E-08  0.792E-04    2.44      21.7  T
   6    -50.0374927 -0.124292E-07  0.166E-04    2.44     103.5  T
   7    -50.0374927 -0.381057E-09  0.738E-05    2.44     232.2  T
     SCC iter.                  ...        0 min,  0.011 sec
     gradient                   ...        0 min,  0.015 sec
 * total energy  :   -49.1082361 Eh     change       -0.4856387E-05 Eh
   gradient norm :     0.0007157 Eh/α   predicted    -0.2248304E-05 ( -53.70%)
   displ. norm   :     0.3182758 α      lambda       -0.9371811E-05
   maximum displ.:     0.1760741 α      in ANC's #1, #2, #4, ...

........................................................................
.............................. CYCLE   32 ..............................
........................................................................

 iter      E             dE          RMSdq      gap      omega  full diag
   1    -50.0374192 -0.500374E+02  0.104E-01    2.45       0.0  T
   2    -50.0374210 -0.176456E-05  0.606E-02    2.45       1.0  T
   3    -50.0374178  0.313261E-05  0.111E-02    2.45       1.5  T
   4    -50.0374218 -0.398922E-05  0.242E-03    2.45       7.1  T
   5    -50.0374218 -0.239739E-07  0.138E-03    2.45      12.4  T
   6    -50.0374219 -0.405563E-07  0.268E-04    2.45      64.0  T
   7    -50.0374219 -0.933490E-09  0.120E-04    2.45     143.3  T
   8    -50.0374219 -0.127223E-09  0.567E-05    2.45     302.7  T
     SCC iter.                  ...        0 min,  0.011 sec
     gradient                   ...        0 min,  0.015 sec
 * total energy  :   -49.1082465 Eh     change       -0.1036727E-04 Eh
   gradient norm :     0.0012038 Eh/α   predicted    -0.4898959E-05 ( -52.75%)
   displ. norm   :     0.3236172 α      lambda       -0.1329934E-04
   maximum displ.:     0.1696316 α      in ANC's #1, #4, #5, ...

........................................................................
.............................. CYCLE   33 ..............................
........................................................................

 iter      E             dE          RMSdq      gap      omega  full diag
   1    -50.0374261 -0.500374E+02  0.109E-01    2.46       0.0  T
   2    -50.0374285 -0.239448E-05  0.631E-02    2.46       1.0  T
   3    -50.0374253  0.319283E-05  0.117E-02    2.47       1.5  T
   4    -50.0374295 -0.425202E-05  0.272E-03    2.47       6.3  T
   5    -50.0374296 -0.263701E-07  0.160E-03    2.47      10.7  T
   6    -50.0374296 -0.578322E-07  0.292E-04    2.47      58.8  T
   7    -50.0374296 -0.107114E-08  0.128E-04    2.47     133.5  T
   8    -50.0374296 -0.151019E-09  0.622E-05    2.47     275.5  T
     SCC iter.                  ...        0 min,  0.014 sec
     gradient                   ...        0 min,  0.016 sec
 * total energy  :   -49.1082629 Eh     change       -0.1646469E-04 Eh
   gradient norm :     0.0016335 Eh/α   predicted    -0.6961379E-05 ( -57.72%)
   displ. norm   :     0.3283485 α      lambda       -0.2422061E-04
   maximum displ.:     0.1722902 α      in ANC's #4, #1, #5, ...

........................................................................
.............................. CYCLE   34 ..............................
........................................................................

 iter      E             dE          RMSdq      gap      omega  full diag
   1    -50.0388124 -0.500388E+02  0.116E-01    2.48       0.0  T
   2    -50.0388159 -0.348368E-05  0.667E-02    2.48       1.0  T
   3    -50.0388128  0.308704E-05  0.124E-02    2.48       1.4  T
   4    -50.0388172 -0.445678E-05  0.312E-03    2.48       5.5  T
   5    -50.0388173 -0.306056E-07  0.181E-03    2.48       9.5  T
   6    -50.0388173 -0.774824E-07  0.372E-04    2.48      46.1  T
   7    -50.0388173 -0.183600E-08  0.142E-04    2.48     120.5  T
   8    -50.0388173 -0.221242E-09  0.715E-05    2.48     239.7  T
     SCC iter.                  ...        0 min,  0.012 sec
     gradient                   ...        0 min,  0.015 sec
 * total energy  :   -49.1082853 Eh     change       -0.2240522E-04 Eh
   gradient norm :     0.0017382 Eh/α   predicted    -0.1269135E-04 ( -43.36%)
   displ. norm   :     0.9019487 α      lambda       -0.4835657E-04
   maximum displ.:     0.4675732 α      in ANC's #1, #4, #5, ...

........................................................................
.............................. CYCLE   35 ..............................
........................................................................

 iter      E             dE          RMSdq      gap      omega  full diag
   1    -50.0279150 -0.500279E+02  0.307E-01    2.52       0.0  T
   2    -50.0279479 -0.328814E-04  0.177E-01    2.52       1.0  T
   3    -50.0279193  0.285842E-04  0.386E-02    2.52       1.0  T
   4    -50.0279592 -0.399791E-04  0.823E-03    2.52       2.1  T
   5    -50.0279596 -0.390696E-06  0.447E-03    2.52       3.8  T
   6    -50.0279598 -0.165264E-06  0.203E-03    2.52       8.4  T
   7    -50.0279599 -0.112543E-06  0.443E-04    2.52      38.7  T
   8    -50.0279599 -0.211911E-08  0.233E-04    2.52      73.7  T
   9    -50.0279599 -0.289248E-09  0.576E-05    2.52     297.8  T
  10    -50.0279599 -0.272848E-10  0.259E-05    2.52     661.0  T
     SCC iter.                  ...        0 min,  0.014 sec
     gradient                   ...        0 min,  0.016 sec
 * total energy  :   -49.1080049 Eh     change        0.2804788E-03 Eh
   gradient norm :     0.0152889 Eh/α   predicted    -0.3292086E-04 (-111.74%)
   displ. norm   :     0.3637889 α      lambda       -0.5191860E-03
   maximum displ.:     0.1888502 α      in ANC's #1, #4, #5, ...

........................................................................
.............................. CYCLE   36 ..............................
........................................................................

 iter      E             dE          RMSdq      gap      omega  full diag
   1    -50.0354069 -0.500354E+02  0.124E-01    2.50       0.0  T
   2    -50.0354141 -0.720916E-05  0.716E-02    2.50       1.0  T
   3    -50.0354096  0.452944E-05  0.163E-02    2.50       1.1  T
   4    -50.0354161 -0.648961E-05  0.365E-03    2.50       4.7  T
   5    -50.0354162 -0.115999E-06  0.184E-03    2.50       9.3  T
   6    -50.0354162  0.457728E-08  0.990E-04    2.50      17.3  T
   7    -50.0354162 -0.289179E-07  0.194E-04    2.50      88.4  T
   8    -50.0354162 -0.425317E-09  0.105E-04    2.50     163.5  T
     SCC iter.                  ...        0 min,  0.012 sec
     gradient                   ...        0 min,  0.016 sec
 * total energy  :   -49.1082917 Eh     change       -0.2868578E-03 Eh
   gradient norm :     0.0038875 Eh/α   predicted    -0.2939557E-03 (   2.47%)
   displ. norm   :     0.0594557 α      lambda       -0.3119454E-04
   maximum displ.:     0.0296850 α      in ANC's #2, #1, #4, ...

........................................................................
.............................. CYCLE   37 ..............................
........................................................................

 iter      E             dE          RMSdq      gap      omega  full diag
   1    -50.0375269 -0.500375E+02  0.215E-02    2.50       0.0  T
   2    -50.0375271 -0.193374E-06  0.125E-02    2.50       1.4  T
   3    -50.0375270  0.132810E-06  0.276E-03    2.50       6.2  T
   4    -50.0375272 -0.183013E-06  0.585E-04    2.50      29.3  T
   5    -50.0375272 -0.292656E-08  0.287E-04    2.50      59.8  T
   6    -50.0375272  0.117339E-09  0.131E-04    2.50     131.3  T
   7    -50.0375272 -0.449376E-09  0.329E-05    2.50     521.2  T
     SCC iter.                  ...        0 min,  0.011 sec
     gradient                   ...        0 min,  0.015 sec
 * total energy  :   -49.1083118 Eh     change       -0.2008366E-04 Eh
   gradient norm :     0.0014295 Eh/α   predicted    -0.1565419E-04 ( -22.06%)
   displ. norm   :     0.0468949 α      lambda       -0.7417650E-05
   maximum displ.:     0.0221060 α      in ANC's #4, #6, #5, ...

........................................................................
.............................. CYCLE   38 ..............................
........................................................................

 iter      E             dE          RMSdq      gap      omega  full diag
   1    -50.0386511 -0.500387E+02  0.169E-02    2.50       0.0  T
   2    -50.0386512 -0.102000E-06  0.981E-03    2.50       1.7  T
   3    -50.0386512  0.543848E-07  0.183E-03    2.50       9.4  T
   4    -50.0386512 -0.796265E-07  0.537E-04    2.50      31.9  T
   5    -50.0386513 -0.372179E-08  0.277E-04    2.50      61.9  T
   6    -50.0386513 -0.364651E-09  0.129E-04    2.50     133.1  T
   7    -50.0386513 -0.430667E-09  0.259E-05    2.50     662.6  T
     SCC iter.                  ...        0 min,  0.012 sec
     gradient                   ...        0 min,  0.015 sec
 * total energy  :   -49.1083175 Eh     change       -0.5670203E-05 Eh
   gradient norm :     0.0009720 Eh/α   predicted    -0.3716980E-05 ( -34.45%)
   displ. norm   :     0.0310233 α      lambda       -0.3777832E-05
   maximum displ.:     0.0182907 α      in ANC's #6, #5, #4, ...

........................................................................
.............................. CYCLE   39 ..............................
........................................................................

 iter      E             dE          RMSdq      gap      omega  full diag
   1    -50.0386880 -0.500387E+02  0.107E-02    2.50       0.0  T
   2    -50.0386880 -0.344203E-07  0.614E-03    2.50       2.8  T
   3    -50.0386880  0.485403E-07  0.143E-03    2.50      12.0  T
   4    -50.0386880 -0.639954E-07  0.326E-04    2.50      52.7  T
   5    -50.0386880 -0.486537E-09  0.175E-04    2.50      98.2  T
   6    -50.0386880 -0.677993E-09  0.394E-05    2.50     435.3  T
     SCC iter.                  ...        0 min,  0.009 sec
     gradient                   ...        0 min,  0.014 sec
 * total energy  :   -49.1083223 Eh     change       -0.4778900E-05 Eh
   gradient norm :     0.0010442 Eh/α   predicted    -0.1892577E-05 ( -60.40%)
   displ. norm   :     0.1113033 α      lambda       -0.1474280E-04
   maximum displ.:     0.0611309 α      in ANC's #6, #5, #10, ...

........................................................................
.............................. CYCLE   40 ..............................
........................................................................

 iter      E             dE          RMSdq      gap      omega  full diag
   1    -50.0376691 -0.500377E+02  0.335E-02    2.50       0.0  T
   2    -50.0376694 -0.308684E-06  0.195E-02    2.50       1.0  T
   3    -50.0376685  0.926484E-06  0.577E-03    2.50       3.0  T
   4    -50.0376696 -0.111153E-05  0.103E-03    2.50      16.7  T
   5    -50.0376696 -0.563765E-08  0.574E-04    2.50      29.9  T
   6    -50.0376696 -0.605110E-08  0.136E-04    2.50     125.7  T
   7    -50.0376696 -0.395559E-09  0.521E-05    2.50     329.3  T
     SCC iter.                  ...        0 min,  0.011 sec
     gradient                   ...        0 min,  0.016 sec
 * total energy  :   -49.1083344 Eh     change       -0.1218244E-04 Eh
   gradient norm :     0.0011873 Eh/α   predicted    -0.7413337E-05 ( -39.15%)
   displ. norm   :     0.0583132 α      lambda       -0.5229602E-05
   maximum displ.:     0.0356913 α      in ANC's #3, #10, #1, ...

........................................................................
.............................. CYCLE   41 ..............................
........................................................................

 iter      E             dE          RMSdq      gap      omega  full diag
   1    -50.0377451 -0.500377E+02  0.170E-02    2.50       0.0  T
   2    -50.0377451 -0.305629E-07  0.101E-02    2.50       1.7  T
   3    -50.0377450  0.607654E-07  0.149E-03    2.50      11.5  T
   4    -50.0377451 -0.722017E-07  0.312E-04    2.50      54.9  T
   5    -50.0377451 -0.143276E-08  0.161E-04    2.50     106.5  T
   6    -50.0377451 -0.262979E-09  0.788E-05    2.50     217.8  T
     SCC iter.                  ...        0 min,  0.011 sec
     gradient                   ...        0 min,  0.016 sec
 * total energy  :   -49.1083410 Eh     change       -0.6567993E-05 Eh
   gradient norm :     0.0011122 Eh/α   predicted    -0.2619870E-05 ( -60.11%)
   displ. norm   :     0.2326460 α      lambda       -0.1686759E-04
   maximum displ.:     0.1361637 α      in ANC's #3, #10, #1, ...

........................................................................
.............................. CYCLE   42 ..............................
........................................................................

 iter      E             dE          RMSdq      gap      omega  full diag
   1    -50.0376992 -0.500377E+02  0.713E-02    2.50       0.0  T
   2    -50.0376997 -0.527815E-06  0.419E-02    2.50       1.0  T
   3    -50.0376992  0.568504E-06  0.506E-03    2.50       3.4  T
   4    -50.0377000 -0.804385E-06  0.125E-03    2.50      13.7  T
   5    -50.0377000 -0.511994E-08  0.493E-04    2.50      34.8  T
   6    -50.0377000 -0.425404E-08  0.183E-04    2.50      93.5  T
   7    -50.0377000 -0.699409E-09  0.695E-05    2.50     246.8  T
     SCC iter.                  ...        0 min,  0.012 sec
     gradient                   ...        0 min,  0.015 sec
 * total energy  :   -49.1083546 Eh     change       -0.1360813E-04 Eh
   gradient norm :     0.0020848 Eh/α   predicted    -0.8637040E-05 ( -36.53%)
   displ. norm   :     0.0553726 α      lambda       -0.9022101E-05
   maximum displ.:     0.0277908 α      in ANC's #3, #4, #1, ...
 * RMSD in coord.:     0.4168912 α      energy gain  -0.1535706E-03 Eh

generating ANC from exact Hessian ...
Using Lindh-Hessian (1995)
 Shifting diagonal of input Hessian by    9.4997605739762098E-003
 Lowest  eigenvalues of input Hessian
    0.000000    0.000000    0.000000    0.000000    0.000000    0.000000
    0.010000    0.010295    0.010501    0.012079    0.012517    0.015050
    0.015596    0.016441    0.019311    0.019685    0.022165    0.025055
 Highest eigenvalues
    1.970923    1.989735    2.009643    2.040191    2.104778    2.229784


........................................................................
.............................. CYCLE   43 ..............................
........................................................................

 iter      E             dE          RMSdq      gap      omega  full diag
   1    -50.0379717 -0.500380E+02  0.206E-02    2.50       0.0  T
   2    -50.0379719 -0.132339E-06  0.119E-02    2.50       1.4  T
   3    -50.0379718  0.286017E-07  0.165E-03    2.50      10.4  T
   4    -50.0379719 -0.617212E-07  0.571E-04    2.50      30.0  T
   5    -50.0379719 -0.330173E-08  0.277E-04    2.50      61.9  T
   6    -50.0379719 -0.402586E-09  0.130E-04    2.50     131.9  T
   7    -50.0379719 -0.471772E-09  0.282E-05    2.50     607.2  T
     SCC iter.                  ...        0 min,  0.010 sec
     gradient                   ...        0 min,  0.017 sec
 * total energy  :   -49.1083605 Eh     change       -0.5920081E-05 Eh
   gradient norm :     0.0011752 Eh/α   predicted     0.0000000E+00 (-100.00%)
   displ. norm   :     0.0155042 α      lambda       -0.4305279E-05
   maximum displ.:     0.0080026 α      in ANC's #3, #7, #9, ...

........................................................................
.............................. CYCLE   44 ..............................
........................................................................

 iter      E             dE          RMSdq      gap      omega  full diag
   1    -50.0383769 -0.500384E+02  0.799E-03    2.50       0.0  T
   2    -50.0383769 -0.166936E-07  0.473E-03    2.50       3.6  T
   3    -50.0383769  0.246422E-07  0.963E-04    2.50      17.8  T
   4    -50.0383769 -0.290695E-07  0.268E-04    2.50      64.1  T
   5    -50.0383769 -0.135689E-08  0.113E-04    2.50     152.0  T
   6    -50.0383769 -0.148027E-09  0.508E-05    2.50     337.8  T
     SCC iter.                  ...        0 min,  0.011 sec
     gradient                   ...        0 min,  0.015 sec
 * total energy  :   -49.1083639 Eh     change       -0.3383127E-05 Eh
   gradient norm :     0.0003418 Eh/α   predicted    -0.2156051E-05 ( -36.27%)
   displ. norm   :     0.0183274 α      lambda       -0.1689943E-05
   maximum displ.:     0.0105827 α      in ANC's #3, #4, #9, ...

........................................................................
.............................. CYCLE   45 ..............................
........................................................................

 iter      E             dE          RMSdq      gap      omega  full diag
   1    -50.0384582 -0.500385E+02  0.665E-03    2.50       0.0  T
   2    -50.0384582 -0.576938E-08  0.391E-03    2.50       4.4  T
   3    -50.0384582  0.223050E-07  0.858E-04    2.50      20.0  T
   4    -50.0384582 -0.257750E-07  0.149E-04    2.50     115.3  T
   5    -50.0384582 -0.253188E-09  0.811E-05    2.50     211.5  T
     SCC iter.                  ...        0 min,  0.008 sec
     gradient                   ...        0 min,  0.016 sec
 * total energy  :   -49.1083660 Eh     change       -0.2066730E-05 Eh
   gradient norm :     0.0004655 Eh/α   predicted    -0.8664030E-06 ( -58.08%)
   displ. norm   :     0.0558707 α      lambda       -0.3855744E-05
   maximum displ.:     0.0299269 α      in ANC's #3, #4, #7, ...

........................................................................
.............................. CYCLE   46 ..............................
........................................................................

 iter      E             dE          RMSdq      gap      omega  full diag
   1    -50.0383659 -0.500384E+02  0.179E-02    2.50       0.0  T
   2    -50.0383659 -0.375108E-07  0.105E-02    2.50       1.6  T
   3    -50.0383658  0.781654E-07  0.168E-03    2.50      10.2  T
   4    -50.0383659 -0.968615E-07  0.377E-04    2.50      45.4  T
   5    -50.0383659 -0.818957E-09  0.186E-04    2.50      92.2  T
   6    -50.0383659 -0.526320E-09  0.600E-05    2.50     286.0  T
     SCC iter.                  ...        0 min,  0.009 sec
     gradient                   ...        0 min,  0.016 sec
 * total energy  :   -49.1083706 Eh     change       -0.4578105E-05 Eh
   gradient norm :     0.0006286 Eh/α   predicted    -0.1974689E-05 ( -56.87%)
   displ. norm   :     0.0936286 α      lambda       -0.4983651E-05
   maximum displ.:     0.0492758 α      in ANC's #3, #4, #7, ...

........................................................................
.............................. CYCLE   47 ..............................
........................................................................

 iter      E             dE          RMSdq      gap      omega  full diag
   1    -50.0381572 -0.500382E+02  0.290E-02    2.50       0.0  T
   2    -50.0381573 -0.966959E-07  0.170E-02    2.50       1.0  T
   3    -50.0381572  0.124194E-06  0.228E-03    2.50       7.5  T
   4    -50.0381574 -0.168538E-06  0.611E-04    2.50      28.1  T
   5    -50.0381574 -0.106110E-08  0.276E-04    2.50      62.1  T
   6    -50.0381574 -0.186856E-08  0.702E-05    2.50     244.2  T
   7    -50.0381574 -0.973657E-10  0.315E-05    2.50     543.8  T
     SCC iter.                  ...        0 min,  0.011 sec
     gradient                   ...        0 min,  0.016 sec
 * total energy  :   -49.1083759 Eh     change       -0.5351553E-05 Eh
   gradient norm :     0.0007478 Eh/α   predicted    -0.2501801E-05 ( -53.25%)
   displ. norm   :     0.0958996 α      lambda       -0.4130901E-05
   maximum displ.:     0.0499334 α      in ANC's #3, #10, #4, ...

........................................................................
.............................. CYCLE   48 ..............................
........................................................................

 iter      E             dE          RMSdq      gap      omega  full diag
   1    -50.0380269 -0.500380E+02  0.294E-02    2.51       0.0  T
   2    -50.0380271 -0.108573E-06  0.172E-02    2.51       1.0  T
   3    -50.0380269  0.130691E-06  0.235E-03    2.51       7.3  T
   4    -50.0380271 -0.179439E-06  0.648E-04    2.51      26.4  T
   5    -50.0380271 -0.104526E-08  0.304E-04    2.51      56.5  T
   6    -50.0380271 -0.241923E-08  0.699E-05    2.51     245.3  T
   7    -50.0380271 -0.836167E-10  0.331E-05    2.51     518.9  T
     SCC iter.                  ...        0 min,  0.013 sec
     gradient                   ...        0 min,  0.015 sec
 * total energy  :   -49.1083802 Eh     change       -0.4269226E-05 Eh
   gradient norm :     0.0008223 Eh/α   predicted    -0.2074403E-05 ( -51.41%)
   displ. norm   :     0.0653080 α      lambda       -0.3388011E-05
   maximum displ.:     0.0338193 α      in ANC's #10, #3, #2, ...

........................................................................
.............................. CYCLE   49 ..............................
........................................................................

 iter      E             dE          RMSdq      gap      omega  full diag
   1    -50.0381596 -0.500382E+02  0.206E-02    2.51       0.0  T
   2    -50.0381596 -0.703944E-07  0.120E-02    2.51       1.4  T
   3    -50.0381596  0.591700E-07  0.165E-03    2.51      10.4  T
   4    -50.0381597 -0.845335E-07  0.508E-04    2.51      33.8  T
   5    -50.0381597 -0.231698E-08  0.250E-04    2.51      68.5  T
   6    -50.0381597 -0.942443E-09  0.756E-05    2.51     226.7  T
   7    -50.0381597 -0.135053E-09  0.237E-05    2.51     722.7  T
     SCC iter.                  ...        0 min,  0.015 sec
     gradient                   ...        0 min,  0.019 sec
 * total energy  :   -49.1083837 Eh     change       -0.3512588E-05 Eh
   gradient norm :     0.0004821 Eh/α   predicted    -0.1698143E-05 ( -51.66%)
   displ. norm   :     0.0375055 α      lambda       -0.1648126E-05
   maximum displ.:     0.0220895 α      in ANC's #10, #2, #3, ...

........................................................................
.............................. CYCLE   50 ..............................
........................................................................

 iter      E             dE          RMSdq      gap      omega  full diag
   1    -50.0383264 -0.500383E+02  0.119E-02    2.51       0.0  T
   2    -50.0383264 -0.274860E-07  0.691E-03    2.51       2.5  T
   3    -50.0383264  0.397115E-07  0.125E-03    2.51      13.8  T
   4    -50.0383265 -0.513396E-07  0.305E-04    2.51      56.2  T
   5    -50.0383265 -0.721727E-09  0.166E-04    2.51     103.3  T
   6    -50.0383265 -0.432181E-09  0.470E-05    2.51     365.0  T
     SCC iter.                  ...        0 min,  0.009 sec
     gradient                   ...        0 min,  0.015 sec
 * total energy  :   -49.1083853 Eh     change       -0.1640159E-05 Eh
   gradient norm :     0.0002124 Eh/α   predicted    -0.8296742E-06 ( -49.42%)
   displ. norm   :     0.0272131 α      lambda       -0.6874836E-06
   maximum displ.:     0.0144208 α      in ANC's #10, #2, #9, ...

........................................................................
.............................. CYCLE   51 ..............................
........................................................................

 iter      E             dE          RMSdq      gap      omega  full diag
   1    -50.0383580 -0.500384E+02  0.777E-03    2.51       0.0  T
   2    -50.0383580 -0.133824E-07  0.451E-03    2.51       3.8  T
   3    -50.0383580  0.257098E-07  0.981E-04    2.51      17.5  T
   4    -50.0383580 -0.324050E-07  0.212E-04    2.51      80.9  T
   5    -50.0383580 -0.211998E-09  0.124E-04    2.51     138.5  T
   6    -50.0383580 -0.303750E-09  0.224E-05    2.51     764.0  T
     SCC iter.                  ...        0 min,  0.009 sec
     gradient                   ...        0 min,  0.015 sec
 * total energy  :   -49.1083861 Eh     change       -0.7643814E-06 Eh
   gradient norm :     0.0001608 Eh/α   predicted    -0.3445107E-06 ( -54.93%)
   displ. norm   :     0.0256839 α      lambda       -0.7169994E-06
   maximum displ.:     0.0131608 α      in ANC's #1, #2, #9, ...

........................................................................
.............................. CYCLE   52 ..............................
........................................................................

 iter      E             dE          RMSdq      gap      omega  full diag
   1    -50.0384243 -0.500384E+02  0.712E-03    2.51       0.0  T
   2    -50.0384243 -0.120654E-07  0.413E-03    2.51       4.2  T
   3    -50.0384243  0.215332E-07  0.905E-04    2.51      19.0  T
   4    -50.0384243 -0.270331E-07  0.191E-04    2.51      89.6  T
   5    -50.0384243 -0.311680E-09  0.108E-04    2.51     158.3  T
     SCC iter.                  ...        0 min,  0.008 sec
     gradient                   ...        0 min,  0.015 sec
 * total energy  :   -49.1083869 Eh     change       -0.8262343E-06 Eh
   gradient norm :     0.0001947 Eh/α   predicted    -0.3606406E-06 ( -56.35%)
   displ. norm   :     0.0308183 α      lambda       -0.7725348E-06
   maximum displ.:     0.0169439 α      in ANC's #1, #2, #9, ...

........................................................................
.............................. CYCLE   53 ..............................
........................................................................

 iter      E             dE          RMSdq      gap      omega  full diag
   1    -50.0383861 -0.500384E+02  0.847E-03    2.52       0.0  T
   2    -50.0383861 -0.148600E-07  0.492E-03    2.52       3.5  T
   3    -50.0383861  0.228780E-07  0.956E-04    2.52      17.9  T
   4    -50.0383861 -0.296274E-07  0.212E-04    2.52      80.7  T
   5    -50.0383861 -0.246843E-09  0.123E-04    2.52     139.5  T
   6    -50.0383861 -0.297042E-09  0.281E-05    2.52     609.3  T
     SCC iter.                  ...        0 min,  0.010 sec
     gradient                   ...        0 min,  0.015 sec
 * total energy  :   -49.1083879 Eh     change       -0.9353660E-06 Eh
   gradient norm :     0.0002055 Eh/α   predicted    -0.3896147E-06 ( -58.35%)
   displ. norm   :     0.0346599 α      lambda       -0.8128160E-06
   maximum displ.:     0.0203299 α      in ANC's #1, #2, #5, ...

........................................................................
.............................. CYCLE   54 ..............................
........................................................................

 iter      E             dE          RMSdq      gap      omega  full diag
   1    -50.0383448 -0.500383E+02  0.992E-03    2.52       0.0  T
   2    -50.0383448 -0.171513E-07  0.577E-03    2.52       3.0  T
   3    -50.0383448  0.166301E-07  0.870E-04    2.52      19.7  T
   4    -50.0383448 -0.238885E-07  0.226E-04    2.52      76.0  T
   5    -50.0383448 -0.132033E-09  0.129E-04    2.52     132.8  T
   6    -50.0383448 -0.403439E-09  0.255E-05    2.52     672.7  T
     SCC iter.                  ...        0 min,  0.009 sec
     gradient                   ...        0 min,  0.015 sec
 * total energy  :   -49.1083889 Eh     change       -0.1054958E-05 Eh
   gradient norm :     0.0002275 Eh/α   predicted    -0.4084878E-06 ( -61.28%)
   displ. norm   :     0.0436876 α      lambda       -0.1022560E-05
   maximum displ.:     0.0265730 α      in ANC's #1, #2, #3, ...

........................................................................
.............................. CYCLE   55 ..............................
........................................................................

 iter      E             dE          RMSdq      gap      omega  full diag
   1    -50.0383267 -0.500383E+02  0.125E-02    2.52       0.0  T
   2    -50.0383267 -0.245368E-07  0.730E-03    2.52       2.3  T
   3    -50.0383267  0.186425E-07  0.954E-04    2.52      18.0  T
   4    -50.0383267 -0.286959E-07  0.268E-04    2.52      63.9  T
   5    -50.0383267 -0.223039E-09  0.148E-04    2.52     115.8  T
   6    -50.0383267 -0.521204E-09  0.323E-05    2.52     531.6  T
     SCC iter.                  ...        0 min,  0.009 sec
     gradient                   ...        0 min,  0.018 sec
 * total energy  :   -49.1083903 Eh     change       -0.1347664E-05 Eh
   gradient norm :     0.0002146 Eh/α   predicted    -0.5137744E-06 ( -61.88%)
   displ. norm   :     0.0539608 α      lambda       -0.1216426E-05
   maximum displ.:     0.0334679 α      in ANC's #1, #2, #3, ...

........................................................................
.............................. CYCLE   56 ..............................
........................................................................

 iter      E             dE          RMSdq      gap      omega  full diag
   1    -50.0383052 -0.500383E+02  0.151E-02    2.52       0.0  T
   2    -50.0383053 -0.352232E-07  0.881E-03    2.52       1.9  T
   3    -50.0383052  0.277082E-07  0.115E-03    2.52      14.9  T
   4    -50.0383053 -0.421037E-07  0.322E-04    2.52      53.3  T
   5    -50.0383053 -0.469704E-09  0.173E-04    2.52      98.9  T
   6    -50.0383053 -0.603123E-09  0.452E-05    2.52     379.1  T
     SCC iter.                  ...        0 min,  0.011 sec
     gradient                   ...        0 min,  0.016 sec
 * total energy  :   -49.1083918 Eh     change       -0.1580237E-05 Eh
   gradient norm :     0.0001973 Eh/α   predicted    -0.6101257E-06 ( -61.39%)
   displ. norm   :     0.0598686 α      lambda       -0.1238463E-05
   maximum displ.:     0.0381858 α      in ANC's #1, #2, #3, ...

........................................................................
.............................. CYCLE   57 ..............................
........................................................................

 iter      E             dE          RMSdq      gap      omega  full diag
   1    -50.0383396 -0.500383E+02  0.163E-02    2.52       0.0  T
   2    -50.0383397 -0.426342E-07  0.952E-03    2.52       1.8  T
   3    -50.0383396  0.453289E-07  0.139E-03    2.52      12.3  T
   4    -50.0383397 -0.626394E-07  0.349E-04    2.52      49.1  T
   5    -50.0383397 -0.891930E-09  0.188E-04    2.52      91.4  T
   6    -50.0383397 -0.513467E-09  0.615E-05    2.52     279.0  T
     SCC iter.                  ...        0 min,  0.008 sec
     gradient                   ...        0 min,  0.015 sec
 * total energy  :   -49.1083935 Eh     change       -0.1632622E-05 Eh
   gradient norm :     0.0001701 Eh/α   predicted    -0.6224049E-06 ( -61.88%)
   displ. norm   :     0.0578350 α      lambda       -0.1126615E-05
   maximum displ.:     0.0371814 α      in ANC's #1, #2, #3, ...

........................................................................
.............................. CYCLE   58 ..............................
........................................................................

 iter      E             dE          RMSdq      gap      omega  full diag
   1    -50.0383703 -0.500384E+02  0.154E-02    2.52       0.0  T
   2    -50.0383704 -0.421201E-07  0.899E-03    2.52       1.9  T
   3    -50.0383703  0.620694E-07  0.156E-03    2.52      11.0  T
   4    -50.0383704 -0.797892E-07  0.341E-04    2.52      50.3  T
   5    -50.0383704 -0.987932E-09  0.185E-04    2.52      92.6  T
   6    -50.0383704 -0.427455E-09  0.681E-05    2.52     252.0  T
     SCC iter.                  ...        0 min,  0.008 sec
     gradient                   ...        0 min,  0.016 sec
 * total energy  :   -49.1083950 Eh     change       -0.1470848E-05 Eh
   gradient norm :     0.0001508 Eh/α   predicted    -0.5646555E-06 ( -61.61%)
   displ. norm   :     0.0546421 α      lambda       -0.1004354E-05
   maximum displ.:     0.0356422 α      in ANC's #1, #2, #3, ...

........................................................................
.............................. CYCLE   59 ..............................
........................................................................

 iter      E             dE          RMSdq      gap      omega  full diag
   1    -50.0384246 -0.500384E+02  0.145E-02    2.52       0.0  T
   2    -50.0384246 -0.382438E-07  0.844E-03    2.53       2.0  T
   3    -50.0384245  0.715557E-07  0.163E-03    2.52      10.5  T
   4    -50.0384246 -0.887133E-07  0.323E-04    2.53      53.2  T
   5    -50.0384246 -0.977984E-09  0.178E-04    2.53      96.5  T
   6    -50.0384246 -0.365326E-09  0.666E-05    2.53     257.6  T
     SCC iter.                  ...        0 min,  0.009 sec
     gradient                   ...        0 min,  0.016 sec
 * total energy  :   -49.1083963 Eh     change       -0.1307553E-05 Eh
   gradient norm :     0.0001359 Eh/α   predicted    -0.5033293E-06 ( -61.51%)
   displ. norm   :     0.0495853 α      lambda       -0.8038947E-06
   maximum displ.:     0.0326379 α      in ANC's #1, #2, #3, ...

........................................................................
.............................. CYCLE   60 ..............................
........................................................................

 iter      E             dE          RMSdq      gap      omega  full diag
   1    -50.0384744 -0.500385E+02  0.132E-02    2.53       0.0  T
   2    -50.0384744 -0.324870E-07  0.770E-03    2.53       2.2  T
   3    -50.0384744  0.676135E-07  0.156E-03    2.53      11.0  T
   4    -50.0384745 -0.825119E-07  0.295E-04    2.53      58.0  T
   5    -50.0384745 -0.892072E-09  0.162E-04    2.53     105.8  T
   6    -50.0384745 -0.298172E-09  0.620E-05    2.53     276.5  T
     SCC iter.                  ...        0 min,  0.009 sec
     gradient                   ...        0 min,  0.014 sec
 * total energy  :   -49.1083973 Eh     change       -0.1024639E-05 Eh
   gradient norm :     0.0001051 Eh/α   predicted    -0.4027910E-06 ( -60.69%)
   displ. norm   :     0.0365455 α      lambda       -0.4987382E-06
   maximum displ.:     0.0243993 α      in ANC's #1, #2, #4, ...

........................................................................
.............................. CYCLE   61 ..............................
........................................................................

 iter      E             dE          RMSdq      gap      omega  full diag
   1    -50.0385025 -0.500385E+02  0.973E-03    2.53       0.0  T
   2    -50.0385025 -0.165500E-07  0.567E-03    2.53       3.0  T
   3    -50.0385025  0.392916E-07  0.117E-03    2.53      14.6  T
   4    -50.0385025 -0.475440E-07  0.214E-04    2.53      80.1  T
   5    -50.0385025 -0.431172E-09  0.120E-04    2.53     143.3  T
   6    -50.0385025 -0.171227E-09  0.424E-05    2.53     404.3  T
     SCC iter.                  ...        0 min,  0.009 sec
     gradient                   ...        0 min,  0.016 sec
 * total energy  :   -49.1083979 Eh     change       -0.6394613E-06 Eh
   gradient norm :     0.0000757 Eh/α   predicted    -0.2503007E-06 ( -60.86%)
   displ. norm   :     0.0252068 α      lambda       -0.3181969E-06
   maximum displ.:     0.0172382 α      in ANC's #1, #2, #9, ...

........................................................................
.............................. CYCLE   62 ..............................
........................................................................

 iter      E             dE          RMSdq      gap      omega  full diag
   1    -50.0385320 -0.500385E+02  0.661E-03    2.53       0.0  T
   2    -50.0385320 -0.679174E-08  0.385E-03    2.53       4.4  T
   3    -50.0385320  0.168820E-07  0.762E-04    2.53      22.5  T
   4    -50.0385320 -0.203874E-07  0.139E-04    2.53     123.5  T
   5    -50.0385320 -0.183789E-09  0.766E-05    2.53     223.8  T
     SCC iter.                  ...        0 min,  0.010 sec
     gradient                   ...        0 min,  0.015 sec
 * total energy  :   -49.1083984 Eh     change       -0.4324017E-06 Eh
   gradient norm :     0.0000692 Eh/α   predicted    -0.1603653E-06 ( -62.91%)
   displ. norm   :     0.0214153 α      lambda       -0.2828002E-06
   maximum displ.:     0.0147748 α      in ANC's #1, #2, #9, ...

........................................................................
.............................. CYCLE   63 ..............................
........................................................................

 iter      E             dE          RMSdq      gap      omega  full diag
   1    -50.0385373 -0.500385E+02  0.556E-03    2.53       0.0  T
   2    -50.0385373 -0.390364E-08  0.325E-03    2.53       5.3  T
   3    -50.0385373  0.105590E-07  0.592E-04    2.53      29.0  T
   4    -50.0385373 -0.127456E-07  0.106E-04    2.53     161.8  T
   5    -50.0385373 -0.802771E-10  0.610E-05    2.53     281.2  T
     SCC iter.                  ...        0 min,  0.008 sec
     gradient                   ...        0 min,  0.015 sec
 * total energy  :   -49.1083988 Eh     change       -0.4182874E-06 Eh
   gradient norm :     0.0000692 Eh/α   predicted    -0.1459960E-06 ( -65.10%)
   displ. norm   :     0.0239807 α      lambda       -0.3603110E-06
   maximum displ.:     0.0162617 α      in ANC's #1, #2, #9, ...

........................................................................
.............................. CYCLE   64 ..............................
........................................................................

 iter      E             dE          RMSdq      gap      omega  full diag
   1    -50.0385383 -0.500385E+02  0.644E-03    2.53       0.0  T
   2    -50.0385383 -0.388638E-08  0.376E-03    2.53       4.6  T
   3    -50.0385382  0.110528E-07  0.603E-04    2.53      28.5  T
   4    -50.0385383 -0.133603E-07  0.106E-04    2.53     162.0  T
   5    -50.0385383 -0.706493E-10  0.617E-05    2.53     278.0  T
     SCC iter.                  ...        0 min,  0.009 sec
     gradient                   ...        0 min,  0.014 sec
 * total energy  :   -49.1083993 Eh     change       -0.5314092E-06 Eh
   gradient norm :     0.0000781 Eh/α   predicted    -0.1838626E-06 ( -65.40%)
   displ. norm   :     0.0406123 α      lambda       -0.6413005E-06
   maximum displ.:     0.0273848 α      in ANC's #1, #2, #3, ...

........................................................................
.............................. CYCLE   65 ..............................
........................................................................

 iter      E             dE          RMSdq      gap      omega  full diag
   1    -50.0385468 -0.500385E+02  0.111E-02    2.53       0.0  T
   2    -50.0385468 -0.946074E-08  0.652E-03    2.53       2.6  T
   3    -50.0385468  0.282963E-07  0.961E-04    2.53      17.9  T
   4    -50.0385468 -0.340950E-07  0.164E-04    2.53     104.8  T
   5    -50.0385468 -0.178225E-09  0.959E-05    2.53     178.8  T
     SCC iter.                  ...        0 min,  0.007 sec
     gradient                   ...        0 min,  0.016 sec
 * total energy  :   -49.1084002 Eh     change       -0.9132917E-06 Eh
   gradient norm :     0.0000857 Eh/α   predicted    -0.3238498E-06 ( -64.54%)
   displ. norm   :     0.0684671 α      lambda       -0.1017548E-05
   maximum displ.:     0.0458638 α      in ANC's #1, #2, #3, ...

........................................................................
.............................. CYCLE   66 ..............................
........................................................................

 iter      E             dE          RMSdq      gap      omega  full diag
   1    -50.0385234 -0.500385E+02  0.191E-02    2.53       0.0  T
   2    -50.0385234 -0.253148E-07  0.112E-02    2.53       1.5  T
   3    -50.0385233  0.775879E-07  0.159E-03    2.53      10.8  T
   4    -50.0385234 -0.933918E-07  0.264E-04    2.53      64.9  T
   5    -50.0385234 -0.460098E-09  0.157E-04    2.53     109.0  T
   6    -50.0385234 -0.358121E-09  0.422E-05    2.53     406.8  T
     SCC iter.                  ...        0 min,  0.008 sec
     gradient                   ...        0 min,  0.016 sec
 * total energy  :   -49.1084016 Eh     change       -0.1388253E-05 Eh
   gradient norm :     0.0001013 Eh/α   predicted    -0.5132082E-06 ( -63.03%)
   displ. norm   :     0.1023024 α      lambda       -0.1295031E-05
   maximum displ.:     0.0688839 α      in ANC's #2, #1, #3, ...
 * RMSD in coord.:     0.1593152 α      energy gain  -0.4698917E-04 Eh

generating ANC from exact Hessian ...
Using Lindh-Hessian (1995)
 Shifting diagonal of input Hessian by    9.4956757062112530E-003
 Lowest  eigenvalues of input Hessian
    0.000000    0.000000    0.000000    0.000000    0.000000    0.000000
    0.010000    0.010288    0.010493    0.012090    0.012466    0.015090
    0.015547    0.016408    0.019376    0.019683    0.022220    0.025055
 Highest eigenvalues
    1.970448    1.990377    2.009744    2.040543    2.105217    2.231924


........................................................................
.............................. CYCLE   67 ..............................
........................................................................

 iter      E             dE          RMSdq      gap      omega  full diag
   1    -50.0385017 -0.500385E+02  0.286E-02    2.53       0.0  T
   2    -50.0385018 -0.573661E-07  0.167E-02    2.53       1.0  T
   3    -50.0385016  0.166012E-06  0.234E-03    2.53       7.3  T
   4    -50.0385018 -0.200499E-06  0.395E-04    2.53      43.4  T
   5    -50.0385018 -0.112900E-08  0.233E-04    2.53      73.7  T
   6    -50.0385018 -0.724924E-09  0.684E-05    2.53     250.7  T
   7    -50.0385018 -0.728377E-10  0.236E-05    2.53     728.1  T
     SCC iter.                  ...        0 min,  0.012 sec
     gradient                   ...        0 min,  0.015 sec
 * total energy  :   -49.1084033 Eh     change       -0.1647092E-05 Eh
   gradient norm :     0.0001147 Eh/α   predicted     0.0000000E+00 (-100.00%)
   displ. norm   :     0.0034323 α      lambda       -0.1241887E-07
   maximum displ.:     0.0016712 α      in ANC's #1, #9, #3, ...

........................................................................
.............................. CYCLE   68 ..............................
........................................................................

 iter      E             dE          RMSdq      gap      omega  full diag
   1    -50.0385935 -0.500386E+02  0.131E-03    2.53       0.0  T
   2    -50.0385935 -0.195982E-09  0.772E-04    2.53      22.2  T
   3    -50.0385935  0.435421E-09  0.132E-04    2.53     129.8  T
   4    -50.0385935 -0.523997E-09  0.231E-05    2.53     741.9  T
     SCC iter.                  ...        0 min,  0.007 sec
     gradient                   ...        0 min,  0.015 sec
 * total energy  :   -49.1084034 Eh     change       -0.1105389E-06 Eh
   gradient norm :     0.0000575 Eh/α   predicted    -0.5045573E-07 ( -54.35%)
   displ. norm   :     0.0078280 α      lambda       -0.1023186E-06
   maximum displ.:     0.0039679 α      in ANC's #1, #3, #9, ...

........................................................................
.............................. CYCLE   69 ..............................
........................................................................

 iter      E             dE          RMSdq      gap      omega  full diag
   1    -50.0386488 -0.500386E+02  0.254E-03    2.53       0.0  T
   2    -50.0386488 -0.771784E-09  0.149E-03    2.53      11.5  T
   3    -50.0386488  0.217280E-08  0.278E-04    2.53      61.8  T
   4    -50.0386488 -0.252393E-08  0.453E-05    2.53     378.8  T
   5    -50.0386488 -0.325286E-10  0.242E-05    2.53     708.0  T
     SCC iter.                  ...        0 min,  0.010 sec
     gradient                   ...        0 min,  0.016 sec
 * total energy  :   -49.1084035 Eh     change       -0.1337235E-06 Eh
   gradient norm :     0.0000738 Eh/α   predicted    -0.6498896E-07 ( -51.40%)
   displ. norm   :     0.0078280 α      lambda        0.0000000E+00
   maximum displ.:     0.0039679 α      in ANC's #1, #3, #9, ...

........................................................................
.............................. CYCLE   70 ..............................
........................................................................

 iter      E             dE          RMSdq      gap      omega  full diag
   1    -50.0387032 -0.500387E+02  0.254E-03    2.53       0.0  T
   2    -50.0387032 -0.786216E-09  0.149E-03    2.53      11.5  T
   3    -50.0387032  0.178407E-08  0.257E-04    2.53      66.8  T
   4    -50.0387032 -0.210974E-08  0.443E-05    2.53     387.1  T
   5    -50.0387032 -0.289475E-10  0.245E-05    2.53     700.8  T
     SCC iter.                  ...        0 min,  0.008 sec
     gradient                   ...        0 min,  0.016 sec
 * total energy  :   -49.1084035 Eh     change       -0.1183093E-07 Eh
   gradient norm :     0.0001561 Eh/α   predicted    -0.1748014E-08 ( -85.23%)
   displ. norm   :     0.0022629 α      lambda       -0.6737417E-07
   maximum displ.:     0.0011578 α      in ANC's #1, #2, #10, ...

   *** GEOMETRY OPTIMIZATION CONVERGED AFTER 70 ITERATIONS ***

------------------------------------------------------------------------
 total energy gain   :        -0.0079380 Eh       -4.9811 kcal/mol
 total RMSD          :         0.6301586 a0        0.3335 Å
 total power (kW/mol):        -0.2977304 (step)   -8.3314 (real)
------------------------------------------------------------------------

 ANCopt (total)                0 d,  0 h,  0 min,  2.502 sec
 optimizer setup                ...        0 min,  0.001 sec (  0.045%)
 model hessian                  ...        0 min,  0.032 sec (  1.280%)
 ANC generation                 ...        0 min,  0.005 sec (  0.206%)
 coordinate transformation      ...        0 min,  0.001 sec (  0.052%)
 single point calculation       ...        0 min,  2.412 sec ( 96.432%)
 optimization log               ...        0 min,  0.018 sec (  0.709%)
 hessian update                 ...        0 min,  0.002 sec (  0.085%)
 rational function              ...        0 min,  0.024 sec (  0.977%)

================
 final structure:
================
34
 xtb: 6.7.1 (edcfbbe)
C           -1.12850514001407       -0.49341163662174       -1.55076126945924
C           -0.23149261618618       -0.54799139535199       -0.34140976649420
N            0.97003989621595       -0.92599759600350       -0.32580102136880
C            1.69775797957492       -1.41536486929325       -1.39075355545677
C            2.80487053042875       -0.70001275748444       -1.85156424605809
C            3.60549237745106       -1.22460822126987       -2.84654048389411
C            3.33297906860045       -2.47319473792123       -3.38400081195372
C            2.24615137690601       -3.19507419723132       -2.91893949103956
C            1.42824643839023       -2.67277069839016       -1.93552604827900
C           -0.86777784942315       -0.13988446477513        0.93571671746143
C           -1.29982476470380       -1.10342607384589        1.81202150705276
C           -1.96440457758275       -0.75237139667929        2.99594155114821
C           -2.19198602818376        0.56136770623333        3.29491133377674
C           -1.74488019956191        1.58316562917990        2.43073051626924
C           -1.94885354408472        2.94808803737289        2.72644634712366
C           -1.48963790608181        3.92367666918982        1.88700824177033
C           -0.79632604020478        3.57816268210155        0.71628991351126
C           -0.58720901233402        2.26533199904258        0.39730476873958
C           -1.06428507525973        1.23303646298072        1.23430258775365
H           -1.70760337670978        0.42799726276880       -1.55404204961528
H           -0.54944136807438       -0.57476715629269       -2.46924365823985
H           -1.83099357027919       -1.32607442312816       -1.50276857942127
H            3.01449078723683        0.27087031151521       -1.42644510867435
H            4.45301853537357       -0.65677831094860       -3.20373668839802
H            3.96575865457489       -2.88154603778360       -4.15830254182673
H            2.02795746992636       -4.17043097529093       -3.33101847079151
H            0.58160057384623       -3.23542327288284       -1.56749714598678
H           -1.13220940671483       -2.14621443962624        1.58349121087091
H           -2.29782684292844       -1.53264859227624        3.66457237327214
H           -2.71162324700797        0.83855342920541        4.20127746330490
H           -2.47260117010613        3.20694491769581        3.63612047248110
H           -1.64877032355354        4.96637991816140        2.12124764414831
H           -0.42512114971822        4.36034641304158        0.06973034379011
H           -0.03699047941209        2.00406981430748       -0.49536557931600

 Bond Distances (Angstroems)
 ---------------------------
C1-C2=1.5067         C1-H20=1.0883        C1-H21=1.0888        C1-H22=1.0905        C2-C1=1.5067         C2-N3=1.2597         
C2-C10=1.4841        N3-C2=1.2597         N3-C4=1.3796         C4-N3=1.3796         C4-C5=1.3963         C4-C9=1.3966         
C5-C4=1.3963         C5-C6=1.3806         C5-H23=1.0804        C6-C5=1.3806         C6-C7=1.3864         C6-H24=1.0809        
C7-C6=1.3864         C7-C8=1.3851         C7-H25=1.0801        C8-C7=1.3851         C8-C9=1.3816         C8-H26=1.0811        
C9-C4=1.3966         C9-C8=1.3816         C9-H27=1.0811        C10-C2=1.4841        C10-C11=1.3722       C10-C19=1.4187       
C11-C10=1.3722       C11-C12=1.4023       C11-H28=1.0806       C12-C11=1.4023       C12-C13=1.3664       C12-H29=1.0803       
C13-C12=1.3664       C13-C14=1.4110       C13-H30=1.0809       C14-C13=1.4110       C14-C15=1.4114       C14-C19=1.4203       
C15-C14=1.4114       C15-C16=1.3665       C15-H31=1.0811       C16-C15=1.3665       C16-C17=1.4038       C16-H32=1.0805       
C17-C16=1.4038       C17-C18=1.3671       C17-H33=1.0806       C18-C17=1.3671       C18-C19=1.4120       C18-H34=1.0807       
C19-C10=1.4187       C19-C14=1.4203       C19-C18=1.4120       H20-C1=1.0883        H21-C1=1.0888        H22-C1=1.0905        
H23-C5=1.0804        H24-C6=1.0809        H25-C7=1.0801        H26-C8=1.0811        H27-C9=1.0811        H28-C11=1.0806       
H29-C12=1.0803       H30-C13=1.0809       H31-C15=1.0811       H32-C16=1.0805       H33-C17=1.0806       H34-C18=1.0807       
 C  H  Rav=1.0824 sigma=0.0034  Rmin=1.0801  Rmax=1.0905    15
 C  C  Rav=1.4036 sigma=0.0360  Rmin=1.3664  Rmax=1.5067    19
 N  C  Rav=1.3196 sigma=0.0599  Rmin=1.2597  Rmax=1.3796     2

 selected bond angles (degree)
 --------------------
H20-C1-C2=110.48               H21-C1-C2=110.96               H21-C1-H20=110.10              H22-C1-C2=108.70               
H22-C1-H20=107.69              H22-C1-H21=108.82              N3-C2-C1=126.06                C10-C2-C1=115.18               
C10-C2-N3=118.74               C4-N3-C2=126.87                C5-C4-N3=119.42                C9-C4-N3=121.24                
C9-C4-C5=119.05                C6-C5-C4=120.20                H23-C5-C4=118.97               H23-C5-C6=120.83               
C7-C6-C5=120.50                H24-C6-C5=119.55               H24-C6-C7=119.94               C8-C7-C6=119.57                
H25-C7-C6=120.21               H25-C7-C8=120.22               C9-C8-C7=120.43                H26-C8-C7=120.04               
H26-C8-C9=119.53               C8-C9-C4=120.25                H27-C9-C4=119.14               H27-C9-C8=120.61               
C11-C10-C2=119.44              C19-C10-C2=120.44              C19-C10-C11=120.10             

 selected dihedral angles (degree)
 ---------------------------------
N3-C2-C1-H20=222.79           N3-C2-C1-H21=345.21           N3-C2-C1-H22=104.84           C10-C2-C1-H20= 44.25          
C10-C2-C1-H21=166.66          C10-C2-C1-H22=286.29          C4-N3-C2-C1=357.26            C4-N3-C2-C10=175.76           
C5-C4-N3-C2=115.84            C9-C4-N3-C2=289.65            C6-C5-C4-N3=174.96            C6-C5-C4-C9=  1.01            
H23-C5-C4-N3=354.19           H23-C5-C4-C9=180.24           C7-C6-C5-C4=358.99            C7-C6-C5-H23=179.77           
H24-C6-C5-C4=179.27           H24-C6-C5-H23=  0.05          C8-C7-C6-C5=  0.17            C8-C7-C6-H24=179.90           
H25-C7-C6-C5=180.35           H25-C7-C6-H24=  0.07          C9-C8-C7-C6=  0.65            C9-C8-C7-H25=180.47           
H26-C8-C7-C6=180.14           H26-C8-C7-H25=359.96          C8-C9-C4-N3=185.97            C8-C9-C4-C5=359.81            
H27-C9-C4-N3=  5.10           H27-C9-C4-C5=178.93           C4-C9-C8-C7=359.37            C4-C9-C8-H26=179.87           
H27-C9-C8-C7=180.26           H27-C9-C8-H26=  0.76          C11-C10-C2-C1=100.34          C11-C10-C2-N3=281.68          
C19-C10-C2-C1=282.15          C19-C10-C2-N3=103.49          
           -------------------------------------------------
          |                Final Singlepoint                |
           -------------------------------------------------

          ...................................................
          :                      SETUP                      :
          :.................................................:
          :  # basis functions                  91          :
          :  # atomic orbitals                  91          :
          :  # shells                           53          :
          :  # electrons                        92          :
          :  max. iterations                   250          :
          :  Hamiltonian                  GFN2-xTB          :
          :  restarted?                      false          :
          :  GBSA solvation                   true          :
          :  PC potential                    false          :
          :  electronic temp.          300.0000000     K    :
          :  accuracy                    0.2000000          :
          :  -> integral cutoff          0.3198970E+02      :
          :  -> integral neglect         0.2000000E-08      :
          :  -> SCF convergence          0.2000000E-06 Eh   :
          :  -> wf. convergence          0.2000000E-04 e    :
          :  Broyden damping             0.4000000          :
          :  net charge                          0          :
          :  unpaired electrons                  0          :
          ...................................................

 iter      E             dE          RMSdq      gap      omega  full diag
   1    -50.0387032 -0.500387E+02  0.958E-06    2.53       0.0  T
   2    -50.0387032 -0.241585E-12  0.669E-06    2.53    2562.8  T
   3    -50.0387032 -0.611067E-12  0.365E-06    2.53    4693.4  T

   *** convergence criteria satisfied after 3 iterations ***

         #    Occupation            Energy/Eh            Energy/eV
      -------------------------------------------------------------
         1        2.0000           -0.6569223             -17.8758
       ...           ...                  ...                  ...
        40        2.0000           -0.4201469             -11.4328
        41        2.0000           -0.4109893             -11.1836
        42        2.0000           -0.4032527             -10.9731
        43        2.0000           -0.4023146             -10.9475
        44        2.0000           -0.3977780             -10.8241
        45        2.0000           -0.3804553             -10.3527
        46        2.0000           -0.3568176              -9.7095 (HOMO)
        47                         -0.2636800              -7.1751 (LUMO)
        48                         -0.2386290              -6.4934
        49                         -0.2309818              -6.2853
        50                         -0.2155562              -5.8656
        51                         -0.2017962              -5.4912
       ...                                ...                  ...
        91                          0.6944662              18.8974
      -------------------------------------------------------------
                  HL-Gap            0.0931376 Eh            2.5344 eV
             Fermi-level           -0.3102488 Eh           -8.4423 eV

 SCC (total)                   0 d,  0 h,  0 min,  0.030 sec
 SCC setup                      ...        0 min,  0.001 sec (  3.087%)
 Dispersion                     ...        0 min,  0.000 sec (  1.170%)
 classical contributions        ...        0 min,  0.000 sec (  0.278%)
 integral evaluation            ...        0 min,  0.005 sec ( 17.792%)
 iterations                     ...        0 min,  0.007 sec ( 24.733%)
 molecular gradient             ...        0 min,  0.015 sec ( 51.822%)
 printout                       ...        0 min,  0.000 sec (  1.011%)

         :::::::::::::::::::::::::::::::::::::::::::::::::::::
         ::                     SUMMARY                     ::
         :::::::::::::::::::::::::::::::::::::::::::::::::::::
         :: total energy             -49.108403509567 Eh    ::
         :: total w/o Gsasa/hb       -49.087218564226 Eh    ::
         :: gradient norm              0.000156149336 Eh/a0 ::
         :: HOMO-LUMO gap              2.534402892688 eV    ::
         ::.................................................::
         :: SCC energy               -50.038671141037 Eh    ::
         :: -> isotropic ES            0.010366931383 Eh    ::
         :: -> anisotropic ES          0.006615637798 Eh    ::
         :: -> anisotropic XC          0.035669015516 Eh    ::
         :: -> dispersion             -0.037403050012 Eh    ::
         :: -> Gsolv                  -0.021495921051 Eh    ::
         ::    -> Gelec               -0.000310975710 Eh    ::
         ::    -> Gsasa               -0.023393088480 Eh    ::
         ::    -> Ghb                  0.000000000000 Eh    ::
         ::    -> Gshift               0.002208143139 Eh    ::
         :: repulsion energy           0.930267631470 Eh    ::
         :: add. restraining           0.000000000000 Eh    ::
         :: total charge              -0.000000000000 e     ::
         :::::::::::::::::::::::::::::::::::::::::::::::::::::

           -------------------------------------------------
          |                Property Printout                |
           -------------------------------------------------

    * Orbital Energies and Occupations

         #    Occupation            Energy/Eh            Energy/eV
      -------------------------------------------------------------
         1        2.0000           -0.6569223             -17.8758
       ...           ...                  ...                  ...
        34        2.0000           -0.4540370             -12.3550
        35        2.0000           -0.4458197             -12.1314
        36        2.0000           -0.4424439             -12.0395
        37        2.0000           -0.4307807             -11.7221
        38        2.0000           -0.4262106             -11.5978
        39        2.0000           -0.4227437             -11.5034
        40        2.0000           -0.4201469             -11.4328
        41        2.0000           -0.4109893             -11.1836
        42        2.0000           -0.4032527             -10.9731
        43        2.0000           -0.4023146             -10.9475
        44        2.0000           -0.3977780             -10.8241
        45        2.0000           -0.3804553             -10.3527
        46        2.0000           -0.3568176              -9.7095 (HOMO)
        47                         -0.2636800              -7.1751 (LUMO)
        48                         -0.2386290              -6.4934
        49                         -0.2309818              -6.2853
        50                         -0.2155562              -5.8656
        51                         -0.2017962              -5.4912
        52                         -0.1915585              -5.2126
        53                         -0.1473707              -4.0102
        54                         -0.0826910              -2.2501
        55                         -0.0608491              -1.6558
        56                          0.0666767               1.8144
        57                          0.1116174               3.0373
       ...                                ...                  ...
        91                          0.6944662              18.8974
      -------------------------------------------------------------
                  HL-Gap            0.0931376 Eh            2.5344 eV
             Fermi-level           -0.3102488 Eh           -8.4423 eV

     #   Z          covCN         q      C6AA      α(0)
     1   6 C        3.755    -0.115    22.759     6.802
     2   6 C        2.901     0.120    25.366     8.258
     3   7 N        1.844    -0.214    26.499     7.629
     4   6 C        2.927     0.084    26.136     8.384
     5   6 C        2.924    -0.048    29.184     8.859
     6   6 C        2.919    -0.031    28.775     8.797
     7   6 C        2.919    -0.042    29.034     8.836
     8   6 C        2.919    -0.032    28.786     8.798
     9   6 C        2.922    -0.050    29.246     8.868
    10   6 C        2.980     0.001    27.991     8.678
    11   6 C        2.922    -0.029    28.731     8.790
    12   6 C        2.914    -0.030    28.739     8.791
    13   6 C        2.918    -0.036    28.899     8.815
    14   6 C        2.986     0.014    27.686     8.631
    15   6 C        2.919    -0.034    28.857     8.809
    16   6 C        2.915    -0.029    28.736     8.790
    17   6 C        2.916    -0.030    28.741     8.791
    18   6 C        2.917    -0.034    28.842     8.807
    19   6 C        2.988     0.013    27.718     8.636
    20   1 H        0.925     0.054     2.270     2.356
    21   1 H        0.925     0.047     2.359     2.402
    22   1 H        0.924     0.058     2.224     2.332
    23   1 H        0.926     0.029     2.601     2.522
    24   1 H        0.926     0.027     2.636     2.539
    25   1 H        0.926     0.024     2.674     2.557
    26   1 H        0.926     0.026     2.649     2.545
    27   1 H        0.926     0.023     2.691     2.565
    28   1 H        0.926     0.033     2.543     2.494
    29   1 H        0.926     0.036     2.505     2.475
    30   1 H        0.926     0.036     2.508     2.477
    31   1 H        0.926     0.034     2.527     2.486
    32   1 H        0.926     0.033     2.547     2.496
    33   1 H        0.926     0.032     2.558     2.501
    34   1 H        0.926     0.031     2.568     2.506

 Mol. C6AA /au·bohr⁶  :      15407.724500
 Mol. C8AA /au·bohr⁸  :     382924.849961
 Mol. α(0) /au        :        200.024126


Wiberg/Mayer (AO) data.
largest (>0.10) Wiberg bond orders for each atom

 ---------------------------------------------------------------------------
     #   Z sym  total        # sym  WBO       # sym  WBO       # sym  WBO
 ---------------------------------------------------------------------------
     1   6 C    3.996 --     2 C    0.998    21 H    0.980    20 H    0.972
                            22 H    0.959
     2   6 C    3.963 --     3 N    1.826    10 C    0.999     1 C    0.998
     3   7 N    3.220 --     2 C    1.826     4 C    1.120
     4   6 C    3.975 --     5 C    1.348     9 C    1.347     3 N    1.120
     5   6 C    3.988 --     6 C    1.462     4 C    1.348    23 H    0.971
                             8 C    0.106
     6   6 C    3.992 --     5 C    1.462     7 C    1.426    24 H    0.971
                             9 C    0.104
     7   6 C    3.991 --     8 C    1.433     6 C    1.426    25 H    0.972
     8   6 C    3.992 --     9 C    1.455     7 C    1.433    26 H    0.970
                             5 C    0.106
     9   6 C    3.988 --     8 C    1.455     4 C    1.347    27 H    0.971
                             6 C    0.104
    10   6 C    3.987 --    11 C    1.515    19 C    1.245     2 C    0.999
                            13 C    0.115
    11   6 C    3.990 --    10 C    1.515    12 C    1.324    28 H    0.970
    12   6 C    3.991 --    13 C    1.555    11 C    1.324    29 H    0.970
    13   6 C    3.990 --    12 C    1.555    14 C    1.278    30 H    0.968
                            10 C    0.115
    14   6 C    3.990 --    15 C    1.279    13 C    1.278    19 C    1.254
    15   6 C    3.991 --    16 C    1.558    14 C    1.279    31 H    0.968
                            18 C    0.118
    16   6 C    3.992 --    15 C    1.558    17 C    1.321    32 H    0.971
    17   6 C    3.992 --    18 C    1.556    16 C    1.321    33 H    0.971
    18   6 C    3.992 --    17 C    1.556    19 C    1.282    34 H    0.966
                            15 C    0.118
    19   6 C    3.988 --    18 C    1.282    14 C    1.254    10 C    1.245
    20   1 H    0.997 --     1 C    0.972
    21   1 H    0.997 --     1 C    0.980
    22   1 H    0.996 --     1 C    0.959
    23   1 H    0.999 --     5 C    0.971
    24   1 H    0.998 --     6 C    0.971
    25   1 H    0.999 --     7 C    0.972
    26   1 H    0.999 --     8 C    0.970
    27   1 H    0.999 --     9 C    0.971
    28   1 H    0.998 --    11 C    0.970
    29   1 H    0.998 --    12 C    0.970
    30   1 H    0.998 --    13 C    0.968
    31   1 H    0.998 --    15 C    0.968
    32   1 H    0.998 --    16 C    0.971
    33   1 H    0.998 --    17 C    0.971
    34   1 H    0.999 --    18 C    0.966
 ---------------------------------------------------------------------------

Topologies differ in total number of bonds
Writing topology from bond orders to xtbtopo.mol

molecular dipole:
                 x           y           z       tot (Debye)
 q only:       -0.809       0.362       0.160
   full:       -0.966       0.323      -0.082       2.597
molecular quadrupole (traceless):
                xx          xy          yy          xz          yz          zz
 q only:       -1.991       2.080       0.789      -0.750      -0.116       1.203
  q+dip:       -6.258       3.879       5.207      -6.861       1.860       1.051
   full:       -3.880       3.331       2.868      -2.800       0.785       1.012

           -------------------------------------------------
          |                Geometry Summary                 |
           -------------------------------------------------

      molecular mass/u    :      245.3190607
   center of mass at/Å    :        0.0424436       0.0125915       0.0714470
  moments of inertia/u·Å² :        0.5547353E+03   0.2556138E+04   0.2914063E+04
rotational constants/cm⁻¹ :        0.3038860E-01   0.6594962E-02   0.5784923E-02

 * 33 selected distances

     #   Z          #   Z                                           value/Å
     2   6 C        3   7 N                                       1.2596877
     4   6 C        5   6 C                                       1.3963430
     5   6 C        6   6 C                                       1.3806425
     6   6 C        7   6 C                                       1.3863967
     7   6 C        8   6 C                                       1.3851306
     4   6 C        9   6 C                                       1.3965971
     8   6 C        9   6 C                                       1.3816193
    10   6 C       11   6 C                                       1.3722199
    11   6 C       12   6 C                                       1.4023454
    12   6 C       13   6 C                                       1.3664139
    13   6 C       14   6 C                                       1.4109513
    14   6 C       15   6 C                                       1.4114059
    15   6 C       16   6 C                                       1.3664951
    16   6 C       17   6 C                                       1.4037959
    17   6 C       18   6 C                                       1.3671160
    10   6 C       19   6 C                                       1.4186898
    14   6 C       19   6 C                                       1.4202959 (max)
    18   6 C       19   6 C                                       1.4120203
     1   6 C       20   1 H                                       1.0882831
     1   6 C       21   1 H                                       1.0888267
     1   6 C       22   1 H                                       1.0904682
     5   6 C       23   1 H                                       1.0804078
     6   6 C       24   1 H                                       1.0808889
     7   6 C       25   1 H                                       1.0801408 (min)
     8   6 C       26   1 H                                       1.0810822
     9   6 C       27   1 H                                       1.0811256
    11   6 C       28   1 H                                       1.0806150
    12   6 C       29   1 H                                       1.0803103
    13   6 C       30   1 H                                       1.0809045
    15   6 C       31   1 H                                       1.0811224
    16   6 C       32   1 H                                       1.0804728
    17   6 C       33   1 H                                       1.0805758
Note: The following floating-point exceptions are signalling: IEEE_DIVIDE_BY_ZERO IEEE_UNDERFLOW_FLAG IEEE_DENORMAL
normal termination of xtb
    18   6 C       34   1 H                                       1.0806752

 * 3 distinct bonds (by element types)

   Z      Z             #   av. dist./Å        max./Å        min./Å
   1 H    6 C          15     1.0823933     1.0904682     1.0801408
   6 C    6 C          17     1.3928517     1.4202959     1.3664139
   6 C    7 N           1     1.2596877     1.2596877     1.2596877


optimized geometry written to: xtbopt.xyz


           -------------------------------------------------
          | TOTAL ENERGY              -49.108403509567 Eh   |
          | GRADIENT NORM               0.000156149336 Eh/α |
          | HOMO-LUMO GAP               2.534402892688 eV   |
           -------------------------------------------------

------------------------------------------------------------------------
 * finished run on 2026/09/10 at 22:57:26.743     
------------------------------------------------------------------------
 total:
 * wall-time:     0 d,  0 h,  0 min,  2.668 sec
 *  cpu-time:     0 d,  0 h,  0 min,  0.281 sec
 * ratio c/w:     0.105 speedup
 SCF:
 * wall-time:     0 d,  0 h,  0 min,  0.043 sec
 *  cpu-time:     0 d,  0 h,  0 min,  0.016 sec
 * ratio c/w:     0.366 speedup
 ANC optimizer:
 * wall-time:     0 d,  0 h,  0 min,  2.537 sec
 *  cpu-time:     0 d,  0 h,  0 min,  0.266 sec
 * ratio c/w:     0.105 speedup

