28

 C   -1.143961506214   -3.051072608129   -0.272934935609
 C   -0.433663859530   -1.720064085541   -0.221669731813
 N    0.814905418091   -1.697029493571   -0.549564651006
 C    1.581280364361   -0.538107272772   -0.694853751388
 C    2.813709541289   -0.437668101198   -0.006222367329
 C    3.626837385838    0.690668435157   -0.169504073631
 C    3.250812080455    1.721181081531   -1.048099723947
 C    2.046048328126    1.610404154941   -1.761927510610
 C    1.212846192203    0.498792314704   -1.586583513877
 C   -1.233364803790   -0.539083175692    0.240966706967
 C   -2.582995815539   -0.384853529107   -0.146008274632
 C   -3.334726204650    0.714728959554    0.292795576233
 C   -2.757964544301    1.665203946804    1.148784787627
 C   -1.423881188057    1.510006529455    1.560623578858
 C   -0.666317469090    0.423528740456    1.107144471397
 H   -0.414288208143   -3.845946824878   -0.509817329065
 H   -1.652901963818   -3.272006305882    0.687808160926
 H   -1.930863709973   -3.050567486519   -1.056753281029
 H    3.109017605508   -1.259604577198    0.662539346540
 H    4.574267422847    0.760191620303    0.387139743981
 H    3.899172508963    2.599406137584   -1.184759215448
 H    1.746516833414    2.404502872055   -2.463449463123
 H    0.267168629394    0.414001606650   -2.141812707586
 H   -3.048513398612   -1.124111573361   -0.814514124499
 H   -4.380025169613    0.826605663258   -0.033225241553
 H   -3.349014737124    2.524805963883    1.499613768915
 H   -0.967455810590    2.244553819264    2.241266763044
 H    0.377356078356    0.311533188249    1.432274941956
