      -----------------------------------------------------------      
     |                   =====================                   |     
     |                           x T B                           |     
     |                   =====================                   |     
     |                         S. Grimme                         |     
     |          Mulliken Center for Theoretical Chemistry        |     
     |                    University of Bonn                     |     
      -----------------------------------------------------------      

   * xtb version 6.7.1 (edcfbbe) compiled by 'VssAdministrator@runnervm171ch' on 2026-06-10

   xtb is free software: you can redistribute it and/or modify it under
   the terms of the GNU Lesser General Public License as published by
   the Free Software Foundation, either version 3 of the License, or
   (at your option) any later version.
   
   xtb is distributed in the hope that it will be useful,
   but WITHOUT ANY WARRANTY; without even the implied warranty of
   MERCHANTABILITY or FITNESS FOR A PARTICULAR PURPOSE.  See the
   GNU Lesser General Public License for more details.
   
   Cite this work as:
   * C. Bannwarth, E. Caldeweyher, S. Ehlert, A. Hansen, P. Pracht,
     J. Seibert, S. Spicher, S. Grimme, WIREs Comput. Mol. Sci., 2020, 11,
     e01493. DOI: 10.1002/wcms.1493
   
   for GFN2-xTB:
   * C. Bannwarth, S. Ehlert and S. Grimme., J. Chem. Theory Comput., 2019,
     15, 1652-1671. DOI: 10.1021/acs.jctc.8b01176
   for GFN1-xTB:
   * S. Grimme, C. Bannwarth, P. Shushkov, J. Chem. Theory Comput., 2017,
     13, 1989-2009. DOI: 10.1021/acs.jctc.7b00118
   for GFN0-xTB:
   * P. Pracht, E. Caldeweyher, S. Ehlert, S. Grimme, ChemRxiv, 2019, preprint.
     DOI: 10.26434/chemrxiv.8326202.v1
   for GFN-FF:
   * S. Spicher and S. Grimme, Angew. Chem. Int. Ed., 2020, 59, 15665-15673.
     DOI: 10.1002/anie.202004239
   
   for ALPB and GBSA implicit solvation:
   * S. Ehlert, M. Stahn, S. Spicher, S. Grimme, J. Chem. Theory Comput.,
     2021, 17, 4250-4261. DOI: 10.1021/acs.jctc.1c00471
   
   for ddCOSMO and CPCM-X implicit solvation:
   * M. Stahn, S. Ehlert, S. Grimme, J. Phys. Chem. A,
     2023, XX, XXXX-XXXX. DOI: 10.1021/acs.jpca.3c04382
   
   for DFT-D4:
   * E. Caldeweyher, C. Bannwarth and S. Grimme, J. Chem. Phys., 2017,
     147, 034112. DOI: 10.1063/1.4993215
   * E. Caldeweyher, S. Ehlert, A. Hansen, H. Neugebauer, S. Spicher,
     C. Bannwarth and S. Grimme, J. Chem. Phys., 2019, 150, 154122.
     DOI: 10.1063/1.5090222
   * E. Caldeweyher, J.-M. Mewes, S. Ehlert and S. Grimme, Phys. Chem. Chem. Phys.
     2020, 22, 8499-8512. DOI: 10.1039/D0CP00502A
   
   for sTDA-xTB:
   * S. Grimme and C. Bannwarth, J. Chem. Phys., 2016, 145, 054103.
     DOI: 10.1063/1.4959605
   
   in the mass-spec context:
   * V. Asgeirsson, C. Bauer and S. Grimme, Chem. Sci., 2017, 8, 4879.
     DOI: 10.1039/c7sc00601b
   * J. Koopman and S. Grimme, ACS Omega 2019, 4, 12, 15120-15133.
     DOI: 10.1021/acsomega.9b02011
   
   for metadynamics refer to:
   * S. Grimme, J. Chem. Theory Comput., 2019, 155, 2847-2862
     DOI: 10.1021/acs.jctc.9b00143
   
   for SPH calculations refer to:
   * S. Spicher and S. Grimme, J. Chem. Theory Comput., 2021, 17, 1701-1714
     DOI: 10.1021/acs.jctc.0c01306
   
   for ONIOM refer to:
   * C. Plett, A. Katbashev, S. Ehlert, S. Grimme, M. Bursch,
     Phys. Chem. Chem. Phys., 2023, 25, 17860-17868. DOI: 10.1039/D3CP02178E
   
   for DIPRO refer to:
   * J. Kohn, N. Gildemeister, S. Grimme, D. Fazzi, A. Hansen,
     J. Chem. Phys., 2023, just accepted.
   
   for PTB refer to:
   * S. Grimme, M. Mueller, A. Hansen, J. Chem. Phys., 2023, 158, 124111.
     DOI: 10.1063/5.0137838
   
   with help from (in alphabetical order)
   P. Atkinson, C. Bannwarth, F. Bohle, G. Brandenburg, E. Caldeweyher
   M. Checinski, S. Dohm, S. Ehlert, S. Ehrlich, I. Gerasimov, C. Hölzer
   A. Katbashev, J. Kohn, J. Koopman, C. Lavigne, S. Lehtola, F. März, M. Müller,
   F. Musil, H. Neugebauer, J. Pisarek, C. Plett, P. Pracht, F. Pultar,
   J. Seibert, P. Shushkov, S. Spicher, M. Stahn, M. Steiner, T. Strunk,
   J. Stückrath, T. Rose, and J. Unsleber
   
 * started run on 2026/09/10 at 23:40:46.158     
   ID    Z sym.   atoms
    1    8 O      1, 3, 4, 17, 88, 90, 99, 100
    2   15 P      2
    3    6 C      5-16, 18-37, 59, 60, 62-73, 87, 89, 91-93, 95-98, 101, 102
    4    1 H      38-58, 74-86, 103-117
    5    7 N      61, 94

           -------------------------------------------------
          |                Calculation Setup                |
           -------------------------------------------------

          program call               : C:\Users\HUIWEI\miniconda3\envs\phase2ff\Library\bin\xtb.exe xtbopt.xyz --gfn 2 --chrg 0 --uhf 0 --alpb toluene --acc 0.2 --hess --strict
          coordinate file            : xtbopt.xyz
          omp threads                :                     1


molecular fragmentation (1/2 indicates fragments):
111111111111111111111111111111111111121111111111111111111122222222222222
222222222222222222222222222222222222222222222
# atoms in fragment 1/2:    57    60
 fragment masses (1/2) :      499.47      421.51
CMA distance (Bohr)    :  13.671
constraining FC (au)   :  0.0500

           -------------------------------------------------
          |                 G F N 2 - x T B                 |
           -------------------------------------------------

        Reference                      10.1021/acs.jctc.8b01176
      * Hamiltonian:
        H0-scaling (s, p, d)           1.850000    2.230000    2.230000
        zeta-weighting                 0.500000
      * Dispersion:
        s8                             2.700000
        a1                             0.520000
        a2                             5.000000
        s9                             5.000000
      * Repulsion:
        kExp                           1.500000    1.000000
        rExp                           1.000000
      * Coulomb:
        alpha                          2.000000
        third order                    shell-resolved
        anisotropic                    true
        a3                             3.000000
        a5                             4.000000
        cn-shift                       1.200000
        cn-exp                         4.000000
        max-rad                        5.000000

      * Solvation model:               ALPB
        Solvent                        toluene
        Parameter file                 internal GFN2-xTB/ALPB
        Dielectric constant                7.0000E+00
        Reference state                gsolv [1 M gas/solution]
        Free energy shift                  2.2081E-03 Eh       1.3856E+00 kcal/mol
        Temperature                        2.9815E+02 K
        Density                            8.6700E-01 kg/L
        Solvent mass                       7.8110E+01 g/mol
        Interaction kernel             P16
        Born radius scaling (c1)           1.7172E+00
        Born radii integrator          GBOBC
        Born offset                        0.0000E+00 a0       0.0000E+00 AA
        H-bond correction              false
        Ion screening                  false
        Surface tension                    1.0000E-05 Eh       1.5569E+01 dyn/cm
        Grid points                               230 per atom
q/qsh data taken from xtbrestart
CAMM data taken from xtbrestart

          ...................................................
          :                      SETUP                      :
          :.................................................:
          :  # basis functions                 327          :
          :  # atomic orbitals                 326          :
          :  # shells                          186          :
          :  # electrons                       340          :
          :  max. iterations                   250          :
          :  Hamiltonian                  GFN2-xTB          :
          :  restarted?                       true          :
          :  GBSA solvation                   true          :
          :  PC potential                    false          :
          :  electronic temp.          300.0000000     K    :
          :  accuracy                    0.2000000          :
          :  -> integral cutoff          0.3198970E+02      :
          :  -> integral neglect         0.2000000E-08      :
          :  -> SCF convergence          0.2000000E-06 Eh   :
          :  -> wf. convergence          0.2000000E-04 e    :
          :  Broyden damping             0.4000000          :
          :  net charge                          0          :
          :  unpaired electrons                  0          :
          ...................................................

 iter      E             dE          RMSdq      gap      omega  full diag
   1   -191.2104305 -0.191210E+03  0.634E-07    1.62       0.0  T
   2   -191.2104305 -0.108002E-11  0.449E-07    1.62   20599.6  T
   3   -191.2104305  0.110845E-11  0.242E-07    1.62   38145.1  T

   *** convergence criteria satisfied after 3 iterations ***

         #    Occupation            Energy/Eh            Energy/eV
      -------------------------------------------------------------
         1        2.0000           -0.7385702             -20.0975
       ...           ...                  ...                  ...
       164        2.0000           -0.3969078             -10.8004
       165        2.0000           -0.3955234             -10.7627
       166        2.0000           -0.3836117             -10.4386
       167        2.0000           -0.3786152             -10.3026
       168        2.0000           -0.3762692             -10.2388
       169        2.0000           -0.3693022             -10.0492
       170        2.0000           -0.3642594              -9.9120 (HOMO)
       171                         -0.3047780              -8.2934 (LUMO)
       172                         -0.2807247              -7.6389
       173                         -0.2655444              -7.2258
       174                         -0.2546311              -6.9289
       175                         -0.2462913              -6.7019
       ...                                ...                  ...
       326                          1.2975948              35.3094
      -------------------------------------------------------------
                  HL-Gap            0.0594814 Eh            1.6186 eV
             Fermi-level           -0.3345187 Eh           -9.1027 eV

 SCC (total)                   0 d,  0 h,  0 min,  0.391 sec
 SCC setup                      ...        0 min,  0.007 sec (  1.674%)
 Dispersion                     ...        0 min,  0.004 sec (  1.001%)
 classical contributions        ...        0 min,  0.001 sec (  0.271%)
 integral evaluation            ...        0 min,  0.054 sec ( 13.939%)
 iterations                     ...        0 min,  0.084 sec ( 21.602%)
 molecular gradient             ...        0 min,  0.237 sec ( 60.660%)
 printout                       ...        0 min,  0.003 sec (  0.843%)

         :::::::::::::::::::::::::::::::::::::::::::::::::::::
         ::                     SUMMARY                     ::
         :::::::::::::::::::::::::::::::::::::::::::::::::::::
         :: total energy            -188.247240602038 Eh    ::
         :: total w/o Gsasa/hb      -188.170497890663 Eh    ::
         :: gradient norm              0.000077621718 Eh/a0 ::
         :: HOMO-LUMO gap              1.618570921530 eV    ::
         ::.................................................::
         :: SCC energy              -191.200219916112 Eh    ::
         :: -> isotropic ES            0.278361812339 Eh    ::
         :: -> anisotropic ES         -0.032891685293 Eh    ::
         :: -> anisotropic XC          0.083227246435 Eh    ::
         :: -> dispersion             -0.181684294769 Eh    ::
         :: -> Gsolv                  -0.095564010997 Eh    ::
         ::    -> Gelec               -0.018821299622 Eh    ::
         ::    -> Gsasa               -0.078950854514 Eh    ::
         ::    -> Ghb                  0.000000000000 Eh    ::
         ::    -> Gshift               0.002208143139 Eh    ::
         :: repulsion energy           2.952979314074 Eh    ::
         :: add. restraining           0.000000000000 Eh    ::
         :: total charge              -0.000000000000 e     ::
         :::::::::::::::::::::::::::::::::::::::::::::::::::::

           ------------------------------------------------- 
          |                Numerical Hessian                |
           ------------------------------------------------- 
step length          :   0.00500
SCC accuracy         :   0.30000
Hessian scale factor :   1.00000
frozen atoms in %    :   0.00000    0
RMS gradient         :   0.00008
estimated CPU  time      0.84 min
estimated wall time      5.27 min

writing file <hessian>.

 projected vibrational frequencies (cm⁻¹)
eigval :       -0.00    -0.00    -0.00     0.00     0.00     0.00
eigval :        8.78    12.15    13.59    21.55    23.28    26.89
eigval :       30.98    34.57    37.92    41.17    46.14    48.02
eigval :       50.07    53.24    54.57    55.73    60.62    61.57
eigval :       63.78    65.99    68.98    71.10    72.15    79.26
eigval :       79.78    83.98    84.75    86.60    88.20    95.46
eigval :      101.15   113.55   126.79   132.28   137.52   144.49
eigval :      148.26   154.36   156.63   162.76   163.22   186.73
eigval :      191.61   193.03   196.03   199.29   203.56   206.49
eigval :      229.81   241.96   245.09   251.08   254.53   271.86
eigval :      277.70   294.78   296.58   299.78   300.24   301.96
eigval :      302.99   307.65   319.14   323.53   332.79   340.58
eigval :      347.75   348.97   349.61   369.45   370.30   373.24
eigval :      377.18   379.36   387.88   396.23   396.72   421.50
eigval :      430.91   446.32   447.67   451.51   462.19   472.93
eigval :      482.67   487.57   492.21   498.46   506.14   515.81
eigval :      526.60   529.90   533.99   535.81   540.07   544.57
eigval :      546.58   566.15   572.54   575.50   584.87   587.36
eigval :      588.92   590.55   593.75   600.30   612.25   623.47
eigval :      629.84   632.56   637.12   637.33   660.63   662.62
eigval :      668.28   671.66   675.44   676.94   683.74   695.93
eigval :      703.72   707.07   719.44   725.99   733.25   740.50
eigval :      752.67   762.08   764.08   765.11   770.98   771.54
eigval :      772.63   774.65   788.64   820.85   836.47   851.05
eigval :      854.33   857.20   861.54   865.11   874.56   876.12
eigval :      879.02   880.61   880.66   883.31   906.07   907.34
eigval :      912.04   912.99   913.84   914.44   916.86   925.17
eigval :      926.16   927.72   930.22   931.68   933.71   935.04
eigval :      935.29   936.56   937.23   938.44   958.51   966.10
eigval :      967.33   972.42   973.38   977.08   988.53   990.43
eigval :      999.03  1016.59  1017.97  1027.81  1030.51  1032.84
eigval :     1039.52  1049.42  1069.68  1080.19  1081.62  1083.01
eigval :     1083.70  1084.19  1085.14  1095.02  1098.10  1111.84
eigval :     1118.15  1120.20  1122.77  1124.01  1126.43  1128.42
eigval :     1133.88  1145.36  1151.07  1154.94  1161.50  1168.55
eigval :     1170.69  1177.87  1178.49  1179.05  1180.50  1181.94
eigval :     1182.39  1190.36  1196.24  1198.62  1199.45  1199.65
eigval :     1203.18  1204.98  1209.26  1214.84  1223.29  1240.63
eigval :     1247.82  1250.03  1250.97  1258.90  1260.64  1270.63
eigval :     1278.89  1283.44  1284.33  1287.05  1287.32  1289.81
eigval :     1311.81  1312.01  1316.63  1318.96  1319.83  1334.38
eigval :     1337.20  1362.89  1366.76  1377.56  1382.38  1384.29
eigval :     1384.79  1389.01  1393.42  1394.24  1395.36  1402.63
eigval :     1413.63  1416.10  1420.94  1424.35  1428.90  1429.98
eigval :     1434.14  1437.04  1444.30  1445.07  1447.70  1448.06
eigval :     1448.16  1456.41  1459.61  1461.90  1463.04  1464.23
eigval :     1465.17  1465.54  1481.16  1482.20  1483.32  1487.91
eigval :     1492.94  1546.82  1554.71  1571.15  1575.74  1579.95
eigval :     1580.20  1581.86  1583.03  1586.18  1586.83  1597.66
eigval :     1598.95  1606.09  1606.50  1614.61  1642.01  1650.99
eigval :     1671.77  1694.00  2232.43  2879.33  2949.84  2963.88
eigval :     2977.54  2981.40  2982.13  2998.58  2998.96  2999.38
eigval :     3012.53  3014.07  3031.24  3033.71  3045.74  3056.84
eigval :     3060.46  3064.65  3065.76  3065.77  3067.39  3068.20
eigval :     3069.43  3071.04  3072.12  3073.11  3075.50  3080.41
eigval :     3080.44  3082.10  3082.39  3083.34  3084.17  3086.06
eigval :     3088.34  3089.36  3089.82  3090.51  3091.87  3092.36
eigval :     3092.42  3097.19  3099.46  3103.11  3103.69  3113.50
eigval :     3119.50  3130.01  3417.56
           -------------------------------------------------
          |                Property Printout                |
           -------------------------------------------------

    * Orbital Energies and Occupations

         #    Occupation            Energy/Eh            Energy/eV
      -------------------------------------------------------------
         1        2.0000           -0.7385702             -20.0975
       ...           ...                  ...                  ...
       158        2.0000           -0.4085047             -11.1160
       159        2.0000           -0.4057661             -11.0415
       160        2.0000           -0.4036520             -10.9839
       161        2.0000           -0.4026135             -10.9557
       162        2.0000           -0.4015506             -10.9267
       163        2.0000           -0.3993488             -10.8668
       164        2.0000           -0.3969078             -10.8004
       165        2.0000           -0.3955234             -10.7627
       166        2.0000           -0.3836117             -10.4386
       167        2.0000           -0.3786152             -10.3026
       168        2.0000           -0.3762693             -10.2388
       169        2.0000           -0.3693023             -10.0492
       170        2.0000           -0.3642594              -9.9120 (HOMO)
       171                         -0.3047781              -8.2934 (LUMO)
       172                         -0.2807247              -7.6389
       173                         -0.2655445              -7.2258
       174                         -0.2546311              -6.9289
       175                         -0.2462913              -6.7019
       176                         -0.2448988              -6.6640
       177                         -0.2436829              -6.6309
       178                         -0.2382806              -6.4839
       179                         -0.2354616              -6.4072
       180                         -0.2319998              -6.3130
       181                         -0.2218892              -6.0379
       ...                                ...                  ...
       326                          1.2975948              35.3094
      -------------------------------------------------------------
                  HL-Gap            0.0594814 Eh            1.6186 eV
             Fermi-level           -0.3345188 Eh           -9.1027 eV

     #   Z          covCN         q      C6AA      α(0)
     1   8 O        0.808    -0.563    25.250     6.736
     2  15 P        3.884     0.613   135.779    20.932
     3   8 O        0.833    -0.574    25.493     6.769
     4   8 O        1.661    -0.316    19.290     5.929
     5   6 C        3.291     0.155    23.208     7.732
     6   6 C        2.970    -0.003    28.105     8.696
     7   6 C        2.926    -0.051    29.268     8.872
     8   6 C        2.984     0.005    27.911     8.666
     9   6 C        2.920    -0.038    28.955     8.824
    10   6 C        2.915    -0.033    28.824     8.804
    11   6 C        2.916    -0.032    28.808     8.801
    12   6 C        2.917    -0.035    28.874     8.812
    13   6 C        2.986     0.009    27.808     8.650
    14   6 C        2.973    -0.009    28.238     8.716
    15   6 C        2.973    -0.011    28.290     8.725
    16   6 C        3.064     0.152    24.647     8.141
    17   8 O        1.661    -0.316    19.292     5.929
    18   6 C        2.969    -0.007    28.200     8.711
    19   6 C        2.926    -0.052    29.295     8.876
    20   6 C        2.984     0.005    27.899     8.664
    21   6 C        2.919    -0.037    28.908     8.817
    22   6 C        2.915    -0.033    28.819     8.803
    23   6 C        2.916    -0.032    28.809     8.802
    24   6 C        2.917    -0.036    28.892     8.814
    25   6 C        2.986     0.010    27.780     8.646
    26   6 C        2.978     0.026    27.413     8.588
    27   6 C        2.926    -0.041    29.017     8.834
    28   6 C        2.918    -0.036    28.885     8.813
    29   6 C        2.920    -0.034    28.857     8.809
    30   6 C        2.919    -0.031    28.777     8.797
    31   6 C        2.924    -0.029    28.718     8.788
    32   6 C        2.978     0.022    27.518     8.605
    33   6 C        2.922    -0.032    28.805     8.801
    34   6 C        2.919    -0.030    28.754     8.793
    35   6 C        2.919    -0.033    28.830     8.805
    36   6 C        2.918    -0.033    28.812     8.802
    37   6 C        2.926    -0.038    28.934     8.821
    38   1 H        0.877     0.279     0.777     1.380
    39   1 H        0.926     0.039     2.459     2.452
    40   1 H        0.926     0.036     2.508     2.476
    41   1 H        0.926     0.034     2.527     2.486
    42   1 H        0.926     0.032     2.563     2.503
    43   1 H        0.926     0.029     2.594     2.518
    44   1 H        0.925     0.038     2.469     2.457
    45   1 H        0.926     0.033     2.550     2.497
    46   1 H        0.926     0.033     2.551     2.498
    47   1 H        0.926     0.031     2.571     2.508
    48   1 H        0.926     0.028     2.614     2.528
    49   1 H        0.926     0.042     2.426     2.436
    50   1 H        0.925     0.024     2.674     2.557
    51   1 H        0.926     0.032     2.562     2.503
    52   1 H        0.926     0.031     2.571     2.508
    53   1 H        0.926     0.030     2.590     2.516
    54   1 H        0.926     0.052     2.290     2.366
    55   1 H        0.926     0.027     2.624     2.533
    56   1 H        0.926     0.029     2.595     2.519
    57   1 H        0.926     0.030     2.587     2.515
    58   1 H        0.925     0.028     2.619     2.531
    59   6 C        3.763    -0.146    23.352     6.888
    60   6 C        2.889     0.130    25.157     8.223
    61   7 N        2.693    -0.077    22.733     7.081
    62   6 C        2.916     0.066    26.520     8.445
    63   6 C        2.923    -0.039    28.976     8.827
    64   6 C        2.920    -0.021    28.535     8.760
    65   6 C        2.919    -0.025    28.630     8.774
    66   6 C        2.919    -0.026    28.648     8.777
    67   6 C        2.920    -0.038    28.946     8.823
    68   6 C        2.976     0.005    27.905     8.665
    69   6 C        2.922    -0.024    28.610     8.771
    70   6 C        2.918    -0.021    28.536     8.760
    71   6 C        2.919    -0.022    28.547     8.762
    72   6 C        2.918    -0.024    28.608     8.771
    73   6 C        2.922    -0.024    28.613     8.772
    74   1 H        0.925     0.088     1.900     2.156
    75   1 H        0.925     0.085     1.927     2.171
    76   1 H        0.924     0.144     1.430     1.870
    77   1 H        0.926     0.066     2.130     2.282
    78   1 H        0.926     0.049     2.328     2.386
    79   1 H        0.926     0.052     2.296     2.370
    80   1 H        0.926     0.059     2.215     2.328
    81   1 H        0.926     0.046     2.366     2.405
    82   1 H        0.926     0.066     2.131     2.283
    83   1 H        0.926     0.055     2.264     2.353
    84   1 H        0.926     0.053     2.282     2.362
    85   1 H        0.926     0.051     2.303     2.373
    86   1 H        0.926     0.040     2.450     2.448
    87   6 C        3.648     0.033    20.337     6.479
    88   8 O        1.705    -0.279    18.622     5.826
    89   6 C        2.721     0.346    21.116     7.522
    90   8 O        0.856    -0.462    22.967     6.425
    91   6 C        2.956    -0.067    29.679     8.936
    92   6 C        2.893     0.086    26.084     8.374
    93   6 C        3.759    -0.132    23.096     6.851
    94   7 N        2.717    -0.126    23.746     7.237
    95   6 C        2.890     0.083    26.139     8.382
    96   6 C        3.759    -0.126    22.973     6.833
    97   6 C        2.957    -0.067    29.676     8.935
    98   6 C        2.720     0.347    21.109     7.521
    99   8 O        0.857    -0.475    23.247     6.464
   100   8 O        1.704    -0.270    18.482     5.804
   101   6 C        3.647     0.030    20.394     6.489
   102   6 C        3.818    -0.052    21.488     6.597
   103   1 H        0.925     0.068     2.109     2.271
   104   1 H        0.924     0.053     2.282     2.363
   105   1 H        0.924     0.069     2.098     2.265
   106   1 H        0.925     0.090     1.877     2.143
   107   1 H        0.924     0.071     2.074     2.252
   108   1 H        0.925     0.068     2.105     2.269
   109   1 H        0.860     0.202     1.097     1.641
   110   1 H        0.925     0.078     2.003     2.213
   111   1 H        0.925     0.069     2.100     2.266
   112   1 H        0.924     0.073     2.057     2.243
   113   1 H        0.924     0.060     2.200     2.319
   114   1 H        0.925     0.062     2.176     2.307
   115   1 H        0.924     0.075     2.030     2.228
   116   1 H        0.924     0.061     2.187     2.313
   117   1 H        0.923     0.048     2.350     2.397

 Mol. C6AA /au·bohr⁶  :     183445.107352
 Mol. C8AA /au·bohr⁸  :    4618682.491673
 Mol. α(0) /au        :        681.465501


Wiberg/Mayer (AO) data.
largest (>0.10) Wiberg bond orders for each atom

 ---------------------------------------------------------------------------
     #   Z sym  total        # sym  WBO       # sym  WBO       # sym  WBO
 ---------------------------------------------------------------------------
     1   8 O    2.003 --     2 P    1.767
     2  15 P    5.566 --     1 O    1.767     3 O    1.587     4 O    1.064
                            17 O    1.047
     3   8 O    2.025 --     2 P    1.587    38 H    0.155
     4   8 O    2.295 --     2 P    1.064     5 C    0.985
     5   6 C    3.923 --    14 C    1.456     6 C    1.245     4 O    0.985
     6   6 C    3.987 --     7 C    1.504     5 C    1.245    26 C    1.036
     7   6 C    3.983 --     6 C    1.504     8 C    1.280    39 H    0.964
                            14 C    0.102
     8   6 C    3.988 --     7 C    1.280     9 C    1.279    13 C    1.250
     9   6 C    3.985 --    10 C    1.554     8 C    1.279    40 H    0.968
                            12 C    0.116
    10   6 C    3.987 --     9 C    1.554    11 C    1.323    41 H    0.971
    11   6 C    3.985 --    12 C    1.551    10 C    1.323    42 H    0.971
    12   6 C    3.990 --    11 C    1.551    13 C    1.287    43 H    0.966
                             9 C    0.116
    13   6 C    3.985 --    12 C    1.287     8 C    1.250    14 C    1.237
    14   6 C    3.985 --     5 C    1.456    13 C    1.237    15 C    1.032
                             7 C    0.102
    15   6 C    3.984 --    16 C    1.448    25 C    1.237    14 C    1.032
    16   6 C    3.921 --    15 C    1.448    18 C    1.234    17 O    1.006
    17   8 O    2.310 --     2 P    1.047    16 C    1.006
    18   6 C    3.986 --    19 C    1.509    16 C    1.234    32 C    1.035
    19   6 C    3.984 --    18 C    1.509    20 C    1.278    44 H    0.966
    20   6 C    3.987 --    21 C    1.280    19 C    1.278    25 C    1.251
    21   6 C    3.984 --    22 C    1.554    20 C    1.280    45 H    0.968
                            24 C    0.116
    22   6 C    3.986 --    21 C    1.554    23 C    1.323    46 H    0.971
    23   6 C    3.986 --    24 C    1.551    22 C    1.323    47 H    0.971
    24   6 C    3.990 --    23 C    1.551    25 C    1.286    48 H    0.966
                            21 C    0.116
    25   6 C    3.985 --    24 C    1.286    20 C    1.251    15 C    1.237
    26   6 C    3.988 --    31 C    1.393    27 C    1.392     6 C    1.036
                            29 C    0.107
    27   6 C    3.987 --    28 C    1.450    26 C    1.392    49 H    0.964
                            30 C    0.109
    28   6 C    3.992 --    27 C    1.450    29 C    1.434    50 H    0.968
                            31 C    0.109
    29   6 C    3.988 --    30 C    1.436    28 C    1.434    51 H    0.970
                            26 C    0.107
    30   6 C    3.992 --    31 C    1.449    29 C    1.436    52 H    0.971
                            27 C    0.109
    31   6 C    3.988 --    30 C    1.449    26 C    1.393    53 H    0.970
                            28 C    0.109
    32   6 C    3.988 --    33 C    1.397    37 C    1.390    18 C    1.035
                            35 C    0.106
    33   6 C    3.986 --    34 C    1.445    32 C    1.397    54 H    0.962
                            36 C    0.110
    34   6 C    3.992 --    33 C    1.445    35 C    1.439    55 H    0.971
                            37 C    0.109
    35   6 C    3.988 --    34 C    1.439    36 C    1.433    56 H    0.971
                            32 C    0.106
    36   6 C    3.992 --    37 C    1.452    35 C    1.433    57 H    0.971
                            33 C    0.110
    37   6 C    3.987 --    36 C    1.452    32 C    1.390    58 H    0.970
                            34 C    0.109
    38   1 H    0.921 --    61 N    0.725     3 O    0.155
    39   1 H    0.997 --     7 C    0.964
    40   1 H    0.998 --     9 C    0.968
    41   1 H    0.998 --    10 C    0.971
    42   1 H    0.998 --    11 C    0.971
    43   1 H    0.999 --    12 C    0.966
    44   1 H    0.997 --    19 C    0.966
    45   1 H    0.998 --    21 C    0.968
    46   1 H    0.998 --    22 C    0.971
    47   1 H    0.999 --    23 C    0.971
    48   1 H    0.999 --    24 C    0.966
    49   1 H    0.998 --    27 C    0.964
    50   1 H    0.999 --    28 C    0.968
    51   1 H    0.998 --    29 C    0.970
    52   1 H    0.998 --    30 C    0.971
    53   1 H    0.999 --    31 C    0.970
    54   1 H    0.997 --    33 C    0.962
    55   1 H    0.999 --    34 C    0.971
    56   1 H    0.999 --    35 C    0.971
    57   1 H    0.999 --    36 C    0.971
    58   1 H    0.999 --    37 C    0.970
    59   6 C    3.978 --    60 C    1.064    75 H    0.967    74 H    0.963
                            76 H    0.892
    60   6 C    3.932 --    61 N    1.617    59 C    1.064    68 C    1.052
    61   7 N    3.645 --    60 C    1.617    62 C    1.035    38 H    0.725
    62   6 C    3.955 --    67 C    1.375    63 C    1.375    61 N    1.035
    63   6 C    3.982 --    64 C    1.451    62 C    1.375    77 H    0.960
                            66 C    0.108
    64   6 C    3.990 --    63 C    1.451    65 C    1.433    78 H    0.969
                            67 C    0.107
    65   6 C    3.983 --    64 C    1.433    66 C    1.432    79 H    0.970
    66   6 C    3.989 --    67 C    1.450    65 C    1.432    80 H    0.967
                            63 C    0.108
    67   6 C    3.989 --    66 C    1.450    62 C    1.375    81 H    0.962
                            64 C    0.107
    68   6 C    3.984 --    69 C    1.376    73 C    1.373    60 C    1.052
                            71 C    0.103
    69   6 C    3.983 --    70 C    1.452    68 C    1.376    82 H    0.965
                            72 C    0.107
    70   6 C    3.990 --    69 C    1.452    71 C    1.433    83 H    0.968
                            73 C    0.108
    71   6 C    3.987 --    70 C    1.433    72 C    1.431    84 H    0.970
                            68 C    0.103
    72   6 C    3.990 --    73 C    1.454    71 C    1.431    85 H    0.968
                            69 C    0.107
    73   6 C    3.990 --    72 C    1.454    68 C    1.373    86 H    0.969
                            70 C    0.108
    74   1 H    0.991 --    59 C    0.963
    75   1 H    0.991 --    59 C    0.967
    76   1 H    0.976 --    59 C    0.892
    77   1 H    0.996 --    63 C    0.960
    78   1 H    0.996 --    64 C    0.969
    79   1 H    0.997 --    65 C    0.970
    80   1 H    0.996 --    66 C    0.967
    81   1 H    0.998 --    67 C    0.962
    82   1 H    0.996 --    69 C    0.965
    83   1 H    0.996 --    70 C    0.968
    84   1 H    0.997 --    71 C    0.970
    85   1 H    0.997 --    72 C    0.968
    86   1 H    0.998 --    73 C    0.969
    87   6 C    3.926 --   103 H    0.979   104 H    0.975   105 H    0.975
                            88 O    0.962
    88   8 O    2.282 --    89 C    1.093    87 C    0.962    90 O    0.153
    89   6 C    3.920 --    90 O    1.654    88 O    1.093    91 C    1.074
    90   8 O    1.990 --    89 C    1.654    88 O    0.153
    91   6 C    3.971 --    92 C    1.620    89 C    1.074   102 C    0.997
    92   6 C    3.965 --    91 C    1.620    94 N    1.148    93 C    1.031
    93   6 C    3.986 --    92 C    1.031   106 H    0.969   108 H    0.965
                           107 H    0.959
    94   7 N    3.511 --    95 C    1.154    92 C    1.148   109 H    0.926
    95   6 C    3.967 --    97 C    1.618    94 N    1.154    96 C    1.030
    96   6 C    3.989 --    95 C    1.030   110 H    0.973   111 H    0.969
                           112 H    0.954
    97   6 C    3.970 --    95 C    1.618    98 C    1.076   102 C    0.995
    98   6 C    3.919 --    99 O    1.632   100 O    1.108    97 C    1.076
    99   8 O    1.975 --    98 C    1.632   100 O    0.151
   100   8 O    2.296 --    98 C    1.108   101 C    0.955    99 O    0.151
   101   6 C    3.922 --   114 H    0.980   113 H    0.977   115 H    0.967
                           100 O    0.955
   102   6 C    3.994 --    91 C    0.997    97 C    0.995   116 H    0.965
                           117 H    0.954
   103   1 H    0.995 --    87 C    0.979
   104   1 H    0.995 --    87 C    0.975
   105   1 H    0.995 --    87 C    0.975
   106   1 H    0.991 --    93 C    0.969
   107   1 H    0.995 --    93 C    0.959
   108   1 H    0.995 --    93 C    0.965
   109   1 H    0.958 --    94 N    0.926
   110   1 H    0.994 --    96 C    0.973
   111   1 H    0.995 --    96 C    0.969
   112   1 H    0.994 --    96 C    0.954
   113   1 H    0.996 --   101 C    0.977
   114   1 H    0.996 --   101 C    0.980
   115   1 H    0.994 --   101 C    0.967
   116   1 H    0.996 --   102 C    0.965
   117   1 H    0.998 --   102 C    0.954
 ---------------------------------------------------------------------------

Topologies differ in total number of bonds
Writing topology from bond orders to xtbtopo.mol

molecular dipole:
                 x           y           z       tot (Debye)
 q only:       -4.465       1.432       2.401
   full:       -4.156       0.994       2.244      12.268
molecular quadrupole (traceless):
                xx          xy          yy          xz          yz          zz
 q only:       22.829     -30.057      22.917     -19.902      25.325     -45.745
  q+dip:       25.887     -25.454      15.549     -21.961      21.674     -41.436
   full:       23.939     -22.448      15.725     -21.361      23.358     -39.664

           -------------------------------------------------
          |               Frequency Printout                |
           -------------------------------------------------
 projected vibrational frequencies (cm⁻¹)
eigval :       -0.00    -0.00    -0.00     0.00     0.00     0.00
eigval :        8.78    12.15    13.59    21.55    23.28    26.89
eigval :       30.98    34.57    37.92    41.17    46.14    48.02
eigval :       50.07    53.24    54.57    55.73    60.62    61.57
eigval :       63.78    65.99    68.98    71.10    72.15    79.26
eigval :       79.78    83.98    84.75    86.60    88.20    95.46
eigval :      101.15   113.55   126.79   132.28   137.52   144.49
eigval :      148.26   154.36   156.63   162.76   163.22   186.73
eigval :      191.61   193.03   196.03   199.29   203.56   206.49
eigval :      229.81   241.96   245.09   251.08   254.53   271.86
eigval :      277.70   294.78   296.58   299.78   300.24   301.96
eigval :      302.99   307.65   319.14   323.53   332.79   340.58
eigval :      347.75   348.97   349.61   369.45   370.30   373.24
eigval :      377.18   379.36   387.88   396.23   396.72   421.50
eigval :      430.91   446.32   447.67   451.51   462.19   472.93
eigval :      482.67   487.57   492.21   498.46   506.14   515.81
eigval :      526.60   529.90   533.99   535.81   540.07   544.57
eigval :      546.58   566.15   572.54   575.50   584.87   587.36
eigval :      588.92   590.55   593.75   600.30   612.25   623.47
eigval :      629.84   632.56   637.12   637.33   660.63   662.62
eigval :      668.28   671.66   675.44   676.94   683.74   695.93
eigval :      703.72   707.07   719.44   725.99   733.25   740.50
eigval :      752.67   762.08   764.08   765.11   770.98   771.54
eigval :      772.63   774.65   788.64   820.85   836.47   851.05
eigval :      854.33   857.20   861.54   865.11   874.56   876.12
eigval :      879.02   880.61   880.66   883.31   906.07   907.34
eigval :      912.04   912.99   913.84   914.44   916.86   925.17
eigval :      926.16   927.72   930.22   931.68   933.71   935.04
eigval :      935.29   936.56   937.23   938.44   958.51   966.10
eigval :      967.33   972.42   973.38   977.08   988.53   990.43
eigval :      999.03  1016.59  1017.97  1027.81  1030.51  1032.84
eigval :     1039.52  1049.42  1069.68  1080.19  1081.62  1083.01
eigval :     1083.70  1084.19  1085.14  1095.02  1098.10  1111.84
eigval :     1118.15  1120.20  1122.77  1124.01  1126.43  1128.42
eigval :     1133.88  1145.36  1151.07  1154.94  1161.50  1168.55
eigval :     1170.69  1177.87  1178.49  1179.05  1180.50  1181.94
eigval :     1182.39  1190.36  1196.24  1198.62  1199.45  1199.65
eigval :     1203.18  1204.98  1209.26  1214.84  1223.29  1240.63
eigval :     1247.82  1250.03  1250.97  1258.90  1260.64  1270.63
eigval :     1278.89  1283.44  1284.33  1287.05  1287.32  1289.81
eigval :     1311.81  1312.01  1316.63  1318.96  1319.83  1334.38
eigval :     1337.20  1362.89  1366.76  1377.56  1382.38  1384.29
eigval :     1384.79  1389.01  1393.42  1394.24  1395.36  1402.63
eigval :     1413.63  1416.10  1420.94  1424.35  1428.90  1429.98
eigval :     1434.14  1437.04  1444.30  1445.07  1447.70  1448.06
eigval :     1448.16  1456.41  1459.61  1461.90  1463.04  1464.23
eigval :     1465.17  1465.54  1481.16  1482.20  1483.32  1487.91
eigval :     1492.94  1546.82  1554.71  1571.15  1575.74  1579.95
eigval :     1580.20  1581.86  1583.03  1586.18  1586.83  1597.66
eigval :     1598.95  1606.09  1606.50  1614.61  1642.01  1650.99
eigval :     1671.77  1694.00  2232.43  2879.33  2949.84  2963.88
eigval :     2977.54  2981.40  2982.13  2998.58  2998.96  2999.38
eigval :     3012.53  3014.07  3031.24  3033.71  3045.74  3056.84
eigval :     3060.46  3064.65  3065.76  3065.77  3067.39  3068.20
eigval :     3069.43  3071.04  3072.12  3073.11  3075.50  3080.41
eigval :     3080.44  3082.10  3082.39  3083.34  3084.17  3086.06
eigval :     3088.34  3089.36  3089.82  3090.51  3091.87  3092.36
eigval :     3092.42  3097.19  3099.46  3103.11  3103.69  3113.50
eigval :     3119.50  3130.01  3417.56
 reduced masses (amu)
   1: 12.14   2: 11.87   3: 12.61   4: 12.06   5: 12.31   6: 12.03   7: 11.44   8: 12.17
   9: 11.76  10: 12.10  11: 11.60  12: 11.77  13: 11.53  14: 11.92  15: 11.70  16: 11.28
  17: 10.88  18: 11.46  19: 12.49  20: 10.50  21: 10.76  22: 11.93  23: 10.85  24:  9.88
  25:  9.63  26: 11.21  27: 11.59  28: 10.68  29: 10.50  30: 11.04  31: 10.70  32: 11.22
  33:  7.08  34:  5.06  35:  8.98  36: 11.06  37: 11.98  38:  7.32  39: 13.70  40:  9.16
  41: 10.94  42: 12.09  43: 10.78  44: 11.79  45: 11.40  46: 10.89  47: 10.91  48: 10.23
  49:  5.17  50:  7.96  51: 10.06  52: 10.11  53: 10.49  54: 11.57  55: 13.66  56:  4.00
  57: 11.26  58:  9.38  59: 11.81  60: 10.00  61: 12.56  62: 12.11  63: 11.09  64:  9.57
  65: 10.71  66: 11.25  67: 11.54  68: 12.75  69: 11.50  70:  9.72  71: 11.27  72: 11.17
  73: 12.11  74: 12.83  75: 11.33  76: 12.41  77:  9.01  78:  9.42  79:  9.28  80:  9.08
  81: 12.06  82: 12.35  83: 11.16  84: 13.07  85: 11.05  86: 12.65  87: 13.77  88: 14.09
  89: 12.19  90: 12.29  91: 11.25  92: 10.52  93: 11.38  94: 11.17  95: 10.46  96: 12.37
  97: 11.89  98: 11.64  99: 11.84 100:  7.22 101: 11.18 102: 10.85 103: 11.56 104:  9.72
 105: 10.40 106: 12.90 107: 11.62 108: 11.22 109: 11.36 110: 11.75 111: 10.84 112:  8.95
 113: 13.22 114: 11.22 115: 11.45 116: 11.37 117: 11.69 118: 12.67 119: 13.83 120: 10.12
 121: 10.70 122: 10.34 123:  9.17 124: 10.99 125: 10.84 126: 11.61 127: 12.31 128: 14.21
 129: 11.28 130: 12.12 131: 11.53 132: 10.91 133: 12.53 134:  7.78 135:  4.97 136:  5.06
 137:  4.61 138:  6.34 139:  7.80 140:  5.78 141: 12.79 142: 11.69 143: 11.74 144:  8.38
 145:  6.61 146: 10.62 147: 10.92 148:  3.89 149:  3.79 150:  3.82 151:  3.27 152:  3.28
 153:  3.34 154:  3.25 155:  3.87 156:  3.78 157:  3.65 158:  4.70 159:  5.76 160:  3.60
 161:  8.69 162:  3.09 163:  3.17 164:  3.32 165:  3.57 166:  4.35 167:  3.23 168:  4.09
 169:  3.63 170:  3.54 171:  6.43 172:  3.53 173: 11.27 174:  7.55 175:  9.20 176: 11.19
 177:  6.70 178:  9.67 179: 10.35 180: 10.32 181: 12.20 182: 13.63 183:  4.98 184:  4.75
 185: 11.06 186:  4.93 187:  5.74 188:  6.33 189: 12.23 190:  7.79 191:  7.50 192:  6.63
 193:  6.81 194:  7.15 195:  6.71 196:  8.97 197: 11.67 198:  7.70 199:  6.12 200:  5.47
 201:  4.30 202:  4.26 203:  4.85 204:  4.35 205:  7.56 206:  7.66 207:  5.29 208:  7.10
 209:  9.11 210:  4.70 211:  4.37 212:  1.44 213:  2.65 214:  1.31 215:  2.65 216:  1.34
 217:  1.33 218:  8.32 219:  5.68 220:  6.83 221:  3.92 222:  8.82 223:  3.56 224:  5.00
 225:  5.57 226:  6.65 227:  8.82 228:  7.73 229:  5.55 230:  6.72 231:  8.27 232:  5.02
 233: 11.64 234:  9.94 235:  3.35 236:  3.56 237:  3.88 238:  4.09 239: 10.82 240:  8.83
 241:  9.63 242: 11.88 243: 11.52 244: 11.83 245: 10.51 246:  7.60 247:  9.78 248:  3.24
 249: 10.14 250:  4.99 251:  9.24 252:  9.96 253:  2.82 254:  2.84 255:  3.30 256:  9.12
 257:  4.61 258:  9.55 259: 10.85 260: 10.78 261:  3.34 262:  7.16 263:  9.08 264:  9.24
 265:  8.05 266:  9.67 267:  1.59 268:  1.67 269:  8.88 270:  1.99 271:  4.79 272:  1.77
 273:  8.48 274:  5.89 275:  1.72 276:  2.11 277:  3.23 278:  2.61 279:  9.56 280:  2.10
 281:  9.59 282: 10.58 283: 10.76 284: 11.78 285: 11.75 286: 11.44 287: 11.52 288: 11.53
 289: 11.51 290: 11.50 291: 11.56 292: 11.66 293: 11.46 294: 11.47 295: 11.47 296: 11.41
 297: 11.40 298: 11.42 299: 12.49 300: 11.76 301: 13.20 302: 13.16 303:  2.30 304:  1.78
 305:  1.75 306:  1.83 307:  1.96 308:  1.54 309:  1.41 310:  1.88 311:  1.88 312:  1.67
 313:  1.54 314:  1.57 315:  1.76 316:  1.75 317:  1.44 318:  1.98 319:  1.76 320:  1.79
 321:  1.78 322:  1.78 323:  1.77 324:  1.79 325:  1.79 326:  1.79 327:  1.85 328:  1.79
 329:  1.81 330:  1.85 331:  1.85 332:  1.91 333:  1.78 334:  1.86 335:  1.76 336:  1.79
 337:  1.91 338:  1.89 339:  1.72 340:  1.82 341:  1.89 342:  1.74 343:  1.83 344:  1.87
 345:  1.89 346:  1.90 347:  1.91 348:  1.85 349:  1.85 350:  1.82 351:  1.84
 IR intensities (km·mol⁻¹)
   1:  0.01   2:  0.10   3:  0.14   4:  0.05   5:  0.21   6:  0.18   7:  0.41   8:  0.24
   9:  0.36  10:  1.58  11:  0.21  12:  0.22  13:  0.46  14:  1.30  15:  2.35  16:  0.58
  17:  0.41  18:  0.48  19:  5.84  20:  2.08  21:  1.61  22:  0.26  23:  0.38  24:  1.58
  25:  1.50  26:  1.66  27:  8.04  28:  0.65  29:  2.47  30:  2.09  31:  1.02  32:  5.36
  33:  4.24  34:  0.69  35:  0.60  36:  2.00  37:  3.95  38:  1.13  39:  3.78  40:  1.06
  41:  0.70  42:  4.29  43:  9.11  44:  4.53  45:  2.65  46:  3.85  47:  0.58  48:  1.20
  49:  0.06  50:  1.20  51: 22.90  52:  1.06  53: 11.39  54:  5.90  55:  5.30  56:  2.62
  57:  1.52  58:  0.44  59:  6.01  60:  2.40  61:  9.70  62:  7.63  63:  5.63  64:  3.90
  65:  2.58  66: 11.30  67:  9.60  68:  0.35  69:  3.93  70:  1.65  71: 20.51  72: 14.26
  73:  7.64  74:  2.01  75: 22.35  76:  5.55  77:  5.68  78:  0.22  79:  0.58  80:  0.28
  81:  6.28  82:  5.00  83:  0.96  84: 45.18  85: 10.18  86:  6.23  87: 37.03  88: 40.40
  89: 28.47  90: 14.71  91: 24.63  92: 25.46  93: 75.48  94: 39.19  95:  0.30  96:  9.69
  97: 31.75  98:  1.98  99: 59.05 100: 76.51 101:  0.65 102:  2.48 103: 15.25 104:  7.23
 105:  1.86 106: 59.12 107:  8.22 108:  1.78 109:  2.50 110: 25.59 111:  3.94 112: 26.01
 113: 46.77 114: 70.14 115:  1.74 116:  9.26 117: 15.51 118: 41.20 119: 33.74 120: 10.78
 121:  9.51 122:  4.17 123: 25.94 124: 67.83 125:  6.63 126: 58.79 127: 12.02 128: 76.63
 129: 53.01 130: 45.91 131:  7.75 132:160.41 133: 61.41 134: 26.27 135: 36.94 136:  5.38
 137: 25.40 138: 25.92 139: 19.78 140:  3.91 141:  1.49 142: 12.59 143: 79.31 144: 17.52
 145: 26.80 146: 18.95 147: 12.07 148:  9.46 149:  1.67 150:  2.16 151:  3.69 152:  1.00
 153:  3.71 154:  3.96 155:  2.02 156:  0.77 157:  0.19 158:  0.31 159:  0.90 160:  2.71
 161:  6.44 162:  0.36 163:  0.44 164:  1.01 165:  1.53 166:  4.03 167:  0.20 168:  2.55
 169:  5.36 170:  1.54 171: 11.09 172:  5.30 173:236.14 174: 23.92 175:119.08 176: 34.31
 177: 18.69 178: 25.71 179: 14.16 180:  7.37 181:399.66 182:667.45 183: 60.52 184: 48.61
 185: 28.04 186:  9.83 187: 12.31 188:189.48 189:162.10 190:  3.78 191:  0.27 192:  1.05
 193:  0.58 194:  0.66 195:  0.61 196:  5.23 197:289.55 198: 16.76 199:145.73 200: 70.86
 201: 10.97 202:  1.37 203:  7.24 204:  7.68 205:136.81 206: 95.45 207:  6.34 208: 25.60
 209: 54.36 210:  3.59 211:227.50 212:  2.71 213: 13.36 214:  0.78 215: 18.53 216:  2.10
 217:  0.76 218:116.07 219: 57.37 220:127.09 221: 36.61 222:198.14 223: 23.96 224:  3.96
 225:  8.72 226:325.11 227:145.44 228: 22.85 229:  1.10 230:  9.33 231: 46.32 232: 61.87
 233:162.75 234:  2.94 235:  2.32 236:  0.35 237:  0.14 238:  7.76 239:126.56 240:  3.61
 241:  3.08 242:  0.76 243:  1.08 244:  4.41 245:  1.03 246: 13.80 247: 14.59 248:101.07
 249: 28.82 250: 62.66 251: 16.62 252:  7.06 253: 69.60 254: 36.53 255: 27.37 256:  4.03
 257: 17.19 258:512.09 259: 86.81 260: 95.97 261: 26.33 262:  8.96 263:  3.06 264:  2.53
 265:  3.57 266:  2.82 267:  5.84 268: 14.67 269: 50.83 270:  5.49 271:  6.72 272:  2.25
 273:  5.35 274: 31.95 275:  7.13 276: 10.38 277:  8.24 278: 20.08 279: 12.81 280:  1.90
 281:  5.36 282:  0.83 283:  0.35 284:  5.64 285:  1.17 286:  0.43 287: 16.08 288:  4.08
 289:  0.93 290: 13.73 291: 10.15 292: 10.42 293: 28.61 294:  2.80 295:  4.70 296:  0.70
 297:  1.43 298:278.40 299:192.96 300:566.69 301:506.84 302:386.54 303:****** 304: 55.04
 305:159.19 306: 25.46 307:  8.45 308: 22.06 309: 17.11 310:  0.05 311: 21.68 312: 14.81
 313:  8.40 314: 22.62 315: 13.05 316: 13.28 317:  9.29 318:  3.93 319: 13.23 320:  0.47
 321: 21.52 322:  2.71 323: 21.53 324: 25.35 325: 17.68 326: 25.74 327:124.47 328:  5.99
 329: 57.85 330: 16.31 331:212.50 332:162.48 333:  5.82 334: 68.58 335:  4.73 336:  2.66
 337: 70.17 338: 95.24 339:  8.17 340: 20.06 341: 62.82 342:  5.69 343: 33.66 344: 28.17
 345: 33.85 346: 17.76 347: 13.85 348:  5.02 349:  3.91 350:  5.10 351: 67.22
 Raman intensities (Ä⁴*amu⁻¹)
   1:  0.00   2:  0.00   3:  0.00   4:  0.00   5:  0.00   6:  0.00   7:  0.00   8:  0.00
   9:  0.00  10:  0.00  11:  0.00  12:  0.00  13:  0.00  14:  0.00  15:  0.00  16:  0.00
  17:  0.00  18:  0.00  19:  0.00  20:  0.00  21:  0.00  22:  0.00  23:  0.00  24:  0.00
  25:  0.00  26:  0.00  27:  0.00  28:  0.00  29:  0.00  30:  0.00  31:  0.00  32:  0.00
  33:  0.00  34:  0.00  35:  0.00  36:  0.00  37:  0.00  38:  0.00  39:  0.00  40:  0.00
  41:  0.00  42:  0.00  43:  0.00  44:  0.00  45:  0.00  46:  0.00  47:  0.00  48:  0.00
  49:  0.00  50:  0.00  51:  0.00  52:  0.00  53:  0.00  54:  0.00  55:  0.00  56:  0.00
  57:  0.00  58:  0.00  59:  0.00  60:  0.00  61:  0.00  62:  0.00  63:  0.00  64:  0.00
  65:  0.00  66:  0.00  67:  0.00  68:  0.00  69:  0.00  70:  0.00  71:  0.00  72:  0.00
  73:  0.00  74:  0.00  75:  0.00  76:  0.00  77:  0.00  78:  0.00  79:  0.00  80:  0.00
  81:  0.00  82:  0.00  83:  0.00  84:  0.00  85:  0.00  86:  0.00  87:  0.00  88:  0.00
  89:  0.00  90:  0.00  91:  0.00  92:  0.00  93:  0.00  94:  0.00  95:  0.00  96:  0.00
Refinement of some symmetry elements was terminated before convergence was reached.
Some symmetry elements may remain unidentified.
Molecule has no symmetry elements
It seems to be the C1 point group
  97:  0.00  98:  0.00  99:  0.00 100:  0.00 101:  0.00 102:  0.00 103:  0.00 104:  0.00
 105:  0.00 106:  0.00 107:  0.00 108:  0.00 109:  0.00 110:  0.00 111:  0.00 112:  0.00
 113:  0.00 114:  0.00 115:  0.00 116:  0.00 117:  0.00 118:  0.00 119:  0.00 120:  0.00
 121:  0.00 122:  0.00 123:  0.00 124:  0.00 125:  0.00 126:  0.00 127:  0.00 128:  0.00
 129:  0.00 130:  0.00 131:  0.00 132:  0.00 133:  0.00 134:  0.00 135:  0.00 136:  0.00
 137:  0.00 138:  0.00 139:  0.00 140:  0.00 141:  0.00 142:  0.00 143:  0.00 144:  0.00
 145:  0.00 146:  0.00 147:  0.00 148:  0.00 149:  0.00 150:  0.00 151:  0.00 152:  0.00
 153:  0.00 154:  0.00 155:  0.00 156:  0.00 157:  0.00 158:  0.00 159:  0.00 160:  0.00
 161:  0.00 162:  0.00 163:  0.00 164:  0.00 165:  0.00 166:  0.00 167:  0.00 168:  0.00
 169:  0.00 170:  0.00 171:  0.00 172:  0.00 173:  0.00 174:  0.00 175:  0.00 176:  0.00
 177:  0.00 178:  0.00 179:  0.00 180:  0.00 181:  0.00 182:  0.00 183:  0.00 184:  0.00
 185:  0.00 186:  0.00 187:  0.00 188:  0.00 189:  0.00 190:  0.00 191:  0.00 192:  0.00
 193:  0.00 194:  0.00 195:  0.00 196:  0.00 197:  0.00 198:  0.00 199:  0.00 200:  0.00
 201:  0.00 202:  0.00 203:  0.00 204:  0.00 205:  0.00 206:  0.00 207:  0.00 208:  0.00
 209:  0.00 210:  0.00 211:  0.00 212:  0.00 213:  0.00 214:  0.00 215:  0.00 216:  0.00
 217:  0.00 218:  0.00 219:  0.00 220:  0.00 221:  0.00 222:  0.00 223:  0.00 224:  0.00
 225:  0.00 226:  0.00 227:  0.00 228:  0.00 229:  0.00 230:  0.00 231:  0.00 232:  0.00
 233:  0.00 234:  0.00 235:  0.00 236:  0.00 237:  0.00 238:  0.00 239:  0.00 240:  0.00
 241:  0.00 242:  0.00 243:  0.00 244:  0.00 245:  0.00 246:  0.00 247:  0.00 248:  0.00
 249:  0.00 250:  0.00 251:  0.00 252:  0.00 253:  0.00 254:  0.00 255:  0.00 256:  0.00
 257:  0.00 258:  0.00 259:  0.00 260:  0.00 261:  0.00 262:  0.00 263:  0.00 264:  0.00
 265:  0.00 266:  0.00 267:  0.00 268:  0.00 269:  0.00 270:  0.00 271:  0.00 272:  0.00
 273:  0.00 274:  0.00 275:  0.00 276:  0.00 277:  0.00 278:  0.00 279:  0.00 280:  0.00
 281:  0.00 282:  0.00 283:  0.00 284:  0.00 285:  0.00 286:  0.00 287:  0.00 288:  0.00
 289:  0.00 290:  0.00 291:  0.00 292:  0.00 293:  0.00 294:  0.00 295:  0.00 296:  0.00
 297:  0.00 298:  0.00 299:  0.00 300:  0.00 301:  0.00 302:  0.00 303:  0.00 304:  0.00
 305:  0.00 306:  0.00 307:  0.00 308:  0.00 309:  0.00 310:  0.00 311:  0.00 312:  0.00
 313:  0.00 314:  0.00 315:  0.00 316:  0.00 317:  0.00 318:  0.00 319:  0.00 320:  0.00
 321:  0.00 322:  0.00 323:  0.00 324:  0.00 325:  0.00 326:  0.00 327:  0.00 328:  0.00
 329:  0.00 330:  0.00 331:  0.00 332:  0.00 333:  0.00 334:  0.00 335:  0.00 336:  0.00
 337:  0.00 338:  0.00 339:  0.00 340:  0.00 341:  0.00 342:  0.00 343:  0.00 344:  0.00
 345:  0.00 346:  0.00 347:  0.00 348:  0.00 349:  0.00 350:  0.00 351:  0.00
 output can be read by thermo (or use thermo option).
 writing <g98.out> molden fake output.
 recommended (thermochemical) frequency scaling factor: 1.0
           -------------------------------------------------
          |             Thermodynamic Functions             |
           -------------------------------------------------

c1  symmetry found (for desy threshold:  0.10E+00) used in thermo

          ...................................................
          :                      SETUP                      :
          :.................................................:
          :  # frequencies                         345      :
          :  # imaginary freq.                       0      :
          :  linear?                             false      :
          :  only rotor calc.                    false      :
          :  symmetry                               c1      :
          :  rotational number                       1      :
          :  scaling factor                  1.0000000      :
          :  rotor cutoff                   50.0000000 cm⁻¹ :
          :  imag. cutoff                  -20.0000000 cm⁻¹ :
          :.................................................:

    mode    ω/cm⁻¹     T·S(HO)/kcal·mol⁻¹    T·S(FR)/kcal·mol⁻¹   T·S(vib)
   ------------------------------------------------------------------------
       1      8.78    -2.46546 (  0.10%)    -1.57179 ( 99.90%)    -1.57264
       2     12.15    -2.27291 (  0.35%)    -1.47551 ( 99.65%)    -1.47828
       3     13.59    -2.20695 (  0.54%)    -1.44252 ( 99.46%)    -1.44667
       4     21.55    -1.93380 (  3.34%)    -1.30587 ( 96.66%)    -1.32682
       5     23.28    -1.88811 (  4.49%)    -1.28301 ( 95.51%)    -1.31016
       6     26.89    -1.80285 (  7.72%)    -1.24032 ( 92.28%)    -1.28373
       7     30.98    -1.71898 ( 12.85%)    -1.19832 ( 87.15%)    -1.26522
       8     34.57    -1.65413 ( 18.61%)    -1.16583 ( 81.39%)    -1.25670
       9     37.92    -1.59960 ( 24.85%)    -1.13850 ( 75.15%)    -1.25309
      10     41.17    -1.55093 ( 31.50%)    -1.11409 ( 68.50%)    -1.25168
      11     46.14    -1.48367 ( 42.04%)    -1.08034 ( 57.96%)    -1.24989
      12     48.02    -1.46011 ( 45.97%)    -1.06851 ( 54.03%)    -1.24853
      13     50.07    -1.43550 ( 50.14%)    -1.05614 ( 49.86%)    -1.24634
      14     53.24    -1.39930 ( 56.25%)    -1.03795 ( 43.75%)    -1.24119
      15     54.57    -1.38472 ( 58.66%)    -1.03062 ( 41.34%)    -1.23835
      16     55.73    -1.37237 ( 60.68%)    -1.02441 ( 39.32%)    -1.23556
      17     60.62    -1.32290 ( 68.36%)    -0.99951 ( 31.64%)    -1.22056
      18     61.57    -1.31374 ( 69.69%)    -0.99490 ( 30.31%)    -1.21709
      19     63.78    -1.29293 ( 72.59%)    -0.98441 ( 27.41%)    -1.20837
      20     65.99    -1.27294 ( 75.21%)    -0.97434 ( 24.79%)    -1.19893
      21     68.98    -1.24696 ( 78.36%)    -0.96123 ( 21.64%)    -1.18514
      22     71.10    -1.22914 ( 80.35%)    -0.95223 ( 19.65%)    -1.17473
      23     72.15    -1.22060 ( 81.26%)    -0.94792 ( 18.74%)    -1.16949
      24     79.26    -1.16553 ( 86.33%)    -0.92008 ( 13.67%)    -1.13197
      25     79.78    -1.16167 ( 86.63%)    -0.91812 ( 13.37%)    -1.12912
      26     83.98    -1.13166 ( 88.84%)    -0.90293 ( 11.16%)    -1.10613
      27     84.75    -1.12633 ( 89.19%)    -0.90022 ( 10.81%)    -1.10189
      28     86.60    -1.11373 ( 90.00%)    -0.89383 ( 10.00%)    -1.09174
      29     88.20    -1.10304 ( 90.64%)    -0.88841 (  9.36%)    -1.08294
      30     95.46    -1.05696 ( 93.00%)    -0.86499 (  7.00%)    -1.04352
      31    101.15    -1.02324 ( 94.37%)    -0.84781 (  5.63%)    -1.01336
      32    113.55    -0.95625 ( 96.38%)    -0.81356 (  3.62%)    -0.95108
      33    126.79    -0.89271 ( 97.64%)    -0.78089 (  2.36%)    -0.89007
      34    132.28    -0.86841 ( 98.00%)    -0.76834 (  2.00%)    -0.86641
      35    137.52    -0.84619 ( 98.28%)    -0.75683 (  1.72%)    -0.84466
      36    144.49    -0.81800 ( 98.59%)    -0.74219 (  1.41%)    -0.81693
      37    148.26    -0.80333 ( 98.72%)    -0.73454 (  1.28%)    -0.80246
      38    154.36    -0.78048 ( 98.91%)    -0.72260 (  1.09%)    -0.77985
      39    156.63    -0.77224 ( 98.97%)    -0.71828 (  1.03%)    -0.77168
      40    162.76    -0.75058 ( 99.12%)    -0.70690 (  0.88%)    -0.75019
      41    163.22    -0.74898 ( 99.13%)    -0.70606 (  0.87%)    -0.74861
      42    186.73    -0.67383 ( 99.49%)    -0.66621 (  0.51%)    -0.67379
      43    191.61    -0.65957 ( 99.54%)    -0.65857 (  0.46%)    -0.65956
      44    193.03    -0.65550 ( 99.55%)    -0.65638 (  0.45%)    -0.65550
      45    196.03    -0.64699 ( 99.58%)    -0.65180 (  0.42%)    -0.64701
      46    199.29    -0.63794 ( 99.61%)    -0.64693 (  0.39%)    -0.63797
      47    203.56    -0.62632 ( 99.64%)    -0.64064 (  0.36%)    -0.62637
      48    206.49    -0.61850 ( 99.66%)    -0.63640 (  0.34%)    -0.61856
      49    229.81    -0.56065 ( 99.78%)    -0.60471 (  0.22%)    -0.56075
      50    241.96    -0.53322 ( 99.82%)    -0.58945 (  0.18%)    -0.53333
      51    245.09    -0.52642 ( 99.83%)    -0.58564 (  0.17%)    -0.52652
      52    251.08    -0.51371 ( 99.84%)    -0.57849 (  0.16%)    -0.51381
Note: The following floating-point exceptions are signalling: IEEE_DIVIDE_BY_ZERO IEEE_UNDERFLOW_FLAG IEEE_DENORMAL
normal termination of xtb
      53    254.53    -0.50655 ( 99.85%)    -0.57444 (  0.15%)    -0.50665
      54    271.86    -0.47238 ( 99.89%)    -0.55493 (  0.11%)    -0.47247
      55    277.70    -0.46147 ( 99.90%)    -0.54863 (  0.10%)    -0.46156
      56    294.78    -0.43123 ( 99.92%)    -0.53095 (  0.08%)    -0.43131
      57    296.58    -0.42817 ( 99.92%)    -0.52915 (  0.08%)    -0.42826
      58    299.78    -0.42282 ( 99.92%)    -0.52598 (  0.08%)    -0.42290
   ------------------------------------------------------------------------

   temp. (K)  partition function   enthalpy   heat capacity  entropy
                                   cal/mol     cal/K/mol   cal/K/mol   J/K/mol
 298.15  VIB  0.120E+32            38072.171    223.544    244.946
         ROT  0.157E+09              888.752      2.981     40.488
         INT  0.189E+40            38960.923    226.525    285.434
         TR   0.270E+29             1481.254      4.968     46.315
         TOT                       40442.1772   231.4934   331.7493  1388.0390

       T/K    H(0)-H(T)+PV         H(T)/Eh          T*S/Eh         G(T)/Eh
   ------------------------------------------------------------------------
    298.15    0.644487E-01    0.964513E+00    0.157625E+00    0.806889E+00
   ------------------------------------------------------------------------

         :::::::::::::::::::::::::::::::::::::::::::::::::::::
         ::                  THERMODYNAMIC                  ::
         :::::::::::::::::::::::::::::::::::::::::::::::::::::
         :: total free energy        -187.440352063769 Eh   ::
         ::.................................................::
         :: total energy             -188.247240604203 Eh   ::
         :: zero point energy           0.900064620729 Eh   ::
         :: G(RRHO) w/o ZPVE           -0.093176080295 Eh   ::
         :: G(RRHO) contrib.            0.806888540434 Eh   ::
         :::::::::::::::::::::::::::::::::::::::::::::::::::::

           -------------------------------------------------
          | TOTAL ENERGY             -188.247240604203 Eh   |
          | TOTAL ENTHALPY           -187.282727271844 Eh   |
          | TOTAL FREE ENERGY        -187.440352063769 Eh   |
          | GRADIENT NORM               0.000077624102 Eh/α |
          | HOMO-LUMO GAP               1.618570561300 eV   |
           -------------------------------------------------

------------------------------------------------------------------------
 * finished run on 2026/09/10 at 23:47:09.975     
------------------------------------------------------------------------
 total:
 * wall-time:     0 d,  0 h,  6 min, 23.818 sec
 *  cpu-time:     0 d,  0 h,  1 min, 43.516 sec
 * ratio c/w:     0.270 speedup
 SCF:
 * wall-time:     0 d,  0 h,  0 min,  0.393 sec
 *  cpu-time:     0 d,  0 h,  0 min,  0.078 sec
 * ratio c/w:     0.199 speedup
 analytical hessian:
 * wall-time:     0 d,  0 h,  6 min, 23.088 sec
 *  cpu-time:     0 d,  0 h,  1 min, 43.422 sec
 * ratio c/w:     0.270 speedup

