117
 energy: -188.247240602038 gnorm: 0.000077622038 xtb: 6.7.1 (edcfbbe)
O            0.34536329259900        3.22924524643465       -1.17850083282864
P           -0.15246686253830        2.16447829382411       -0.28031550859922
O           -1.16392881199876        2.52785617940508        0.77938441051578
O           -0.73591148356342        0.93441991430785       -1.19893851728506
C           -1.24644884715174       -0.06324327402287       -0.39700030460831
C           -2.63714492251795       -0.10451906309904       -0.14576863736016
C           -3.11628482823014       -1.04372511030232        0.73285611366139
C           -2.25664768213380       -1.93469339242376        1.40381898304450
C           -2.75033131754554       -2.85957272116221        2.34914908224070
C           -1.90265578473104       -3.68894462797672        3.02815997390771
C           -0.52032524229845       -3.61916226689106        2.79778649159767
C           -0.01119711339718       -2.74124715106254        1.88056072359333
C           -0.86100369667439       -1.88841209064561        1.14374381223381
C           -0.37215700262018       -0.94468556460620        0.19907311466863
C            1.06480542472113       -0.84400475485055       -0.13281085523321
C            1.72787953100702        0.35070136241661        0.07902489139104
O            1.05364616159920        1.43173491696999        0.57976416876950
C            3.13328791950444        0.44345707544034       -0.10684326030547
C            3.81502210067709       -0.65665314698757       -0.56499183528793
C            3.15708418741006       -1.85541587657507       -0.89911845793957
C            3.85346513599246       -2.95735617208550       -1.43918632092967
C            3.19332469133810       -4.10441764309151       -1.78038255446168
C            1.80400754619087       -4.19142509425386       -1.60522101199990
C            1.10308153025156       -3.14448888823753       -1.07269047487122
C            1.75797331045386       -1.95461265189680       -0.68728755550655
C           -3.54719430726320        0.84558621757062       -0.80726745627215
C           -4.44628270196727        1.58804832616003       -0.04715475459304
C           -5.34168216403842        2.44711285001425       -0.65742509131415
C           -5.35804664219831        2.56597140287576       -2.03709585777999
C           -4.45261341022716        1.84657669441893       -2.79941985744919
C           -3.54779648326877        0.99544305892938       -2.19087667162543
C            3.87652474711548        1.67296375276252        0.22686915425309
C            3.50062411964075        2.91536355152836       -0.27392949526438
C            4.23464470359711        4.04473095127109        0.04433458138957
C            5.34946328190177        3.95163448240527        0.86079038954412
C            5.73032896576149        2.71786661428419        1.36265984141819
C            5.00037133867654        1.58687700539958        1.04688556923061
H           -1.78749145756225        3.88029780289829        0.74637545622805
H           -4.17755806042932       -1.09826894007797        0.92900375078544
H           -3.81565936434500       -2.89178764882140        2.53036983283309
H           -2.28705260002297       -4.39371844396261        3.75110097074995
H            0.14408571703541       -4.26422846514244        3.35427548964255
H            1.05520828147927       -2.68726038893012        1.71957391858238
H            4.88506397608484       -0.59428630960792       -0.70884897823006
H            4.92108596071822       -2.87071910443932       -1.58586031048383
H            3.73192446113458       -4.94383972532788       -2.19563033498902
H            1.28723814147023       -5.09349490988985       -1.89975166886313
H            0.03190948137484       -3.21763387171216       -0.95405284845209
H           -4.42223608927987        1.49747626890240        1.02672691053466
H           -6.02736380114966        3.02884582980082       -0.05681667582225
H           -6.06972409235157        3.22267107936564       -2.51508331370410
H           -4.45397247536287        1.94541442181332       -3.87554451990841
H           -2.84499372441461        0.43182837327544       -2.78764949319286
H            2.63393204607975        3.00058235113530       -0.90967029642780
H            3.93086031407663        5.00354628862872       -0.35150535694270
H            5.91917591041878        4.83657250460562        1.10639963180899
H            6.59740372185595        2.63709318246121        2.00313749489619
H            5.29081082540102        0.62632735653592        1.45008475922579
C           -1.25210183783877        4.88139119983207        2.98870878044325
C           -2.09989535152136        5.48497268506254        1.94075873382754
N           -2.30486486057787        4.82441122980019        0.85396446318532
C           -3.13988099969681        5.15266060702714       -0.22688716438268
C           -2.67001113175428        4.89274239131114       -1.51117426179410
C           -3.45813358967299        5.21614709098844       -2.60036020060704
C           -4.71683876277547        5.76729948946031       -2.41568547663148
C           -5.20082903504228        5.97995208239689       -1.13452287261638
C           -4.41487614353271        5.67705560043787       -0.03814129771116
C           -2.65323847953019        6.81967760918116        2.19538518984647
C           -3.25339297712387        7.09938581981675        3.42403695331363
C           -3.73759716659152        8.36790476802962        3.68345779611558
C           -3.60763660986494        9.37219357042823        2.73689849687082
C           -3.00127429252259        9.10258509170677        1.51953378606050
C           -2.53253359723322        7.83232529820212        1.24215618719950
H           -0.58529369119993        4.13299404033218        2.56659646679334
H           -0.69464154112050        5.63596184279253        3.53703551283647
H           -1.92105833592068        4.37058460646672        3.68951844748449
H           -1.69141922548478        4.45438139539703       -1.63887407575354
H           -3.08731470089448        5.03013694712935       -3.59691024479445
H           -5.32721002722876        6.01766534253521       -3.27043165507692
H           -6.19677317414651        6.37088727180729       -0.98703454476951
H           -4.78710082150480        5.82461815525695        0.96337116504392
H           -3.36676671241541        6.31043455281059        4.15189826863664
H           -4.21043204569506        8.57388698595601        4.63183531160730
H           -3.97664331143103       10.36509931670106        2.94603793744062
H           -2.89213949822370        9.88395260264876        0.78262243210730
H           -2.04574882512982        7.62454425439259        0.30037088242695
C           -6.80983845867225        8.04683667135674        1.97010806934957
O           -6.73663261477968        6.68436233580625        2.36133488812490
C           -7.50848699234223        5.80677417116600        1.67985813717567
O           -8.22653834997535        6.16305431259125        0.76431222123515
C           -7.36087718654752        4.45037053360010        2.19667199231597
C           -8.15434389323505        3.41971670576397        1.81757787242731
C           -9.29881509782113        3.46537859018540        0.86208036136462
N           -7.90963166694777        2.16615456345795        2.33575082124448
C           -6.68540910703387        1.79537838828652        2.84554332987084
C           -6.48116865510585        0.31747313824797        2.90016931476361
C           -5.82367629022320        2.77056847707570        3.22159827860176
C           -4.42424654366494        2.59783136822590        3.59601422719975
O           -3.74543253813508        3.50603325540215        4.04793094687289
O           -3.92488424038666        1.37121338526925        3.36743981467786
C           -2.53202493158861        1.17594207188844        3.58523240132472
C           -6.31748997224842        4.20271482462967        3.26341944934752
H           -6.59433616959464        8.63670989564609        2.85796980327230
H           -6.06740095882761        8.25281836337480        1.19481366523057
H           -7.80598408211411        8.27580355499874        1.58538223423443
H           -9.52738040213592        4.48783533988163        0.58369546796637
H           -9.04739391071631        2.90872929775601       -0.04137993985459
H          -10.17682617972937        3.00551687293958        1.31480096812612
H           -8.53049875746881        1.42369126527188        2.04389759297244
H           -5.69914734120573        0.05029635823272        3.60155173290888
H           -7.41030171298805       -0.16951881698876        3.19511508709697
H           -6.19834447496514       -0.05371932864995        1.91463093918631
H           -2.21685735406992        1.66629062208543        4.50839457103162
H           -2.38235765188489        0.10027323410791        3.65058889070602
H           -1.96481385824182        1.57850571470856        2.74212295364725
H           -5.46979461925847        4.87679875586136        3.13624459941546
H           -6.74242212874620        4.41765211784335        4.25336119192907
