      -----------------------------------------------------------      
     |                   =====================                   |     
     |                           x T B                           |     
     |                   =====================                   |     
     |                         S. Grimme                         |     
     |          Mulliken Center for Theoretical Chemistry        |     
     |                    University of Bonn                     |     
      -----------------------------------------------------------      

   * xtb version 6.7.1 (edcfbbe) compiled by 'VssAdministrator@runnervm171ch' on 2026-06-10

   xtb is free software: you can redistribute it and/or modify it under
   the terms of the GNU Lesser General Public License as published by
   the Free Software Foundation, either version 3 of the License, or
   (at your option) any later version.
   
   xtb is distributed in the hope that it will be useful,
   but WITHOUT ANY WARRANTY; without even the implied warranty of
   MERCHANTABILITY or FITNESS FOR A PARTICULAR PURPOSE.  See the
   GNU Lesser General Public License for more details.
   
   Cite this work as:
   * C. Bannwarth, E. Caldeweyher, S. Ehlert, A. Hansen, P. Pracht,
     J. Seibert, S. Spicher, S. Grimme, WIREs Comput. Mol. Sci., 2020, 11,
     e01493. DOI: 10.1002/wcms.1493
   
   for GFN2-xTB:
   * C. Bannwarth, S. Ehlert and S. Grimme., J. Chem. Theory Comput., 2019,
     15, 1652-1671. DOI: 10.1021/acs.jctc.8b01176
   for GFN1-xTB:
   * S. Grimme, C. Bannwarth, P. Shushkov, J. Chem. Theory Comput., 2017,
     13, 1989-2009. DOI: 10.1021/acs.jctc.7b00118
   for GFN0-xTB:
   * P. Pracht, E. Caldeweyher, S. Ehlert, S. Grimme, ChemRxiv, 2019, preprint.
     DOI: 10.26434/chemrxiv.8326202.v1
   for GFN-FF:
   * S. Spicher and S. Grimme, Angew. Chem. Int. Ed., 2020, 59, 15665-15673.
     DOI: 10.1002/anie.202004239
   
   for ALPB and GBSA implicit solvation:
   * S. Ehlert, M. Stahn, S. Spicher, S. Grimme, J. Chem. Theory Comput.,
     2021, 17, 4250-4261. DOI: 10.1021/acs.jctc.1c00471
   
   for ddCOSMO and CPCM-X implicit solvation:
   * M. Stahn, S. Ehlert, S. Grimme, J. Phys. Chem. A,
     2023, XX, XXXX-XXXX. DOI: 10.1021/acs.jpca.3c04382
   
   for DFT-D4:
   * E. Caldeweyher, C. Bannwarth and S. Grimme, J. Chem. Phys., 2017,
     147, 034112. DOI: 10.1063/1.4993215
   * E. Caldeweyher, S. Ehlert, A. Hansen, H. Neugebauer, S. Spicher,
     C. Bannwarth and S. Grimme, J. Chem. Phys., 2019, 150, 154122.
     DOI: 10.1063/1.5090222
   * E. Caldeweyher, J.-M. Mewes, S. Ehlert and S. Grimme, Phys. Chem. Chem. Phys.
     2020, 22, 8499-8512. DOI: 10.1039/D0CP00502A
   
   for sTDA-xTB:
   * S. Grimme and C. Bannwarth, J. Chem. Phys., 2016, 145, 054103.
     DOI: 10.1063/1.4959605
   
   in the mass-spec context:
   * V. Asgeirsson, C. Bauer and S. Grimme, Chem. Sci., 2017, 8, 4879.
     DOI: 10.1039/c7sc00601b
   * J. Koopman and S. Grimme, ACS Omega 2019, 4, 12, 15120-15133.
     DOI: 10.1021/acsomega.9b02011
   
   for metadynamics refer to:
   * S. Grimme, J. Chem. Theory Comput., 2019, 155, 2847-2862
     DOI: 10.1021/acs.jctc.9b00143
   
   for SPH calculations refer to:
   * S. Spicher and S. Grimme, J. Chem. Theory Comput., 2021, 17, 1701-1714
     DOI: 10.1021/acs.jctc.0c01306
   
   for ONIOM refer to:
   * C. Plett, A. Katbashev, S. Ehlert, S. Grimme, M. Bursch,
     Phys. Chem. Chem. Phys., 2023, 25, 17860-17868. DOI: 10.1039/D3CP02178E
   
   for DIPRO refer to:
   * J. Kohn, N. Gildemeister, S. Grimme, D. Fazzi, A. Hansen,
     J. Chem. Phys., 2023, just accepted.
   
   for PTB refer to:
   * S. Grimme, M. Mueller, A. Hansen, J. Chem. Phys., 2023, 158, 124111.
     DOI: 10.1063/5.0137838
   
   with help from (in alphabetical order)
   P. Atkinson, C. Bannwarth, F. Bohle, G. Brandenburg, E. Caldeweyher
   M. Checinski, S. Dohm, S. Ehlert, S. Ehrlich, I. Gerasimov, C. Hölzer
   A. Katbashev, J. Kohn, J. Koopman, C. Lavigne, S. Lehtola, F. März, M. Müller,
   F. Musil, H. Neugebauer, J. Pisarek, C. Plett, P. Pracht, F. Pultar,
   J. Seibert, P. Shushkov, S. Spicher, M. Stahn, M. Steiner, T. Strunk,
   J. Stückrath, T. Rose, and J. Unsleber
   
 * started run on 2026/09/10 at 23:03:14.097     
   ID    Z sym.   atoms
    1    6 C      1, 2, 4-15
    2    7 N      3
    3    1 H      16-28

           -------------------------------------------------
          |                Calculation Setup                |
           -------------------------------------------------

          program call               : C:\Users\HUIWEI\miniconda3\envs\phase2ff\Library\bin\xtb.exe input.xyz --gfn 2 --chrg 0 --uhf 0 --alpb ch2cl2 --acc 0.2 --opt vtight
          coordinate file            : input.xyz
          omp threads                :                     1


           -------------------------------------------------
          |                 G F N 2 - x T B                 |
           -------------------------------------------------

        Reference                      10.1021/acs.jctc.8b01176
      * Hamiltonian:
        H0-scaling (s, p, d)           1.850000    2.230000    2.230000
        zeta-weighting                 0.500000
      * Dispersion:
        s8                             2.700000
        a1                             0.520000
        a2                             5.000000
        s9                             5.000000
      * Repulsion:
        kExp                           1.500000    1.000000
        rExp                           1.000000
      * Coulomb:
        alpha                          2.000000
        third order                    shell-resolved
        anisotropic                    true
        a3                             3.000000
        a5                             4.000000
        cn-shift                       1.200000
        cn-exp                         4.000000
        max-rad                        5.000000

      * Solvation model:               ALPB
        Solvent                        ch2cl2
        Parameter file                 internal GFN2-xTB/ALPB
        Dielectric constant                8.9300E+00
        Reference state                gsolv [1 M gas/solution]
        Free energy shift                  4.1487E-03 Eh       2.6033E+00 kcal/mol
        Temperature                        2.9815E+02 K
        Density                            1.3300E+00 kg/L
        Solvent mass                       8.4930E+01 g/mol
        Interaction kernel             P16
        Born radius scaling (c1)           1.5691E+00
        Born radii integrator          GBOBC
        Born offset                        0.0000E+00 a0       0.0000E+00 AA
        H-bond correction              false
        Ion screening                  false
        Surface tension                    1.0000E-05 Eh       1.5569E+01 dyn/cm
        Grid points                               230 per atom

          ...................................................
          :                      SETUP                      :
          :.................................................:
          :  # basis functions                  73          :
          :  # atomic orbitals                  73          :
          :  # shells                           43          :
          :  # electrons                        74          :
          :  max. iterations                   250          :
          :  Hamiltonian                  GFN2-xTB          :
          :  restarted?                      false          :
          :  GBSA solvation                   true          :
          :  PC potential                    false          :
          :  electronic temp.          300.0000000     K    :
          :  accuracy                    0.2000000          :
          :  -> integral cutoff          0.3198970E+02      :
          :  -> integral neglect         0.2000000E-08      :
          :  -> SCF convergence          0.2000000E-06 Eh   :
          :  -> wf. convergence          0.2000000E-04 e    :
          :  Broyden damping             0.4000000          :
          :  net charge                          0          :
          :  unpaired electrons                  0          :
          ...................................................

 iter      E             dE          RMSdq      gap      omega  full diag
   1    -40.1718580 -0.401719E+02  0.443E+00    2.95       0.0  T
   2    -40.1929452 -0.210872E-01  0.264E+00    2.78       1.0  T
   3    -40.1827984  0.101467E-01  0.869E-01    2.53       1.0  T
   4    -40.1967298 -0.139313E-01  0.237E-01    2.55       1.0  T
   5    -40.1974498 -0.720042E-03  0.522E-02    2.55       1.0  T
   6    -40.1974764 -0.265534E-04  0.338E-02    2.55       1.0  T
   7    -40.1974843 -0.793491E-05  0.101E-02    2.55       1.9  T
   8    -40.1974850 -0.730771E-06  0.373E-03    2.55       5.1  T
   9    -40.1974853 -0.223659E-06  0.154E-03    2.55      12.3  T
  10    -40.1974853 -0.646035E-08  0.633E-04    2.55      29.9  T
  11    -40.1974853 -0.433034E-08  0.232E-04    2.55      81.5  T
  12    -40.1974853 -0.331916E-09  0.107E-04    2.55     176.4  T
  13    -40.1974853 -0.368132E-10  0.388E-05    2.55     486.8  T

   *** convergence criteria satisfied after 13 iterations ***

         #    Occupation            Energy/Eh            Energy/eV
      -------------------------------------------------------------
         1        2.0000           -0.6495637             -17.6755
       ...           ...                  ...                  ...
        31        2.0000           -0.4254126             -11.5761
        32        2.0000           -0.4187553             -11.3949
        33        2.0000           -0.4089241             -11.1274
        34        2.0000           -0.4065799             -11.0636
        35        2.0000           -0.3981726             -10.8348
        36        2.0000           -0.3968939             -10.8000
        37        2.0000           -0.3619064              -9.8480 (HOMO)
        38                         -0.2680398              -7.2937 (LUMO)
        39                         -0.2298321              -6.2541
        40                         -0.2216540              -6.0315
        41                         -0.2133539              -5.8057
        42                         -0.1983973              -5.3987
       ...                                ...                  ...
        73                          0.6474708              17.6186
      -------------------------------------------------------------
                  HL-Gap            0.0938666 Eh            2.5542 eV
             Fermi-level           -0.3149731 Eh           -8.5709 eV

 SCC (total)                   0 d,  0 h,  0 min,  0.029 sec
 SCC setup                      ...        0 min,  0.001 sec (  2.664%)
 Dispersion                     ...        0 min,  0.000 sec (  0.854%)
 classical contributions        ...        0 min,  0.000 sec (  0.190%)
 integral evaluation            ...        0 min,  0.003 sec ( 12.169%)
 iterations                     ...        0 min,  0.014 sec ( 48.852%)
 molecular gradient             ...        0 min,  0.010 sec ( 34.575%)
 printout                       ...        0 min,  0.000 sec (  0.664%)

         :::::::::::::::::::::::::::::::::::::::::::::::::::::
         ::                     SUMMARY                     ::
         :::::::::::::::::::::::::::::::::::::::::::::::::::::
         :: total energy             -39.508569781129 Eh    ::
         :: total w/o Gsasa/hb       -39.490345868192 Eh    ::
         :: gradient norm              0.059499213700 Eh/a0 ::
         :: HOMO-LUMO gap              2.554240257813 eV    ::
         ::.................................................::
         :: SCC energy               -40.197551222301 Eh    ::
         :: -> isotropic ES            0.011201187277 Eh    ::
         :: -> anisotropic ES          0.005985265392 Eh    ::
         :: -> anisotropic XC          0.032084380425 Eh    ::
         :: -> dispersion             -0.027176328047 Eh    ::
         :: -> Gsolv                  -0.019142893373 Eh    ::
         ::    -> Gelec               -0.000918980435 Eh    ::
         ::    -> Gsasa               -0.022372610299 Eh    ::
         ::    -> Ghb                  0.000000000000 Eh    ::
         ::    -> Gshift               0.004148697361 Eh    ::
         :: repulsion energy           0.688981441172 Eh    ::
         :: add. restraining           0.000000000000 Eh    ::
         :: total charge               0.000000000000 e     ::
         :::::::::::::::::::::::::::::::::::::::::::::::::::::

      ----------------------------------------------------------- 
     |                   =====================                   |
     |                        A N C O P T                        |
     |                   =====================                   |
     |               Approximate Normal Coordinate               |
     |                Rational Function Optimizer                |
      ----------------------------------------------------------- 
      ----------------------------------------------------------- 
     |                   =====================                   |
     |                        A N C O P T                        |
     |                   =====================                   |
     |               Approximate Normal Coordinate               |
     |                Rational Function Optimizer                |
      ----------------------------------------------------------- 

          ...................................................
          :                      SETUP                      :
          :.................................................:
          :   optimization level         verytight          :
          :   max. optcycles                   560          :
          :   ANC micro-cycles                  20          :
          :   degrees of freedom                78          :
          :.................................................:
          :   RF solver                   davidson          :
          :   write xtbopt.log                true          :
          :   linear?                        false          :
          :   energy convergence         0.1000000E-06 Eh   :
          :   grad. convergence          0.2000000E-03 Eh/α :
          :   maxmium RF displ.          1.0000000          :
          :   Hlow (freq-cutoff)         0.1000000E-01      :
          :   Hmax (freq-cutoff)         5.0000000          :
          :   S6 in model hess.         20.0000000          :
          ...................................................

generating ANC from exact Hessian ...
Using Lindh-Hessian (1995)
 Shifting diagonal of input Hessian by    9.3799859189054261E-003
 Lowest  eigenvalues of input Hessian
    0.000000    0.000000    0.000000    0.000000    0.000000    0.000000
    0.010000    0.010499    0.010637    0.011814    0.013441    0.015427
    0.018450    0.018885    0.023336    0.023764    0.024891    0.027763
 Highest eigenvalues
    1.843934    1.867955    1.940779    1.947492    1.955684    2.065703


........................................................................
.............................. CYCLE    1 ..............................
........................................................................

 iter      E             dE          RMSdq      gap      omega  full diag
   1    -40.1974853 -0.401975E+02  0.104E-05    2.55       0.0  T
   2    -40.1974853 -0.817124E-12  0.637E-06    2.55    2968.7  T
   3    -40.1974853 -0.376588E-12  0.386E-06    2.55    4898.8  T
     SCC iter.                  ...        0 min,  0.004 sec
     gradient                   ...        0 min,  0.010 sec
 * total energy  :   -39.5085698 Eh     change       -0.1895017E-10 Eh
   gradient norm :     0.0594991 Eh/α   predicted     0.0000000E+00 (-100.00%)
   displ. norm   :     0.2059936 α      lambda       -0.6168609E-02
   maximum displ.:     0.0888681 α      in ANC's #11, #41, #45, ...

........................................................................
.............................. CYCLE    2 ..............................
........................................................................

 iter      E             dE          RMSdq      gap      omega  full diag
   1    -40.2380120 -0.402380E+02  0.155E-01    2.61       0.0  T
   2    -40.2380571 -0.450536E-04  0.956E-02    2.61       1.0  T
   3    -40.2380407  0.163747E-04  0.411E-02    2.62       1.0  T
   4    -40.2380648 -0.241637E-04  0.882E-03    2.61       2.1  T
   5    -40.2380658 -0.946534E-06  0.254E-03    2.61       7.4  T
   6    -40.2380658  0.304198E-08  0.145E-03    2.61      13.0  T
   7    -40.2380658 -0.312333E-07  0.420E-04    2.61      45.0  T
   8    -40.2380658 -0.693881E-09  0.180E-04    2.61     105.0  T
   9    -40.2380658 -0.309221E-09  0.783E-05    2.61     241.3  T
     SCC iter.                  ...        0 min,  0.009 sec
     gradient                   ...        0 min,  0.010 sec
 * total energy  :   -39.5124850 Eh     change       -0.3915189E-02 Eh
   gradient norm :     0.0187685 Eh/α   predicted    -0.3215837E-02 ( -17.86%)
   displ. norm   :     0.1462497 α      lambda       -0.9168392E-03
   maximum displ.:     0.0838690 α      in ANC's #3, #11, #8, ...

........................................................................
.............................. CYCLE    3 ..............................
........................................................................

 iter      E             dE          RMSdq      gap      omega  full diag
   1    -40.2523547 -0.402524E+02  0.727E-02    2.61       0.0  T
   2    -40.2523681 -0.134145E-04  0.445E-02    2.61       1.0  T
   3    -40.2523661  0.200499E-05  0.234E-02    2.61       1.0  T
   4    -40.2523713 -0.513852E-05  0.382E-03    2.61       4.9  T
   5    -40.2523715 -0.228995E-06  0.117E-03    2.61      16.1  T
   6    -40.2523715 -0.694693E-08  0.572E-04    2.61      33.1  T
   7    -40.2523715 -0.259310E-08  0.218E-04    2.61      86.6  T
   8    -40.2523715 -0.198924E-09  0.744E-05    2.61     253.9  T
   9    -40.2523715 -0.104173E-09  0.297E-05    2.61     637.1  T
     SCC iter.                  ...        0 min,  0.009 sec
     gradient                   ...        0 min,  0.009 sec
 * total energy  :   -39.5130275 Eh     change       -0.5425562E-03 Eh
   gradient norm :     0.0076848 Eh/α   predicted    -0.4688499E-03 ( -13.59%)
   displ. norm   :     0.1342320 α      lambda       -0.2241486E-03
   maximum displ.:     0.1085300 α      in ANC's #3, #8, #6, ...

........................................................................
.............................. CYCLE    4 ..............................
........................................................................

 iter      E             dE          RMSdq      gap      omega  full diag
   1    -40.2541158 -0.402541E+02  0.458E-02    2.59       0.0  T
   2    -40.2541192 -0.340572E-05  0.282E-02    2.59       1.0  T
   3    -40.2541181  0.105094E-05  0.156E-02    2.59       1.2  T
   4    -40.2541209 -0.282639E-05  0.168E-03    2.59      11.2  T
   5    -40.2541210 -0.532385E-07  0.587E-04    2.59      32.2  T
   6    -40.2541210 -0.405834E-08  0.272E-04    2.59      69.5  T
   7    -40.2541210 -0.365993E-09  0.961E-05    2.59     196.7  T
   8    -40.2541210 -0.395914E-10  0.356E-05    2.59     530.5  T
     SCC iter.                  ...        0 min,  0.009 sec
     gradient                   ...        0 min,  0.011 sec
 * total energy  :   -39.5132113 Eh     change       -0.1837690E-03 Eh
   gradient norm :     0.0048659 Eh/α   predicted    -0.1140944E-03 ( -37.91%)
   displ. norm   :     0.2242854 α      lambda       -0.2804415E-03
   maximum displ.:     0.1771216 α      in ANC's #3, #8, #6, ...

........................................................................
.............................. CYCLE    5 ..............................
........................................................................

 iter      E             dE          RMSdq      gap      omega  full diag
   1    -40.2528641 -0.402529E+02  0.682E-02    2.55       0.0  T
   2    -40.2528693 -0.520607E-05  0.416E-02    2.56       1.0  T
   3    -40.2528654  0.390496E-05  0.224E-02    2.55       1.0  T
   4    -40.2528725 -0.707682E-05  0.223E-03    2.55       8.5  T
   5    -40.2528726 -0.806089E-07  0.836E-04    2.55      22.6  T
   6    -40.2528726 -0.657608E-08  0.438E-04    2.55      43.1  T
   7    -40.2528726 -0.956767E-09  0.121E-04    2.55     156.1  T
   8    -40.2528726 -0.779110E-10  0.498E-05    2.55     379.2  T
     SCC iter.                  ...        0 min,  0.008 sec
     gradient                   ...        0 min,  0.019 sec
 * total energy  :   -39.5134329 Eh     change       -0.2215588E-03 Eh
   gradient norm :     0.0043210 Eh/α   predicted    -0.1472753E-03 ( -33.53%)
   displ. norm   :     0.2422046 α      lambda       -0.2195703E-03
   maximum displ.:     0.1886265 α      in ANC's #3, #8, #6, ...

........................................................................
.............................. CYCLE    6 ..............................
........................................................................

 iter      E             dE          RMSdq      gap      omega  full diag
   1    -40.2510659 -0.402511E+02  0.673E-02    2.53       0.0  T
   2    -40.2510688 -0.282399E-05  0.401E-02    2.54       1.0  T
   3    -40.2510642  0.452345E-05  0.184E-02    2.53       1.0  T
   4    -40.2510702 -0.592126E-05  0.196E-03    2.53       9.7  T
   5    -40.2510702 -0.592067E-07  0.724E-04    2.53      26.1  T
   6    -40.2510702 -0.206035E-08  0.410E-04    2.53      46.1  T
   7    -40.2510702 -0.141731E-08  0.961E-05    2.53     196.8  T
   8    -40.2510702 -0.533120E-10  0.445E-05    2.53     425.0  T
     SCC iter.                  ...        0 min,  0.009 sec
     gradient                   ...        0 min,  0.014 sec
 * total energy  :   -39.5136136 Eh     change       -0.1807604E-03 Eh
   gradient norm :     0.0072357 Eh/α   predicted    -0.1162283E-03 ( -35.70%)
   displ. norm   :     0.2329836 α      lambda       -0.2030472E-03
   maximum displ.:     0.1827226 α      in ANC's #3, #8, #6, ...

........................................................................
.............................. CYCLE    7 ..............................
........................................................................

 iter      E             dE          RMSdq      gap      omega  full diag
   1    -40.2500129 -0.402500E+02  0.614E-02    2.53       0.0  T
   2    -40.2500138 -0.849373E-06  0.362E-02    2.53       1.0  T
   3    -40.2500124  0.142446E-05  0.919E-03    2.53       2.1  T
   4    -40.2500140 -0.169466E-05  0.141E-03    2.53      13.4  T
   5    -40.2500141 -0.280789E-07  0.558E-04    2.53      33.9  T
   6    -40.2500141  0.423555E-10  0.257E-04    2.53      73.6  T
   7    -40.2500141 -0.109426E-08  0.612E-05    2.53     308.8  T
   8    -40.2500141 -0.153761E-10  0.331E-05    2.53     571.5  T
     SCC iter.                  ...        0 min,  0.008 sec
     gradient                   ...        0 min,  0.011 sec
 * total energy  :   -39.5137868 Eh     change       -0.1732206E-03 Eh
   gradient norm :     0.0075323 Eh/α   predicted    -0.1070386E-03 ( -38.21%)
   displ. norm   :     0.2682964 α      lambda       -0.2418825E-03
   maximum displ.:     0.2171730 α      in ANC's #3, #6, #8, ...

........................................................................
.............................. CYCLE    8 ..............................
........................................................................

 iter      E             dE          RMSdq      gap      omega  full diag
   1    -40.2500190 -0.402500E+02  0.716E-02    2.53       0.0  T
   2    -40.2500195 -0.487341E-06  0.422E-02    2.53       1.0  T
   3    -40.2500193  0.185037E-06  0.381E-03    2.53       5.0  T
   4    -40.2500196 -0.329387E-06  0.108E-03    2.53      17.5  T
   5    -40.2500196 -0.712902E-08  0.505E-04    2.53      37.4  T
   6    -40.2500196 -0.416492E-09  0.156E-04    2.53     120.8  T
   7    -40.2500196 -0.395140E-09  0.557E-05    2.53     339.4  T
     SCC iter.                  ...        0 min,  0.010 sec
     gradient                   ...        0 min,  0.016 sec
 * total energy  :   -39.5139821 Eh     change       -0.1952960E-03 Eh
   gradient norm :     0.0052120 Eh/α   predicted    -0.1296496E-03 ( -33.61%)
   displ. norm   :     0.2950390 α      lambda       -0.2075314E-03
   maximum displ.:     0.2438342 α      in ANC's #3, #6, #8, ...

........................................................................
.............................. CYCLE    9 ..............................
........................................................................

 iter      E             dE          RMSdq      gap      omega  full diag
   1    -40.2507955 -0.402508E+02  0.808E-02    2.54       0.0  T
   2    -40.2507961 -0.561835E-06  0.476E-02    2.54       1.0  T
   3    -40.2507958  0.278405E-06  0.448E-03    2.54       4.2  T
   4    -40.2507963 -0.467352E-06  0.122E-03    2.54      15.4  T
   5    -40.2507963 -0.830538E-08  0.606E-04    2.54      31.2  T
   6    -40.2507963 -0.653465E-09  0.208E-04    2.54      90.8  T
   7    -40.2507963 -0.556660E-09  0.630E-05    2.54     300.0  T
   8    -40.2507963 -0.547118E-11  0.317E-05    2.54     595.9  T
     SCC iter.                  ...        0 min,  0.013 sec
     gradient                   ...        0 min,  0.019 sec
 * total energy  :   -39.5141364 Eh     change       -0.1542351E-03 Eh
   gradient norm :     0.0033060 Eh/α   predicted    -0.1128023E-03 ( -26.86%)
   displ. norm   :     0.2569866 α      lambda       -0.1299177E-03
   maximum displ.:     0.2179634 α      in ANC's #3, #8, #6, ...

........................................................................
.............................. CYCLE   10 ..............................
........................................................................

 iter      E             dE          RMSdq      gap      omega  full diag
   1    -40.2521489 -0.402521E+02  0.742E-02    2.54       0.0  T
   2    -40.2521493 -0.454954E-06  0.436E-02    2.54       1.0  T
   3    -40.2521491  0.197419E-06  0.416E-03    2.54       4.5  T
   4    -40.2521495 -0.360216E-06  0.106E-03    2.54      17.8  T
   5    -40.2521495 -0.448583E-08  0.549E-04    2.54      34.4  T
   6    -40.2521495 -0.135465E-08  0.178E-04    2.54     106.1  T
   7    -40.2521495 -0.696986E-09  0.612E-05    2.54     308.7  T
     SCC iter.                  ...        0 min,  0.011 sec
     gradient                   ...        0 min,  0.015 sec
 * total energy  :   -39.5142309 Eh     change       -0.9455382E-04 Eh
   gradient norm :     0.0028774 Eh/α   predicted    -0.6924916E-04 ( -26.76%)
   displ. norm   :     0.3171126 α      lambda       -0.9847350E-04
   maximum displ.:     0.2553060 α      in ANC's #3, #8, #6, ...

........................................................................
.............................. CYCLE   11 ..............................
........................................................................

 iter      E             dE          RMSdq      gap      omega  full diag
   1    -40.2517337 -0.402517E+02  0.912E-02    2.54       0.0  T
   2    -40.2517353 -0.153161E-05  0.536E-02    2.54       1.0  T
   3    -40.2517335  0.171248E-05  0.975E-03    2.54       1.9  T
   4    -40.2517357 -0.211086E-05  0.196E-03    2.54       9.6  T
   5    -40.2517357 -0.544735E-07  0.797E-04    2.54      23.7  T
   6    -40.2517357  0.296815E-09  0.296E-04    2.54      63.9  T
   7    -40.2517357 -0.184196E-08  0.887E-05    2.54     213.0  T
   8    -40.2517357 -0.307523E-10  0.312E-05    2.54     605.5  T
     SCC iter.                  ...        0 min,  0.012 sec
     gradient                   ...        0 min,  0.011 sec
 * total energy  :   -39.5142775 Eh     change       -0.4661031E-04 Eh
   gradient norm :     0.0056426 Eh/α   predicted    -0.5418910E-04 (  16.26%)
   displ. norm   :     0.1884162 α      lambda       -0.1212807E-03
   maximum displ.:     0.1483490 α      in ANC's #3, #4, #1, ...

........................................................................
.............................. CYCLE   12 ..............................
........................................................................

 iter      E             dE          RMSdq      gap      omega  full diag
   1    -40.2546736 -0.402547E+02  0.663E-02    2.52       0.0  T
   2    -40.2546751 -0.147918E-05  0.387E-02    2.53       1.0  T
   3    -40.2546738  0.126845E-05  0.886E-03    2.52       2.1  T
   4    -40.2546754 -0.160835E-05  0.174E-03    2.53      10.8  T
   5    -40.2546754 -0.361136E-07  0.832E-04    2.53      22.7  T
   6    -40.2546754 -0.961677E-09  0.264E-04    2.53      71.5  T
   7    -40.2546754 -0.130672E-08  0.881E-05    2.53     214.5  T
   8    -40.2546754 -0.433644E-10  0.331E-05    2.53     571.5  T
     SCC iter.                  ...        0 min,  0.008 sec
     gradient                   ...        0 min,  0.011 sec
 * total energy  :   -39.5143351 Eh     change       -0.5754172E-04 Eh
   gradient norm :     0.0033418 Eh/α   predicted    -0.6279975E-04 (   9.14%)
   displ. norm   :     0.1326174 α      lambda       -0.3497516E-04
   maximum displ.:     0.0944904 α      in ANC's #3, #4, #8, ...

........................................................................
.............................. CYCLE   13 ..............................
........................................................................

 iter      E             dE          RMSdq      gap      omega  full diag
   1    -40.2542535 -0.402543E+02  0.425E-02    2.51       0.0  T
   2    -40.2542540 -0.508878E-06  0.250E-02    2.51       1.0  T
   3    -40.2542528  0.121870E-05  0.815E-03    2.51       2.3  T
   4    -40.2542543 -0.147164E-05  0.938E-04    2.51      20.1  T
   5    -40.2542543 -0.806892E-08  0.415E-04    2.51      45.5  T
   6    -40.2542543 -0.166601E-09  0.183E-04    2.51     103.0  T
   7    -40.2542543 -0.499533E-09  0.482E-05    2.51     392.2  T
     SCC iter.                  ...        0 min,  0.008 sec
     gradient                   ...        0 min,  0.014 sec
 * total energy  :   -39.5143617 Eh     change       -0.2666095E-04 Eh
   gradient norm :     0.0019244 Eh/α   predicted    -0.1779613E-04 ( -33.25%)
   displ. norm   :     0.1511384 α      lambda       -0.3665581E-04
   maximum displ.:     0.0920849 α      in ANC's #4, #1, #2, ...

........................................................................
.............................. CYCLE   14 ..............................
........................................................................

 iter      E             dE          RMSdq      gap      omega  full diag
   1    -40.2543382 -0.402543E+02  0.595E-02    2.49       0.0  T
   2    -40.2543393 -0.109272E-05  0.349E-02    2.49       1.0  T
   3    -40.2543360  0.326726E-05  0.135E-02    2.49       1.4  T
   4    -40.2543400 -0.402798E-05  0.135E-03    2.49      14.0  T
   5    -40.2543401 -0.737577E-08  0.597E-04    2.49      31.7  T
   6    -40.2543401 -0.221253E-08  0.237E-04    2.49      79.6  T
   7    -40.2543401 -0.617860E-09  0.637E-05    2.49     296.6  T
   8    -40.2543401 -0.108997E-10  0.319E-05    2.49     592.7  T
     SCC iter.                  ...        0 min,  0.008 sec
     gradient                   ...        0 min,  0.010 sec
 * total energy  :   -39.5143952 Eh     change       -0.3345334E-04 Eh
   gradient norm :     0.0022904 Eh/α   predicted    -0.1851445E-04 ( -44.66%)
   displ. norm   :     0.0661204 α      lambda       -0.2201955E-04
   maximum displ.:     0.0449373 α      in ANC's #4, #2, #1, ...

........................................................................
.............................. CYCLE   15 ..............................
........................................................................

 iter      E             dE          RMSdq      gap      omega  full diag
   1    -40.2541573 -0.402542E+02  0.283E-02    2.48       0.0  T
   2    -40.2541575 -0.125213E-06  0.164E-02    2.48       1.1  T
   3    -40.2541574  0.526408E-07  0.205E-03    2.48       9.2  T
   4    -40.2541575 -0.942848E-07  0.580E-04    2.48      32.6  T
   5    -40.2541575 -0.191610E-08  0.228E-04    2.48      82.8  T
   6    -40.2541575 -0.954756E-10  0.688E-05    2.48     274.5  T
   7    -40.2541575 -0.791758E-10  0.254E-05    2.48     742.6  T
     SCC iter.                  ...        0 min,  0.008 sec
     gradient                   ...        0 min,  0.010 sec
 * total energy  :   -39.5144147 Eh     change       -0.1949659E-04 Eh
   gradient norm :     0.0023459 Eh/α   predicted    -0.1105917E-04 ( -43.28%)
   displ. norm   :     0.1598959 α      lambda       -0.5093451E-04
   maximum displ.:     0.1026713 α      in ANC's #4, #2, #1, ...

........................................................................
.............................. CYCLE   16 ..............................
........................................................................

 iter      E             dE          RMSdq      gap      omega  full diag
   1    -40.2534120 -0.402534E+02  0.687E-02    2.47       0.0  T
   2    -40.2534128 -0.849516E-06  0.400E-02    2.47       1.0  T
   3    -40.2534124  0.427099E-06  0.599E-03    2.47       3.2  T
   4    -40.2534131 -0.708589E-06  0.141E-03    2.47      13.4  T
   5    -40.2534131 -0.863326E-08  0.538E-04    2.47      35.1  T
   6    -40.2534131 -0.548056E-09  0.160E-04    2.47     118.2  T
   7    -40.2534131 -0.460737E-09  0.610E-05    2.47     309.8  T
     SCC iter.                  ...        0 min,  0.012 sec
     gradient                   ...        0 min,  0.013 sec
 * total energy  :   -39.5144569 Eh     change       -0.4222935E-04 Eh
   gradient norm :     0.0023958 Eh/α   predicted    -0.2612042E-04 ( -38.15%)
   displ. norm   :     0.2454811 α      lambda       -0.6281296E-04
   maximum displ.:     0.1604611 α      in ANC's #4, #2, #1, ...

........................................................................
.............................. CYCLE   17 ..............................
........................................................................

 iter      E             dE          RMSdq      gap      omega  full diag
   1    -40.2523234 -0.402523E+02  0.105E-01    2.46       0.0  T
   2    -40.2523255 -0.215875E-05  0.612E-02    2.46       1.0  T
   3    -40.2523239  0.163016E-05  0.108E-02    2.46       1.7  T
   4    -40.2523263 -0.239379E-05  0.223E-03    2.46       8.5  T
   5    -40.2523263 -0.200280E-07  0.862E-04    2.46      21.9  T
   6    -40.2523263 -0.217174E-08  0.291E-04    2.46      64.9  T
   7    -40.2523263 -0.156580E-08  0.978E-05    2.46     193.2  T
   8    -40.2523263 -0.300631E-10  0.430E-05    2.46     439.8  T
     SCC iter.                  ...        0 min,  0.009 sec
     gradient                   ...        0 min,  0.009 sec
 * total energy  :   -39.5145063 Eh     change       -0.4934401E-04 Eh
   gradient norm :     0.0024687 Eh/α   predicted    -0.3330377E-04 ( -32.51%)
   displ. norm   :     0.2626176 α      lambda       -0.5264814E-04
   maximum displ.:     0.1744476 α      in ANC's #4, #2, #1, ...

........................................................................
.............................. CYCLE   18 ..............................
........................................................................

 iter      E             dE          RMSdq      gap      omega  full diag
   1    -40.2516482 -0.402516E+02  0.112E-01    2.45       0.0  T
   2    -40.2516508 -0.264006E-05  0.653E-02    2.45       1.0  T
   3    -40.2516488  0.201571E-05  0.119E-02    2.45       1.6  T
   4    -40.2516518 -0.294903E-05  0.248E-03    2.45       7.6  T
   5    -40.2516518 -0.247881E-07  0.958E-04    2.45      19.7  T
   6    -40.2516518 -0.296231E-08  0.320E-04    2.45      59.0  T
   7    -40.2516518 -0.189855E-08  0.103E-04    2.45     184.3  T
   8    -40.2516518 -0.319957E-10  0.473E-05    2.45     399.8  T
     SCC iter.                  ...        0 min,  0.007 sec
     gradient                   ...        0 min,  0.010 sec
 * total energy  :   -39.5145461 Eh     change       -0.3980596E-04 Eh
   gradient norm :     0.0023199 Eh/α   predicted    -0.2814272E-04 ( -29.30%)
   displ. norm   :     0.2697769 α      lambda       -0.4378224E-04
   maximum displ.:     0.1814459 α      in ANC's #4, #1, #2, ...

........................................................................
.............................. CYCLE   19 ..............................
........................................................................

 iter      E             dE          RMSdq      gap      omega  full diag
   1    -40.2516302 -0.402516E+02  0.114E-01    2.44       0.0  T
   2    -40.2516327 -0.257807E-05  0.660E-02    2.44       1.0  T
   3    -40.2516309  0.181147E-05  0.114E-02    2.44       1.7  T
   4    -40.2516337 -0.275347E-05  0.256E-03    2.44       7.4  T
   5    -40.2516337 -0.233048E-07  0.911E-04    2.44      20.7  T
   6    -40.2516337 -0.354183E-08  0.306E-04    2.44      61.8  T
   7    -40.2516337 -0.169806E-08  0.102E-04    2.44     185.3  T
   8    -40.2516337 -0.261409E-10  0.447E-05    2.44     422.9  T
     SCC iter.                  ...        0 min,  0.008 sec
     gradient                   ...        0 min,  0.010 sec
 * total energy  :   -39.5145765 Eh     change       -0.3039739E-04 Eh
   gradient norm :     0.0020961 Eh/α   predicted    -0.2348717E-04 ( -22.73%)
   displ. norm   :     0.1814449 α      lambda       -0.2533423E-04
   maximum displ.:     0.1194272 α      in ANC's #4, #1, #2, ...

........................................................................
.............................. CYCLE   20 ..............................
........................................................................

 iter      E             dE          RMSdq      gap      omega  full diag
   1    -40.2527378 -0.402527E+02  0.753E-02    2.43       0.0  T
   2    -40.2527389 -0.105292E-05  0.436E-02    2.44       1.0  T
   3    -40.2527383  0.560803E-06  0.663E-03    2.44       2.9  T
   4    -40.2527393 -0.948540E-06  0.172E-03    2.44      11.0  T
   5    -40.2527393 -0.978115E-08  0.522E-04    2.44      36.2  T
   6    -40.2527393 -0.160487E-08  0.195E-04    2.44      96.9  T
   7    -40.2527393 -0.709790E-09  0.651E-05    2.44     290.1  T
     SCC iter.                  ...        0 min,  0.009 sec
     gradient                   ...        0 min,  0.010 sec
 * total energy  :   -39.5145935 Eh     change       -0.1700534E-04 Eh
   gradient norm :     0.0014785 Eh/α   predicted    -0.1308600E-04 ( -23.05%)
   displ. norm   :     0.1965798 α      lambda       -0.1127165E-04
   maximum displ.:     0.1218312 α      in ANC's #4, #1, #2, ...
 * RMSD in coord.:     0.5484277 α      energy gain  -0.6023684E-02 Eh

generating ANC from exact Hessian ...
Using Lindh-Hessian (1995)
 Shifting diagonal of input Hessian by    9.2644094542568937E-003
 Lowest  eigenvalues of input Hessian
    0.000000    0.000000    0.000000    0.000000    0.000000    0.000000
    0.010000    0.010481    0.010667    0.011991    0.014304    0.015754
    0.019203    0.019739    0.024627    0.024827    0.027463    0.030188
 Highest eigenvalues
    1.893583    1.969604    2.003074    2.021982    2.040803    2.233974


........................................................................
.............................. CYCLE   21 ..............................
........................................................................

 iter      E             dE          RMSdq      gap      omega  full diag
   1    -40.2530949 -0.402531E+02  0.800E-02    2.43       0.0  T
   2    -40.2530959 -0.968217E-06  0.464E-02    2.43       1.0  T
   3    -40.2530957  0.234633E-06  0.531E-03    2.43       3.6  T
   4    -40.2530963 -0.596882E-06  0.172E-03    2.43      11.0  T
   5    -40.2530963 -0.900628E-08  0.406E-04    2.43      46.6  T
   6    -40.2530963 -0.132323E-08  0.148E-04    2.43     127.8  T
   7    -40.2530963 -0.286292E-09  0.659E-05    2.43     286.6  T
     SCC iter.                  ...        0 min,  0.007 sec
     gradient                   ...        0 min,  0.010 sec
 * total energy  :   -39.5146040 Eh     change       -0.1053216E-04 Eh
   gradient norm :     0.0015871 Eh/α   predicted     0.0000000E+00 (-100.00%)
   displ. norm   :     0.0163047 α      lambda       -0.2594198E-05
   maximum displ.:     0.0073835 α      in ANC's #6, #8, #7, ...

........................................................................
.............................. CYCLE   22 ..............................
........................................................................

 iter      E             dE          RMSdq      gap      omega  full diag
   1    -40.2533567 -0.402534E+02  0.881E-03    2.43       0.0  T
   2    -40.2533567 -0.735186E-07  0.507E-03    2.43       3.7  T
   3    -40.2533567  0.953149E-08  0.129E-03    2.43      14.7  T
   4    -40.2533567 -0.170649E-07  0.404E-04    2.43      46.8  T
   5    -40.2533567 -0.215035E-08  0.165E-04    2.43     114.4  T
   6    -40.2533567  0.202292E-10  0.641E-05    2.43     294.9  T
     SCC iter.                  ...        0 min,  0.006 sec
     gradient                   ...        0 min,  0.010 sec
 * total energy  :   -39.5146091 Eh     change       -0.5094349E-05 Eh
   gradient norm :     0.0004308 Eh/α   predicted    -0.3187201E-05 ( -37.44%)
   displ. norm   :     0.0156380 α      lambda       -0.1535007E-05
   maximum displ.:     0.0088623 α      in ANC's #6, #1, #8, ...

........................................................................
.............................. CYCLE   23 ..............................
........................................................................

 iter      E             dE          RMSdq      gap      omega  full diag
   1    -40.2533403 -0.402533E+02  0.461E-03    2.43       0.0  T
   2    -40.2533403 -0.738969E-08  0.269E-03    2.43       7.0  T
   3    -40.2533403  0.124243E-07  0.878E-04    2.43      21.5  T
   4    -40.2533403 -0.155548E-07  0.125E-04    2.43     151.3  T
   5    -40.2533403 -0.107299E-09  0.594E-05    2.43     318.1  T
     SCC iter.                  ...        0 min,  0.007 sec
     gradient                   ...        0 min,  0.009 sec
 * total energy  :   -39.5146110 Eh     change       -0.1898316E-05 Eh
   gradient norm :     0.0003170 Eh/α   predicted    -0.7712683E-06 ( -59.37%)
   displ. norm   :     0.0464738 α      lambda       -0.3227863E-05
   maximum displ.:     0.0263078 α      in ANC's #6, #8, #1, ...

........................................................................
.............................. CYCLE   24 ..............................
........................................................................

 iter      E             dE          RMSdq      gap      omega  full diag
   1    -40.2532717 -0.402533E+02  0.116E-02    2.43       0.0  T
   2    -40.2532717 -0.398408E-07  0.684E-03    2.43       2.8  T
   3    -40.2532716  0.815293E-07  0.214E-03    2.42       8.8  T
   4    -40.2532717 -0.996431E-07  0.294E-04    2.43      64.3  T
   5    -40.2532717 -0.587036E-09  0.140E-04    2.43     134.8  T
   6    -40.2532717 -0.831832E-10  0.670E-05    2.43     282.1  T
     SCC iter.                  ...        0 min,  0.006 sec
     gradient                   ...        0 min,  0.010 sec
 * total energy  :   -39.5146140 Eh     change       -0.3039687E-05 Eh
   gradient norm :     0.0005187 Eh/α   predicted    -0.1630136E-05 ( -46.37%)
   displ. norm   :     0.0274431 α      lambda       -0.1161350E-05
   maximum displ.:     0.0142241 α      in ANC's #1, #6, #8, ...

........................................................................
.............................. CYCLE   25 ..............................
........................................................................

 iter      E             dE          RMSdq      gap      omega  full diag
   1    -40.2533071 -0.402533E+02  0.671E-03    2.43       0.0  T
   2    -40.2533071 -0.379829E-08  0.399E-03    2.43       4.7  T
   3    -40.2533071  0.512153E-08  0.502E-04    2.43      37.7  T
   4    -40.2533071 -0.691464E-08  0.113E-04    2.43     166.8  T
   5    -40.2533071 -0.115818E-11  0.530E-05    2.43     356.9  T
     SCC iter.                  ...        0 min,  0.005 sec
     gradient                   ...        0 min,  0.010 sec
 * total energy  :   -39.5146152 Eh     change       -0.1197993E-05 Eh
   gradient norm :     0.0004305 Eh/α   predicted    -0.5809606E-06 ( -51.51%)
   displ. norm   :     0.0230773 α      lambda       -0.8628268E-06
   maximum displ.:     0.0137138 α      in ANC's #1, #8, #3, ...

........................................................................
.............................. CYCLE   26 ..............................
........................................................................

 iter      E             dE          RMSdq      gap      omega  full diag
   1    -40.2533453 -0.402533E+02  0.594E-03    2.43       0.0  T
   2    -40.2533453 -0.537160E-08  0.352E-03    2.43       5.4  T
   3    -40.2533453  0.107157E-07  0.751E-04    2.43      25.2  T
   4    -40.2533453 -0.133078E-07  0.119E-04    2.43     158.2  T
   5    -40.2533453 -0.332463E-10  0.592E-05    2.43     319.2  T
     SCC iter.                  ...        0 min,  0.006 sec
     gradient                   ...        0 min,  0.010 sec
 * total energy  :   -39.5146161 Eh     change       -0.8261567E-06 Eh
   gradient norm :     0.0001651 Eh/α   predicted    -0.4380538E-06 ( -46.98%)
   displ. norm   :     0.0091769 α      lambda       -0.2610139E-06
   maximum displ.:     0.0066953 α      in ANC's #1, #3, #8, ...

........................................................................
.............................. CYCLE   27 ..............................
........................................................................

 iter      E             dE          RMSdq      gap      omega  full diag
   1    -40.2533592 -0.402534E+02  0.312E-03    2.43       0.0  T
   2    -40.2533592 -0.450809E-08  0.181E-03    2.43      10.4  T
   3    -40.2533592  0.603395E-08  0.643E-04    2.43      29.4  T
   4    -40.2533592 -0.776585E-08  0.789E-05    2.43     239.4  T
   5    -40.2533592 -0.451479E-10  0.373E-05    2.43     506.8  T
     SCC iter.                  ...        0 min,  0.006 sec
     gradient                   ...        0 min,  0.010 sec
 * total energy  :   -39.5146163 Eh     change       -0.2640476E-06 Eh
   gradient norm :     0.0000983 Eh/α   predicted    -0.1314770E-06 ( -50.21%)
   displ. norm   :     0.0080390 α      lambda       -0.1482355E-06
   maximum displ.:     0.0056999 α      in ANC's #1, #3, #4, ...

........................................................................
.............................. CYCLE   28 ..............................
........................................................................

 iter      E             dE          RMSdq      gap      omega  full diag
   1    -40.2533552 -0.402534E+02  0.296E-03    2.43       0.0  T
   2    -40.2533552 -0.225786E-08  0.172E-03    2.43      11.0  T
   3    -40.2533552  0.295999E-08  0.433E-04    2.43      43.6  T
   4    -40.2533552 -0.388184E-08  0.650E-05    2.43     290.8  T
   5    -40.2533552 -0.163638E-10  0.293E-05    2.43     645.6  T
     SCC iter.                  ...        0 min,  0.005 sec
     gradient                   ...        0 min,  0.011 sec
 * total energy  :   -39.5146165 Eh     change       -0.2012089E-06 Eh
   gradient norm :     0.0001388 Eh/α   predicted    -0.7868767E-07 ( -60.89%)
   displ. norm   :     0.0157940 α      lambda       -0.2798301E-06
   maximum displ.:     0.0098332 α      in ANC's #1, #4, #3, ...

........................................................................
.............................. CYCLE   29 ..............................
........................................................................

 iter      E             dE          RMSdq      gap      omega  full diag
   1    -40.2533411 -0.402533E+02  0.601E-03    2.43       0.0  T
   2    -40.2533411 -0.689802E-08  0.349E-03    2.43       5.4  T
   3    -40.2533411  0.518558E-08  0.614E-04    2.43      30.8  T
   4    -40.2533411 -0.776485E-08  0.128E-04    2.43     147.7  T
   5    -40.2533411 -0.504841E-10  0.493E-05    2.43     383.6  T
     SCC iter.                  ...        0 min,  0.005 sec
     gradient                   ...        0 min,  0.010 sec
 * total energy  :   -39.5146169 Eh     change       -0.3713651E-06 Eh
   gradient norm :     0.0001821 Eh/α   predicted    -0.1436234E-06 ( -61.33%)
   displ. norm   :     0.0264563 α      lambda       -0.4264201E-06
   maximum displ.:     0.0162833 α      in ANC's #1, #4, #3, ...

........................................................................
.............................. CYCLE   30 ..............................
........................................................................

 iter      E             dE          RMSdq      gap      omega  full diag
   1    -40.2533204 -0.402533E+02  0.101E-02    2.42       0.0  T
   2    -40.2533204 -0.169954E-07  0.588E-03    2.42       3.2  T
   3    -40.2533204  0.620033E-08  0.786E-04    2.42      24.0  T
   4    -40.2533204 -0.125789E-07  0.216E-04    2.42      87.4  T
   5    -40.2533204 -0.112060E-09  0.675E-05    2.42     279.8  T
   6    -40.2533204 -0.316902E-10  0.208E-05    2.42     908.8  T
     SCC iter.                  ...        0 min,  0.007 sec
     gradient                   ...        0 min,  0.009 sec
 * total energy  :   -39.5146174 Eh     change       -0.5278415E-06 Eh
   gradient norm :     0.0001886 Eh/α   predicted    -0.2162407E-06 ( -59.03%)
   displ. norm   :     0.0267845 α      lambda       -0.3609779E-06
   maximum displ.:     0.0175843 α      in ANC's #1, #4, #3, ...

........................................................................
.............................. CYCLE   31 ..............................
........................................................................

 iter      E             dE          RMSdq      gap      omega  full diag
   1    -40.2533039 -0.402533E+02  0.102E-02    2.42       0.0  T
   2    -40.2533040 -0.163256E-07  0.589E-03    2.42       3.2  T
   3    -40.2533040  0.473304E-08  0.718E-04    2.42      26.3  T
   4    -40.2533040 -0.109479E-07  0.217E-04    2.42      87.1  T
   5    -40.2533040 -0.106468E-09  0.653E-05    2.42     289.6  T
   6    -40.2533040 -0.387317E-10  0.212E-05    2.42     891.9  T
     SCC iter.                  ...        0 min,  0.007 sec
     gradient                   ...        0 min,  0.010 sec
 * total energy  :   -39.5146179 Eh     change       -0.4684450E-06 Eh
   gradient norm :     0.0001379 Eh/α   predicted    -0.1843751E-06 ( -60.64%)
   displ. norm   :     0.0257645 α      lambda       -0.3129788E-06
   maximum displ.:     0.0177322 α      in ANC's #1, #4, #3, ...

........................................................................
.............................. CYCLE   32 ..............................
........................................................................

 iter      E             dE          RMSdq      gap      omega  full diag
   1    -40.2533088 -0.402533E+02  0.955E-03    2.42       0.0  T
   2    -40.2533088 -0.149186E-07  0.554E-03    2.42       3.4  T
   3    -40.2533088  0.532723E-08  0.706E-04    2.42      26.8  T
   4    -40.2533088 -0.111017E-07  0.208E-04    2.42      90.9  T
   5    -40.2533088 -0.780318E-10  0.645E-05    2.42     293.0  T
   6    -40.2533088 -0.481748E-10  0.212E-05    2.42     891.5  T
     SCC iter.                  ...        0 min,  0.007 sec
     gradient                   ...        0 min,  0.012 sec
 * total energy  :   -39.5146183 Eh     change       -0.3911796E-06 Eh
   gradient norm :     0.0000837 Eh/α   predicted    -0.1599357E-06 ( -59.11%)
   displ. norm   :     0.0222373 α      lambda       -0.2221382E-06
   maximum displ.:     0.0156994 α      in ANC's #1, #4, #3, ...

........................................................................
.............................. CYCLE   33 ..............................
........................................................................

 iter      E             dE          RMSdq      gap      omega  full diag
   1    -40.2533074 -0.402533E+02  0.800E-03    2.42       0.0  T
   2    -40.2533075 -0.115375E-07  0.465E-03    2.42       4.1  T
   3    -40.2533075  0.484216E-08  0.642E-04    2.42      29.4  T
   4    -40.2533075 -0.911220E-08  0.178E-04    2.42     106.1  T
   5    -40.2533075 -0.791687E-10  0.582E-05    2.42     324.6  T
     SCC iter.                  ...        0 min,  0.008 sec
     gradient                   ...        0 min,  0.012 sec
 * total energy  :   -39.5146185 Eh     change       -0.2650164E-06 Eh
   gradient norm :     0.0000859 Eh/α   predicted    -0.1136773E-06 ( -57.11%)
   displ. norm   :     0.0154269 α      lambda       -0.1240580E-06
   maximum displ.:     0.0110150 α      in ANC's #1, #4, #8, ...

........................................................................
.............................. CYCLE   34 ..............................
........................................................................

 iter      E             dE          RMSdq      gap      omega  full diag
   1    -40.2533052 -0.402533E+02  0.547E-03    2.42       0.0  T
   2    -40.2533052 -0.699400E-08  0.318E-03    2.42       5.9  T
   3    -40.2533052  0.531735E-08  0.597E-04    2.42      31.7  T
   4    -40.2533052 -0.776110E-08  0.128E-04    2.42     147.5  T
   5    -40.2533052 -0.580087E-10  0.491E-05    2.42     384.6  T
     SCC iter.                  ...        0 min,  0.006 sec
     gradient                   ...        0 min,  0.012 sec
 * total energy  :   -39.5146187 Eh     change       -0.1473908E-06 Eh
   gradient norm :     0.0000872 Eh/α   predicted    -0.6309009E-07 ( -57.20%)
   displ. norm   :     0.0116069 α      lambda       -0.7805843E-07
   maximum displ.:     0.0083079 α      in ANC's #1, #4, #8, ...

........................................................................
.............................. CYCLE   35 ..............................
........................................................................

 iter      E             dE          RMSdq      gap      omega  full diag
   1    -40.2533035 -0.402533E+02  0.410E-03    2.42       0.0  T
   2    -40.2533035 -0.524241E-08  0.238E-03    2.42       7.9  T
   3    -40.2533035  0.479468E-08  0.568E-04    2.42      33.3  T
   4    -40.2533035 -0.657516E-08  0.106E-04    2.42     179.0  T
   5    -40.2533035 -0.525944E-10  0.430E-05    2.42     439.1  T
     SCC iter.                  ...        0 min,  0.010 sec
     gradient                   ...        0 min,  0.014 sec
 * total energy  :   -39.5146188 Eh     change       -0.9616059E-07 Eh
   gradient norm :     0.0000622 Eh/α   predicted    -0.3940174E-07 ( -59.03%)
   displ. norm   :     0.0123660 α      lambda       -0.6695499E-07
   maximum displ.:     0.0086658 α      in ANC's #1, #4, #8, ...

   *** GEOMETRY OPTIMIZATION CONVERGED AFTER 35 ITERATIONS ***

------------------------------------------------------------------------
 total energy gain   :        -0.0060490 Eh       -3.7958 kcal/mol
 total RMSD          :         0.5819493 a0        0.3080 Å
 total power (kW/mol):        -0.4537617 (step)  -17.5259 (real)
------------------------------------------------------------------------

 ANCopt (total)                0 d,  0 h,  0 min,  0.906 sec
 optimizer setup                ...        0 min,  0.001 sec (  0.162%)
 model hessian                  ...        0 min,  0.012 sec (  1.309%)
 ANC generation                 ...        0 min,  0.002 sec (  0.178%)
 coordinate transformation      ...        0 min,  0.000 sec (  0.055%)
 single point calculation       ...        0 min,  0.876 sec ( 96.677%)
 optimization log               ...        0 min,  0.007 sec (  0.816%)
 hessian update                 ...        0 min,  0.001 sec (  0.101%)
 rational function              ...        0 min,  0.004 sec (  0.488%)

================
 final structure:
================
28
 xtb: 6.7.1 (edcfbbe)
C           -0.21392734306084       -0.36406296989127       -1.86497723183311
C           -0.46164146539759       -0.05440646804600       -0.41307073678466
N            0.45927933355536        0.16887635693090        0.42922485299705
C            1.81741952860980        0.09896805888422        0.22994797868164
C            2.46838908120894       -1.13028030077790        0.09027449134084
C            3.84693994271800       -1.18546612316247        0.02262263854776
C            4.60093605444539       -0.02491274230484        0.08214438487413
C            3.96214531760475        1.19745030408149        0.22219444135200
C            2.58596003794277        1.26395094143425        0.30651384506017
C           -1.85199751962462        0.02316333263324        0.06322444132808
C           -2.92635959566738       -0.41120913812898       -0.71302200869785
C           -4.21986793552133       -0.32910216709098       -0.22914322939855
C           -4.46514138256576        0.18945444838855        1.03138267419531
C           -3.40520024568599        0.62355967884243        1.81279327123395
C           -2.11266188083876        0.53950311653865        1.33482212742038
H           -0.48617866633358       -1.39723738129151       -2.07808630398021
H           -0.80965430820964        0.28982446672562       -2.49902574335239
H            0.84021125423278       -0.22793316699264       -2.10075787244718
H            1.87905367871277       -2.03594071639256        0.05015115469013
H            4.33630741127097       -2.14370057925268       -0.08392384519330
H            5.67843558607450       -0.07220644107726        0.02256945238909
H            4.54297583555380        2.10798850405156        0.27029283128624
H            2.08472197005839        2.21501784523978        0.41598416484710
H           -2.76171973663243       -0.82634518120678       -1.69528661428991
H           -5.04205008854472       -0.67236207038628       -0.84082731019999
H           -5.47728846709399        0.25442476925253        1.40355976537245
H           -3.58977944343849        1.02873194809224        2.79728698480371
H           -1.27930695337254        0.87425167470760        1.93313139585826

 Bond Distances (Angstroems)
 ---------------------------
C1-C2=1.5051         C1-H16=1.0895        C1-H17=1.0883        C1-H18=1.0887        C2-C1=1.5051         C2-N3=1.2678         
C2-C10=1.4717        N3-C2=1.2678         N3-C4=1.3745         C4-N3=1.3745         C4-C5=1.3980         C4-C9=1.3977         
C5-C4=1.3980         C5-C6=1.3813         C5-H19=1.0813        C6-C5=1.3813         C6-C7=1.3853         C6-H20=1.0812        
C7-C6=1.3853         C7-C8=1.3863         C7-H21=1.0802        C8-C7=1.3863         C8-C9=1.3804         C8-H22=1.0811        
C9-C4=1.3977         C9-C8=1.3804         C9-H23=1.0806        C10-C2=1.4717        C10-C11=1.3948       C10-C15=1.3970       
C11-C10=1.3948       C11-C12=1.3835       C11-H24=1.0790       C12-C11=1.3835       C12-C13=1.3849       C12-H25=1.0807       
C13-C12=1.3849       C13-C14=1.3866       C13-H26=1.0804       C14-C13=1.3866       C14-C15=1.3806       C14-H27=1.0805       
C15-C10=1.3970       C15-C14=1.3806       C15-H28=1.0791       H16-C1=1.0895        H17-C1=1.0883        H18-C1=1.0887        
H19-C5=1.0813        H20-C6=1.0812        H21-C7=1.0802        H22-C8=1.0811        H23-C9=1.0806        H24-C11=1.0790       
H25-C12=1.0807       H26-C13=1.0804       H27-C14=1.0805       H28-C15=1.0791       
 C  H  Rav=1.0824 sigma=0.0036  Rmin=1.0790  Rmax=1.0895    13
 C  C  Rav=1.4024 sigma=0.0362  Rmin=1.3804  Rmax=1.5051    14
 N  C  Rav=1.3211 sigma=0.0533  Rmin=1.2678  Rmax=1.3745     2

 selected bond angles (degree)
 --------------------
H16-C1-C2=110.04               H17-C1-C2=110.38               H17-C1-H16=108.60              H18-C1-C2=110.03               
H18-C1-H16=108.55              H18-C1-H17=109.19              N3-C2-C1=123.89                C10-C2-C1=118.59               
C10-C2-N3=117.51               C4-N3-C2=127.77                C5-C4-N3=121.29                C9-C4-N3=119.54                
C9-C4-C5=118.84                C6-C5-C4=120.31                H19-C5-C4=119.10               H19-C5-C6=120.58               
C7-C6-C5=120.51                H20-C6-C5=119.47               H20-C6-C7=120.02               C8-C7-C6=119.49                
H21-C7-C6=120.26               H21-C7-C8=120.25               C9-C8-C7=120.53                H22-C8-C7=119.97               
H22-C8-C9=119.49               C8-C9-C4=120.31                H23-C9-C4=118.95               H23-C9-C8=120.73               
C11-C10-C2=122.08              C15-C10-C2=119.36              C15-C10-C11=118.55             

 selected dihedral angles (degree)
 ---------------------------------
N3-C2-C1-H16=111.63           N3-C2-C1-H17=231.48           N3-C2-C1-H18=352.06           C10-C2-C1-H16=290.34          
C10-C2-C1-H17= 50.20          C10-C2-C1-H18=170.77          C4-N3-C2-C1=355.79            C4-N3-C2-C10=177.06           
C5-C4-N3-C2=287.32            C9-C4-N3-C2=114.08            C6-C5-C4-N3=186.38            C6-C5-C4-C9=359.66            
H19-C5-C4-N3=  5.53           H19-C5-C4-C9=178.81           C7-C6-C5-C4=359.52            C7-C6-C5-H19=180.39           
H20-C6-C5-C4=179.91           H20-C6-C5-H19=  0.78          C8-C7-C6-C5=  0.55            C8-C7-C6-H20=180.16           
H21-C7-C6-C5=180.39           H21-C7-C6-H20=  0.00          C9-C8-C7-C6=  0.21            C9-C8-C7-H21=180.37           
H22-C8-C7-C6=179.95           H22-C8-C7-H21=  0.11          C8-C9-C4-N3=174.49            C8-C9-C4-C5=  1.09            
H23-C9-C4-N3=353.49           H23-C9-C4-C5=180.09           C4-C9-C8-C7=358.97            C4-C9-C8-H22=179.22           
H23-C9-C8-C7=179.98           H23-C9-C8-H22=  0.24          C11-C10-C2-C1= 11.77          C11-C10-C2-N3=190.57          
C15-C10-C2-C1=191.39          C15-C10-C2-N3= 10.18          
           -------------------------------------------------
          |                Final Singlepoint                |
           -------------------------------------------------

          ...................................................
          :                      SETUP                      :
          :.................................................:
          :  # basis functions                  73          :
          :  # atomic orbitals                  73          :
          :  # shells                           43          :
          :  # electrons                        74          :
          :  max. iterations                   250          :
          :  Hamiltonian                  GFN2-xTB          :
          :  restarted?                      false          :
          :  GBSA solvation                   true          :
          :  PC potential                    false          :
          :  electronic temp.          300.0000000     K    :
          :  accuracy                    0.2000000          :
          :  -> integral cutoff          0.3198970E+02      :
          :  -> integral neglect         0.2000000E-08      :
          :  -> SCF convergence          0.2000000E-06 Eh   :
          :  -> wf. convergence          0.2000000E-04 e    :
          :  Broyden damping             0.4000000          :
          :  net charge                          0          :
          :  unpaired electrons                  0          :
          ...................................................

 iter      E             dE          RMSdq      gap      omega  full diag
   1    -40.2533035 -0.402533E+02  0.170E-05    2.42       0.0  T
   2    -40.2533035 -0.263611E-11  0.106E-05    2.42    1783.1  T
   3    -40.2533035 -0.206768E-11  0.449E-06    2.42    4212.1  T

   *** convergence criteria satisfied after 3 iterations ***

         #    Occupation            Energy/Eh            Energy/eV
      -------------------------------------------------------------
         1        2.0000           -0.6541172             -17.7994
       ...           ...                  ...                  ...
        31        2.0000           -0.4225894             -11.4992
        32        2.0000           -0.4182705             -11.3817
        33        2.0000           -0.4108869             -11.1808
        34        2.0000           -0.4081568             -11.1065
        35        2.0000           -0.3984508             -10.8424
        36        2.0000           -0.3953352             -10.7576
        37        2.0000           -0.3565762              -9.7029 (HOMO)
        38                         -0.2676864              -7.2841 (LUMO)
        39                         -0.2256172              -6.1394
        40                         -0.2160948              -5.8802
        41                         -0.2093685              -5.6972
        42                         -0.1851783              -5.0390
       ...                                ...                  ...
        73                          0.6981484              18.9976
      -------------------------------------------------------------
                  HL-Gap            0.0888899 Eh            2.4188 eV
             Fermi-level           -0.3121313 Eh           -8.4935 eV

 SCC (total)                   0 d,  0 h,  0 min,  0.019 sec
 SCC setup                      ...        0 min,  0.001 sec (  3.770%)
 Dispersion                     ...        0 min,  0.000 sec (  1.245%)
 classical contributions        ...        0 min,  0.000 sec (  0.318%)
 integral evaluation            ...        0 min,  0.004 sec ( 18.645%)
 iterations                     ...        0 min,  0.005 sec ( 25.811%)
 molecular gradient             ...        0 min,  0.009 sec ( 49.253%)
 printout                       ...        0 min,  0.000 sec (  0.904%)

         :::::::::::::::::::::::::::::::::::::::::::::::::::::
         ::                     SUMMARY                     ::
         :::::::::::::::::::::::::::::::::::::::::::::::::::::
         :: total energy             -39.514618786290 Eh    ::
         :: total w/o Gsasa/hb       -39.496748730895 Eh    ::
         :: gradient norm              0.000063050483 Eh/a0 ::
         :: HOMO-LUMO gap              2.418816166867 eV    ::
         ::.................................................::
         :: SCC energy               -40.253381562703 Eh    ::
         :: -> isotropic ES            0.010678138827 Eh    ::
         :: -> anisotropic ES          0.005283418295 Eh    ::
         :: -> anisotropic XC          0.029992154437 Eh    ::
         :: -> dispersion             -0.027175079253 Eh    ::
         :: -> Gsolv                  -0.018709866883 Eh    ::
         ::    -> Gelec               -0.000839811488 Eh    ::
         ::    -> Gsasa               -0.022018752756 Eh    ::
         ::    -> Ghb                  0.000000000000 Eh    ::
         ::    -> Gshift               0.004148697361 Eh    ::
         :: repulsion energy           0.738762776413 Eh    ::
         :: add. restraining           0.000000000000 Eh    ::
         :: total charge              -0.000000000000 e     ::
         :::::::::::::::::::::::::::::::::::::::::::::::::::::

           -------------------------------------------------
          |                Property Printout                |
           -------------------------------------------------

    * Orbital Energies and Occupations

         #    Occupation            Energy/Eh            Energy/eV
      -------------------------------------------------------------
         1        2.0000           -0.6541172             -17.7994
       ...           ...                  ...                  ...
        25        2.0000           -0.4724585             -12.8563
        26        2.0000           -0.4694252             -12.7737
        27        2.0000           -0.4629533             -12.5976
        28        2.0000           -0.4458959             -12.1334
        29        2.0000           -0.4321126             -11.7584
        30        2.0000           -0.4317823             -11.7494
        31        2.0000           -0.4225894             -11.4992
        32        2.0000           -0.4182705             -11.3817
        33        2.0000           -0.4108869             -11.1808
        34        2.0000           -0.4081568             -11.1065
        35        2.0000           -0.3984508             -10.8424
        36        2.0000           -0.3953352             -10.7576
        37        2.0000           -0.3565762              -9.7029 (HOMO)
        38                         -0.2676864              -7.2841 (LUMO)
        39                         -0.2256172              -6.1394
        40                         -0.2160948              -5.8802
        41                         -0.2093685              -5.6972
        42                         -0.1851783              -5.0390
        43                         -0.0865782              -2.3559
        44                         -0.0820282              -2.2321
        45                          0.0736917               2.0053
        46                          0.1108447               3.0162
        47                          0.1214833               3.3057
        48                          0.1302367               3.5439
       ...                                ...                  ...
        73                          0.6981484              18.9976
      -------------------------------------------------------------
                  HL-Gap            0.0888899 Eh            2.4188 eV
             Fermi-level           -0.3121313 Eh           -8.4935 eV

     #   Z          covCN         q      C6AA      α(0)
     1   6 C        3.755    -0.117    22.792     6.807
     2   6 C        2.898     0.113    25.513     8.282
     3   7 N        1.848    -0.221    26.664     7.653
     4   6 C        2.923     0.083    26.142     8.385
     5   6 C        2.922    -0.052    29.288     8.875
     6   6 C        2.919    -0.033    28.814     8.803
     7   6 C        2.919    -0.044    29.084     8.844
     8   6 C        2.919    -0.032    28.805     8.801
     9   6 C        2.924    -0.050    29.238     8.867
    10   6 C        2.982     0.003    27.954     8.673
    11   6 C        2.922    -0.032    28.804     8.801
    12   6 C        2.918    -0.030    28.746     8.792
    13   6 C        2.919    -0.026    28.654     8.778
    14   6 C        2.917    -0.027    28.688     8.783
    15   6 C        2.926    -0.026    28.649     8.778
    16   1 H        0.925     0.058     2.219     2.330
    17   1 H        0.925     0.056     2.252     2.347
    18   1 H        0.925     0.044     2.396     2.421
    19   1 H        0.925     0.023     2.691     2.565
    20   1 H        0.925     0.026     2.649     2.545
    21   1 H        0.926     0.024     2.677     2.559
    22   1 H        0.926     0.027     2.635     2.538
    23   1 H        0.926     0.028     2.620     2.531
    24   1 H        0.926     0.042     2.420     2.432
    25   1 H        0.926     0.036     2.498     2.472
    26   1 H        0.926     0.037     2.486     2.466
    27   1 H        0.926     0.038     2.479     2.462
    28   1 H        0.926     0.053     2.285     2.364

 Mol. C6AA /au·bohr⁶  :       9909.501199
 Mol. C8AA /au·bohr⁸  :     242992.663961
 Mol. α(0) /au        :        159.952862


Wiberg/Mayer (AO) data.
largest (>0.10) Wiberg bond orders for each atom

 ---------------------------------------------------------------------------
     #   Z sym  total        # sym  WBO       # sym  WBO       # sym  WBO
 ---------------------------------------------------------------------------
     1   6 C    3.996 --     2 C    1.008    18 H    0.981    17 H    0.970
                            16 H    0.961
     2   6 C    3.964 --     3 N    1.766    10 C    1.057     1 C    1.008
     3   7 N    3.228 --     2 C    1.766     4 C    1.135
     4   6 C    3.976 --     9 C    1.342     5 C    1.341     3 N    1.135
     5   6 C    3.985 --     6 C    1.457     4 C    1.341    19 H    0.971
                             8 C    0.104
     6   6 C    3.992 --     5 C    1.457     7 C    1.431    20 H    0.970
                             9 C    0.105
     7   6 C    3.990 --     6 C    1.431     8 C    1.425    21 H    0.972
     8   6 C    3.991 --     9 C    1.463     7 C    1.425    22 H    0.970
                             5 C    0.104
     9   6 C    3.986 --     8 C    1.463     4 C    1.342    23 H    0.971
                             6 C    0.105
    10   6 C    3.988 --    11 C    1.385    15 C    1.373     2 C    1.057
                            13 C    0.102
    11   6 C    3.986 --    12 C    1.452    10 C    1.385    24 H    0.967
                            14 C    0.105
    12   6 C    3.992 --    11 C    1.452    13 C    1.436    25 H    0.971
                            15 C    0.107
    13   6 C    3.988 --    12 C    1.436    14 C    1.427    26 H    0.971
                            10 C    0.102
    14   6 C    3.992 --    15 C    1.463    13 C    1.427    27 H    0.970
                            11 C    0.105
    15   6 C    3.989 --    14 C    1.463    10 C    1.373    28 H    0.966
                            12 C    0.107
    16   1 H    0.996 --     1 C    0.961
    17   1 H    0.997 --     1 C    0.970
    18   1 H    0.998 --     1 C    0.981
    19   1 H    0.999 --     5 C    0.971
    20   1 H    0.999 --     6 C    0.970
    21   1 H    0.999 --     7 C    0.972
    22   1 H    0.998 --     8 C    0.970
    23   1 H    0.999 --     9 C    0.971
    24   1 H    0.998 --    11 C    0.967
    25   1 H    0.998 --    12 C    0.971
    26   1 H    0.998 --    13 C    0.971
    27   1 H    0.998 --    14 C    0.970
    28   1 H    0.997 --    15 C    0.966
 ---------------------------------------------------------------------------

Topologies differ in total number of bonds
Writing topology from bond orders to xtbtopo.mol

molecular dipole:
                 x           y           z       tot (Debye)
 q only:       -0.914      -0.066      -0.366
   full:       -0.848      -0.160      -0.638       2.728
molecular quadrupole (traceless):
                xx          xy          yy          xz          yz          zz
 q only:        1.001       0.203      -1.763      -0.878       1.632       0.762
  q+dip:        4.559       0.729      -2.425      -0.973       4.069      -2.134
Note: The following floating-point exceptions are signalling: IEEE_DIVIDE_BY_ZERO IEEE_UNDERFLOW_FLAG IEEE_DENORMAL
normal termination of xtb
   full:        1.856       0.333      -1.118      -0.828       2.057      -0.738

           -------------------------------------------------
          |                Geometry Summary                 |
           -------------------------------------------------

      molecular mass/u    :      195.2602356
   center of mass at/Å    :        0.0094435       0.0358451       0.1399040
  moments of inertia/u·Å² :        0.2585792E+03   0.1845211E+04   0.1964310E+04
rotational constants/cm⁻¹ :        0.6519332E-01   0.9135884E-02   0.8581963E-02

 * 27 selected distances

     #   Z          #   Z                                           value/Å
     2   6 C        3   7 N                                       1.2678377
     3   7 N        4   6 C                                       1.3744612
     4   6 C        5   6 C                                       1.3979706 (max)
     5   6 C        6   6 C                                       1.3813128
     6   6 C        7   6 C                                       1.3852572
     7   6 C        8   6 C                                       1.3863042
     4   6 C        9   6 C                                       1.3977490
     8   6 C        9   6 C                                       1.3803689
    10   6 C       11   6 C                                       1.3948090
    11   6 C       12   6 C                                       1.3834899
    12   6 C       13   6 C                                       1.3849137
    13   6 C       14   6 C                                       1.3865516
    10   6 C       15   6 C                                       1.3969659
    14   6 C       15   6 C                                       1.3806439
     1   6 C       16   1 H                                       1.0894888
     1   6 C       17   1 H                                       1.0883369
     1   6 C       18   1 H                                       1.0887296
     5   6 C       19   1 H                                       1.0812711
     6   6 C       20   1 H                                       1.0812244
     7   6 C       21   1 H                                       1.0801812
     8   6 C       22   1 H                                       1.0810909
     9   6 C       23   1 H                                       1.0806257
    11   6 C       24   1 H                                       1.0790219 (min)
    12   6 C       25   1 H                                       1.0807259
    13   6 C       26   1 H                                       1.0803605
    14   6 C       27   1 H                                       1.0804916
    15   6 C       28   1 H                                       1.0791252

 * 3 distinct bonds (by element types)

   Z      Z             #   av. dist./Å        max./Å        min./Å
   1 H    6 C          13     1.0823595     1.0894888     1.0790219
   6 C    6 C          12     1.3880281     1.3979706     1.3803689
   6 C    7 N           2     1.3211495     1.3744612     1.2678377


optimized geometry written to: xtbopt.xyz


           -------------------------------------------------
          | TOTAL ENERGY              -39.514618786290 Eh   |
          | GRADIENT NORM               0.000063050483 Eh/α |
          | HOMO-LUMO GAP               2.418816166867 eV   |
           -------------------------------------------------

------------------------------------------------------------------------
 * finished run on 2026/09/10 at 23:03:15.087     
------------------------------------------------------------------------
 total:
 * wall-time:     0 d,  0 h,  0 min,  0.990 sec
 *  cpu-time:     0 d,  0 h,  0 min,  0.109 sec
 * ratio c/w:     0.110 speedup
 SCF:
 * wall-time:     0 d,  0 h,  0 min,  0.029 sec
 *  cpu-time:     0 d,  0 h,  0 min,  0.000 sec
 * ratio c/w:     0.000 speedup
 ANC optimizer:
 * wall-time:     0 d,  0 h,  0 min,  0.930 sec
 *  cpu-time:     0 d,  0 h,  0 min,  0.109 sec
 * ratio c/w:     0.118 speedup

