 Entering Gaussian System
 *********************************************
 Gaussian 98:
 frequency output generated by the xtb code
 *********************************************
                         Standard orientation:
 --------------------------------------------------------------------
  Center     Atomic     Atomic              Coordinates (Angstroms)
  Number     Number      Type              X           Y           Z
 --------------------------------------------------------------------
    1          6             0       -0.160306    1.688518   -2.931949
    2          6             0        0.279543    0.951069   -1.702995
    3          7             0        1.525279    0.815942   -1.515049
    4          6             0        2.148103    0.296086   -0.402972
    5          6             0        1.938838    0.826782    0.873400
    6          6             0        2.672777    0.365391    1.948052
    7          6             0        3.616266   -0.634823    1.777163
    8          6             0        3.832646   -1.162510    0.513456
    9          6             0        3.118047   -0.695903   -0.571319
   10          6             0       -0.780081    0.405000   -0.826385
   11          6             0       -1.930378    1.138160   -0.543315
   12          6             0       -2.906886    0.622136    0.287775
   13          6             0       -2.776798   -0.643623    0.845871
   14          6             0       -3.827213   -1.200764    1.757285
   15          6             0       -1.634328   -1.380455    0.550761
   16          6             0       -0.648268   -0.865197   -0.266345
   17          1             0        0.687663    1.828364   -3.596428
   18          1             0       -0.548648    2.668424   -2.656988
   19          1             0       -0.950022    1.141495   -3.443315
   20          1             0        1.203900    1.609560    1.002884
   21          1             0        2.502940    0.786215    2.929446
   22          1             0        4.183120   -0.997673    2.622160
   23          1             0        4.570096   -1.940416    0.372589
   24          1             0        3.282818   -1.102122   -1.558903
   25          1             0       -2.056392    2.128820   -0.954890
   26          1             0       -3.786931    1.212076    0.503669
   27          1             0       -3.506080   -1.106387    2.795460
   28          1             0       -3.991736   -2.257467    1.554779
   29          1             0       -4.767900   -0.667373    1.642065
   30          1             0       -1.516487   -2.370510    0.968462
   31          1             0        0.226422   -1.458812   -0.490460
 --------------------------------------------------------------------
     1 basis functions        1 primitive gaussians
     1 alpha electrons        1 beta electrons

 Harmonic frequencies (cm**-1), IR intensities (km*mol⁻¹),
 Raman scattering activities (A**4/amu), Raman depolarization ratios,
 reduced masses (AMU), force constants (mDyne/A) and normal coordinates:
                      1                      2                      3
                        a                      a                      a 
 Frequencies --    31.8695                37.0044                48.8478
 Red. masses --    10.0930                 1.2700                 9.9107
 Frc consts  --     0.0000                 0.0000                 0.0000
 IR Inten    --     0.3158                 0.4665                 0.2503
 Raman Activ --     0.0000                 0.0000                 0.0000
 Depolar     --     0.0000                 0.0000                 0.0000
 Atom AN      X      Y      Z        X      Y      Z        X      Y      Z
   1   6     0.00   0.05   0.13     0.00  -0.03  -0.01    -0.00  -0.13  -0.01
   2   6    -0.03  -0.00   0.12    -0.00  -0.01   0.00    -0.01  -0.09   0.02
   3   7    -0.03  -0.04   0.10    -0.00  -0.02   0.00    -0.01  -0.10   0.01
   4   6     0.06  -0.03   0.04     0.00  -0.01   0.00     0.03  -0.06   0.00
   5   6     0.21   0.02   0.04     0.03   0.03  -0.01    -0.19  -0.28   0.06
   6   6     0.34   0.05  -0.03     0.05   0.05  -0.01    -0.13  -0.23   0.05
   7   6     0.30   0.03  -0.10     0.03   0.03   0.00     0.17   0.06  -0.04
   8   6     0.14  -0.03  -0.11     0.00  -0.00   0.01     0.39   0.30  -0.09
   9   6     0.02  -0.06  -0.04    -0.01  -0.02   0.01     0.31   0.24  -0.07
  10   6    -0.05   0.01   0.09    -0.01   0.00   0.01    -0.03  -0.04   0.02
  11   6    -0.17  -0.08  -0.16    -0.01  -0.00  -0.02     0.04   0.05   0.06
  12   6    -0.24  -0.08  -0.24    -0.02   0.01  -0.01    -0.00   0.11   0.05
  13   6    -0.19  -0.01  -0.07    -0.02   0.03   0.01    -0.11   0.08   0.00
  14   6    -0.28  -0.02  -0.18    -0.03  -0.06  -0.05    -0.15   0.14  -0.02
  15   6    -0.06   0.08   0.18    -0.01   0.03   0.03    -0.17  -0.01  -0.03
  16   6    -0.00   0.09   0.26    -0.00   0.01   0.04    -0.13  -0.06  -0.01
  17   1    -0.00  -0.02   0.02    -0.00  -0.01  -0.00    -0.00  -0.04  -0.00
  18   1     0.05   0.03   0.04     0.00  -0.00  -0.00    -0.00  -0.03  -0.01
  19   1    -0.03   0.05   0.05    -0.00  -0.01   0.00    -0.00  -0.04   0.00
  20   1     0.07   0.01   0.03     0.01   0.01  -0.00    -0.12  -0.14   0.04
  21   1     0.13   0.03  -0.01     0.02   0.02  -0.00    -0.09  -0.12   0.03
  22   1     0.12   0.02  -0.05     0.01   0.01   0.00     0.06   0.03  -0.01
  23   1     0.03  -0.01  -0.05    -0.00  -0.01   0.01     0.18   0.15  -0.05
  24   1    -0.03  -0.03  -0.01    -0.01  -0.01   0.01     0.14   0.12  -0.03
  25   1    -0.06  -0.04  -0.08    -0.00  -0.00  -0.01     0.03   0.02   0.03
  26   1    -0.10  -0.04  -0.13    -0.01   0.01  -0.01     0.02   0.05   0.02
  27   1    -0.13   0.04  -0.04     0.23  -0.56  -0.04    -0.04   0.02  -0.00
  28   1    -0.03  -0.02  -0.02    -0.39   0.12  -0.42    -0.07   0.05  -0.02
  29   1    -0.09  -0.04  -0.12     0.14   0.33   0.38    -0.03   0.07   0.00
  30   1    -0.01   0.04   0.09    -0.00   0.01   0.02    -0.07  -0.01  -0.02
  31   1     0.02   0.04   0.13     0.00   0.00   0.02    -0.05  -0.03  -0.01
                      4                      5                      6
                        a                      a                      a 
 Frequencies --    52.8011                94.4500               102.0662
 Red. masses --     9.8345                 9.3838                 8.2185
 Frc consts  --     0.0000                 0.0000                 0.0000
 IR Inten    --     0.0512                 1.1377                 1.2143
 Raman Activ --     0.0000                 0.0000                 0.0000
 Depolar     --     0.0000                 0.0000                 0.0000
 Atom AN      X      Y      Z        X      Y      Z        X      Y      Z
   1   6     0.05   0.10  -0.03     0.15   0.40   0.16    -0.11   0.19   0.19
   2   6     0.00   0.05  -0.04    -0.03  -0.01  -0.02     0.03  -0.02   0.01
   3   7     0.00   0.11   0.02    -0.06  -0.17   0.04     0.06  -0.21  -0.24
   4   6    -0.02   0.05   0.00    -0.08  -0.20   0.03     0.05  -0.13  -0.19
   5   6    -0.14  -0.13   0.05    -0.07  -0.10  -0.00    -0.10  -0.04  -0.24
   6   6    -0.21  -0.25   0.05     0.06   0.11  -0.00    -0.22   0.06  -0.12
   7   6    -0.15  -0.19  -0.01     0.17   0.20   0.04    -0.17   0.08   0.05
   8   6    -0.01   0.01  -0.07     0.09   0.05   0.09     0.02   0.03   0.10
   9   6     0.05   0.13  -0.06    -0.03  -0.16   0.09     0.12  -0.08  -0.02
  10   6    -0.01  -0.01  -0.09    -0.11  -0.08  -0.17     0.10   0.04   0.14
  11   6    -0.15  -0.14  -0.32    -0.11  -0.08  -0.16     0.09   0.03   0.10
  12   6    -0.10  -0.12  -0.24    -0.05  -0.04  -0.07     0.05   0.01   0.04
  13   6     0.09   0.04   0.07    -0.00  -0.01  -0.01     0.03  -0.01   0.02
  14   6     0.19   0.09   0.21     0.16   0.11   0.26    -0.09  -0.10  -0.17
  15   6     0.21   0.15   0.26    -0.08  -0.07  -0.15     0.09   0.04   0.13
  16   6     0.15   0.12   0.17    -0.13  -0.10  -0.23     0.12   0.06   0.19
  17   1     0.02   0.01  -0.01     0.04   0.06   0.03    -0.11  -0.14  -0.08
  18   1     0.04   0.04  -0.00     0.18   0.15   0.12     0.24   0.15   0.11
  19   1    -0.00   0.05  -0.01    -0.04   0.25   0.03    -0.24   0.23   0.19
  20   1    -0.05  -0.05   0.03    -0.04  -0.04  -0.01    -0.04  -0.02  -0.11
  21   1    -0.09  -0.12   0.03     0.03   0.06  -0.01    -0.10   0.03  -0.05
  22   1    -0.06  -0.09  -0.00     0.09   0.11   0.01    -0.08   0.04   0.04
  23   1     0.01   0.02  -0.03     0.04   0.03   0.04     0.02   0.02   0.07
  24   1     0.04   0.08  -0.03    -0.02  -0.08   0.04     0.07  -0.04   0.01
  25   1    -0.09  -0.07  -0.16    -0.04  -0.02  -0.05     0.02   0.01   0.02
  26   1    -0.06  -0.06  -0.12    -0.01  -0.01  -0.00     0.00  -0.01  -0.01
  27   1     0.10   0.01   0.05     0.12   0.05   0.05    -0.08  -0.04  -0.03
  28   1     0.03   0.03   0.06     0.02   0.03   0.11    -0.00  -0.03  -0.07
  29   1     0.06   0.04   0.10     0.05   0.05   0.13    -0.03  -0.04  -0.09
  30   1     0.10   0.07   0.14    -0.02  -0.02  -0.04     0.03   0.01   0.04
  31   1     0.07   0.05   0.09    -0.05  -0.04  -0.08     0.04   0.02   0.07
                      7                      8                      9
                        a                      a                      a 
 Frequencies --   134.2213               171.2753               206.8135
 Red. masses --     5.3426                 8.7075                10.1014
 Frc consts  --     0.0000                 0.0000                 0.0000
 IR Inten    --     0.3575                 0.9029                 1.2716
 Raman Activ --     0.0000                 0.0000                 0.0000
 Depolar     --     0.0000                 0.0000                 0.0000
 Atom AN      X      Y      Z        X      Y      Z        X      Y      Z
   1   6    -0.10  -0.13  -0.01    -0.10   0.18   0.26    -0.00  -0.15  -0.01
   2   6     0.01  -0.07  -0.00     0.05  -0.06   0.06     0.03   0.09   0.13
   3   7     0.02   0.23   0.10     0.10   0.10  -0.08     0.05  -0.17  -0.08
   4   6     0.04   0.20   0.08     0.18   0.10  -0.12     0.20   0.01  -0.08
   5   6     0.11   0.14   0.11     0.14   0.16  -0.15     0.21   0.09  -0.11
   6   6     0.08  -0.02   0.07    -0.05   0.06  -0.07     0.01   0.00  -0.02
   7   6    -0.03  -0.11  -0.02    -0.18  -0.08   0.02    -0.12  -0.15   0.11
   8   6    -0.07  -0.01  -0.07    -0.02  -0.01   0.02     0.09  -0.04   0.10
   9   6    -0.03   0.16  -0.02     0.18   0.10  -0.07     0.28   0.05   0.00
  10   6     0.03  -0.16  -0.04     0.09  -0.23   0.03    -0.07   0.27   0.15
  11   6     0.08  -0.08  -0.05     0.10  -0.18  -0.05    -0.21   0.11   0.03
  12   6     0.06   0.00  -0.03     0.02  -0.06  -0.09    -0.25  -0.05  -0.09
  13   6    -0.02  -0.01  -0.03    -0.09  -0.04  -0.01    -0.15  -0.06  -0.11
  14   6    -0.02   0.14   0.06    -0.15   0.24   0.10     0.17  -0.11   0.23
  15   6    -0.10  -0.11  -0.08    -0.15  -0.15   0.01    -0.14   0.01  -0.23
  16   6    -0.05  -0.18  -0.07    -0.05  -0.24   0.05    -0.11   0.18  -0.07
  17   1    -0.13  -0.39  -0.20    -0.01   0.28   0.15    -0.02  -0.11  -0.03
  18   1     0.38   0.13  -0.03    -0.23  -0.05   0.16     0.03  -0.02  -0.06
  19   1    -0.33   0.17   0.24     0.10  -0.03  -0.05    -0.03  -0.06   0.06
  20   1     0.05   0.05   0.06     0.06   0.07  -0.07     0.08   0.05  -0.05
  21   1     0.04  -0.03   0.03    -0.03   0.02  -0.02    -0.02   0.01  -0.01
  22   1    -0.02  -0.07  -0.01    -0.11  -0.06   0.03    -0.10  -0.08   0.06
  23   1    -0.04  -0.02  -0.04    -0.02  -0.02   0.03     0.02  -0.02   0.05
  24   1    -0.02   0.07  -0.02     0.08   0.03  -0.02     0.12   0.02   0.01
  25   1     0.05  -0.02  -0.03     0.05  -0.05  -0.01    -0.08   0.04   0.03
  26   1     0.03   0.02  -0.00     0.02   0.01  -0.04    -0.09  -0.04  -0.03
  27   1     0.02   0.04   0.01    -0.01   0.08   0.02     0.15   0.00   0.03
  28   1    -0.04   0.04   0.03    -0.11   0.07   0.06     0.06  -0.04   0.11
  29   1     0.01   0.07   0.03    -0.01   0.13   0.04     0.02  -0.06   0.15
  30   1    -0.05  -0.04  -0.03    -0.07  -0.04   0.01    -0.03  -0.01  -0.10
  31   1    -0.02  -0.06  -0.02    -0.02  -0.09   0.04    -0.02   0.07  -0.02
                     10                     11                     12
                        a                      a                      a 
 Frequencies --   246.3441               297.3381               347.5701
 Red. masses --     9.4014                 9.8157                 8.9738
 Frc consts  --     0.0000                 0.0000                 0.0000
 IR Inten    --     0.6905                 1.6912                 1.4229
 Raman Activ --     0.0000                 0.0000                 0.0000
 Depolar     --     0.0000                 0.0000                 0.0000
 Atom AN      X      Y      Z        X      Y      Z        X      Y      Z
   1   6    -0.43  -0.13   0.17    -0.45   0.04   0.07    -0.01   0.02  -0.09
   2   6     0.07   0.12   0.12    -0.11  -0.10  -0.13    -0.10   0.10  -0.00
   3   7     0.09   0.10  -0.02    -0.13  -0.13   0.01    -0.13  -0.18  -0.01
   4   6    -0.06  -0.06   0.02     0.01  -0.04   0.03    -0.08  -0.05   0.02
   5   6    -0.15  -0.17   0.05     0.19   0.01   0.06     0.06   0.04   0.02
   6   6    -0.03  -0.04   0.03     0.14  -0.04   0.09     0.06   0.00   0.02
   7   6     0.15   0.13  -0.01     0.02  -0.17   0.19    -0.03  -0.09   0.05
   8   6    -0.02  -0.02   0.03     0.11  -0.01   0.14     0.05   0.03   0.01
   9   6    -0.15  -0.16   0.05     0.15   0.06   0.12     0.04   0.05   0.03
  10   6     0.17   0.09   0.18    -0.15  -0.06  -0.23    -0.08   0.16   0.03
  11   6     0.11   0.05  -0.02    -0.07   0.04  -0.17    -0.12   0.04   0.11
  12   6    -0.02  -0.04  -0.26     0.06   0.15   0.04     0.05  -0.28   0.05
  13   6     0.03  -0.02  -0.23     0.15   0.17   0.06     0.20  -0.28   0.00
  14   6     0.16   0.18   0.01     0.09  -0.05  -0.16    -0.21   0.39  -0.06
  15   6     0.03  -0.04  -0.17     0.11   0.13   0.05     0.27  -0.18  -0.04
  16   6     0.14   0.03   0.02    -0.03  -0.00  -0.18     0.09   0.11  -0.11
  17   1    -0.20   0.02  -0.03    -0.20   0.12  -0.04     0.00  -0.03  -0.02
  18   1    -0.20  -0.07   0.04    -0.18  -0.03   0.11     0.00   0.02  -0.05
  19   1    -0.12  -0.14   0.14    -0.14  -0.01   0.05    -0.01   0.00  -0.02
  20   1    -0.06  -0.07   0.02     0.08   0.02   0.03     0.04   0.03   0.01
  21   1    -0.01  -0.01   0.01     0.04   0.00   0.02     0.03   0.01   0.00
  22   1     0.10   0.10  -0.02    -0.03  -0.08   0.07    -0.03  -0.05   0.02
  23   1    -0.00  -0.00   0.01     0.04   0.00   0.03     0.03   0.02  -0.01
  24   1    -0.07  -0.07   0.02     0.08   0.02   0.04     0.03   0.03   0.00
  25   1     0.05   0.02   0.01    -0.03   0.00  -0.06    -0.08   0.02   0.06
  26   1    -0.02  -0.03  -0.10     0.02   0.05   0.04    -0.02  -0.14   0.04
  27   1     0.12   0.08  -0.02    -0.04  -0.05  -0.02    -0.11   0.13  -0.00
  28   1    -0.00   0.05   0.06     0.08  -0.01  -0.11    -0.25   0.13   0.05
  29   1     0.06   0.08   0.05     0.01  -0.05  -0.08     0.05   0.28  -0.12
  30   1    -0.01  -0.02  -0.06     0.04   0.05   0.04     0.14  -0.06  -0.04
  31   1     0.05   0.02   0.01    -0.02   0.00  -0.08     0.05   0.08  -0.08
                     13                     14                     15
                        a                      a                      a 
 Frequencies --   364.0143               369.7396               373.3416
 Red. masses --    10.7844                 8.9661                 9.0628
 Frc consts  --     0.0000                 0.0000                 0.0000
 IR Inten    --     1.6009                 1.1932                 0.9379
 Raman Activ --     0.0000                 0.0000                 0.0000
 Depolar     --     0.0000                 0.0000                 0.0000
 Atom AN      X      Y      Z        X      Y      Z        X      Y      Z
   1   6    -0.07   0.00  -0.13    -0.01   0.00   0.01     0.02   0.01   0.00
   2   6     0.12   0.23  -0.03    -0.03  -0.00   0.01    -0.02  -0.04  -0.02
   3   7     0.18   0.43  -0.04    -0.04  -0.04   0.01    -0.03  -0.05   0.00
   4   6     0.22   0.03  -0.16    -0.02  -0.01   0.01    -0.04   0.01   0.03
   5   6     0.09  -0.14  -0.12     0.09   0.10  -0.02     0.28   0.31  -0.05
   6   6    -0.10  -0.13   0.01    -0.10  -0.10   0.02    -0.25  -0.26   0.07
   7   6     0.16   0.11   0.11    -0.01  -0.01  -0.00    -0.02  -0.02  -0.01
   8   6     0.06  -0.05   0.16     0.10   0.10  -0.03     0.27   0.29  -0.09
   9   6     0.02  -0.24   0.06    -0.10  -0.09   0.02    -0.29  -0.24   0.06
  10   6    -0.01   0.06  -0.13    -0.00   0.01   0.02     0.00  -0.03   0.01
  11   6    -0.14  -0.11  -0.06    -0.18  -0.15  -0.31     0.10   0.07   0.13
  12   6    -0.01  -0.10   0.13     0.19   0.15   0.30    -0.07  -0.03  -0.13
  13   6    -0.01  -0.04   0.27     0.03  -0.01  -0.02    -0.03   0.00  -0.06
  14   6    -0.22  -0.04   0.08     0.02   0.03  -0.03     0.04  -0.01   0.00
  15   6    -0.01   0.03   0.05    -0.15  -0.17  -0.32     0.05   0.05   0.10
  16   6    -0.13   0.04  -0.14     0.21   0.16   0.33    -0.05  -0.07  -0.08
  17   1    -0.06  -0.04  -0.10     0.01   0.01   0.02     0.01   0.01   0.01
  18   1    -0.03   0.01  -0.10    -0.01  -0.00  -0.00     0.01   0.00   0.02
  19   1    -0.04  -0.06   0.05     0.01  -0.00  -0.01     0.00   0.02  -0.01
  20   1     0.01  -0.06  -0.05     0.06   0.06  -0.01     0.17   0.18  -0.03
  21   1    -0.11  -0.05  -0.01    -0.06  -0.06   0.02    -0.16  -0.17   0.04
  22   1     0.07   0.08   0.04    -0.00  -0.00  -0.00    -0.01  -0.02  -0.00
  23   1     0.01  -0.03   0.07     0.06   0.06  -0.02     0.17   0.17  -0.05
  24   1    -0.00  -0.15   0.05    -0.06  -0.06   0.01    -0.17  -0.15   0.04
  25   1    -0.10  -0.04  -0.03    -0.12  -0.10  -0.20     0.07   0.04   0.08
  26   1    -0.00  -0.02   0.03     0.11   0.09   0.19    -0.04  -0.02  -0.07
  27   1    -0.14  -0.04   0.05     0.00   0.01  -0.01     0.03   0.00  -0.01
  28   1    -0.08  -0.00  -0.01    -0.00   0.01  -0.00     0.02  -0.01   0.01
  29   1    -0.04   0.01  -0.04     0.01   0.02  -0.01     0.00  -0.01   0.02
  30   1     0.03   0.00  -0.01    -0.11  -0.10  -0.20     0.03   0.04   0.08
  31   1    -0.06  -0.01  -0.06     0.12   0.10   0.20    -0.03  -0.04  -0.05
                     16                     17                     18
                        a                      a                      a 
 Frequencies --   415.7051               454.6385               482.4996
 Red. masses --    10.1711                10.8190                 9.6196
 Frc consts  --     0.0000                 0.0000                 0.0000
 IR Inten    --     0.9483                 1.2722                 2.5791
 Raman Activ --     0.0000                 0.0000                 0.0000
 Depolar     --     0.0000                 0.0000                 0.0000
 Atom AN      X      Y      Z        X      Y      Z        X      Y      Z
   1   6    -0.10   0.20  -0.27    -0.03   0.01   0.06     0.06  -0.09   0.16
   2   6    -0.01  -0.07  -0.38     0.24  -0.13  -0.15    -0.05  -0.32   0.01
   3   7    -0.01   0.03  -0.20     0.26  -0.34  -0.29    -0.02  -0.05  -0.01
   4   6    -0.06   0.08  -0.04    -0.02   0.20   0.14     0.35   0.33  -0.06
   5   6     0.05  -0.08   0.06    -0.10   0.14   0.17     0.02   0.04   0.00
   6   6     0.11  -0.09   0.06    -0.00  -0.07   0.05    -0.17  -0.14   0.05
   7   6     0.14  -0.07   0.16     0.07   0.01  -0.09     0.20   0.22  -0.08
   8   6     0.00  -0.01   0.11    -0.05  -0.03  -0.09    -0.16  -0.16   0.02
   9   6    -0.02   0.07   0.13    -0.14   0.14   0.09     0.03   0.02  -0.02
  10   6     0.05  -0.02  -0.16     0.19   0.20   0.07    -0.25  -0.02  -0.09
  11   6     0.15   0.01   0.18    -0.02  -0.06  -0.09    -0.14   0.14   0.03
  12   6     0.02  -0.05   0.02     0.01  -0.10  -0.03    -0.03   0.03   0.08
  13   6    -0.29  -0.20  -0.22     0.03   0.03   0.29     0.04  -0.08  -0.19
  14   6    -0.08  -0.05   0.15    -0.15  -0.07   0.11     0.09   0.08  -0.09
  15   6    -0.08   0.03   0.01    -0.06   0.04  -0.07     0.10  -0.04   0.05
  16   6     0.08   0.13   0.23    -0.09   0.09  -0.11    -0.03   0.06  -0.00
  17   1    -0.05   0.11  -0.09    -0.07   0.10  -0.03     0.03   0.02   0.07
  18   1    -0.02   0.04   0.02    -0.02  -0.04   0.15     0.05  -0.04   0.15
  19   1    -0.05   0.11  -0.10    -0.03   0.03   0.03     0.00   0.06  -0.02
  20   1     0.02  -0.03   0.07    -0.03   0.03   0.10    -0.09  -0.08   0.02
  21   1     0.02  -0.01   0.01     0.02  -0.07   0.04    -0.15  -0.15   0.04
  22   1     0.04  -0.02   0.04     0.04   0.00  -0.04     0.07   0.08  -0.03
  23   1    -0.01  -0.01  -0.00    -0.04  -0.02  -0.06    -0.15  -0.15   0.04
  24   1     0.02   0.00   0.05    -0.10   0.07   0.00    -0.09  -0.08   0.01
  25   1     0.07   0.04   0.13    -0.09  -0.04  -0.07    -0.02   0.06   0.06
  26   1     0.05   0.03   0.04    -0.03  -0.04  -0.08     0.00  -0.01   0.11
  27   1     0.10   0.05   0.00    -0.12  -0.06   0.06     0.06   0.05  -0.04
  28   1    -0.06  -0.03   0.13    -0.02  -0.01  -0.02    -0.01   0.02   0.02
  29   1    -0.03  -0.01   0.12    -0.04  -0.02  -0.02     0.04   0.05  -0.01
  30   1     0.02   0.03   0.04    -0.01  -0.03  -0.11     0.06   0.01   0.06
  31   1     0.06   0.05   0.16    -0.07  -0.02  -0.08     0.04   0.08   0.02
                     19                     20                     21
                        a                      a                      a 
 Frequencies --   509.7141               574.5558               588.2612
 Red. masses --    10.2432                10.4503                11.2127
 Frc consts  --     0.0000                 0.0000                 0.0000
 IR Inten    --     1.3157                 1.5620                 2.8544
 Raman Activ --     0.0000                 0.0000                 0.0000
 Depolar     --     0.0000                 0.0000                 0.0000
 Atom AN      X      Y      Z        X      Y      Z        X      Y      Z
   1   6     0.03   0.11  -0.15    -0.03   0.05  -0.02    -0.06   0.07  -0.08
   2   6    -0.26   0.09   0.03    -0.00   0.44   0.24    -0.01   0.17   0.02
   3   7    -0.24  -0.04  -0.25    -0.03  -0.31  -0.07    -0.08  -0.28   0.08
   4   6    -0.01   0.20  -0.19     0.00   0.11   0.07     0.13  -0.08  -0.01
   5   6     0.10  -0.08  -0.04    -0.12   0.23   0.00     0.29  -0.11   0.11
   6   6     0.04  -0.16   0.00    -0.07  -0.10  -0.18    -0.09   0.04   0.44
   7   6     0.22  -0.01   0.19     0.12   0.02  -0.10    -0.03   0.21  -0.01
   8   6    -0.10  -0.00   0.14     0.10  -0.22   0.02    -0.32   0.16  -0.08
   9   6    -0.04   0.12   0.11     0.05   0.10   0.20     0.08  -0.02  -0.39
  10   6     0.09  -0.03   0.34     0.01  -0.14  -0.13     0.09  -0.03  -0.05
  11   6     0.02  -0.05   0.04     0.01  -0.21  -0.03     0.08  -0.14   0.02
  12   6    -0.11   0.04  -0.11    -0.00   0.08   0.13    -0.01   0.00   0.01
  13   6     0.16   0.18   0.13    -0.14  -0.03  -0.14    -0.07   0.02   0.02
  14   6     0.11   0.05  -0.09    -0.05  -0.01   0.01    -0.08  -0.03   0.06
  15   6    -0.06  -0.10  -0.05     0.06   0.16   0.05     0.01   0.13  -0.07
  16   6     0.06  -0.20   0.06     0.10  -0.13  -0.12     0.12  -0.03  -0.06
  17   1     0.10  -0.04   0.06    -0.01  -0.08  -0.03    -0.03   0.00  -0.05
  18   1     0.03   0.06  -0.12    -0.05   0.05  -0.19    -0.04   0.02  -0.07
  19   1     0.05   0.06  -0.13     0.02  -0.11   0.08    -0.01  -0.03   0.02
  20   1     0.00  -0.06   0.06    -0.06   0.04   0.04     0.03  -0.07  -0.03
  21   1    -0.06  -0.06  -0.01    -0.03  -0.09  -0.02    -0.08  -0.02   0.13
  22   1     0.06  -0.01   0.05    -0.01   0.04   0.01     0.05  -0.03  -0.08
  23   1    -0.08  -0.05  -0.00    -0.02  -0.10  -0.02    -0.12   0.00   0.06
  24   1    -0.01  -0.04   0.06    -0.05   0.03   0.05     0.00  -0.06  -0.09
  25   1     0.01  -0.06  -0.09     0.07  -0.03   0.04     0.04  -0.04   0.01
  26   1    -0.08  -0.04  -0.12     0.06   0.09   0.10     0.02   0.04  -0.02
  27   1    -0.03  -0.02  -0.00     0.03   0.02  -0.01    -0.02  -0.01   0.02
  28   1     0.07   0.02  -0.08    -0.02  -0.01   0.03    -0.02  -0.01   0.02
  29   1     0.02  -0.01  -0.05    -0.02  -0.00   0.03    -0.02  -0.01   0.02
  30   1    -0.12  -0.07  -0.08     0.04   0.09   0.11     0.00   0.04  -0.01
  31   1    -0.03  -0.09  -0.06     0.05  -0.04   0.05     0.03  -0.03   0.01
                     22                     23                     24
                        a                      a                      a 
 Frequencies --   609.9768               612.7060               663.5974
 Red. masses --    11.0360                11.1700                 9.5228
 Frc consts  --     0.0000                 0.0000                 0.0000
 IR Inten    --     8.6222                 1.0861                 0.0168
 Raman Activ --     0.0000                 0.0000                 0.0000
 Depolar     --     0.0000                 0.0000                 0.0000
 Atom AN      X      Y      Z        X      Y      Z        X      Y      Z
   1   6     0.09  -0.09   0.19     0.07  -0.09   0.10    -0.05   0.09  -0.11
   2   6     0.07   0.11   0.19     0.04  -0.18  -0.04    -0.01   0.10   0.00
   3   7     0.15  -0.04  -0.38     0.10   0.12  -0.11    -0.03  -0.14   0.01
   4   6    -0.10   0.08  -0.16    -0.01   0.03  -0.05     0.38   0.30  -0.01
   5   6     0.06  -0.21   0.01    -0.04  -0.10  -0.00    -0.20  -0.14   0.13
   6   6     0.15   0.01   0.10     0.09   0.04  -0.01     0.20   0.27   0.03
   7   6    -0.01  -0.12   0.20    -0.05  -0.09   0.07    -0.23  -0.15  -0.03
   8   6    -0.15   0.30  -0.00     0.02   0.11  -0.00     0.28   0.17  -0.09
   9   6    -0.22   0.05  -0.04    -0.10  -0.04   0.02    -0.12  -0.23   0.01
  10   6    -0.05   0.02  -0.00     0.02  -0.08   0.03    -0.04  -0.04  -0.04
  11   6    -0.09   0.04  -0.20    -0.18  -0.31   0.23     0.02   0.02   0.03
  12   6     0.16   0.06   0.10    -0.41   0.10   0.22    -0.02  -0.01  -0.04
  13   6    -0.07  -0.11  -0.19    -0.05   0.08  -0.05     0.04   0.03   0.03
  14   6     0.03  -0.01  -0.05    -0.01   0.08  -0.04     0.04   0.02  -0.02
  15   6     0.05  -0.06   0.22     0.13   0.32  -0.21    -0.04  -0.08   0.01
  16   6    -0.21  -0.05  -0.08     0.35  -0.07  -0.18    -0.02  -0.03   0.06
  17   1     0.05  -0.07   0.07     0.02   0.01   0.04    -0.02   0.02  -0.04
  18   1     0.02  -0.01  -0.02     0.04  -0.04   0.11    -0.03   0.03  -0.06
  19   1     0.04  -0.06   0.06     0.00   0.03  -0.00    -0.01   0.00  -0.01
  20   1     0.06  -0.02   0.04     0.01  -0.01   0.01    -0.20  -0.18   0.05
  21   1     0.04   0.08  -0.00     0.04   0.05  -0.02    -0.02  -0.04   0.05
  22   1     0.05  -0.07   0.01    -0.00  -0.02   0.01    -0.18  -0.16   0.02
  23   1    -0.02   0.12  -0.06     0.03   0.06  -0.02    -0.02  -0.05   0.03
  24   1    -0.00   0.01   0.00     0.00   0.00   0.00    -0.19  -0.19   0.03
  25   1    -0.01   0.03  -0.00    -0.02  -0.09   0.05     0.02   0.01   0.01
  26   1     0.08   0.04   0.13    -0.10   0.05   0.05    -0.01  -0.01  -0.01
  27   1     0.07   0.03  -0.03    -0.01   0.04  -0.01    -0.01  -0.01  -0.00
  28   1    -0.00  -0.01   0.03    -0.04   0.03   0.01     0.02   0.01  -0.02
  29   1     0.00  -0.00   0.02     0.02   0.05  -0.03     0.01  -0.00  -0.01
  30   1     0.07   0.02   0.14     0.00   0.10  -0.03    -0.02  -0.02   0.01
  31   1    -0.03   0.02   0.01     0.09  -0.04  -0.03     0.01   0.00   0.03
                     25                     26                     27
                        a                      a                      a 
 Frequencies --   678.1424               689.5047               758.2264
 Red. masses --    10.3903                10.2537                 5.3870
 Frc consts  --     0.0000                 0.0000                 0.0000
 IR Inten    --     3.0672                 5.7409                29.6166
 Raman Activ --     0.0000                 0.0000                 0.0000
 Depolar     --     0.0000                 0.0000                 0.0000
 Atom AN      X      Y      Z        X      Y      Z        X      Y      Z
   1   6    -0.07   0.16  -0.27     0.02   0.04  -0.02    -0.05   0.02  -0.03
   2   6     0.12   0.02  -0.17     0.17   0.17   0.04    -0.14  -0.01   0.05
   3   7     0.16   0.03  -0.03     0.23  -0.05  -0.19    -0.11  -0.06  -0.04
   4   6     0.04  -0.09   0.12    -0.05  -0.05   0.03     0.29   0.25  -0.04
   5   6    -0.01   0.06   0.10     0.01   0.02   0.05    -0.13  -0.10   0.10
   6   6    -0.07   0.04   0.14    -0.03  -0.03   0.08    -0.10  -0.03   0.11
   7   6    -0.07   0.06  -0.12     0.00   0.01  -0.01    -0.16  -0.09  -0.03
   8   6     0.05  -0.12  -0.04    -0.07  -0.02  -0.02     0.01  -0.16   0.01
   9   6     0.09  -0.08  -0.04    -0.02   0.02  -0.01    -0.06  -0.18   0.02
  10   6     0.08   0.09   0.31    -0.26  -0.20  -0.32    -0.03  -0.02   0.03
  11   6    -0.21  -0.12  -0.00    -0.05   0.05   0.23     0.04   0.06  -0.06
  12   6    -0.12   0.11   0.24    -0.27  -0.06  -0.10     0.07   0.02  -0.05
  13   6    -0.01  -0.03  -0.22     0.20   0.14   0.17    -0.02  -0.01   0.01
  14   6     0.19   0.10  -0.21     0.18   0.10  -0.11    -0.08  -0.05   0.08
  15   6     0.01  -0.12   0.27    -0.15  -0.24  -0.08     0.04   0.03  -0.04
  16   6    -0.19  -0.18  -0.00    -0.02   0.01   0.24     0.07  -0.02  -0.04
  17   1    -0.06   0.09  -0.12    -0.05   0.00  -0.07     0.04  -0.02   0.05
  18   1    -0.03   0.03  -0.02    -0.03   0.01  -0.05     0.01   0.02  -0.03
  19   1    -0.03   0.04  -0.05    -0.00  -0.06   0.08     0.00   0.04  -0.06
  20   1     0.03   0.06  -0.02     0.07   0.07  -0.00     0.20   0.21  -0.05
  21   1     0.05   0.02   0.05     0.06   0.05   0.01     0.26   0.22  -0.02
  22   1     0.02   0.05  -0.05     0.08   0.06  -0.03     0.30   0.32  -0.09
  23   1     0.06   0.00   0.03     0.04   0.06  -0.02     0.26   0.20  -0.02
  24   1     0.04   0.05  -0.04     0.06   0.08  -0.03     0.19   0.18  -0.05
  25   1    -0.10  -0.07  -0.08     0.04   0.06   0.16     0.03   0.02  -0.02
  26   1    -0.07  -0.03   0.06    -0.06  -0.02   0.06     0.03   0.02  -0.01
  27   1     0.13   0.07  -0.08    -0.05  -0.03   0.00    -0.03  -0.02   0.02
  28   1     0.04   0.02  -0.00     0.08   0.04  -0.10    -0.02  -0.01   0.02
  29   1     0.05   0.03  -0.01     0.05   0.02  -0.09    -0.03  -0.02   0.02
  30   1    -0.07  -0.04   0.07    -0.04  -0.03   0.05     0.02   0.01  -0.01
  31   1    -0.08  -0.07  -0.06     0.06   0.05   0.17     0.03   0.01  -0.02
                     28                     29                     30
                        a                      a                      a 
 Frequencies --   800.6759               822.3192               849.5207
 Red. masses --     4.9982                10.2427                10.4644
 Frc consts  --     0.0000                 0.0000                 0.0000
 IR Inten    --    18.9121                18.1049                11.7551
 Raman Activ --     0.0000                 0.0000                 0.0000
 Depolar     --     0.0000                 0.0000                 0.0000
 Atom AN      X      Y      Z        X      Y      Z        X      Y      Z
   1   6     0.04  -0.01   0.07    -0.04  -0.01   0.06    -0.04  -0.09   0.14
   2   6     0.06   0.08   0.03    -0.08   0.00   0.07    -0.18  -0.01   0.04
   3   7     0.01  -0.09   0.09     0.09   0.17  -0.40    -0.11   0.12  -0.24
   4   6     0.06   0.07  -0.02    -0.13  -0.12   0.02    -0.07  -0.01  -0.04
   5   6    -0.02  -0.03  -0.05     0.05   0.06   0.14     0.03   0.00   0.10
   6   6     0.01  -0.04  -0.09    -0.01   0.11   0.28    -0.03   0.08   0.22
   7   6     0.02  -0.05   0.06    -0.04   0.12  -0.17    -0.06   0.08  -0.13
   8   6    -0.08   0.07   0.01     0.19  -0.17  -0.04     0.17  -0.17  -0.02
   9   6    -0.05   0.03  -0.00     0.08  -0.06   0.04     0.06  -0.06   0.05
  10   6    -0.09  -0.10  -0.27    -0.18  -0.12  -0.04     0.09   0.04  -0.11
  11   6     0.11   0.02   0.21    -0.02   0.29  -0.03     0.11  -0.32   0.10
  12   6     0.09   0.03   0.16    -0.01   0.16  -0.00     0.16  -0.24   0.02
  13   6    -0.06  -0.05  -0.08    -0.00  -0.01  -0.04    -0.04  -0.02   0.05
  14   6     0.04   0.01  -0.10    -0.19  -0.11   0.15     0.20   0.11  -0.19
  15   6     0.03   0.08   0.14     0.14  -0.07   0.02    -0.15   0.24  -0.03
  16   6     0.01   0.13   0.17     0.23  -0.12   0.02    -0.25   0.25   0.03
  17   1    -0.03  -0.00  -0.03     0.07  -0.07   0.10     0.11  -0.11   0.18
  18   1    -0.02  -0.01  -0.01     0.02   0.03  -0.07     0.05   0.02  -0.02
  19   1     0.01  -0.07   0.09     0.03   0.01  -0.05     0.03   0.04  -0.07
  20   1     0.03   0.02  -0.01    -0.04  -0.03   0.04     0.01   0.01   0.02
  21   1     0.01   0.03  -0.04    -0.00  -0.07   0.12     0.03  -0.02   0.09
  22   1     0.06   0.04   0.00    -0.13  -0.10  -0.02    -0.06  -0.03  -0.02
  23   1    -0.00   0.04  -0.03     0.01  -0.10   0.07     0.04  -0.06   0.05
  24   1     0.00   0.02   0.00     0.02   0.01  -0.00     0.03   0.01   0.00
  25   1    -0.20  -0.17  -0.29    -0.02   0.02  -0.16    -0.03  -0.08   0.08
  26   1    -0.18  -0.17  -0.33    -0.09  -0.04  -0.10     0.07  -0.02  -0.03
  27   1     0.13   0.07  -0.07    -0.02  -0.01   0.03     0.07   0.03  -0.06
  28   1    -0.02  -0.01   0.07    -0.07  -0.03   0.07     0.07   0.03  -0.05
  29   1     0.01   0.02   0.05    -0.05  -0.03   0.06     0.06   0.04  -0.05
  30   1    -0.18  -0.14  -0.30    -0.05  -0.07  -0.09     0.02   0.06  -0.05
  31   1    -0.19  -0.13  -0.26     0.03  -0.03  -0.13    -0.11   0.01   0.04
                     31                     32                     33
                        a                      a                      a 
 Frequencies --   866.7543               871.5319               881.4903
 Red. masses --     3.3051                 3.3191                 3.9216
 Frc consts  --     0.0000                 0.0000                 0.0000
 IR Inten    --     1.7352                 2.2456                 2.5229
 Raman Activ --     0.0000                 0.0000                 0.0000
 Depolar     --     0.0000                 0.0000                 0.0000
 Atom AN      X      Y      Z        X      Y      Z        X      Y      Z
   1   6     0.00  -0.00   0.00     0.01   0.00  -0.01     0.00  -0.01   0.02
   2   6     0.00   0.01   0.00     0.00   0.00   0.00     0.00   0.00  -0.01
   3   7    -0.01  -0.00  -0.00     0.01  -0.00   0.01     0.02   0.05  -0.06
   4   6     0.01   0.00   0.01     0.01   0.01  -0.00    -0.09  -0.07   0.01
   5   6     0.21   0.20  -0.06    -0.02  -0.02   0.00     0.16   0.14  -0.02
   6   6     0.12   0.12  -0.04    -0.00  -0.00  -0.00    -0.05  -0.02   0.05
   7   6    -0.03  -0.04   0.02     0.01   0.02  -0.01    -0.25  -0.22   0.03
   8   6    -0.14  -0.12   0.03     0.00   0.01  -0.00     0.04  -0.01  -0.01
   9   6    -0.17  -0.16   0.04    -0.01  -0.00   0.00     0.19   0.19  -0.03
  10   6     0.01   0.00   0.00    -0.00   0.00  -0.02    -0.00  -0.00  -0.01
  11   6    -0.00  -0.01  -0.01    -0.12  -0.09  -0.19    -0.01  -0.00  -0.01
  12   6    -0.00  -0.01  -0.00    -0.11  -0.07  -0.15    -0.01   0.00  -0.01
  13   6    -0.00  -0.00   0.00    -0.00   0.00  -0.01     0.00  -0.00  -0.00
  14   6     0.01   0.00  -0.00    -0.01   0.00  -0.00    -0.00  -0.00   0.00
  15   6     0.00   0.01   0.01     0.11   0.07   0.19     0.01   0.00   0.02
  16   6    -0.00   0.01   0.01     0.12   0.09   0.20     0.01   0.00   0.01
  17   1     0.00   0.00  -0.00    -0.00  -0.00  -0.01     0.01  -0.01   0.02
  18   1     0.00  -0.00   0.00    -0.00  -0.00  -0.00     0.00   0.00  -0.00
  19   1     0.00  -0.00   0.00    -0.00   0.00   0.00     0.00  -0.00   0.00
  20   1    -0.40  -0.40   0.10     0.03   0.03  -0.01    -0.28  -0.27   0.07
  21   1    -0.24  -0.22   0.05    -0.00  -0.00  -0.00     0.13   0.11  -0.01
  22   1     0.06   0.06  -0.01    -0.03  -0.02   0.01     0.37   0.37  -0.10
  23   1     0.27   0.27  -0.07    -0.02  -0.02   0.00     0.03   0.01  -0.00
  24   1     0.31   0.32  -0.08     0.01   0.01  -0.00    -0.35  -0.36   0.09
  25   1     0.01   0.01   0.02     0.22   0.18   0.36     0.01   0.01   0.02
  26   1     0.01   0.00   0.01     0.17   0.15   0.31     0.00   0.01   0.01
  27   1     0.00   0.00  -0.00     0.01   0.00  -0.00     0.00   0.00  -0.00
  28   1     0.00   0.00  -0.00    -0.00  -0.00   0.01    -0.00  -0.00   0.00
  29   1     0.00   0.00  -0.00    -0.00  -0.00   0.01    -0.00   0.00   0.00
  30   1    -0.01  -0.01  -0.02    -0.21  -0.18  -0.35    -0.02  -0.02  -0.04
  31   1    -0.01  -0.01  -0.01    -0.22  -0.18  -0.38    -0.01  -0.01  -0.02
                     34                     35                     36
                        a                      a                      a 
 Frequencies --   915.5361               921.7426               924.5111
 Red. masses --     2.8831                 3.9947                 2.7868
 Frc consts  --     0.0000                 0.0000                 0.0000
 IR Inten    --     0.0209                 0.1578                 0.0113
 Raman Activ --     0.0000                 0.0000                 0.0000
 Depolar     --     0.0000                 0.0000                 0.0000
 Atom AN      X      Y      Z        X      Y      Z        X      Y      Z
   1   6     0.00  -0.00  -0.01    -0.00   0.00  -0.01     0.00  -0.00  -0.00
   2   6    -0.00  -0.00   0.00    -0.00   0.00   0.00     0.00   0.00   0.00
   3   7    -0.00   0.00   0.00    -0.01  -0.01   0.01    -0.00  -0.00   0.00
   4   6    -0.00  -0.00  -0.00     0.02   0.00   0.01     0.06   0.05  -0.01
   5   6    -0.00   0.00   0.00     0.14   0.15  -0.04     0.02   0.03  -0.00
   6   6    -0.01  -0.01  -0.00    -0.22  -0.22   0.03    -0.14  -0.14   0.03
   7   6     0.01   0.01   0.00     0.03   0.01   0.01     0.16   0.16  -0.04
   8   6    -0.00  -0.00   0.00     0.18   0.21  -0.04    -0.17  -0.16   0.04
   9   6    -0.00  -0.01  -0.00    -0.16  -0.16   0.02     0.05   0.05  -0.02
  10   6    -0.01  -0.00  -0.01     0.00   0.00   0.00     0.00   0.00   0.00
  11   6    -0.12  -0.10  -0.21     0.00  -0.00   0.00     0.01   0.01   0.01
  12   6     0.12   0.11   0.22     0.00  -0.00  -0.00    -0.01  -0.01  -0.02
  13   6     0.01   0.01   0.02    -0.00  -0.00   0.00    -0.00   0.00   0.00
  14   6    -0.00  -0.00  -0.00     0.00   0.00  -0.00     0.00  -0.00  -0.00
  15   6     0.05   0.04   0.08    -0.01  -0.00  -0.01     0.01   0.01   0.02
  16   6    -0.05  -0.05  -0.09     0.00   0.00   0.00    -0.01  -0.01  -0.01
  17   1    -0.00   0.00  -0.01    -0.00   0.00  -0.00    -0.00   0.00  -0.00
  18   1     0.00  -0.00   0.01    -0.00  -0.00   0.00     0.00  -0.00   0.00
  19   1    -0.01   0.01  -0.00    -0.00   0.00  -0.00    -0.00   0.00   0.00
  20   1    -0.00   0.00  -0.00    -0.24  -0.23   0.06    -0.14  -0.14   0.04
  21   1     0.01   0.01  -0.00     0.37   0.36  -0.10     0.33   0.31  -0.08
  22   1    -0.01  -0.01   0.01    -0.04  -0.04   0.02    -0.34  -0.33   0.08
  23   1     0.00   0.01  -0.00    -0.32  -0.31   0.08     0.37   0.37  -0.09
  24   1     0.00   0.00  -0.00     0.24   0.24  -0.06    -0.18  -0.19   0.05
  25   1     0.26   0.21   0.43    -0.00  -0.00  -0.00    -0.01  -0.01  -0.02
  26   1    -0.26  -0.23  -0.46     0.00   0.00   0.00     0.02   0.01   0.03
  27   1     0.01   0.01  -0.00     0.00  -0.00  -0.00     0.00   0.00  -0.00
  28   1    -0.00  -0.00   0.01     0.00   0.00  -0.00    -0.00  -0.00   0.00
  29   1    -0.00   0.00   0.01     0.00  -0.00  -0.00     0.00   0.00   0.00
  30   1    -0.13  -0.11  -0.23     0.01   0.01   0.01    -0.02  -0.01  -0.02
  31   1     0.16   0.13   0.27    -0.01  -0.00  -0.01     0.01   0.01   0.01
                     37                     38                     39
                        a                      a                      a 
 Frequencies --   929.0940               976.5668               999.3488
 Red. masses --     3.9513                 9.7891                 5.3956
 Frc consts  --     0.0000                 0.0000                 0.0000
 IR Inten    --     0.6945                 9.8198                 5.8118
 Raman Activ --     0.0000                 0.0000                 0.0000
 Depolar     --     0.0000                 0.0000                 0.0000
 Atom AN      X      Y      Z        X      Y      Z        X      Y      Z
   1   6     0.00   0.00   0.00     0.19  -0.08  -0.01     0.08  -0.33  -0.16
   2   6    -0.00   0.00   0.00     0.02   0.10  -0.04    -0.04   0.33   0.12
   3   7     0.00  -0.00   0.00    -0.12  -0.04   0.10    -0.07   0.02  -0.07
   4   6     0.01   0.01  -0.00    -0.06   0.09  -0.14    -0.04  -0.01  -0.00
   5   6     0.01  -0.00  -0.00     0.31  -0.36  -0.16    -0.09   0.11   0.05
   6   6    -0.01  -0.00   0.00    -0.06   0.08   0.14     0.02  -0.01  -0.01
   7   6     0.00   0.01  -0.01    -0.18   0.12  -0.27     0.05  -0.03   0.08
   8   6    -0.01  -0.02   0.00     0.12  -0.13  -0.06     0.01  -0.01   0.02
   9   6     0.01   0.01   0.01    -0.15   0.22   0.40     0.07  -0.09  -0.15
  10   6     0.01   0.01  -0.00     0.02   0.03  -0.00    -0.05   0.02  -0.04
  11   6    -0.08  -0.08  -0.14     0.01  -0.02   0.00     0.02  -0.03   0.02
  12   6     0.08   0.09   0.17    -0.02   0.03  -0.00     0.07  -0.06  -0.00
  13   6    -0.00  -0.00  -0.01     0.00   0.02  -0.01    -0.04   0.05  -0.01
  14   6    -0.00   0.01   0.00    -0.02   0.01   0.01    -0.09   0.13  -0.01
  15   6    -0.14  -0.15  -0.25     0.02  -0.07   0.03     0.02  -0.06   0.02
  16   6     0.13   0.12   0.24     0.01  -0.03  -0.01     0.06  -0.05   0.00
  17   1     0.00  -0.00  -0.00    -0.11   0.13  -0.17    -0.04   0.24  -0.04
  18   1    -0.00   0.00  -0.00    -0.01  -0.10   0.20     0.14  -0.18   0.52
  19   1    -0.00   0.00   0.00    -0.04  -0.04   0.14    -0.13   0.26  -0.16
  20   1    -0.01  -0.01   0.00     0.08  -0.10  -0.09    -0.02   0.03   0.05
  21   1     0.02   0.01  -0.00    -0.05   0.08  -0.00     0.02  -0.03   0.01
  22   1    -0.02  -0.02   0.00    -0.06   0.04  -0.07     0.01   0.00   0.03
  23   1     0.03   0.03  -0.01     0.01  -0.04  -0.08     0.01  -0.01   0.05
  24   1    -0.02  -0.02   0.01    -0.06   0.11   0.09     0.03  -0.05  -0.03
  25   1     0.12   0.09   0.19    -0.01  -0.00   0.00    -0.06  -0.01   0.02
  26   1    -0.14  -0.11  -0.23    -0.00   0.02  -0.00     0.02  -0.02  -0.00
  27   1    -0.01  -0.01   0.00     0.00  -0.01   0.00     0.07  -0.04  -0.03
  28   1     0.01   0.00  -0.01     0.02   0.00  -0.01     0.17   0.02  -0.09
  29   1    -0.01  -0.01   0.00    -0.02  -0.02   0.02    -0.13  -0.13   0.13
  30   1     0.26   0.21   0.44    -0.01  -0.02   0.01    -0.01  -0.02   0.01
  31   1    -0.24  -0.19  -0.42     0.02   0.01   0.01     0.02   0.00  -0.03
                     40                     41                     42
                        a                      a                      a 
 Frequencies --  1008.6715              1012.3093              1027.0573
 Red. masses --     9.3018                 4.4449                 6.8699
 Frc consts  --     0.0000                 0.0000                 0.0000
 IR Inten    --     6.5423                 7.8392                18.7749
 Raman Activ --     0.0000                 0.0000                 0.0000
 Depolar     --     0.0000                 0.0000                 0.0000
 Atom AN      X      Y      Z        X      Y      Z        X      Y      Z
   1   6    -0.01  -0.03   0.14     0.03   0.15   0.07     0.39   0.03   0.16
   2   6    -0.03   0.01  -0.12     0.01  -0.15  -0.07    -0.10   0.02  -0.21
   3   7    -0.09   0.00   0.01     0.02   0.01   0.00    -0.26   0.07  -0.10
   4   6    -0.01   0.02  -0.03     0.01  -0.00  -0.00    -0.09   0.07  -0.15
   5   6    -0.03   0.03   0.02     0.00  -0.00  -0.00    -0.15   0.17   0.10
   6   6     0.00  -0.00   0.01    -0.00   0.00   0.01     0.00   0.02   0.10
   7   6     0.01  -0.01   0.02     0.00  -0.00  -0.01     0.07  -0.04   0.09
   8   6     0.02  -0.02   0.01    -0.01   0.01  -0.00     0.07  -0.07   0.02
   9   6     0.02  -0.04  -0.04    -0.01   0.01   0.02     0.08  -0.13  -0.18
  10   6     0.16   0.10  -0.12    -0.06   0.03   0.04     0.02   0.03   0.05
  11   6     0.15  -0.29   0.07    -0.06   0.02   0.03    -0.00   0.02  -0.02
  12   6    -0.28   0.31   0.00     0.12  -0.21   0.03     0.01  -0.00  -0.01
  13   6     0.08   0.07  -0.09    -0.08   0.07   0.02    -0.01  -0.01   0.00
  14   6    -0.14   0.03   0.07    -0.19   0.33  -0.06     0.05  -0.05   0.01
  15   6     0.20  -0.43   0.10     0.04   0.00  -0.03    -0.04   0.02   0.01
  16   6    -0.18   0.24  -0.04     0.11  -0.08  -0.04     0.02  -0.05   0.01
  17   1     0.05  -0.07   0.08    -0.01  -0.09  -0.03    -0.18   0.09  -0.29
  18   1     0.00   0.01  -0.04    -0.08   0.06  -0.21    -0.12  -0.09   0.06
  19   1     0.03  -0.04   0.03     0.06  -0.14   0.13     0.03  -0.27   0.44
  20   1    -0.00   0.01   0.02    -0.00   0.00  -0.01    -0.03   0.06   0.10
  21   1     0.01  -0.01   0.01     0.00  -0.00   0.00     0.05  -0.04   0.06
  22   1     0.00   0.00   0.01     0.00  -0.01  -0.01     0.02  -0.01   0.03
  23   1     0.01  -0.00   0.02    -0.00   0.00  -0.01     0.04  -0.02   0.07
  24   1     0.03  -0.01  -0.01    -0.00   0.00   0.00     0.09  -0.08  -0.03
  25   1     0.16  -0.09  -0.06    -0.11   0.02   0.06    -0.01   0.01   0.02
  26   1    -0.03   0.18  -0.07     0.00  -0.13   0.07     0.01   0.01  -0.00
  27   1     0.01  -0.05   0.01     0.19  -0.10  -0.07    -0.04   0.02   0.01
  28   1     0.07  -0.00  -0.03     0.41   0.05  -0.22    -0.06  -0.01   0.03
  29   1    -0.11  -0.10   0.11    -0.30  -0.31   0.31     0.06   0.05  -0.06
  30   1     0.19  -0.13  -0.05     0.02  -0.00  -0.01    -0.05   0.01   0.03
  31   1     0.03   0.20  -0.08     0.05   0.01  -0.01    -0.00  -0.03   0.02
                     43                     44                     45
                        a                      a                      a 
 Frequencies --  1029.8993              1079.8317              1106.5498
 Red. masses --     4.6846                 6.6266                 7.9852
 Frc consts  --     0.0000                 0.0000                 0.0000
 IR Inten    --    10.3904                 0.5315                53.7582
 Raman Activ --     0.0000                 0.0000                 0.0000
 Depolar     --     0.0000                 0.0000                 0.0000
 Atom AN      X      Y      Z        X      Y      Z        X      Y      Z
   1   6    -0.01   0.00  -0.00     0.01  -0.00   0.01     0.10   0.15  -0.27
   2   6     0.00  -0.00   0.00    -0.01   0.01  -0.01    -0.05  -0.21   0.38
   3   7     0.01  -0.00  -0.00    -0.01   0.01  -0.02     0.09   0.06  -0.10
   4   6     0.00  -0.00   0.00    -0.00  -0.00  -0.02     0.03  -0.08   0.02
   5   6     0.00  -0.00  -0.00     0.08  -0.04   0.13    -0.04   0.05  -0.02
   6   6     0.00  -0.00  -0.00     0.14  -0.20  -0.24     0.00   0.01   0.03
   7   6    -0.00   0.00  -0.00    -0.23   0.14  -0.37     0.03  -0.04  -0.03
   8   6    -0.00   0.00  -0.00    -0.21   0.25   0.17    -0.05   0.06   0.00
   9   6    -0.00   0.00   0.00     0.08  -0.05   0.14    -0.00   0.02   0.07
  10   6    -0.01  -0.01  -0.01     0.00   0.00  -0.00    -0.29  -0.18   0.23
  11   6     0.01   0.00   0.03    -0.00   0.00  -0.00     0.07  -0.16   0.04
  12   6     0.03   0.02   0.05     0.00  -0.00  -0.00     0.10   0.01  -0.06
  13   6    -0.17  -0.15  -0.30    -0.00   0.00   0.00     0.00  -0.01   0.01
  14   6     0.21   0.19   0.32     0.00  -0.00  -0.00    -0.02   0.00   0.00
  15   6     0.03   0.03   0.05    -0.00  -0.00   0.00     0.07   0.10  -0.08
  16   6     0.00   0.01   0.02     0.00  -0.00  -0.00    -0.14   0.17   0.01
  17   1     0.00  -0.00   0.00    -0.00   0.00  -0.01    -0.15   0.16  -0.26
  18   1    -0.00   0.00  -0.01    -0.00  -0.00   0.01    -0.06  -0.02   0.01
  19   1     0.00  -0.00  -0.00     0.00  -0.01   0.01    -0.03  -0.01   0.06
  20   1     0.00  -0.00  -0.00     0.08  -0.00   0.30    -0.04   0.00  -0.10
  21   1    -0.00   0.00  -0.00     0.25  -0.25   0.04     0.04  -0.04   0.03
  22   1    -0.00  -0.00  -0.00    -0.06   0.03  -0.12     0.05  -0.07  -0.07
  23   1    -0.00   0.00  -0.00    -0.01   0.08   0.32    -0.03   0.01  -0.07
  24   1    -0.00   0.00   0.00     0.26  -0.21   0.17     0.03  -0.04   0.04
  25   1    -0.03  -0.02  -0.04    -0.00   0.00   0.00     0.22  -0.07  -0.10
  26   1    -0.03  -0.03  -0.05    -0.00  -0.00   0.00     0.08   0.11  -0.10
  27   1    -0.47  -0.29   0.26    -0.00   0.00   0.00     0.01  -0.00  -0.00
  28   1     0.18   0.11  -0.39    -0.00  -0.00   0.00     0.01  -0.00   0.00
  29   1     0.04  -0.05  -0.28     0.00   0.00  -0.00    -0.01  -0.00   0.01
  30   1    -0.03  -0.03  -0.06    -0.01   0.00   0.00     0.21   0.01  -0.13
  31   1    -0.02  -0.02  -0.04     0.00   0.00   0.00     0.02   0.19  -0.12
                     46                     47                     48
                        a                      a                      a 
 Frequencies --  1116.9551              1152.4445              1179.6865
 Red. masses --     4.2440                 3.0389                 1.4037
 Frc consts  --     0.0000                 0.0000                 0.0000
 IR Inten    --     5.2479                 1.6568                 0.1244
 Raman Activ --     0.0000                 0.0000                 0.0000
 Depolar     --     0.0000                 0.0000                 0.0000
 Atom AN      X      Y      Z        X      Y      Z        X      Y      Z
   1   6    -0.03  -0.05   0.05    -0.01   0.03  -0.00     0.01  -0.00   0.01
   2   6     0.01   0.06  -0.08    -0.01  -0.04  -0.00    -0.02   0.01  -0.01
   3   7    -0.03  -0.00   0.07     0.03   0.01  -0.02    -0.01   0.01  -0.01
   4   6     0.07  -0.08  -0.12     0.02  -0.02   0.05    -0.01   0.03   0.06
   5   6    -0.18   0.16  -0.07     0.01  -0.01  -0.00    -0.05   0.03  -0.09
   6   6    -0.04   0.09   0.19     0.01  -0.01  -0.02    -0.01   0.01  -0.01
   7   6     0.12  -0.14  -0.10    -0.00   0.00  -0.00     0.04  -0.06  -0.05
   8   6    -0.10   0.10  -0.01    -0.01   0.02   0.00    -0.00   0.02   0.06
   9   6     0.02   0.02   0.23    -0.00   0.01   0.01     0.04  -0.02   0.07
  10   6     0.08   0.05  -0.05    -0.14   0.13   0.00     0.00   0.00  -0.00
  11   6    -0.01   0.03  -0.01    -0.02  -0.16   0.09     0.00   0.00  -0.00
  12   6    -0.02   0.00   0.01     0.16  -0.05  -0.07    -0.00   0.00   0.00
  13   6    -0.00   0.01  -0.00    -0.08   0.12  -0.02     0.00  -0.00  -0.00
  14   6     0.01  -0.00  -0.00     0.03  -0.06   0.01    -0.00   0.00   0.00
  15   6    -0.02  -0.03   0.02    -0.03  -0.12   0.08     0.00  -0.00   0.00
  16   6     0.03  -0.04  -0.00     0.14  -0.03  -0.06    -0.00  -0.00   0.00
  17   1     0.04  -0.03   0.07     0.01  -0.04   0.01    -0.00  -0.00  -0.00
  18   1     0.02  -0.00   0.02    -0.01   0.01  -0.03    -0.00  -0.00   0.01
  19   1    -0.00   0.02  -0.03     0.01  -0.01   0.00     0.00  -0.00   0.01
  20   1    -0.14   0.03  -0.39    -0.00  -0.00  -0.03     0.01   0.01   0.07
  21   1     0.14  -0.11   0.14    -0.01   0.00  -0.01    -0.26   0.23  -0.14
  22   1     0.21  -0.27  -0.25    -0.00   0.00   0.00     0.35  -0.46  -0.43
  23   1    -0.09   0.02  -0.29    -0.00   0.00   0.00     0.10   0.02   0.49
  24   1     0.30  -0.23   0.21    -0.03   0.03  -0.01    -0.16   0.14  -0.07
  25   1    -0.06   0.02   0.03    -0.32  -0.01   0.20     0.00   0.00  -0.00
  26   1    -0.01  -0.02   0.02     0.21   0.32  -0.28    -0.00  -0.00   0.00
  27   1    -0.00   0.00   0.00    -0.02   0.02   0.01    -0.00  -0.00   0.00
  28   1    -0.01   0.00   0.00    -0.04  -0.01   0.02    -0.00  -0.00   0.00
  29   1     0.00   0.00  -0.00     0.04   0.03  -0.04    -0.00  -0.00   0.00
  30   1    -0.06  -0.00   0.04    -0.41   0.00   0.23     0.00  -0.00  -0.00
  31   1     0.00  -0.04   0.02     0.20   0.33  -0.27    -0.00  -0.01   0.01
                     49                     50                     51
                        a                      a                      a 
 Frequencies --  1190.6273              1205.4356              1238.6745
 Red. masses --     1.9598                 2.0569                 7.5734
 Frc consts  --     0.0000                 0.0000                 0.0000
 IR Inten    --     4.2624                13.7547                 5.1684
 Raman Activ --     0.0000                 0.0000                 0.0000
 Depolar     --     0.0000                 0.0000                 0.0000
 Atom AN      X      Y      Z        X      Y      Z        X      Y      Z
   1   6    -0.03   0.01  -0.02    -0.00   0.03  -0.03    -0.01  -0.08   0.12
   2   6     0.05  -0.03   0.05    -0.02  -0.05   0.07     0.05   0.19  -0.31
   3   7     0.04  -0.03   0.06     0.01   0.00   0.00     0.01  -0.02   0.01
   4   6    -0.07   0.05  -0.07    -0.01   0.00  -0.02     0.03   0.01   0.08
   5   6     0.01   0.02   0.10    -0.00   0.00   0.01     0.02  -0.02   0.01
   6   6    -0.10   0.10   0.01    -0.01   0.01   0.00     0.01  -0.02  -0.02
   7   6    -0.01   0.00  -0.02     0.00  -0.00  -0.00    -0.01   0.01  -0.01
   8   6     0.03  -0.06  -0.12     0.00  -0.01  -0.01    -0.02   0.01  -0.01
   9   6     0.06  -0.07   0.01     0.00  -0.00  -0.00     0.02  -0.01   0.01
  10   6    -0.02  -0.02   0.01     0.03   0.02  -0.03    -0.15  -0.05   0.12
  11   6    -0.00  -0.00   0.00    -0.10   0.07   0.02    -0.01   0.13  -0.07
  12   6     0.01  -0.01   0.00    -0.01   0.09  -0.04    -0.05  -0.09   0.07
  13   6    -0.00   0.00   0.00    -0.12  -0.04   0.09    -0.37  -0.17   0.31
  14   6     0.00   0.00  -0.00     0.05   0.02  -0.05     0.16   0.08  -0.15
  15   6    -0.00   0.01  -0.00     0.08  -0.07  -0.01    -0.09  -0.01   0.05
  16   6     0.00   0.01  -0.00     0.03  -0.12   0.04     0.12  -0.10  -0.01
  17   1    -0.00   0.00  -0.00    -0.00  -0.02  -0.02     0.05  -0.03   0.10
  18   1     0.00   0.01  -0.02    -0.01  -0.00  -0.00     0.04   0.00   0.02
  19   1     0.00   0.02  -0.03    -0.00   0.00  -0.00     0.01  -0.02   0.01
  20   1     0.11   0.02   0.52     0.01   0.00   0.03    -0.00  -0.00  -0.05
  21   1    -0.37   0.34  -0.19    -0.01   0.01  -0.01    -0.03   0.03  -0.03
  22   1     0.04  -0.05  -0.05     0.00  -0.00  -0.00    -0.01   0.01   0.00
  23   1    -0.06  -0.03  -0.34    -0.00  -0.00  -0.01    -0.01   0.00  -0.02
  24   1     0.33  -0.28   0.16     0.02  -0.02   0.01     0.01  -0.01   0.01
  25   1     0.01  -0.00  -0.01    -0.40   0.06   0.21     0.33   0.00  -0.19
  26   1     0.00  -0.01   0.00     0.18   0.40  -0.30     0.07   0.16  -0.11
  27   1     0.00   0.00  -0.00     0.03   0.01  -0.02     0.07   0.03  -0.05
  28   1    -0.00   0.00   0.00     0.04   0.00  -0.01     0.09   0.02  -0.06
  29   1    -0.00  -0.00   0.00     0.03   0.04  -0.02     0.08   0.07  -0.07
  30   1    -0.03   0.00   0.01     0.45  -0.06  -0.23     0.21  -0.03  -0.10
  31   1     0.02   0.05  -0.03    -0.12  -0.30   0.21     0.15   0.22  -0.18
                     52                     53                     54
                        a                      a                      a 
 Frequencies --  1262.0655              1276.2592              1283.0898
 Red. masses --     9.7773                 6.4489                 3.4535
 Frc consts  --     0.0000                 0.0000                 0.0000
 IR Inten    --    19.6392                42.8996                 1.5717
 Raman Activ --     0.0000                 0.0000                 0.0000
 Depolar     --     0.0000                 0.0000                 0.0000
 Atom AN      X      Y      Z        X      Y      Z        X      Y      Z
   1   6     0.08  -0.05   0.09     0.04   0.02  -0.06     0.02   0.02  -0.03
   2   6    -0.17   0.18  -0.28    -0.13  -0.11   0.18    -0.05   0.02   0.01
   3   7    -0.07   0.10  -0.24    -0.08   0.07  -0.07    -0.04   0.01  -0.05
   4   6     0.29  -0.19   0.42     0.23  -0.27  -0.08     0.02  -0.00   0.09
   5   6     0.06  -0.04   0.11    -0.03   0.03  -0.02     0.02  -0.01   0.04
   6   6     0.02  -0.05  -0.16    -0.10   0.09  -0.06     0.02  -0.03  -0.02
   7   6    -0.05   0.04  -0.05    -0.04   0.05   0.01    -0.00  -0.00  -0.02
   8   6    -0.13   0.13   0.01    -0.04   0.07   0.16    -0.02   0.02  -0.01
   9   6     0.11  -0.07   0.12     0.07  -0.05   0.10     0.01  -0.00   0.01
  10   6    -0.15  -0.02   0.11     0.20   0.11  -0.17     0.20  -0.24   0.02
  11   6    -0.03  -0.09   0.05     0.07   0.08  -0.08     0.10   0.00  -0.06
  12   6     0.10   0.00  -0.06    -0.12   0.00   0.07     0.01   0.12  -0.07
  13   6     0.16   0.08  -0.14    -0.17  -0.07   0.13    -0.12   0.16  -0.01
  14   6    -0.07  -0.04   0.06     0.07   0.04  -0.06     0.05  -0.05  -0.00
  15   6     0.05   0.06  -0.06    -0.03  -0.09   0.06    -0.13   0.02   0.07
  16   6    -0.08  -0.00   0.05     0.09  -0.01  -0.05    -0.03  -0.06   0.05
  17   1     0.04  -0.03   0.05    -0.04   0.03  -0.06     0.01  -0.03  -0.00
  18   1    -0.00  -0.04   0.07    -0.02  -0.01   0.01    -0.02  -0.02   0.03
  19   1    -0.00  -0.06   0.11    -0.01   0.00   0.02    -0.01  -0.02   0.03
  20   1     0.01  -0.01  -0.07     0.07   0.02   0.35    -0.01  -0.01  -0.08
  21   1    -0.14   0.11  -0.12     0.14  -0.13   0.08    -0.05   0.04  -0.04
  22   1    -0.01  -0.00  -0.03     0.08  -0.11  -0.12    -0.02   0.02   0.01
  23   1    -0.10   0.03  -0.27    -0.09   0.01  -0.34    -0.00   0.01   0.01
  24   1    -0.09   0.07  -0.01    -0.28   0.24  -0.13     0.02  -0.02   0.01
  25   1     0.00  -0.02   0.02     0.01   0.02  -0.02    -0.40   0.05   0.22
  26   1     0.03   0.00  -0.02    -0.05  -0.03   0.05    -0.16  -0.31   0.24
  27   1    -0.03  -0.01   0.02     0.02   0.01  -0.02    -0.03   0.03   0.01
  28   1    -0.04  -0.01   0.03     0.03   0.01  -0.02    -0.06  -0.00   0.02
  29   1    -0.03  -0.03   0.03     0.03   0.03  -0.03     0.04   0.04  -0.03
  30   1     0.03   0.02  -0.02    -0.04  -0.03   0.04     0.33  -0.03  -0.18
  31   1    -0.08  -0.12   0.10     0.04   0.02  -0.02     0.17   0.35  -0.26
                     55                     56                     57
                        a                      a                      a 
 Frequencies --  1284.0155              1316.8242              1320.4613
 Red. masses --     8.3241                11.4104                11.6244
 Frc consts  --     0.0000                 0.0000                 0.0000
 IR Inten    --   120.5080                 3.5228                 1.8853
 Raman Activ --     0.0000                 0.0000                 0.0000
 Depolar     --     0.0000                 0.0000                 0.0000
 Atom AN      X      Y      Z        X      Y      Z        X      Y      Z
   1   6    -0.06  -0.05   0.07    -0.00   0.01   0.00     0.02   0.00  -0.02
   2   6     0.20   0.17  -0.28    -0.00  -0.02   0.03    -0.03   0.01   0.02
   3   7     0.07  -0.07   0.19     0.02   0.00   0.00    -0.02  -0.00  -0.02
   4   6    -0.01  -0.04  -0.32    -0.19   0.24   0.21    -0.07   0.10   0.12
   5   6    -0.06   0.03  -0.12    -0.07  -0.03  -0.40    -0.03  -0.01  -0.15
   6   6    -0.08   0.10   0.06     0.20  -0.18   0.11     0.09  -0.09   0.04
   7   6    -0.02   0.03   0.06    -0.20   0.27   0.25    -0.09   0.11   0.10
   8   6     0.05  -0.03   0.09    -0.05  -0.02  -0.29    -0.03   0.00  -0.12
   9   6    -0.00  -0.00   0.01     0.27  -0.24   0.12     0.12  -0.11   0.06
  10   6    -0.21  -0.21   0.24    -0.09   0.14  -0.03     0.25  -0.31   0.03
  11   6    -0.09  -0.08   0.08     0.14  -0.02  -0.07    -0.32   0.06   0.15
  12   6     0.15   0.02  -0.10    -0.05  -0.10   0.08     0.09   0.24  -0.18
  13   6     0.16   0.09  -0.14    -0.09   0.15  -0.02     0.19  -0.36   0.07
  14   6    -0.07  -0.04   0.06     0.01  -0.03   0.01    -0.02   0.07  -0.02
  15   6    -0.01   0.12  -0.05     0.12  -0.02  -0.06    -0.30   0.02   0.16
  16   6    -0.10  -0.00   0.07    -0.05  -0.11   0.09     0.13   0.27  -0.21
  17   1     0.06  -0.05   0.10    -0.01  -0.00  -0.01    -0.00   0.01  -0.01
  18   1     0.04   0.02  -0.00    -0.01   0.00  -0.02    -0.00  -0.01   0.01
  19   1     0.01   0.01  -0.04     0.00   0.00  -0.00    -0.01  -0.01   0.02
  20   1     0.06   0.02   0.32     0.01  -0.00   0.06     0.00  -0.00  -0.00
  21   1     0.20  -0.17   0.14     0.10  -0.08   0.05     0.03  -0.02   0.01
  22   1     0.07  -0.09  -0.08     0.05  -0.07  -0.06     0.02  -0.02  -0.03
  23   1    -0.01  -0.01  -0.11    -0.02  -0.01  -0.11    -0.01  -0.00  -0.05
  24   1    -0.15   0.14  -0.08    -0.01   0.01  -0.01    -0.01   0.00  -0.00
  25   1    -0.07  -0.02   0.06    -0.01  -0.00   0.00     0.00   0.01  -0.00
  26   1     0.04  -0.00  -0.02    -0.02  -0.03   0.03     0.02   0.06  -0.04
  27   1    -0.03  -0.01   0.02    -0.02   0.02   0.00     0.04  -0.06  -0.01
  28   1    -0.04  -0.01   0.03    -0.03  -0.00   0.00     0.08   0.00  -0.01
  29   1    -0.03  -0.02   0.03     0.02   0.02  -0.02    -0.04  -0.05   0.03
  30   1     0.13   0.02  -0.09     0.03  -0.00  -0.01    -0.07   0.00   0.03
  31   1     0.00   0.08  -0.05    -0.00  -0.00   0.00     0.01   0.01  -0.01
                     58                     59                     60
                        a                      a                      a 
 Frequencies --  1380.3232              1403.3851              1405.2434
 Red. masses --     3.5084                 3.2923                 9.4490
 Frc consts  --     0.0000                 0.0000                 0.0000
 IR Inten    --    15.9555                 5.8311                 0.8823
 Raman Activ --     0.0000                 0.0000                 0.0000
 Depolar     --     0.0000                 0.0000                 0.0000
 Atom AN      X      Y      Z        X      Y      Z        X      Y      Z
   1   6     0.15  -0.24   0.35     0.01  -0.01   0.01    -0.03   0.04  -0.03
   2   6    -0.02   0.03  -0.06     0.00   0.01  -0.01     0.00  -0.06   0.03
   3   7    -0.01   0.00  -0.01    -0.00  -0.00  -0.00     0.04   0.00   0.01
   4   6     0.01  -0.00   0.01     0.00  -0.00  -0.00    -0.01   0.00   0.00
   5   6     0.01   0.00   0.03    -0.00   0.00   0.00     0.00  -0.01  -0.03
   6   6     0.01  -0.01  -0.01     0.00  -0.00  -0.00    -0.02   0.02   0.00
   7   6    -0.01   0.00  -0.01    -0.00   0.00  -0.00     0.01  -0.00   0.02
   8   6    -0.01   0.01   0.01    -0.00   0.00   0.00     0.01  -0.01  -0.01
   9   6     0.02  -0.02   0.01     0.00  -0.00   0.00    -0.02   0.02  -0.02
  10   6    -0.01   0.02   0.00     0.03  -0.05   0.01    -0.18   0.29  -0.06
  11   6    -0.03  -0.03   0.03     0.02   0.02  -0.02    -0.17  -0.22   0.21
  12   6     0.04   0.01  -0.03    -0.04   0.01   0.02     0.29   0.08  -0.21
  13   6    -0.01   0.04  -0.01     0.06  -0.02  -0.02    -0.17   0.27  -0.03
  14   6     0.01  -0.01   0.00    -0.28  -0.15   0.30     0.03  -0.11   0.04
  15   6    -0.04  -0.02   0.03     0.04   0.02  -0.03    -0.22  -0.20   0.22
  16   6     0.03  -0.01  -0.02    -0.05   0.01   0.02     0.29   0.02  -0.18
  17   1    -0.28   0.26  -0.28    -0.00   0.01  -0.00     0.02  -0.04   0.02
  18   1    -0.12   0.07  -0.50    -0.01  -0.00  -0.01     0.02  -0.00   0.06
  19   1    -0.06   0.41  -0.31    -0.01   0.01  -0.00     0.03  -0.06   0.01
  20   1    -0.00  -0.00  -0.02    -0.00   0.00  -0.00     0.01  -0.00   0.02
  21   1    -0.01   0.01  -0.01    -0.00   0.00  -0.00     0.02  -0.02   0.01
  22   1    -0.00   0.00  -0.00    -0.00   0.00  -0.00     0.01  -0.01  -0.00
  23   1    -0.01   0.00  -0.02    -0.00   0.00  -0.00     0.01  -0.00   0.01
  24   1    -0.01   0.01  -0.01    -0.00   0.00  -0.00     0.02  -0.02   0.01
  25   1    -0.01  -0.01   0.01    -0.03   0.01   0.02     0.17  -0.09  -0.06
  26   1    -0.00  -0.03   0.02    -0.01   0.00   0.00    -0.03  -0.21   0.12
  27   1    -0.01   0.01   0.00     0.46   0.27  -0.15    -0.00   0.13  -0.01
  28   1    -0.02  -0.00   0.01     0.25   0.03  -0.45    -0.05   0.01  -0.08
  29   1     0.00   0.00   0.00     0.15   0.22  -0.39     0.06   0.07  -0.05
  30   1     0.04  -0.01  -0.02    -0.04   0.01   0.02     0.20  -0.09  -0.08
  31   1     0.01  -0.01   0.00    -0.01   0.02  -0.00     0.00  -0.17   0.08
                     61                     62                     63
                        a                      a                      a 
 Frequencies --  1434.3197              1456.5623              1465.3430
 Red. masses --     9.0180                 2.2102                 4.6680
 Frc consts  --     0.0000                 0.0000                 0.0000
 IR Inten    --     6.1966                 8.6242                12.8574
 Raman Activ --     0.0000                 0.0000                 0.0000
 Depolar     --     0.0000                 0.0000                 0.0000
 Atom AN      X      Y      Z        X      Y      Z        X      Y      Z
   1   6     0.00   0.02   0.00     0.15  -0.06  -0.15     0.08   0.12   0.11
   2   6     0.01  -0.01   0.02    -0.05  -0.02  -0.01    -0.05   0.06  -0.04
   3   7     0.02  -0.02  -0.04     0.06  -0.01   0.01    -0.01   0.02  -0.05
   4   6    -0.18   0.23   0.23     0.05  -0.03   0.07     0.16  -0.10   0.21
   5   6     0.22  -0.18   0.15     0.01  -0.03  -0.09     0.00  -0.06  -0.20
   6   6    -0.20   0.13  -0.32    -0.07   0.07  -0.01    -0.15   0.15  -0.00
   7   6    -0.12   0.16   0.16     0.04  -0.02   0.06     0.09  -0.07   0.11
   8   6     0.22  -0.15   0.30     0.01  -0.03  -0.08    -0.00  -0.05  -0.20
   9   6    -0.09   0.02  -0.31    -0.07   0.07  -0.01    -0.14   0.15   0.00
  10   6     0.01  -0.01  -0.01    -0.01   0.01  -0.00    -0.03  -0.02   0.02
  11   6     0.00   0.00  -0.00     0.01  -0.00   0.00     0.05  -0.00  -0.03
  12   6    -0.01  -0.00   0.00     0.01   0.01  -0.01    -0.02   0.04  -0.01
  13   6     0.01  -0.01  -0.00    -0.02   0.00   0.01    -0.01  -0.05   0.03
  14   6    -0.00   0.00   0.00     0.01  -0.00  -0.00    -0.01   0.02  -0.01
  15   6     0.00   0.01  -0.01     0.01  -0.01   0.00     0.01   0.00  -0.01
  16   6    -0.01  -0.00   0.01     0.01   0.01  -0.01    -0.00   0.01  -0.01
  17   1    -0.01  -0.02  -0.02     0.27   0.09   0.32    -0.10  -0.48  -0.23
  18   1    -0.01  -0.00   0.00    -0.41  -0.12  -0.18    -0.30  -0.16   0.20
  19   1     0.01  -0.01  -0.01    -0.48   0.32   0.38     0.12   0.11  -0.27
  20   1     0.03  -0.06  -0.13     0.03  -0.00   0.08     0.06  -0.01   0.17
  21   1     0.16  -0.16   0.02     0.05  -0.05   0.04     0.10  -0.09   0.08
  22   1     0.17  -0.23  -0.21     0.01  -0.01   0.01     0.02  -0.01   0.05
  23   1    -0.00  -0.05  -0.21     0.02  -0.01   0.07     0.05  -0.01   0.16
  24   1     0.11  -0.11  -0.02     0.05  -0.05   0.04     0.11  -0.09   0.08
  25   1    -0.00   0.00   0.00     0.00  -0.01  -0.01    -0.01  -0.00   0.00
  26   1     0.00   0.00  -0.00    -0.00  -0.01   0.01    -0.01  -0.01   0.01
  27   1     0.00  -0.00  -0.00    -0.01   0.01   0.00     0.02  -0.05  -0.00
  28   1     0.00  -0.00   0.00     0.00   0.00  -0.00     0.02  -0.01   0.03
  29   1    -0.00  -0.00  -0.00     0.00   0.00   0.01     0.00   0.00  -0.03
  30   1    -0.00   0.00   0.00    -0.01  -0.00   0.00    -0.02   0.00   0.01
  31   1     0.00   0.01  -0.00    -0.00  -0.01   0.01    -0.01  -0.01   0.01
                     64                     65                     66
                        a                      a                      a 
 Frequencies --  1467.5802              1478.4934              1481.7869
 Red. masses --     5.4079                 1.7331                 2.0351
 Frc consts  --     0.0000                 0.0000                 0.0000
 IR Inten    --    20.8424                 3.9143                 3.8174
 Raman Activ --     0.0000                 0.0000                 0.0000
 Depolar     --     0.0000                 0.0000                 0.0000
 Atom AN      X      Y      Z        X      Y      Z        X      Y      Z
   1   6    -0.10  -0.11   0.01    -0.00  -0.00  -0.01    -0.01  -0.01  -0.00
   2   6    -0.06   0.00  -0.02    -0.00  -0.01   0.01     0.01  -0.00  -0.01
   3   7    -0.05   0.03  -0.08     0.00   0.00   0.00     0.01  -0.00   0.01
   4   6     0.18  -0.11   0.26    -0.01   0.00  -0.01    -0.01   0.01  -0.02
   5   6     0.01  -0.07  -0.22    -0.00   0.00   0.00    -0.00   0.01   0.01
   6   6    -0.17   0.17  -0.02     0.01  -0.01   0.00     0.01  -0.01   0.00
   7   6     0.10  -0.07   0.13    -0.00   0.00  -0.01    -0.01   0.00  -0.01
   8   6     0.00  -0.06  -0.22    -0.00   0.00   0.01     0.00   0.00   0.02
   9   6    -0.17   0.17  -0.00     0.00  -0.00   0.00     0.01  -0.01  -0.00
  10   6     0.02  -0.01   0.00    -0.02   0.08  -0.03    -0.10   0.05   0.03
  11   6     0.01   0.00  -0.01    -0.00  -0.02   0.01     0.07  -0.07  -0.00
  12   6    -0.01   0.00   0.01     0.01   0.00  -0.01     0.03   0.10  -0.06
  13   6     0.00  -0.01   0.00     0.03   0.03   0.01    -0.06  -0.01   0.01
  14   6    -0.00   0.00   0.00     0.03   0.19   0.11    -0.19   0.05  -0.07
  15   6     0.01   0.00  -0.00    -0.06   0.01   0.02     0.03  -0.02  -0.00
  16   6    -0.01   0.00   0.00     0.02  -0.06   0.02     0.02   0.01  -0.02
  17   1    -0.03   0.42   0.06     0.01   0.01   0.01     0.01   0.03   0.02
  18   1     0.41   0.19  -0.14     0.00   0.00  -0.01     0.02   0.01  -0.02
  19   1     0.07  -0.21   0.10    -0.01   0.00   0.01    -0.01  -0.01   0.02
  20   1     0.06  -0.01   0.18    -0.00   0.00  -0.00    -0.00   0.00  -0.01
  21   1     0.12  -0.10   0.09    -0.00   0.00  -0.00    -0.01   0.01  -0.01
  22   1     0.03  -0.02   0.04    -0.00   0.00  -0.00    -0.00   0.00  -0.00
  23   1     0.05  -0.01   0.17    -0.00   0.00  -0.00    -0.00   0.00  -0.01
  24   1     0.12  -0.11   0.09    -0.00   0.00  -0.00    -0.01   0.01  -0.01
  25   1    -0.04   0.01   0.03     0.02  -0.01  -0.01    -0.04  -0.01   0.03
  26   1    -0.00   0.00   0.00     0.00  -0.00  -0.00    -0.04  -0.08   0.06
  27   1     0.01  -0.01  -0.00     0.40  -0.40  -0.08     0.05  -0.47   0.02
  28   1     0.00  -0.00   0.00    -0.34   0.03   0.19     0.49  -0.16   0.43
  29   1    -0.00  -0.00  -0.01    -0.15  -0.38  -0.53     0.22   0.39  -0.13
  30   1    -0.00   0.00   0.00     0.05  -0.00  -0.03    -0.03  -0.00   0.02
  31   1     0.00   0.01   0.00     0.02   0.01  -0.01    -0.02  -0.04   0.02
                     67                     68                     69
                        a                      a                      a 
 Frequencies --  1492.8464              1568.1321              1570.8356
 Red. masses --     9.1902                11.4134                11.3961
 Frc consts  --     0.0000                 0.0000                 0.0000
 IR Inten    --     0.7975                 2.9164                 1.2645
 Raman Activ --     0.0000                 0.0000                 0.0000
 Depolar     --     0.0000                 0.0000                 0.0000
 Atom AN      X      Y      Z        X      Y      Z        X      Y      Z
   1   6     0.01   0.01  -0.01     0.00  -0.01  -0.00    -0.01  -0.00   0.00
   2   6    -0.05  -0.04   0.07    -0.00   0.01  -0.01     0.01  -0.02   0.00
   3   7    -0.03   0.01  -0.01    -0.02   0.01   0.01     0.02   0.01   0.01
   4   6     0.02  -0.02   0.03     0.20  -0.26  -0.25     0.06  -0.08  -0.09
   5   6    -0.00  -0.01  -0.02    -0.02   0.10   0.31    -0.02   0.04   0.08
   6   6    -0.02   0.02  -0.00     0.16  -0.20  -0.13     0.07  -0.08  -0.02
   7   6     0.01  -0.01   0.01    -0.26   0.35   0.35    -0.08   0.11   0.09
   8   6    -0.00  -0.00  -0.03     0.07  -0.15  -0.31     0.03  -0.05  -0.07
   9   6    -0.01   0.01   0.01    -0.18   0.20   0.06    -0.07   0.07   0.00
  10   6     0.27   0.17  -0.24     0.08  -0.10   0.02    -0.26   0.37  -0.05
  11   6    -0.29   0.10   0.12    -0.08   0.05   0.02     0.28  -0.17  -0.07
  12   6     0.01  -0.23   0.11     0.02  -0.09   0.03    -0.08   0.28  -0.10
  13   6     0.29   0.13  -0.25    -0.08   0.13  -0.02     0.28  -0.44   0.06
  14   6    -0.13  -0.05   0.05     0.00  -0.01   0.00    -0.01   0.03  -0.01
  15   6    -0.23   0.15   0.06     0.07  -0.06  -0.01    -0.25   0.19   0.05
  16   6    -0.06  -0.32   0.19    -0.01   0.08  -0.03     0.05  -0.26   0.10
  17   1    -0.01  -0.02  -0.02    -0.00  -0.01  -0.00     0.01   0.01   0.01
  18   1    -0.03  -0.02   0.02    -0.00  -0.01   0.01     0.01   0.01  -0.01
  19   1    -0.00   0.01  -0.00     0.00   0.01  -0.01    -0.00  -0.00   0.01
  20   1     0.01  -0.00   0.02    -0.04   0.02  -0.08    -0.01   0.01  -0.02
  21   1     0.01  -0.01   0.01    -0.01  -0.00  -0.07    -0.01   0.01  -0.02
  22   1     0.00   0.00   0.01     0.08  -0.10  -0.09     0.02  -0.03  -0.03
  23   1     0.00   0.00   0.02     0.05  -0.04   0.06     0.01  -0.01   0.01
  24   1     0.01  -0.01   0.01     0.04  -0.03   0.06     0.01  -0.01   0.02
  25   1     0.20  -0.00  -0.13     0.02   0.01  -0.02    -0.08  -0.03   0.06
  26   1     0.10   0.13  -0.12     0.02   0.01  -0.01    -0.06  -0.02   0.04
  27   1    -0.04  -0.07   0.02     0.00  -0.02   0.00    -0.01   0.07  -0.00
  28   1     0.11  -0.04   0.08    -0.01  -0.01   0.03     0.02   0.02  -0.09
  29   1     0.04   0.10   0.04     0.01   0.01  -0.03    -0.04  -0.04   0.08
  30   1     0.18   0.02  -0.12    -0.01  -0.01   0.01     0.05   0.04  -0.05
  31   1     0.12   0.17  -0.14    -0.02  -0.01   0.01     0.06   0.03  -0.05
                     70                     71                     72
                        a                      a                      a 
 Frequencies --  1593.2354              1601.3650              1706.1980
 Red. masses --    11.4702                11.4795                12.7376
 Frc consts  --     0.0000                 0.0000                 0.0000
 IR Inten    --    82.3205                45.6545               274.5982
 Raman Activ --     0.0000                 0.0000                 0.0000
 Depolar     --     0.0000                 0.0000                 0.0000
 Atom AN      X      Y      Z        X      Y      Z        X      Y      Z
   1   6    -0.00  -0.00   0.00     0.01  -0.01   0.01     0.04  -0.02   0.03
   2   6     0.07   0.00  -0.00    -0.06   0.00  -0.00    -0.70   0.08  -0.12
   3   7    -0.08   0.01  -0.03     0.03  -0.00   0.01     0.63  -0.10   0.18
   4   6     0.15  -0.10   0.16     0.04  -0.03   0.03    -0.04   0.03  -0.08
   5   6    -0.18   0.08  -0.36    -0.04   0.02  -0.09    -0.02   0.01  -0.04
   6   6     0.31  -0.25   0.25     0.08  -0.06   0.06     0.03  -0.03   0.03
   7   6    -0.13   0.10  -0.14    -0.03   0.03  -0.03    -0.01   0.01  -0.02
   8   6     0.17  -0.07   0.40     0.04  -0.02   0.10     0.02  -0.01   0.05
   9   6    -0.28   0.23  -0.26    -0.07   0.06  -0.07    -0.05   0.03  -0.04
  10   6    -0.02  -0.04   0.03     0.15   0.08  -0.13     0.03  -0.01   0.00
  11   6     0.06   0.03  -0.05    -0.32  -0.06   0.22     0.05   0.01  -0.03
  12   6    -0.05  -0.08   0.07     0.23   0.29  -0.28    -0.03  -0.03   0.03
  13   6     0.04   0.05  -0.05    -0.21  -0.13   0.19     0.02   0.01  -0.02
  14   6    -0.01  -0.01   0.01     0.04   0.02  -0.03    -0.00  -0.00   0.00
  15   6    -0.08  -0.02   0.06     0.38   0.05  -0.25    -0.03  -0.01   0.02
  16   6     0.05   0.07  -0.06    -0.24  -0.24   0.25     0.01   0.03  -0.03
  17   1     0.00  -0.00   0.00    -0.01   0.00  -0.01    -0.04   0.02  -0.05
  18   1    -0.01  -0.00  -0.01     0.00  -0.00   0.00     0.03   0.00   0.04
  19   1    -0.01   0.01  -0.00     0.00  -0.00   0.00     0.03  -0.06   0.02
  20   1    -0.00   0.03   0.08    -0.00   0.01   0.02    -0.01   0.00   0.01
  21   1    -0.08   0.08  -0.03    -0.02   0.02  -0.01    -0.01   0.01   0.00
  22   1    -0.02   0.01  -0.05    -0.00   0.00  -0.01    -0.00  -0.00  -0.00
  23   1    -0.00  -0.02  -0.11     0.00  -0.01  -0.02     0.00  -0.00  -0.01
  24   1     0.07  -0.07   0.01     0.02  -0.02   0.00     0.01  -0.01  -0.00
  25   1    -0.01   0.01   0.00     0.07  -0.03  -0.03    -0.01   0.00   0.00
  26   1     0.01   0.03  -0.02    -0.03  -0.10   0.06     0.00   0.01  -0.00
  27   1    -0.00  -0.01   0.00     0.01   0.02  -0.01    -0.00  -0.00   0.00
  28   1     0.00  -0.00   0.01    -0.02   0.01  -0.03    -0.00   0.00   0.00
  29   1     0.00   0.01  -0.00    -0.01  -0.02  -0.01    -0.00  -0.00  -0.00
  30   1     0.03  -0.01  -0.01    -0.10   0.03   0.05     0.00  -0.00   0.00
  31   1    -0.00  -0.02   0.01     0.01   0.08  -0.04    -0.00  -0.00   0.01
                     73                     74                     75
                        a                      a                      a 
 Frequencies --  2994.5636              3007.3368              3026.8145
 Red. masses --     1.8157                 1.8440                 1.5630
 Frc consts  --     0.0000                 0.0000                 0.0000
 IR Inten    --    25.2799                12.6673                18.1791
 Raman Activ --     0.0000                 0.0000                 0.0000
 Depolar     --     0.0000                 0.0000                 0.0000
 Atom AN      X      Y      Z        X      Y      Z        X      Y      Z
   1   6    -0.00  -0.00   0.00    -0.05   0.25   0.10    -0.19  -0.06  -0.11
   2   6     0.00   0.00   0.00    -0.00   0.01  -0.00    -0.01   0.00  -0.00
   3   7    -0.00  -0.00  -0.00     0.00  -0.00   0.00     0.00  -0.00  -0.00
   4   6     0.00  -0.00   0.00    -0.00  -0.00  -0.00    -0.00   0.00   0.00
   5   6     0.00  -0.00  -0.00     0.00  -0.00  -0.00     0.00  -0.00  -0.00
   6   6     0.00  -0.00  -0.00     0.00  -0.00  -0.00     0.00  -0.00  -0.00
   7   6    -0.00   0.00  -0.00    -0.00   0.00  -0.00    -0.00   0.00  -0.00
   8   6    -0.00   0.00   0.00    -0.00   0.00  -0.00    -0.00   0.00   0.00
   9   6    -0.00   0.00   0.00     0.00  -0.00  -0.00    -0.00   0.00   0.00
  10   6     0.00   0.00  -0.00    -0.00   0.00   0.00    -0.00   0.00   0.00
  11   6    -0.00   0.00  -0.00     0.00  -0.01   0.00     0.00  -0.01   0.00
  12   6     0.00   0.00  -0.00    -0.00   0.00   0.00    -0.00   0.00   0.00
  13   6    -0.00  -0.00   0.01    -0.00  -0.00   0.00     0.00   0.00  -0.00
  14   6     0.10   0.06   0.24     0.00   0.00   0.00     0.00   0.03   0.00
  15   6     0.00   0.00  -0.00    -0.00  -0.00   0.00    -0.00  -0.00   0.00
  16   6    -0.00  -0.00   0.00     0.00  -0.00  -0.00     0.00   0.00  -0.00
  17   1     0.00   0.00  -0.00     0.04   0.04  -0.02    -0.07  -0.02   0.03
  18   1    -0.00   0.00   0.00     0.34  -0.83  -0.24     0.06  -0.24  -0.08
  19   1    -0.00  -0.00  -0.00    -0.19  -0.09  -0.10     0.67   0.48   0.43
  20   1    -0.00   0.00   0.00    -0.00   0.00   0.00     0.00  -0.00  -0.00
  21   1    -0.00   0.00   0.00    -0.00   0.00   0.00    -0.00   0.00   0.00
  22   1     0.00  -0.00   0.00     0.00  -0.00   0.00     0.00  -0.00   0.00
  23   1     0.00  -0.00  -0.00     0.00  -0.00   0.00     0.00  -0.00  -0.00
  24   1     0.00  -0.00  -0.00    -0.00   0.00   0.00     0.00  -0.00  -0.00
  25   1     0.00  -0.00   0.00    -0.00   0.03  -0.01    -0.00   0.02  -0.01
  26   1    -0.00   0.00   0.00     0.00  -0.00  -0.00     0.00  -0.00  -0.00
  27   1    -0.29  -0.08  -0.90    -0.00  -0.00  -0.00     0.01   0.01   0.02
  28   1    -0.01  -0.17   0.00    -0.00  -0.00  -0.00    -0.02  -0.10  -0.02
  29   1    -0.05   0.05   0.03    -0.00   0.00  -0.00    -0.00   0.00   0.00
  30   1     0.00  -0.01   0.00    -0.00   0.00  -0.00    -0.00   0.00  -0.00
  31   1    -0.00   0.00   0.00    -0.00   0.00   0.00    -0.00   0.00   0.00
                     76                     77                     78
                        a                      a                      a 
 Frequencies --  3027.3939              3039.2793              3057.2701
 Red. masses --     1.6746                 1.6486                 1.7430
 Frc consts  --     0.0000                 0.0000                 0.0000
 IR Inten    --    25.1021                25.7211                18.4076
 Raman Activ --     0.0000                 0.0000                 0.0000
 Depolar     --     0.0000                 0.0000                 0.0000
 Atom AN      X      Y      Z        X      Y      Z        X      Y      Z
   1   6     0.02   0.01   0.01    -0.00  -0.00  -0.00     0.21   0.05  -0.14
   2   6     0.00  -0.00   0.00     0.00   0.00  -0.00     0.01   0.00  -0.01
   3   7    -0.00   0.00   0.00    -0.00   0.00  -0.00    -0.00  -0.00   0.00
   4   6    -0.00   0.00  -0.00     0.00  -0.00   0.00     0.00  -0.00   0.00
   5   6    -0.00   0.00   0.00    -0.00  -0.00  -0.00     0.01  -0.01  -0.00
   6   6    -0.00   0.00   0.00     0.00  -0.00  -0.00    -0.00   0.00   0.01
   7   6     0.00  -0.00   0.00    -0.00  -0.00  -0.00    -0.00   0.00  -0.00
   8   6     0.00  -0.00  -0.00    -0.00   0.00   0.00     0.00  -0.00  -0.00
   9   6     0.00  -0.00  -0.00    -0.00   0.00   0.00    -0.00   0.00   0.00
  10   6     0.00  -0.00   0.00     0.00   0.00  -0.00    -0.00  -0.00   0.00
  11   6    -0.00   0.00  -0.00    -0.00   0.00  -0.00    -0.00   0.00  -0.00
  12   6     0.00  -0.00  -0.00     0.02  -0.01  -0.00     0.00  -0.00  -0.00
  13   6     0.00   0.01  -0.00    -0.01   0.00   0.00     0.00   0.00  -0.00
  14   6     0.01   0.24   0.01    -0.21   0.11  -0.01    -0.00  -0.00   0.00
  15   6    -0.00  -0.01   0.01     0.00  -0.01   0.00    -0.00   0.00  -0.00
  16   6    -0.00   0.00  -0.00    -0.00   0.00   0.00    -0.00   0.00   0.00
  17   1     0.01   0.00  -0.00     0.00   0.00  -0.00    -0.75  -0.11   0.58
  18   1    -0.01   0.03   0.01     0.00  -0.00  -0.00     0.04  -0.03  -0.03
  19   1    -0.07  -0.05  -0.05     0.01   0.00   0.00    -0.03  -0.04  -0.05
  20   1     0.00  -0.00  -0.00    -0.00   0.00   0.00    -0.02   0.02   0.00
  21   1     0.00  -0.00  -0.00    -0.00   0.00   0.00     0.00  -0.01  -0.03
  22   1    -0.00   0.00  -0.00    -0.00   0.00  -0.00     0.01  -0.00   0.01
  23   1    -0.00   0.00   0.00     0.00  -0.00  -0.00    -0.01   0.01   0.00
  24   1    -0.00   0.00   0.00     0.00  -0.00  -0.00     0.00  -0.00  -0.01
  25   1     0.00  -0.01   0.00     0.00  -0.01   0.00     0.00  -0.01   0.01
  26   1    -0.01   0.01   0.00    -0.05   0.03   0.01    -0.01   0.01   0.00
  27   1     0.05   0.05   0.17    -0.06   0.01  -0.09    -0.00  -0.00  -0.00
  28   1    -0.14  -0.91  -0.19    -0.02   0.07   0.01     0.00   0.00   0.00
  29   1     0.06  -0.00   0.01     0.82  -0.48   0.11     0.00  -0.00   0.00
  30   1    -0.00   0.04  -0.02    -0.00   0.02  -0.01     0.00  -0.01   0.00
  31   1     0.00  -0.00  -0.00     0.00  -0.00  -0.00     0.00  -0.00  -0.00
                     79                     80                     81
                        a                      a                      a 
 Frequencies --  3059.0546              3063.6114              3066.6071
 Red. masses --     1.7587                 1.7684                 1.7929
 Frc consts  --     0.0000                 0.0000                 0.0000
 IR Inten    --    17.7368                11.3241                36.2576
 Raman Activ --     0.0000                 0.0000                 0.0000
 Depolar     --     0.0000                 0.0000                 0.0000
 Atom AN      X      Y      Z        X      Y      Z        X      Y      Z
   1   6     0.01   0.00  -0.01     0.00   0.00  -0.00     0.01  -0.00  -0.00
   2   6     0.00  -0.00   0.00     0.00  -0.00  -0.00     0.00   0.00  -0.00
   3   7    -0.00  -0.00  -0.00    -0.00   0.00  -0.00    -0.00  -0.00   0.00
   4   6    -0.00   0.00  -0.00     0.00  -0.00  -0.00     0.00   0.00   0.00
   5   6    -0.11   0.12   0.02     0.03  -0.04  -0.01     0.00  -0.00  -0.00
   6   6     0.03  -0.08  -0.18     0.00  -0.00   0.00    -0.00   0.00   0.00
   7   6     0.03  -0.02   0.04     0.05  -0.03   0.07    -0.00   0.00  -0.00
   8   6    -0.01   0.01   0.00    -0.16   0.16   0.03     0.00  -0.00  -0.00
   9   6    -0.00   0.00   0.01     0.01  -0.03  -0.07    -0.00   0.00   0.00
  10   6    -0.00  -0.00   0.00    -0.00  -0.00   0.00     0.00  -0.00   0.00
  11   6    -0.00   0.00  -0.00     0.00  -0.00   0.00     0.01  -0.08   0.03
  12   6    -0.00   0.00   0.00    -0.00   0.00   0.00    -0.20   0.13   0.05
  13   6    -0.00  -0.00   0.00    -0.00   0.00   0.00    -0.01   0.00   0.00
  14   6     0.00  -0.00  -0.00     0.00   0.00  -0.00    -0.01   0.01  -0.00
  15   6     0.00  -0.00   0.00    -0.00   0.00   0.00    -0.00   0.05  -0.02
  16   6    -0.00   0.00   0.00     0.00  -0.00  -0.00     0.02  -0.01  -0.01
  17   1    -0.03  -0.00   0.03    -0.01  -0.00   0.01    -0.01  -0.00   0.01
  18   1     0.00  -0.00  -0.00    -0.00   0.00   0.00    -0.01   0.02   0.00
  19   1    -0.00  -0.00  -0.00    -0.00  -0.00  -0.00    -0.01  -0.01  -0.01
  20   1     0.40  -0.43  -0.07    -0.12   0.12   0.02    -0.00   0.00   0.00
  21   1    -0.11   0.28   0.66    -0.00  -0.00  -0.00     0.00  -0.00  -0.00
  22   1    -0.12   0.07  -0.17    -0.19   0.12  -0.28     0.00  -0.00   0.01
  23   1     0.03  -0.03  -0.01     0.56  -0.59  -0.11    -0.00   0.00   0.00
  24   1     0.00  -0.01  -0.02    -0.05   0.12   0.28     0.00  -0.00  -0.00
  25   1     0.00  -0.01   0.00    -0.00   0.00  -0.00    -0.04   0.30  -0.12
  26   1     0.01  -0.01  -0.00     0.00  -0.00  -0.00     0.71  -0.48  -0.18
  27   1     0.00  -0.00   0.00     0.00   0.00   0.00    -0.00   0.00  -0.00
  28   1     0.00   0.00   0.00    -0.00  -0.00  -0.00    -0.01  -0.02  -0.00
  29   1    -0.00   0.00  -0.00    -0.00   0.00  -0.00     0.06  -0.03   0.01
  30   1    -0.00   0.02  -0.01    -0.00  -0.00   0.00     0.02  -0.18   0.08
  31   1     0.01  -0.01  -0.00    -0.00   0.00   0.00    -0.07   0.05   0.02
                     82                     83                     84
                        a                      a                      a 
 Frequencies --  3070.1278              3070.3585              3078.5837
 Red. masses --     1.8214                 1.8156                 1.8527
 Frc consts  --     0.0000                 0.0000                 0.0000
 IR Inten    --    75.0320                63.0022               115.0199
 Raman Activ --     0.0000                 0.0000                 0.0000
 Depolar     --     0.0000                 0.0000                 0.0000
 Atom AN      X      Y      Z        X      Y      Z        X      Y      Z
   1   6     0.00   0.00  -0.00     0.00  -0.00  -0.00     0.00  -0.00  -0.00
   2   6    -0.00   0.00   0.00     0.00  -0.00  -0.00     0.00  -0.00  -0.00
   3   7     0.00  -0.00   0.00    -0.00   0.00  -0.00    -0.00   0.00   0.00
   4   6    -0.00   0.00  -0.01     0.00  -0.00   0.01    -0.00   0.00  -0.00
   5   6    -0.10   0.11   0.02     0.10  -0.10  -0.02     0.03  -0.03  -0.00
   6   6    -0.02   0.04   0.10     0.01  -0.04  -0.08     0.01  -0.03  -0.08
   7   6    -0.04   0.02  -0.06     0.03  -0.02   0.05    -0.08   0.05  -0.11
   8   6    -0.04   0.04   0.01     0.03  -0.03  -0.01     0.02  -0.02  -0.00
   9   6     0.00  -0.01  -0.01    -0.01   0.01   0.02     0.03  -0.08  -0.19
  10   6    -0.00   0.00   0.00    -0.00   0.00   0.00     0.00   0.00  -0.00
  11   6     0.00  -0.01   0.00     0.00  -0.02   0.01     0.00  -0.00   0.00
  12   6    -0.03   0.02   0.01    -0.03   0.02   0.01     0.00  -0.00  -0.00
  13   6    -0.00  -0.00   0.00    -0.00  -0.00   0.01    -0.00  -0.00   0.00
  14   6     0.00  -0.01   0.00     0.00  -0.01   0.00     0.00  -0.00   0.00
  15   6     0.02  -0.14   0.06     0.02  -0.15   0.07     0.00  -0.02   0.01
  16   6    -0.07   0.04   0.02    -0.07   0.04   0.02     0.02  -0.01  -0.00
  17   1    -0.01  -0.00   0.01    -0.00  -0.00   0.00    -0.01  -0.00   0.01
  18   1     0.00  -0.00  -0.00    -0.00   0.00   0.00    -0.00   0.00   0.00
  19   1    -0.00  -0.00  -0.00    -0.00  -0.00  -0.00     0.00  -0.00  -0.00
  20   1     0.34  -0.36  -0.06    -0.34   0.36   0.06    -0.10   0.10   0.02
  21   1     0.06  -0.14  -0.33    -0.05   0.12   0.28    -0.05   0.11   0.27
  22   1     0.14  -0.09   0.20    -0.12   0.08  -0.18     0.27  -0.17   0.40
  23   1     0.13  -0.14  -0.02    -0.11   0.12   0.02    -0.05   0.06   0.01
  24   1    -0.01   0.02   0.06     0.02  -0.04  -0.09    -0.11   0.28   0.67
  25   1    -0.01   0.04  -0.02    -0.01   0.06  -0.03    -0.00   0.02  -0.01
  26   1     0.11  -0.08  -0.03     0.12  -0.08  -0.03    -0.00   0.00   0.00
  27   1    -0.00  -0.00  -0.01    -0.00  -0.00  -0.01    -0.00  -0.00  -0.00
  28   1     0.00   0.02   0.00     0.00   0.02   0.00     0.00   0.00   0.00
  29   1    -0.00   0.00  -0.00    -0.01   0.00  -0.00    -0.00   0.00  -0.00
  30   1    -0.06   0.52  -0.22    -0.07   0.56  -0.23    -0.01   0.06  -0.02
  31   1     0.25  -0.17  -0.06     0.25  -0.17  -0.06    -0.05   0.04   0.01
                     85                     86                     87
                        a                      a                      a 
 Frequencies --  3083.6479              3085.6281              3086.0105
 Red. masses --     1.8632                 1.8641                 1.9088
 Frc consts  --     0.0000                 0.0000                 0.0000
 IR Inten    --   124.4856                 5.4685                41.9151
 Raman Activ --     0.0000                 0.0000                 0.0000
 Depolar     --     0.0000                 0.0000                 0.0000
 Atom AN      X      Y      Z        X      Y      Z        X      Y      Z
   1   6     0.01  -0.00  -0.00     0.00  -0.00  -0.00    -0.00   0.00  -0.00
   2   6     0.00  -0.00   0.00    -0.00  -0.00   0.00    -0.00   0.00  -0.00
   3   7    -0.00   0.00  -0.00     0.00  -0.00   0.00     0.00  -0.00   0.00
   4   6    -0.00   0.00  -0.00    -0.00  -0.00  -0.00    -0.00   0.00  -0.01
   5   6    -0.01   0.01   0.00     0.00  -0.00  -0.00    -0.03   0.04   0.01
   6   6    -0.00   0.01   0.02     0.00  -0.00  -0.01    -0.01   0.03   0.08
   7   6     0.02  -0.01   0.03    -0.01   0.01  -0.01     0.09  -0.06   0.14
   8   6     0.01  -0.01  -0.00    -0.01   0.01   0.00     0.09  -0.09  -0.02
   9   6     0.00  -0.00  -0.01    -0.00   0.00   0.00     0.02  -0.06  -0.14
  10   6     0.00  -0.00  -0.00    -0.01  -0.00   0.01    -0.00  -0.00   0.00
  11   6     0.02  -0.13   0.06     0.03  -0.19   0.08    -0.00   0.01  -0.00
  12   6     0.04  -0.03  -0.01     0.07  -0.05  -0.02    -0.00   0.00   0.00
  13   6    -0.00   0.00   0.00     0.00   0.00  -0.00     0.00  -0.00  -0.00
  14   6     0.00  -0.00   0.00     0.00  -0.00  -0.00    -0.00   0.00   0.00
  15   6     0.01  -0.10   0.04    -0.01   0.07  -0.03    -0.00   0.02  -0.01
  16   6     0.16  -0.11  -0.04    -0.11   0.08   0.03    -0.04   0.03   0.01
  17   1    -0.01  -0.00   0.01    -0.00  -0.00  -0.00    -0.00  -0.00   0.00
  18   1    -0.01   0.02   0.01    -0.01   0.02   0.01     0.00  -0.00  -0.00
  19   1    -0.01  -0.01  -0.01    -0.01  -0.01  -0.01     0.00   0.00   0.00
  20   1     0.04  -0.04  -0.01    -0.01   0.01   0.00     0.11  -0.12  -0.02
  21   1     0.01  -0.03  -0.07    -0.00   0.01   0.03     0.04  -0.10  -0.24
  22   1    -0.08   0.05  -0.11     0.03  -0.02   0.05    -0.30   0.20  -0.45
  23   1    -0.04   0.05   0.01     0.02  -0.02  -0.00    -0.28   0.30   0.05
  24   1    -0.00   0.01   0.03     0.00  -0.00  -0.01    -0.08   0.20   0.48
  25   1    -0.06   0.47  -0.20    -0.09   0.68  -0.28     0.00  -0.03   0.01
  26   1    -0.14   0.09   0.03    -0.23   0.16   0.06     0.02  -0.01  -0.00
  27   1    -0.00  -0.00  -0.00     0.00   0.00   0.00    -0.00   0.00  -0.00
  28   1     0.00   0.01   0.00    -0.00  -0.01  -0.00    -0.00  -0.00  -0.00
  29   1    -0.01   0.01  -0.00    -0.01   0.01  -0.00     0.00  -0.00   0.00
  30   1    -0.04   0.32  -0.14     0.03  -0.23   0.10     0.01  -0.05   0.02
  31   1    -0.56   0.38   0.14     0.38  -0.26  -0.10     0.14  -0.09  -0.03
