31
 energy: -42.685692845203 gnorm: 0.000177311579 xtb: 6.7.1 (edcfbbe)
C           -0.16030426062534        1.68852180810966       -2.93194658819349
C            0.27954430202990        0.95107330427928       -1.70299207113869
N            1.52528021981560        0.81595294968898       -1.51504259317999
C            2.14810230926252        0.29609770433401       -0.40296365458953
C            1.93883069559452        0.82679082557497        0.87340854107265
C            2.67276832982187        0.36540137292377        1.94806198798798
C            3.61626310720587       -0.63480682058402        1.77717407828024
C            3.83265012390682       -1.16249035742378        0.51346691825162
C            3.11805213326442       -0.69588521580187       -0.57130947216440
C           -0.78008011918227        0.40499705724266       -0.82638721084817
C           -1.93038183328686        1.13815033255075       -0.54331968995059
C           -2.90689007336436        0.62212037652544        0.28776560880266
C           -2.77679688139679       -0.64363909335598        0.84586030325490
C           -3.82721291797162       -1.20078745127202        1.75726942924598
C           -1.63432266229175       -1.38046407206707        0.55075265112262
C           -0.64826235130108       -0.86519985731622       -0.26634868709529
H            0.68766603660553        1.82837331964252       -3.59642186732672
H           -0.54865263032901        2.66842557485741       -2.65698514657221
H           -0.95001621959242        1.14149568319539       -3.44331634000446
H            1.20388781244485        1.60956411380958        1.00289106811329
H            2.50292512821813        0.78622260277999        2.92945575730641
H            4.18311580181830       -0.99765557545950        2.62217214210087
H            4.57010461084628       -1.94039237572573        0.37260176390134
H            3.28282841439048       -1.10210246161721       -1.55889285491780
H           -2.05639964286746        2.12881077277002       -0.95489299310063
H           -3.78693836125370        1.21205560988672        0.50365788045281
H           -3.50608333383693       -1.10641001375276        2.79544528827098
H           -3.99172950662055       -2.25749017972186        1.55476093548756
H           -4.76790163072180       -0.66740087832613        1.64204701476583
H           -1.51647802508446       -2.37051906846428        0.96845212636104
H            0.22643142440102       -1.45880998728384       -0.49046202509746
